MinPrincipalStrain,MaxPrincipalStrain,EqPlasticStrain,MinPrincipalStress,MaxPrincipalStress,ElemVolume,IntegrationPoint_CoordX,IntegrationPoint_CoordY,Stress_xx,Stress_yy,Stress_xy,StressTriaxility,MisesStress,ThirdInvStress
-0.003189,   0.007639,   0.006104,   -17.635532,   453.865112,   0.582331,   0.371144,   57.738537,   249.906738,   186.322845,   -233.596848,   0.314104,   462.934875,   462.178162
-0.004298,   0.009909,   0.008550,   -23.382143,   468.372559,   0.582334,   0.371144,   56.757896,   259.600769,   185.389633,   -243.061401,   0.308706,   480.490509,   479.207947
-0.005457,   0.012313,   0.011126,   -25.328074,   482.127869,   0.582334,   0.371144,   55.777256,   276.081909,   180.717896,   -249.207367,   0.307437,   495.277893,   493.817596
-0.006366,   0.014607,   0.013558,   -17.991749,   497.200226,   0.582333,   0.371144,   54.796619,   297.743408,   181.465057,   -250.949249,   0.315412,   506.435852,   505.716003
-0.006970,   0.016718,   0.015760,   -4.026787,   512.283020,   0.582333,   0.371144,   53.815979,   322.960236,   185.296005,   -248.809357,   0.329411,   514.308228,   514.272766
-0.007260,   0.018521,   0.017628,   0.000000,   526.311096,   0.582333,   0.371144,   52.835342,   347.923859,   192.261154,   -244.111160,   0.346597,   519.513123,   519.096069
-0.007366,   0.020009,   0.019164,   0.000000,   538.080017,   0.582334,   0.371144,   51.854702,   371.073669,   199.249680,   -237.879807,   0.363700,   522.704712,   520.460144
-0.007265,   0.021154,   0.020347,   0.000000,   547.787109,   0.582334,   0.371144,   50.874062,   391.960815,   206.644897,   -230.562164,   0.380627,   524.228394,   518.643250
-0.007048,   0.021975,   0.021198,   0.000000,   555.339355,   0.582331,   0.371144,   49.893421,   410.212189,   213.585464,   -222.705597,   0.396461,   524.471924,   514.275940
-0.006731,   0.022530,   0.021783,   0.000000,   561.239441,   0.582334,   0.371144,   48.912785,   426.381897,   220.290985,   -214.428223,   0.411546,   523.774719,   507.742981
-0.006344,   0.022858,   0.022138,   0.000000,   565.696899,   0.582334,   0.371144,   47.932144,   440.817902,   226.620193,   -205.775528,   0.425951,   522.311768,   499.281952
-0.005901,   0.022989,   0.022298,   0.000000,   568.909607,   0.582333,   0.371144,   46.951504,   453.703857,   232.604141,   -196.835800,   0.439737,   520.241760,   489.088226
-0.005429,   0.022965,   0.022305,   0.000000,   571.077454,   0.582333,   0.371144,   45.970867,   465.240143,   238.238480,   -187.688019,   0.452922,   517.733704,   477.363739
-0.004944,   0.022807,   0.022178,   0.000000,   572.279724,   0.582333,   0.371144,   44.990227,   475.508118,   243.425003,   -178.392227,   0.465452,   514.863586,   464.269379
-0.004458,   0.022541,   0.021943,   0.000000,   572.658875,   0.582334,   0.371144,   44.009590,   484.652344,   248.220673,   -168.975418,   0.477391,   511.721375,   449.875977
-0.003979,   0.022192,   0.021625,   0.000000,   572.330933,   0.582334,   0.371144,   43.028946,   492.822510,   252.632675,   -159.432419,   0.488778,   508.380066,   434.216125
-0.003516,   0.021775,   0.021240,   0.000000,   571.374268,   0.582331,   0.371144,   42.048309,   500.086731,   256.649536,   -149.786346,   0.499602,   504.892609,   417.330902
-0.003076,   0.021309,   0.020803,   0.000000,   569.875122,   0.582334,   0.371144,   41.067673,   506.544189,   260.299957,   -140.020264,   0.509899,   501.304962,   399.161346
-0.002661,   0.020808,   0.020330,   0.000000,   567.910400,   0.582333,   0.371144,   40.087032,   512.276672,   263.602631,   -130.114487,   0.519685,   497.660126,   379.608643
-0.002278,   0.020284,   0.019831,   0.000000,   565.551636,   0.582334,   0.371144,   39.106392,   517.355957,   266.589874,   -120.036087,   0.528983,   493.995392,   358.475983
-0.001926,   0.019750,   0.019318,   0.000000,   562.866760,   0.582333,   0.371144,   38.125751,   521.837219,   269.276703,   -109.753647,   0.537789,   490.349854,   335.497131
-0.001610,   0.019218,   0.018802,   0.000000,   559.917664,   0.582333,   0.371144,   37.145115,   525.757629,   271.686371,   -99.226974,   0.546094,   486.755951,   310.222412
-0.001330,   0.018698,   0.018295,   0.000000,   556.758667,   0.582334,   0.371144,   36.164474,   529.137085,   273.837341,   -88.400970,   0.553884,   483.238708,   281.889282
-0.001086,   0.018204,   0.017812,   0.000000,   553.310669,   0.582333,   0.371144,   35.183834,   531.854797,   275.741486,   -77.171776,   0.561178,   479.702942,   248.783554
-0.000880,   0.017751,   0.017365,   0.000000,   549.756348,   0.582333,   0.371144,   34.203197,   534.013916,   277.392426,   -65.480354,   0.567870,   476.286743,   207.955719
-0.000710,   0.017352,   0.016972,   0.000000,   546.192627,   0.582334,   0.371144,   33.222557,   535.573914,   278.781555,   -53.287540,   0.573842,   473.042419,   149.052063
-0.000579,   0.017025,   0.016648,   0.000000,   542.932861,   0.582333,   0.371144,   32.241917,   536.667603,   279.892029,   -40.595825,   0.578876,   470.198639,   -112.736954
-0.000485,   0.016781,   0.016409,   0.000000,   539.862305,   0.582333,   0.371144,   31.261278,   536.972473,   280.654480,   -27.369173,   0.582853,   467.600128,   -172.539230
-0.000429,   0.016631,   0.016261,   0.000000,   537.900818,   0.582333,   0.371144,   30.280640,   537.163574,   281.090851,   -13.759973,   0.585335,   465.975342,   -195.063034
-0.000411,   0.016580,   0.016212,   0.000000,   537.078674,   0.582333,   0.371144,   29.300001,   537.078674,   281.230988,   -0.000001,   0.586228,   465.296906,   -201.940353
-0.000429,   0.016631,   0.016261,   0.000000,   537.900818,   0.582333,   0.371144,   28.319361,   537.163574,   281.090820,   13.759972,   0.585335,   465.975342,   -195.063034
-0.000485,   0.016781,   0.016409,   0.000000,   539.862305,   0.582333,   0.371144,   27.338722,   536.972473,   280.654449,   27.369175,   0.582853,   467.600128,   -172.539230
-0.000579,   0.017025,   0.016648,   0.000000,   542.932861,   0.582333,   0.371144,   26.358082,   536.667603,   279.891998,   40.595833,   0.578876,   470.198639,   -112.735016
-0.000710,   0.017352,   0.016972,   0.000000,   546.192566,   0.582333,   0.371144,   25.377443,   535.573853,   278.781555,   53.287525,   0.573843,   473.042358,   149.051178
-0.000880,   0.017751,   0.017365,   0.000000,   549.756409,   0.582333,   0.371144,   24.396805,   534.013916,   277.392487,   65.480370,   0.567870,   476.286743,   207.955780
-0.001086,   0.018204,   0.017812,   0.000000,   553.310669,   0.582333,   0.371144,   23.416164,   531.854797,   275.741425,   77.171768,   0.561178,   479.702942,   248.783890
-0.001330,   0.018698,   0.018295,   0.000000,   556.758667,   0.582333,   0.371144,   22.435526,   529.137085,   273.837341,   88.400978,   0.553884,   483.238708,   281.889313
-0.001610,   0.019218,   0.018802,   0.000000,   559.917664,   0.582333,   0.371144,   21.454885,   525.757629,   271.686340,   99.226952,   0.546094,   486.755920,   310.222321
-0.001926,   0.019750,   0.019318,   0.000000,   562.866760,   0.582333,   0.371144,   20.474247,   521.837219,   269.276764,   109.753662,   0.537789,   490.349884,   335.496826
-0.002278,   0.020284,   0.019831,   0.000000,   565.551636,   0.582333,   0.371144,   19.493608,   517.355957,   266.589905,   120.036072,   0.528983,   493.995392,   358.475952
-0.002661,   0.020808,   0.020330,   0.000000,   567.910339,   0.582334,   0.371144,   18.512968,   512.276611,   263.602600,   130.114487,   0.519685,   497.660095,   379.608612
-0.003076,   0.021309,   0.020803,   0.000000,   569.875061,   0.582333,   0.371144,   17.532330,   506.544189,   260.299927,   140.020233,   0.509899,   501.304932,   399.161255
-0.003516,   0.021775,   0.021240,   0.000000,   571.374268,   0.582333,   0.371144,   16.551691,   500.086731,   256.649567,   149.786346,   0.499602,   504.892639,   417.330841
-0.003979,   0.022192,   0.021625,   0.000000,   572.330872,   0.582333,   0.371144,   15.571051,   492.822510,   252.632675,   159.432404,   0.488778,   508.380066,   434.216095
-0.004458,   0.022541,   0.021943,   0.000000,   572.658875,   0.582333,   0.371144,   14.590412,   484.652344,   248.220703,   168.975388,   0.477391,   511.721313,   449.875946
-0.004944,   0.022807,   0.022178,   0.000000,   572.279663,   0.582333,   0.371144,   13.609773,   475.508118,   243.424988,   178.392212,   0.465452,   514.863525,   464.269348
-0.005429,   0.022965,   0.022305,   0.000000,   571.077454,   0.582333,   0.371144,   12.629134,   465.240173,   238.238510,   187.687988,   0.452922,   517.733704,   477.363647
-0.005901,   0.022989,   0.022298,   0.000000,   568.909607,   0.582333,   0.371144,   11.648495,   453.703827,   232.604095,   196.835815,   0.439737,   520.241760,   489.088257
-0.006344,   0.022858,   0.022138,   0.000000,   565.696899,   0.582333,   0.371144,   10.667855,   440.817871,   226.620178,   205.775528,   0.425951,   522.311768,   499.281952
-0.006731,   0.022530,   0.021783,   0.000000,   561.239380,   0.582333,   0.371144,   9.687216,   426.381866,   220.290970,   214.428223,   0.411546,   523.774658,   507.742889
-0.007048,   0.021975,   0.021198,   0.000000,   555.339355,   0.582333,   0.371144,   8.706576,   410.212158,   213.585434,   222.705612,   0.396461,   524.471924,   514.275940
-0.007265,   0.021154,   0.020347,   0.000000,   547.787048,   0.582333,   0.371144,   7.725937,   391.960754,   206.644852,   230.562195,   0.380626,   524.228394,   518.643311
-0.007366,   0.020009,   0.019164,   0.000000,   538.079956,   0.582333,   0.371144,   6.745298,   371.073608,   199.249664,   237.879822,   0.363700,   522.704712,   520.460205
-0.007260,   0.018521,   0.017628,   0.000000,   526.311096,   0.582333,   0.371144,   5.764659,   347.923798,   192.261154,   244.111176,   0.346597,   519.513123,   519.096069
-0.006970,   0.016718,   0.015760,   -4.026767,   512.283020,   0.582333,   0.371144,   4.784020,   322.960236,   185.295990,   248.809326,   0.329411,   514.308228,   514.272705
-0.006366,   0.014607,   0.013558,   -17.991610,   497.200226,   0.582333,   0.371144,   3.803381,   297.743469,   181.465149,   250.949188,   0.315413,   506.435791,   505.715973
-0.005457,   0.012313,   0.011126,   -25.327864,   482.127930,   0.582333,   0.371144,   2.822742,   276.082062,   180.718018,   249.207291,   0.307437,   495.277832,   493.817566
-0.004298,   0.009909,   0.008550,   -23.382095,   468.372559,   0.582333,   0.371144,   1.842103,   259.600739,   185.389709,   243.061386,   0.308706,   480.490479,   479.207916
-0.003189,   0.007639,   0.006104,   -17.635532,   453.865021,   0.582333,   0.371144,   0.861463,   249.906525,   186.322952,   233.596817,   0.314104,   462.934784,   462.178040
-0.005166,   0.012727,   0.011652,   -4.498754,   499.469635,   0.567391,   1.113431,   57.008831,   257.116608,   237.854263,   -251.800064,   0.328840,   501.734131,   501.688721
-0.005729,   0.014113,   0.013147,   -3.698740,   507.118683,   0.567391,   1.113431,   56.053352,   269.653381,   233.766556,   -254.777634,   0.329693,   508.978149,   508.947906
-0.006260,   0.015603,   0.014719,   0.000000,   515.075928,   0.567391,   1.113431,   55.097878,   291.479492,   224.419708,   -254.930771,   0.334133,   514.664795,   514.663330
-0.006651,   0.017191,   0.016371,   0.000000,   524.646545,   0.567391,   1.113431,   54.142399,   317.654541,   217.984238,   -251.945724,   0.343862,   519.237732,   518.975830
-0.006914,   0.018682,   0.017895,   0.000000,   533.663940,   0.567391,   1.113431,   53.186924,   344.347107,   213.107224,   -246.346863,   0.355854,   522.175354,   520.953857
-0.007066,   0.020018,   0.019257,   0.000000,   541.901733,   0.567391,   1.113431,   52.231445,   368.175873,   211.184860,   -239.695801,   0.368426,   524.177063,   521.152954
-0.007125,   0.021201,   0.020451,   0.000000,   549.012573,   0.567391,   1.113431,   51.275970,   390.056061,   210.240616,   -232.056046,   0.380958,   525.251587,   519.574097
-0.007101,   0.022161,   0.021417,   0.000000,   554.843933,   0.567392,   1.113431,   50.320492,   409.115173,   210.368347,   -224.053589,   0.392938,   525.514221,   516.456726
-0.006991,   0.022930,   0.022188,   0.000000,   559.706421,   0.567390,   1.113431,   49.365013,   426.046661,   211.460236,   -215.746368,   0.404653,   525.146423,   511.939392
-0.006794,   0.023504,   0.022766,   0.000000,   563.686707,   0.567392,   1.113431,   48.409538,   441.096985,   213.392151,   -207.225754,   0.416169,   524.217224,   506.068512
-0.006534,   0.023920,   0.023188,   0.000000,   566.920532,   0.567391,   1.113431,   47.454060,   454.690613,   215.885666,   -198.485809,   0.427508,   522.856445,   498.947327
-0.006227,   0.024180,   0.023457,   0.000000,   569.375732,   0.567391,   1.113431,   46.498585,   466.852844,   218.662537,   -189.620987,   0.438501,   521.104614,   490.701447
-0.005875,   0.024281,   0.023569,   0.000000,   571.043335,   0.567391,   1.113431,   45.543106,   477.654785,   221.580276,   -180.653931,   0.449125,   518.961060,   481.366455
-0.005496,   0.024255,   0.023555,   0.000000,   572.041443,   0.567391,   1.113431,   44.587631,   487.326660,   224.551193,   -171.573761,   0.459406,   516.520447,   471.030304
-0.005100,   0.024121,   0.023438,   0.000000,   572.459290,   0.567391,   1.113431,   43.632153,   495.962616,   227.550995,   -162.432556,   0.469330,   513.862427,   459.787384
-0.004698,   0.023902,   0.023237,   0.000000,   572.365173,   0.567392,   1.113431,   42.676678,   503.698883,   230.507370,   -153.212585,   0.478896,   511.040314,   447.692230
-0.004299,   0.023610,   0.022966,   0.000000,   571.800049,   0.567390,   1.113431,   41.721199,   510.621460,   233.345398,   -143.896423,   0.488084,   508.086334,   434.795105
-0.003909,   0.023262,   0.022640,   0.000000,   570.837646,   0.567391,   1.113431,   40.765724,   516.817871,   236.102371,   -134.470520,   0.496933,   505.044647,   421.078339
-0.003533,   0.022871,   0.022271,   0.000000,   569.532349,   0.567391,   1.113431,   39.810246,   522.367676,   238.760956,   -124.902840,   0.505446,   501.952118,   406.536407
-0.003177,   0.022451,   0.021873,   0.000000,   567.937195,   0.567391,   1.113431,   38.854771,   527.342041,   241.327606,   -115.146690,   0.513637,   498.841370,   391.119598
-0.002844,   0.022013,   0.021455,   0.000000,   566.112671,   0.567392,   1.113431,   37.899292,   531.783508,   243.834045,   -105.183464,   0.521506,   495.754486,   374.774231
-0.002537,   0.021571,   0.021032,   0.000000,   564.126099,   0.567390,   1.113431,   36.943813,   535.744507,   246.302765,   -94.975410,   0.529046,   492.740143,   357.430389
-0.002259,   0.021137,   0.020617,   0.000000,   561.955994,   0.567392,   1.113431,   35.988338,   539.191833,   248.729385,   -84.441338,   0.536255,   489.767578,   338.895325
-0.002013,   0.020726,   0.020222,   0.000000,   559.653992,   0.567390,   1.113431,   35.032864,   542.118408,   251.134277,   -73.553253,   0.543092,   486.874237,   319.058441
-0.001800,   0.020350,   0.019861,   0.000000,   557.206116,   0.567392,   1.113431,   34.077385,   544.455688,   253.449326,   -62.233730,   0.549475,   484.041077,   297.853271
-0.001622,   0.020023,   0.019547,   0.000000,   554.816589,   0.567391,   1.113431,   33.121906,   546.291687,   255.585739,   -50.506546,   0.555191,   481.442688,   275.851349
-0.001483,   0.019756,   0.019292,   0.000000,   552.529358,   0.567391,   1.113431,   32.166431,   547.533386,   257.409332,   -38.398029,   0.560040,   479.098511,   253.911102
-0.001381,   0.019558,   0.019103,   0.000000,   550.548889,   0.567391,   1.113431,   31.210953,   548.257202,   258.842468,   -25.855219,   0.563826,   477.156799,   233.693588
-0.001320,   0.019436,   0.018988,   0.000000,   549.115234,   0.567391,   1.113431,   30.255476,   548.530823,   259.708008,   -13.005421,   0.566234,   475.798157,   218.748932
-0.001300,   0.019396,   0.018950,   0.000000,   548.550720,   0.567391,   1.113431,   29.299999,   548.550720,   259.998322,   -0.000000,   0.567077,   475.273346,   212.997284
-0.001320,   0.019436,   0.018988,   0.000000,   549.115234,   0.567391,   1.113431,   28.344522,   548.530823,   259.708008,   13.005420,   0.566234,   475.798157,   218.748932
-0.001381,   0.019558,   0.019103,   0.000000,   550.548889,   0.567391,   1.113431,   27.389046,   548.257202,   258.842468,   25.855228,   0.563826,   477.156799,   233.693588
-0.001483,   0.019756,   0.019292,   0.000000,   552.529358,   0.567391,   1.113431,   26.433569,   547.533386,   257.409332,   38.398037,   0.560040,   479.098511,   253.911118
-0.001622,   0.020023,   0.019547,   0.000000,   554.816589,   0.567391,   1.113431,   25.478092,   546.291687,   255.585693,   50.506538,   0.555191,   481.442688,   275.851654
-0.001800,   0.020350,   0.019861,   0.000000,   557.206116,   0.567391,   1.113431,   24.522615,   544.455688,   253.449326,   62.233730,   0.549475,   484.041077,   297.853271
-0.002013,   0.020726,   0.020222,   0.000000,   559.653992,   0.567391,   1.113431,   23.567139,   542.118408,   251.134293,   73.553261,   0.543092,   486.874268,   319.058502
-0.002259,   0.021137,   0.020617,   0.000000,   561.955994,   0.567391,   1.113431,   22.611660,   539.191833,   248.729370,   84.441353,   0.536255,   489.767609,   338.895355
-0.002537,   0.021571,   0.021032,   0.000000,   564.126099,   0.567391,   1.113431,   21.656183,   535.744507,   246.302734,   94.975410,   0.529046,   492.740143,   357.430389
-0.002844,   0.022013,   0.021455,   0.000000,   566.112671,   0.567390,   1.113431,   20.700708,   531.783508,   243.834061,   105.183472,   0.521506,   495.754486,   374.774261
-0.003177,   0.022451,   0.021873,   0.000000,   567.937134,   0.567391,   1.113431,   19.745232,   527.342041,   241.327591,   115.146667,   0.513637,   498.841370,   391.119720
-0.003533,   0.022871,   0.022271,   0.000000,   569.532349,   0.567391,   1.113431,   18.789755,   522.367676,   238.761017,   124.902840,   0.505446,   501.952118,   406.536438
-0.003909,   0.023262,   0.022640,   0.000000,   570.837585,   0.567391,   1.113431,   17.834278,   516.817871,   236.102325,   134.470490,   0.496933,   505.044617,   421.078278
-0.004299,   0.023610,   0.022966,   0.000000,   571.800049,   0.567391,   1.113431,   16.878801,   510.621429,   233.345398,   143.896439,   0.488084,   508.086334,   434.795166
-0.004698,   0.023902,   0.023237,   0.000000,   572.365112,   0.567391,   1.113431,   15.923324,   503.698853,   230.507385,   153.212570,   0.478897,   511.040283,   447.692169
-0.005100,   0.024121,   0.023438,   0.000000,   572.459290,   0.567391,   1.113431,   14.967846,   495.962646,   227.550980,   162.432541,   0.469330,   513.862427,   459.787415
-0.005496,   0.024255,   0.023555,   0.000000,   572.041382,   0.567391,   1.113431,   14.012369,   487.326660,   224.551224,   171.573730,   0.459406,   516.520447,   471.030243
-0.005875,   0.024281,   0.023569,   0.000000,   571.043335,   0.567391,   1.113431,   13.056892,   477.654785,   221.580261,   180.653915,   0.449125,   518.960999,   481.366425
-0.006227,   0.024180,   0.023457,   0.000000,   569.375732,   0.567391,   1.113431,   12.101416,   466.852844,   218.662567,   189.620972,   0.438501,   521.104614,   490.701447
-0.006534,   0.023920,   0.023188,   0.000000,   566.920532,   0.567391,   1.113431,   11.145939,   454.690582,   215.885620,   198.485809,   0.427508,   522.856384,   498.947388
-0.006794,   0.023504,   0.022766,   0.000000,   563.686707,   0.567391,   1.113431,   10.190462,   441.096954,   213.392136,   207.225769,   0.416169,   524.217163,   506.068542
-0.006991,   0.022930,   0.022188,   0.000000,   559.706360,   0.567391,   1.113431,   9.234985,   426.046631,   211.460190,   215.746384,   0.404653,   525.146423,   511.939423
-0.007101,   0.022161,   0.021417,   0.000000,   554.843933,   0.567391,   1.113431,   8.279508,   409.115112,   210.368332,   224.053619,   0.392938,   525.514282,   516.456726
-0.007125,   0.021201,   0.020451,   0.000000,   549.012512,   0.567391,   1.113431,   7.324031,   390.055969,   210.240601,   232.056076,   0.380958,   525.251587,   519.574097
-0.007066,   0.020018,   0.019257,   0.000000,   541.901733,   0.567391,   1.113431,   6.368554,   368.175812,   211.184845,   239.695831,   0.368426,   524.177063,   521.152893
-0.006914,   0.018682,   0.017895,   0.000000,   533.663940,   0.567391,   1.113431,   5.413077,   344.347046,   213.107239,   246.346878,   0.355854,   522.175354,   520.953857
-0.006651,   0.017191,   0.016371,   0.000000,   524.646545,   0.567391,   1.113431,   4.457601,   317.654572,   217.984222,   251.945724,   0.343862,   519.237732,   518.975830
-0.006260,   0.015603,   0.014719,   0.000000,   515.075989,   0.567391,   1.113431,   3.502124,   291.479584,   224.419846,   254.930740,   0.334133,   514.664795,   514.663330
-0.005729,   0.014113,   0.013147,   -3.698524,   507.118805,   0.567391,   1.113431,   2.546647,   269.653503,   233.766769,   254.777588,   0.329693,   508.978149,   508.947876
-0.005166,   0.012727,   0.011652,   -4.498744,   499.469666,   0.567391,   1.113431,   1.591170,   257.116577,   237.854340,   251.800079,   0.328840,   501.734161,   501.688751
-0.006517,   0.016161,   0.015427,   0.000000,   522.076721,   0.552450,   1.855719,   56.279121,   265.145905,   257.309601,   -260.819550,   0.333696,   521.887451,   521.887085
-0.007082,   0.017723,   0.017088,   0.000000,   529.212952,   0.552448,   1.855719,   55.348808,   286.356140,   246.017059,   -262.251862,   0.336324,   527.639893,   527.618652
-0.007369,   0.019259,   0.018689,   0.000000,   538.257507,   0.552448,   1.855719,   54.418495,   314.203857,   238.156952,   -259.304138,   0.346517,   531.346313,   530.924866
-0.007520,   0.020590,   0.020039,   0.000000,   545.785583,   0.552450,   1.855719,   53.488178,   342.059662,   230.335907,   -253.505966,   0.357985,   532.979004,   531.481323
-0.007588,   0.021754,   0.021201,   0.000000,   551.953796,   0.552448,   1.855719,   52.557865,   367.391998,   223.674347,   -246.146011,   0.369319,   533.473999,   530.233765
-0.007613,   0.022797,   0.022231,   0.000000,   557.152710,   0.552449,   1.855719,   51.627552,   389.818085,   218.524597,   -238.042465,   0.380164,   533.403198,   527.834473
-0.007585,   0.023642,   0.023049,   0.000000,   561.077942,   0.552449,   1.855719,   50.697235,   409.444977,   214.115341,   -229.370819,   0.390267,   532.592712,   524.251831
-0.007532,   0.024401,   0.023778,   0.000000,   564.469788,   0.552449,   1.855719,   49.766922,   426.901459,   210.895508,   -220.546173,   0.399913,   531.612671,   520.052368
-0.007424,   0.025057,   0.024409,   0.000000,   567.473389,   0.552448,   1.855719,   48.836605,   442.630188,   208.972794,   -211.556992,   0.409476,   530.436157,   515.104614
-0.007265,   0.025582,   0.024912,   0.000000,   570.007263,   0.552450,   1.855719,   47.906292,   456.720245,   208.115234,   -202.478836,   0.418921,   529.006531,   509.355286
-0.007049,   0.025951,   0.025262,   0.000000,   571.947449,   0.552448,   1.855719,   46.975975,   469.151703,   208.005280,   -193.421036,   0.428086,   527.274658,   502.838562
-0.006795,   0.026202,   0.025499,   0.000000,   573.421509,   0.552449,   1.855719,   46.045662,   480.337097,   208.426590,   -184.323975,   0.437032,   525.334473,   495.629333
-0.006508,   0.026349,   0.025637,   0.000000,   574.504700,   0.552448,   1.855719,   45.115349,   490.405853,   209.343338,   -175.241714,   0.445773,   523.247864,   487.782562
-0.006196,   0.026399,   0.025684,   0.000000,   575.209595,   0.552450,   1.855719,   44.185036,   499.461975,   210.632675,   -166.180130,   0.454289,   521.030579,   479.330719
-0.005863,   0.026354,   0.025642,   0.000000,   575.535889,   0.552448,   1.855719,   43.254719,   507.607788,   212.197510,   -157.101501,   0.462593,   518.674255,   470.257263
-0.005514,   0.026218,   0.025513,   0.000000,   575.475342,   0.552449,   1.855719,   42.324406,   514.891846,   213.933014,   -147.998322,   0.470655,   516.177368,   460.589264
-0.005160,   0.026013,   0.025319,   0.000000,   575.103882,   0.552449,   1.855719,   41.394089,   521.474976,   215.815033,   -138.810211,   0.478520,   513.590210,   450.326904
-0.004807,   0.025752,   0.025072,   0.000000,   574.459656,   0.552448,   1.855719,   40.463776,   527.420410,   217.814453,   -129.523438,   0.486181,   510.944794,   439.491943
-0.004461,   0.025448,   0.024785,   0.000000,   573.596436,   0.552449,   1.855719,   39.533463,   532.805359,   219.956314,   -120.105591,   0.493670,   508.276001,   428.052368
-0.004128,   0.025114,   0.024469,   0.000000,   572.541870,   0.552449,   1.855719,   38.603146,   537.683472,   222.177292,   -110.513084,   0.500950,   505.613129,   416.043915
-0.003812,   0.024762,   0.024137,   0.000000,   571.327332,   0.552449,   1.855719,   37.672832,   542.088318,   224.499634,   -100.702057,   0.508036,   502.975067,   403.421143
-0.003518,   0.024404,   0.023799,   0.000000,   570.039062,   0.552448,   1.855719,   36.742519,   546.086060,   226.912933,   -90.658134,   0.514878,   500.441986,   390.272064
-0.003249,   0.024053,   0.023468,   0.000000,   568.659546,   0.552450,   1.855719,   35.812202,   549.639587,   229.386597,   -80.330345,   0.521440,   497.996826,   376.595459
-0.003009,   0.023723,   0.023157,   0.000000,   567.119385,   0.552448,   1.855719,   34.881889,   552.636719,   231.842804,   -69.682861,   0.527650,   495.581146,   362.451263
-0.002797,   0.023423,   0.022877,   0.000000,   565.594727,   0.552449,   1.855719,   33.951572,   555.185547,   234.279129,   -58.725758,   0.533403,   493.351257,   348.179688
-0.002623,   0.023165,   0.022636,   0.000000,   564.026306,   0.552449,   1.855719,   33.021259,   557.142212,   236.434097,   -47.488789,   0.538452,   491.270477,   334.442200
-0.002485,   0.022958,   0.022443,   0.000000,   562.522217,   0.552448,   1.855719,   32.090942,   558.534546,   238.328827,   -35.955303,   0.542734,   489.412842,   321.730042
-0.002385,   0.022806,   0.022303,   0.000000,   561.306580,   0.552449,   1.855719,   31.160629,   559.491943,   239.774002,   -24.154976,   0.545972,   487.976990,   311.370148
-0.002325,   0.022713,   0.022219,   0.000000,   560.262695,   0.552448,   1.855719,   30.230314,   559.800720,   240.691315,   -12.150699,   0.548087,   486.839691,   304.083954
-0.002304,   0.022682,   0.022190,   0.000000,   559.999207,   0.552449,   1.855719,   29.299999,   559.999207,   241.011871,   -0.000000,   0.548783,   486.538147,   301.658966
-0.002325,   0.022713,   0.022219,   0.000000,   560.262695,   0.552449,   1.855719,   28.369686,   559.800720,   240.691284,   12.150700,   0.548087,   486.839722,   304.084167
-0.002385,   0.022806,   0.022303,   0.000000,   561.306580,   0.552448,   1.855719,   27.439371,   559.491943,   239.774017,   24.154982,   0.545972,   487.976990,   311.369965
-0.002485,   0.022958,   0.022443,   0.000000,   562.522156,   0.552449,   1.855719,   26.509056,   558.534485,   238.328812,   35.955303,   0.542734,   489.412781,   321.730042
-0.002623,   0.023165,   0.022636,   0.000000,   564.026367,   0.552448,   1.855719,   25.578741,   557.142212,   236.434158,   47.488800,   0.538452,   491.270477,   334.442047
-0.002797,   0.023423,   0.022877,   0.000000,   565.594666,   0.552449,   1.855719,   24.648426,   555.185547,   234.279099,   58.725742,   0.533403,   493.351257,   348.179657
-0.003009,   0.023723,   0.023157,   0.000000,   567.119385,   0.552449,   1.855719,   23.718113,   552.636719,   231.842789,   69.682884,   0.527650,   495.581177,   362.451263
-0.003249,   0.024053,   0.023468,   0.000000,   568.659485,   0.552448,   1.855719,   22.787798,   549.639526,   229.386597,   80.330353,   0.521440,   497.996765,   376.595306
-0.003518,   0.024404,   0.023799,   0.000000,   570.039062,   0.552449,   1.855719,   21.857483,   546.086060,   226.912933,   90.658134,   0.514878,   500.441986,   390.272064
-0.003812,   0.024762,   0.024137,   0.000000,   571.327332,   0.552448,   1.855719,   20.927168,   542.088318,   224.499573,   100.702042,   0.508036,   502.975067,   403.421143
-0.004128,   0.025114,   0.024469,   0.000000,   572.541870,   0.552448,   1.855719,   19.996855,   537.683472,   222.177338,   110.513084,   0.500950,   505.613129,   416.043884
-0.004461,   0.025448,   0.024785,   0.000000,   573.596375,   0.552449,   1.855719,   19.066540,   532.805359,   219.956284,   120.105576,   0.493670,   508.276001,   428.052338
-0.004807,   0.025752,   0.025072,   0.000000,   574.459656,   0.552449,   1.855719,   18.136225,   527.420410,   217.814468,   129.523422,   0.486181,   510.944794,   439.491913
-0.005160,   0.026013,   0.025319,   0.000000,   575.103882,   0.552448,   1.855719,   17.205910,   521.474915,   215.815079,   138.810226,   0.478520,   513.590271,   450.327026
-0.005514,   0.026218,   0.025513,   0.000000,   575.475281,   0.552449,   1.855719,   16.275597,   514.891785,   213.932968,   147.998306,   0.470655,   516.177368,   460.589111
-0.005862,   0.026354,   0.025642,   0.000000,   575.535889,   0.552449,   1.855719,   15.345281,   507.607788,   212.197525,   157.101486,   0.462593,   518.674255,   470.257233
-0.006196,   0.026399,   0.025684,   0.000000,   575.209595,   0.552449,   1.855719,   14.414967,   499.462006,   210.632706,   166.180099,   0.454289,   521.030579,   479.330719
-0.006508,   0.026349,   0.025637,   0.000000,   574.504700,   0.552449,   1.855719,   13.484652,   490.405884,   209.343353,   175.241669,   0.445773,   523.247803,   487.782471
-0.006795,   0.026202,   0.025499,   0.000000,   573.421448,   0.552449,   1.855719,   12.554337,   480.337097,   208.426575,   184.323959,   0.437032,   525.334473,   495.629272
-0.007049,   0.025951,   0.025262,   0.000000,   571.947388,   0.552449,   1.855719,   11.624022,   469.151703,   208.005264,   193.421021,   0.428086,   527.274658,   502.838531
-0.007265,   0.025582,   0.024912,   0.000000,   570.007263,   0.552449,   1.855719,   10.693707,   456.720245,   208.115189,   202.478836,   0.418921,   529.006531,   509.355255
-0.007424,   0.025057,   0.024409,   0.000000,   567.473328,   0.552449,   1.855719,   9.763393,   442.630157,   208.972763,   211.556992,   0.409476,   530.436157,   515.104553
-0.007532,   0.024401,   0.023778,   0.000000,   564.469727,   0.552449,   1.855719,   8.833078,   426.901398,   210.895462,   220.546204,   0.399913,   531.612671,   520.052429
-0.007585,   0.023642,   0.023049,   0.000000,   561.077942,   0.552449,   1.855719,   7.902764,   409.444946,   214.115311,   229.370834,   0.390267,   532.592773,   524.251831
-0.007613,   0.022797,   0.022231,   0.000000,   557.152710,   0.552449,   1.855719,   6.972449,   389.817993,   218.524521,   238.042511,   0.380164,   533.403198,   527.834534
-0.007588,   0.021754,   0.021201,   0.000000,   551.953796,   0.552449,   1.855719,   6.042135,   367.391937,   223.674286,   246.146057,   0.369319,   533.473999,   530.233765
-0.007520,   0.020590,   0.020039,   0.000000,   545.785583,   0.552449,   1.855719,   5.111820,   342.059601,   230.335846,   253.506012,   0.357985,   532.979065,   531.481445
-0.007369,   0.019259,   0.018689,   0.000000,   538.257507,   0.552449,   1.855719,   4.181505,   314.203857,   238.156876,   259.304169,   0.346516,   531.346313,   530.924988
-0.007082,   0.017723,   0.017088,   0.000000,   529.213013,   0.552449,   1.855719,   3.251191,   286.356293,   246.017014,   262.251892,   0.336324,   527.639954,   527.618713
-0.006517,   0.016161,   0.015427,   0.000000,   522.076904,   0.552449,   1.855719,   2.320876,   265.146210,   257.309479,   260.819641,   0.333696,   521.887634,   521.887329
-0.008132,   0.020146,   0.019802,   0.000000,   541.853821,   0.537507,   2.598006,   55.549416,   280.022949,   263.440247,   -269.994965,   0.334819,   541.050964,   541.045593
-0.008563,   0.022065,   0.021803,   0.000000,   551.196228,   0.537506,   2.598006,   54.644264,   312.214722,   250.564392,   -268.040039,   0.343894,   545.497070,   545.220276
-0.008681,   0.023477,   0.023233,   0.000000,   558.639771,   0.537506,   2.598006,   53.739113,   341.483917,   241.460114,   -262.445099,   0.355307,   546.892883,   545.675781
-0.008692,   0.024623,   0.024356,   0.000000,   564.205750,   0.537507,   2.598006,   52.833961,   368.220764,   232.930328,   -254.803864,   0.366553,   546.670227,   543.850708
-0.008666,   0.025581,   0.025276,   0.000000,   568.351135,   0.537506,   2.598006,   51.928806,   391.392181,   225.473862,   -246.323395,   0.376795,   545.713501,   540.829773
-0.008596,   0.026331,   0.025966,   0.000000,   571.203003,   0.537507,   2.598006,   51.023655,   411.576263,   218.818848,   -237.170670,   0.386252,   544.027405,   536.710938
-0.008507,   0.026997,   0.026573,   0.000000,   573.437805,   0.537507,   2.598006,   50.118504,   429.488892,   213.057983,   -227.763657,   0.395027,   542.196655,   532.152405
-0.008375,   0.027579,   0.027099,   0.000000,   575.443726,   0.537506,   2.598006,   49.213352,   445.628357,   208.869446,   -218.144424,   0.403808,   540.272095,   527.023926
-0.008225,   0.028056,   0.027523,   0.000000,   576.990112,   0.537506,   2.598006,   48.308201,   459.871307,   205.549744,   -208.572922,   0.412089,   538.250732,   521.530640
-0.008046,   0.028441,   0.027859,   0.000000,   578.211914,   0.537507,   2.598006,   47.403046,   472.596985,   203.084152,   -199.045456,   0.420072,   536.163574,   515.662964
-0.007831,   0.028750,   0.028129,   0.000000,   579.278198,   0.537506,   2.598006,   46.497894,   484.108887,   201.592957,   -189.589142,   0.427965,   534.078979,   509.396545
-0.007590,   0.028965,   0.028311,   0.000000,   580.035767,   0.537507,   2.598006,   45.592743,   494.424072,   200.665436,   -180.218033,   0.435582,   531.924438,   502.772156
-0.007324,   0.029088,   0.028409,   0.000000,   580.522339,   0.537506,   2.598006,   44.687592,   503.667755,   200.273438,   -170.949936,   0.442974,   529.708435,   495.786285
-0.007035,   0.029134,   0.028437,   0.000000,   580.801208,   0.537507,   2.598006,   43.782436,   512.001526,   200.397110,   -161.776657,   0.450205,   527.461853,   488.435577
-0.006734,   0.029113,   0.028406,   0.000000,   580.867859,   0.537506,   2.598006,   42.877285,   519.568298,   200.854675,   -152.625839,   0.457250,   525.185730,   480.744690
-0.006420,   0.029031,   0.028321,   0.000000,   580.769958,   0.537506,   2.598006,   41.972134,   526.454651,   201.705612,   -143.488678,   0.464186,   522.893677,   472.660828
-0.006097,   0.028890,   0.028183,   0.000000,   580.493286,   0.537508,   2.598006,   41.066982,   532.736328,   202.868576,   -134.291534,   0.471027,   520.567810,   464.143402
-0.005773,   0.028696,   0.027996,   0.000000,   580.042480,   0.537506,   2.598006,   40.161827,   538.453125,   204.288864,   -125.009430,   0.477756,   518.215942,   455.198822
-0.005450,   0.028464,   0.027777,   0.000000,   579.476929,   0.537506,   2.598006,   39.256676,   543.677917,   206.000214,   -115.629166,   0.484399,   515.882080,   445.815674
-0.005139,   0.028208,   0.027537,   0.000000,   578.815796,   0.537507,   2.598006,   38.351524,   548.479614,   207.910995,   -106.074631,   0.490915,   513.592651,   436.036224
-0.004843,   0.027938,   0.027285,   0.000000,   578.075012,   0.537506,   2.598006,   37.446369,   552.858215,   210.004593,   -96.340797,   0.497270,   511.366791,   425.893311
-0.004566,   0.027665,   0.027032,   0.000000,   577.293030,   0.537506,   2.598006,   36.541222,   556.842712,   212.253082,   -86.401352,   0.503424,   509.243713,   415.457825
-0.004311,   0.027400,   0.026788,   0.000000,   576.497437,   0.537508,   2.598006,   35.636066,   560.418640,   214.579132,   -76.283813,   0.509267,   507.263977,   404.917755
-0.004084,   0.027154,   0.026562,   0.000000,   575.585449,   0.537506,   2.598006,   34.730915,   563.468567,   216.860886,   -65.928925,   0.514720,   505.342529,   394.365814
-0.003886,   0.026936,   0.026364,   0.000000,   574.699829,   0.537506,   2.598006,   33.825764,   566.080627,   219.060669,   -55.365372,   0.519674,   503.611786,   384.169281
-0.003722,   0.026750,   0.026197,   0.000000,   573.740051,   0.537507,   2.598006,   32.920609,   568.103149,   221.037460,   -44.588562,   0.524011,   501.987152,   374.606934
-0.003591,   0.026600,   0.026063,   0.000000,   572.840027,   0.537507,   2.598006,   32.015457,   569.609680,   222.701187,   -33.631386,   0.527584,   500.591125,   366.254852
-0.003497,   0.026492,   0.025967,   0.000000,   572.045654,   0.537507,   2.598006,   31.110304,   570.584656,   223.975067,   -22.550659,   0.530279,   499.460266,   359.609070
-0.003440,   0.026426,   0.025910,   0.000000,   571.437500,   0.537506,   2.598006,   30.205153,   571.069641,   224.787415,   -11.291963,   0.531996,   498.661377,   355.180603
-0.003421,   0.026403,   0.025890,   0.000000,   571.232239,   0.537507,   2.598006,   29.300001,   571.232239,   225.068649,   -0.000002,   0.532579,   498.393097,   353.652466
-0.003440,   0.026426,   0.025910,   0.000000,   571.437500,   0.537507,   2.598006,   28.394848,   571.069641,   224.787430,   11.291965,   0.531996,   498.661377,   355.180603
-0.003497,   0.026492,   0.025967,   0.000000,   572.045654,   0.537506,   2.598006,   27.489697,   570.584656,   223.975037,   22.550661,   0.530279,   499.460266,   359.609070
-0.003591,   0.026600,   0.026063,   0.000000,   572.839966,   0.537507,   2.598006,   26.584543,   569.609619,   222.701187,   33.631390,   0.527584,   500.591095,   366.254669
-0.003722,   0.026750,   0.026197,   0.000000,   573.739990,   0.537506,   2.598006,   25.679390,   568.103149,   221.037415,   44.588554,   0.524011,   501.987152,   374.607147
-0.003886,   0.026936,   0.026364,   0.000000,   574.699829,   0.537507,   2.598006,   24.774239,   566.080627,   219.060654,   55.365360,   0.519674,   503.611755,   384.169250
-0.004084,   0.027154,   0.026562,   0.000000,   575.585449,   0.537507,   2.598006,   23.869085,   563.468567,   216.860901,   65.928940,   0.514720,   505.342529,   394.365845
-0.004311,   0.027400,   0.026788,   0.000000,   576.497437,   0.537506,   2.598006,   22.963934,   560.418640,   214.579132,   76.283806,   0.509267,   507.263977,   404.917755
-0.004566,   0.027665,   0.027032,   0.000000,   577.293030,   0.537507,   2.598006,   22.058783,   556.842651,   212.253082,   86.401352,   0.503423,   509.243683,   415.457825
-0.004843,   0.027938,   0.027285,   0.000000,   578.074951,   0.537507,   2.598006,   21.153629,   552.858154,   210.004593,   96.340797,   0.497270,   511.366730,   425.893188
-0.005139,   0.028208,   0.027537,   0.000000,   578.815796,   0.537506,   2.598006,   20.248476,   548.479614,   207.910934,   106.074623,   0.490915,   513.592651,   436.036194
-0.005450,   0.028464,   0.027777,   0.000000,   579.476929,   0.537507,   2.598006,   19.343325,   543.677917,   206.000198,   115.629166,   0.484399,   515.882080,   445.815674
-0.005773,   0.028696,   0.027996,   0.000000,   580.042480,   0.537507,   2.598006,   18.438171,   538.453125,   204.288864,   125.009445,   0.477756,   518.215942,   455.198853
-0.006097,   0.028890,   0.028183,   0.000000,   580.493286,   0.537506,   2.598006,   17.533020,   532.736328,   202.868576,   134.291519,   0.471027,   520.567810,   464.143341
-0.006420,   0.029031,   0.028321,   0.000000,   580.769958,   0.537507,   2.598006,   16.627869,   526.454651,   201.705612,   143.488647,   0.464186,   522.893677,   472.660797
-0.006734,   0.029113,   0.028406,   0.000000,   580.867859,   0.537506,   2.598006,   15.722715,   519.568298,   200.854691,   152.625839,   0.457250,   525.185730,   480.744690
-0.007035,   0.029134,   0.028437,   0.000000,   580.801147,   0.537507,   2.598006,   14.817563,   512.001465,   200.397079,   161.776642,   0.450205,   527.461792,   488.435425
-0.007324,   0.029088,   0.028409,   0.000000,   580.522339,   0.537507,   2.598006,   13.912411,   503.667755,   200.273453,   170.949921,   0.442974,   529.708435,   495.786224
-0.007590,   0.028965,   0.028311,   0.000000,   580.035767,   0.537506,   2.598006,   13.007258,   494.424103,   200.665497,   180.218002,   0.435582,   531.924377,   502.772034
-0.007831,   0.028750,   0.028129,   0.000000,   579.278198,   0.537507,   2.598006,   12.102106,   484.108917,   201.592957,   189.589096,   0.427965,   534.078918,   509.396423
-0.008046,   0.028441,   0.027859,   0.000000,   578.211914,   0.537507,   2.598006,   11.196954,   472.597015,   203.084122,   199.045425,   0.420072,   536.163574,   515.662964
-0.008225,   0.028056,   0.027523,   0.000000,   576.990112,   0.537507,   2.598006,   10.291800,   459.871307,   205.549698,   208.572906,   0.412089,   538.250732,   521.530579
-0.008375,   0.027579,   0.027099,   0.000000,   575.443726,   0.537506,   2.598006,   9.386649,   445.628326,   208.869385,   218.144440,   0.403807,   540.272095,   527.023987
-0.008507,   0.026997,   0.026573,   0.000000,   573.437744,   0.537507,   2.598006,   8.481497,   429.488800,   213.057892,   227.763687,   0.395027,   542.196655,   532.152405
-0.008596,   0.026331,   0.025966,   0.000000,   571.202942,   0.537507,   2.598006,   7.576344,   411.576233,   218.818787,   237.170670,   0.386252,   544.027405,   536.710999
-0.008666,   0.025581,   0.025276,   0.000000,   568.351074,   0.537507,   2.598006,   6.671192,   391.392090,   225.473740,   246.323425,   0.376795,   545.713501,   540.829773
-0.008692,   0.024623,   0.024356,   0.000000,   564.205688,   0.537507,   2.598006,   5.766040,   368.220673,   232.930237,   254.803879,   0.366553,   546.670166,   543.850769
-0.008681,   0.023477,   0.023233,   0.000000,   558.639709,   0.537507,   2.598006,   4.860888,   341.483887,   241.459976,   262.445099,   0.355307,   546.892822,   545.675781
-0.008563,   0.022065,   0.021803,   0.000000,   551.196167,   0.537507,   2.598006,   3.955735,   312.214691,   250.564178,   268.040039,   0.343894,   545.497009,   545.220215
-0.008132,   0.020146,   0.019802,   0.000000,   541.853882,   0.537507,   2.598006,   3.050583,   280.023102,   263.440125,   269.994965,   0.334819,   541.050964,   541.045593
-0.010680,   0.026527,   0.026746,   0.000000,   566.543701,   0.522564,   3.340294,   54.819710,   311.265167,   258.403503,   -280.466705,   0.336095,   564.987671,   564.968201
-0.010685,   0.027953,   0.028149,   0.000000,   573.684082,   0.522564,   3.340294,   53.939720,   344.092651,   246.955414,   -273.887054,   0.348576,   565.202209,   564.601562
-0.010565,   0.028983,   0.029110,   0.000000,   578.558594,   0.522564,   3.340294,   53.059731,   371.866547,   237.427597,   -265.535400,   0.360218,   563.819458,   561.929993
-0.010387,   0.029696,   0.029736,   0.000000,   581.506958,   0.522564,   3.340294,   52.179741,   395.275726,   228.751083,   -256.308746,   0.370481,   561.455933,   557.816284
-0.010184,   0.030245,   0.030182,   0.000000,   583.413330,   0.522564,   3.340294,   51.299751,   415.830536,   221.026077,   -246.434311,   0.380023,   558.612366,   552.816833
-0.009994,   0.030768,   0.030611,   0.000000,   584.988464,   0.522565,   3.340294,   50.419762,   434.101318,   214.556671,   -236.417831,   0.388957,   555.895081,   547.601807
-0.009804,   0.031224,   0.030973,   0.000000,   586.165039,   0.522564,   3.340294,   49.539768,   450.529572,   209.040009,   -226.167038,   0.397479,   553.127930,   542.007324
-0.009586,   0.031551,   0.031214,   0.000000,   586.835205,   0.522564,   3.340294,   48.659779,   464.692902,   204.459412,   -216.111694,   0.405316,   550.313660,   536.199646
-0.009352,   0.031847,   0.031432,   0.000000,   587.456055,   0.522564,   3.340294,   47.779793,   477.669800,   200.914978,   -206.002151,   0.413060,   547.608337,   530.145203
-0.009111,   0.032083,   0.031600,   0.000000,   587.866272,   0.522564,   3.340294,   46.899803,   489.275696,   198.048553,   -196.041687,   0.420392,   544.986816,   523.981873
-0.008856,   0.032241,   0.031699,   0.000000,   588.054565,   0.522564,   3.340294,   46.019814,   499.548676,   195.814728,   -186.321045,   0.427321,   542.420410,   517.724243
-0.008593,   0.032356,   0.031765,   0.000000,   588.155640,   0.522565,   3.340294,   45.139820,   508.853973,   194.185669,   -176.755402,   0.434008,   539.958984,   511.364990
-0.008321,   0.032430,   0.031799,   0.000000,   588.188782,   0.522564,   3.340294,   44.259830,   517.332520,   193.103561,   -167.314865,   0.440504,   537.592773,   504.878876
-0.008031,   0.032448,   0.031789,   0.000000,   588.141785,   0.522564,   3.340294,   43.379841,   525.030945,   192.574142,   -158.001907,   0.446869,   535.283752,   498.198486
-0.007735,   0.032419,   0.031740,   0.000000,   587.985535,   0.522564,   3.340294,   42.499851,   532.070007,   192.404663,   -148.724991,   0.453069,   533.012817,   491.334076
-0.007432,   0.032347,   0.031658,   0.000000,   587.775391,   0.522564,   3.340294,   41.619862,   538.527527,   192.688614,   -139.489029,   0.459195,   530.795837,   484.230072
-0.007128,   0.032242,   0.031550,   0.000000,   587.527466,   0.522565,   3.340294,   40.739872,   544.508179,   193.379227,   -130.215073,   0.465278,   528.635986,   476.849976
-0.006823,   0.032101,   0.031411,   0.000000,   587.204651,   0.522564,   3.340294,   39.859882,   550.045349,   194.388489,   -120.817101,   0.471308,   526.502258,   469.156403
-0.006521,   0.031923,   0.031242,   0.000000,   586.818787,   0.522564,   3.340294,   38.979893,   555.086609,   195.735794,   -111.399841,   0.477243,   524.416931,   461.195496
-0.006229,   0.031734,   0.031066,   0.000000,   586.421814,   0.522564,   3.340294,   38.099903,   559.766113,   197.366394,   -101.835831,   0.483092,   522.421448,   452.978912
-0.005951,   0.031540,   0.030889,   0.000000,   586.031555,   0.522564,   3.340294,   37.219910,   564.088440,   199.208145,   -92.130905,   0.488775,   520.550598,   444.614868
-0.005693,   0.031348,   0.030717,   0.000000,   585.612183,   0.522565,   3.340294,   36.339920,   567.992188,   201.175446,   -82.302933,   0.494207,   518.788879,   436.199890
-0.005457,   0.031166,   0.030555,   0.000000,   585.223022,   0.522565,   3.340294,   35.459930,   571.508911,   203.233887,   -72.378540,   0.499322,   517.196716,   427.897125
-0.005247,   0.031002,   0.030412,   0.000000,   584.828308,   0.522564,   3.340294,   34.579941,   574.586975,   205.266861,   -62.347462,   0.504021,   515.754395,   419.875549
-0.005070,   0.030861,   0.030291,   0.000000,   584.300903,   0.522564,   3.340294,   33.699951,   577.081421,   207.070419,   -52.186340,   0.508165,   514.368408,   412.354401
-0.004920,   0.030744,   0.030192,   0.000000,   583.908936,   0.522564,   3.340294,   32.819962,   579.226501,   208.744965,   -41.912830,   0.511741,   513.261414,   405.641388
-0.004801,   0.030650,   0.030115,   0.000000,   583.299744,   0.522564,   3.340294,   31.939970,   580.635071,   210.148468,   -31.532789,   0.514716,   512.116089,   399.657990
-0.004715,   0.030581,   0.030059,   0.000000,   582.867065,   0.522564,   3.340294,   31.059980,   581.670959,   211.203232,   -21.084543,   0.516898,   511.303009,   395.155273
-0.004663,   0.030540,   0.030025,   0.000000,   582.602600,   0.522565,   3.340294,   30.179991,   582.301147,   211.849670,   -10.572276,   0.518227,   510.812988,   392.356567
-0.004646,   0.030527,   0.030015,   0.000000,   582.287903,   0.522565,   3.340294,   29.299999,   582.287903,   212.037430,   0.000000,   0.518716,   510.443176,   391.168915
-0.004663,   0.030540,   0.030025,   0.000000,   582.602600,   0.522564,   3.340294,   28.420010,   582.301147,   211.849686,   10.572274,   0.518227,   510.812988,   392.356567
-0.004715,   0.030581,   0.030059,   0.000000,   582.867065,   0.522564,   3.340294,   27.540020,   581.670959,   211.203232,   21.084538,   0.516898,   511.303009,   395.155273
-0.004801,   0.030650,   0.030115,   0.000000,   583.299744,   0.522565,   3.340294,   26.660030,   580.635071,   210.148438,   31.532791,   0.514716,   512.116089,   399.657990
-0.004920,   0.030744,   0.030192,   0.000000,   583.908936,   0.522564,   3.340294,   25.780041,   579.226501,   208.744965,   41.912834,   0.511741,   513.261414,   405.641388
-0.005070,   0.030861,   0.030291,   0.000000,   584.300842,   0.522565,   3.340294,   24.900049,   577.081360,   207.070435,   52.186356,   0.508165,   514.368347,   412.354248
-0.005247,   0.031002,   0.030412,   0.000000,   584.828247,   0.522564,   3.340294,   24.020060,   574.586914,   205.266846,   62.347485,   0.504021,   515.754395,   419.875397
-0.005457,   0.031166,   0.030555,   0.000000,   585.222961,   0.522564,   3.340294,   23.140070,   571.508850,   203.233841,   72.378532,   0.499322,   517.196655,   427.897095
-0.005693,   0.031348,   0.030717,   0.000000,   585.612183,   0.522565,   3.340294,   22.260080,   567.992188,   201.175507,   82.302948,   0.494207,   518.788879,   436.199646
-0.005951,   0.031540,   0.030889,   0.000000,   586.031494,   0.522564,   3.340294,   21.380089,   564.088379,   199.208145,   92.130898,   0.488775,   520.550537,   444.614746
-0.006229,   0.031734,   0.031066,   0.000000,   586.421753,   0.522564,   3.340294,   20.500099,   559.766113,   197.366394,   101.835808,   0.483092,   522.421448,   452.978882
-0.006521,   0.031923,   0.031242,   0.000000,   586.818787,   0.522565,   3.340294,   19.620110,   555.086548,   195.735794,   111.399849,   0.477243,   524.416870,   461.195404
-0.006823,   0.032101,   0.031411,   0.000000,   587.204651,   0.522564,   3.340294,   18.740120,   550.045349,   194.388489,   120.817093,   0.471308,   526.502258,   469.156403
-0.007128,   0.032242,   0.031550,   0.000000,   587.527405,   0.522565,   3.340294,   17.860130,   544.508179,   193.379166,   130.215057,   0.465278,   528.635986,   476.849945
-0.007432,   0.032347,   0.031658,   0.000000,   587.775391,   0.522565,   3.340294,   16.980139,   538.527527,   192.688629,   139.489029,   0.459195,   530.795837,   484.230072
-0.007735,   0.032419,   0.031740,   0.000000,   587.985535,   0.522564,   3.340294,   16.100149,   532.070007,   192.404663,   148.724991,   0.453069,   533.012817,   491.334076
-0.008031,   0.032448,   0.031789,   0.000000,   588.141724,   0.522565,   3.340294,   15.220160,   525.030884,   192.574142,   158.001877,   0.446869,   535.283691,   498.198517
-0.008321,   0.032430,   0.031799,   0.000000,   588.188782,   0.522565,   3.340294,   14.340169,   517.332520,   193.103561,   167.314850,   0.440504,   537.592773,   504.878845
-0.008593,   0.032356,   0.031765,   0.000000,   588.155579,   0.522564,   3.340294,   13.460179,   508.853943,   194.185638,   176.755371,   0.434008,   539.958984,   511.365051
-0.008856,   0.032241,   0.031699,   0.000000,   588.054565,   0.522565,   3.340294,   12.580190,   499.548706,   195.814758,   186.320999,   0.427321,   542.420349,   517.724182
-0.009111,   0.032083,   0.031600,   0.000000,   587.866211,   0.522565,   3.340294,   11.700199,   489.275726,   198.048584,   196.041626,   0.420392,   544.986755,   523.981750
-0.009352,   0.031847,   0.031432,   0.000000,   587.455994,   0.522565,   3.340294,   10.820210,   477.669800,   200.914978,   206.002106,   0.413060,   547.608276,   530.145081
-0.009586,   0.031551,   0.031214,   0.000000,   586.835205,   0.522564,   3.340294,   9.940220,   464.692932,   204.459381,   216.111664,   0.405316,   550.313599,   536.199585
-0.009804,   0.031224,   0.030973,   0.000000,   586.164978,   0.522565,   3.340294,   9.060229,   450.529541,   209.039963,   226.167023,   0.397479,   553.127869,   542.007263
-0.009994,   0.030768,   0.030611,   0.000000,   584.988403,   0.522564,   3.340294,   8.180239,   434.101257,   214.556580,   236.417847,   0.388957,   555.895081,   547.601746
-0.010184,   0.030245,   0.030182,   0.000000,   583.413208,   0.522565,   3.340294,   7.300249,   415.830444,   221.026016,   246.434296,   0.380023,   558.612305,   552.816772
-0.010387,   0.029696,   0.029736,   0.000000,   581.506897,   0.522564,   3.340294,   6.420259,   395.275604,   228.750992,   256.308746,   0.370481,   561.455811,   557.816223
-0.010565,   0.028983,   0.029110,   0.000000,   578.558472,   0.522565,   3.340294,   5.540269,   371.866425,   237.427551,   265.535370,   0.360218,   563.819336,   561.929871
-0.010685,   0.027953,   0.028149,   0.000000,   573.683960,   0.522564,   3.340294,   4.660279,   344.092560,   246.955383,   273.886963,   0.348576,   565.202026,   564.601379
-0.010680,   0.026527,   0.026746,   0.000000,   566.543457,   0.522565,   3.340294,   3.780289,   311.264984,   258.403381,   280.466644,   0.336095,   564.987549,   564.968079
-0.013890,   0.034530,   0.035341,   0.000000,   590.357483,   0.517473,   4.089216,   54.127285,   350.287659,   245.284866,   -287.822021,   0.337760,   587.767273,   587.715271
-0.013426,   0.035052,   0.035699,   0.000000,   593.622742,   0.517473,   4.089216,   53.271168,   377.793243,   235.239334,   -278.118134,   0.349809,   584.159668,   583.433472
-0.012995,   0.035399,   0.035880,   0.000000,   595.619385,   0.517472,   4.089216,   52.415058,   401.460968,   226.439499,   -267.730042,   0.360767,   580.152771,   578.126953
-0.012591,   0.035704,   0.036026,   0.000000,   597.060364,   0.517473,   4.089216,   51.558945,   422.252289,   219.058685,   -257.055908,   0.370993,   576.210815,   572.369263
-0.012204,   0.035944,   0.036114,   0.000000,   597.934326,   0.517473,   4.089216,   50.702831,   440.919678,   212.488205,   -246.009537,   0.380629,   572.217834,   566.120789
-0.011815,   0.036051,   0.036083,   0.000000,   598.187378,   0.517473,   4.089216,   49.846718,   456.773743,   206.946747,   -235.216431,   0.389328,   568.261963,   559.665955
-0.011456,   0.036183,   0.036089,   0.000000,   598.383362,   0.517473,   4.089216,   48.990604,   471.257690,   202.275955,   -224.400146,   0.397666,   564.572021,   553.151367
-0.011115,   0.036310,   0.036105,   0.000000,   598.503784,   0.517473,   4.089216,   48.134491,   484.314941,   198.438278,   -213.735825,   0.405573,   561.142700,   546.641479
-0.010777,   0.036352,   0.036048,   0.000000,   598.265991,   0.517473,   4.089216,   47.278378,   495.661987,   195.077103,   -203.393204,   0.412770,   557.808167,   540.158081
-0.010452,   0.036381,   0.035991,   0.000000,   597.965637,   0.517473,   4.089216,   46.422264,   505.893066,   192.272202,   -193.269836,   0.419549,   554.695312,   533.761597
-0.010138,   0.036403,   0.035940,   0.000000,   597.674866,   0.517472,   4.089216,   45.566151,   515.198181,   190.052536,   -183.355804,   0.426024,   551.808350,   527.436340
-0.009828,   0.036404,   0.035881,   0.000000,   597.334045,   0.517473,   4.089216,   44.710037,   523.595520,   188.253143,   -173.680801,   0.432125,   549.106628,   521.214905
-0.009517,   0.036395,   0.035824,   0.000000,   597.033875,   0.517473,   4.089216,   43.853924,   531.364136,   186.982742,   -164.097382,   0.438094,   546.569580,   514.955017
-0.009207,   0.036361,   0.035755,   0.000000,   596.753357,   0.517473,   4.089216,   42.997814,   538.508972,   186.223343,   -154.632004,   0.443937,   544.170227,   508.630035
-0.008896,   0.036299,   0.035666,   0.000000,   596.457520,   0.517473,   4.089216,   42.141701,   545.122864,   185.882187,   -145.178299,   0.449688,   541.860474,   502.171356
-0.008587,   0.036208,   0.035559,   0.000000,   596.138550,   0.517473,   4.089216,   41.285587,   551.184814,   185.905411,   -135.799561,   0.455289,   539.649780,   495.633881
-0.008283,   0.036105,   0.035448,   0.000000,   595.860840,   0.517473,   4.089216,   40.429474,   556.829529,   186.334778,   -126.429161,   0.460821,   537.564941,   488.975708
-0.007991,   0.036002,   0.035345,   0.000000,   595.633423,   0.517472,   4.089216,   39.573360,   562.163574,   187.101501,   -116.933723,   0.466304,   535.605957,   482.169952
-0.007705,   0.035888,   0.035237,   0.000000,   595.436157,   0.517473,   4.089216,   38.717247,   567.095032,   188.210648,   -107.430138,   0.471680,   533.770020,   475.256775
-0.007430,   0.035758,   0.035118,   0.000000,   595.231995,   0.517473,   4.089216,   37.861134,   571.628967,   189.572754,   -97.850777,   0.476916,   532.030579,   468.244415
-0.007171,   0.035630,   0.035006,   0.000000,   595.053223,   0.517473,   4.089216,   37.005020,   575.785278,   191.108688,   -88.222267,   0.481926,   530.436768,   461.275970
-0.006933,   0.035513,   0.034907,   0.000000,   594.889221,   0.517474,   4.089216,   36.148907,   579.551453,   192.766754,   -78.534447,   0.486668,   528.983582,   454.417175
-0.006716,   0.035407,   0.034821,   0.000000,   594.788696,   0.517473,   4.089216,   35.292793,   582.959595,   194.493576,   -68.812340,   0.491073,   527.724548,   447.831085
-0.006526,   0.035314,   0.034749,   0.000000,   594.687317,   0.517473,   4.089216,   34.436680,   585.920593,   196.180054,   -59.106705,   0.495048,   526.616028,   441.648743
-0.006365,   0.035239,   0.034692,   0.000000,   594.545227,   0.517472,   4.089216,   33.580566,   588.401672,   197.746368,   -49.373562,   0.498550,   525.622620,   435.967590
-0.006230,   0.035180,   0.034651,   0.000000,   594.315796,   0.517473,   4.089216,   32.724453,   590.355835,   199.110611,   -39.560146,   0.501532,   524.703674,   430.898285
-0.006125,   0.035134,   0.034621,   0.000000,   594.116821,   0.517472,   4.089216,   31.868340,   591.872131,   200.185791,   -29.736444,   0.503873,   523.980286,   426.798920
-0.006049,   0.035103,   0.034601,   0.000000,   593.905151,   0.517473,   4.089216,   31.012226,   592.903259,   200.997009,   -19.840557,   0.505609,   523.395874,   423.650360
-0.006003,   0.035085,   0.034591,   0.000000,   593.655762,   0.517473,   4.089216,   30.156113,   593.403931,   201.545258,   -9.937315,   0.506736,   522.921814,   421.497284
-0.005988,   0.035079,   0.034587,   0.000000,   593.592590,   0.517472,   4.089216,   29.299999,   593.592590,   201.749374,   0.000000,   0.507124,   522.779114,   420.765503
-0.006003,   0.035085,   0.034591,   0.000000,   593.655762,   0.517473,   4.089216,   28.443888,   593.403931,   201.545227,   9.937312,   0.506736,   522.921814,   421.497284
-0.006049,   0.035103,   0.034601,   0.000000,   593.905151,   0.517473,   4.089216,   27.587774,   592.903259,   200.997009,   19.840549,   0.505609,   523.395874,   423.650360
-0.006125,   0.035134,   0.034621,   0.000000,   594.116821,   0.517473,   4.089216,   26.731661,   591.872131,   200.185806,   29.736448,   0.503873,   523.980286,   426.798920
-0.006230,   0.035180,   0.034651,   0.000000,   594.315796,   0.517472,   4.089216,   25.875547,   590.355835,   199.110626,   39.560146,   0.501532,   524.703674,   430.898285
-0.006365,   0.035239,   0.034692,   0.000000,   594.545227,   0.517473,   4.089216,   25.019434,   588.401672,   197.746307,   49.373566,   0.498550,   525.622620,   435.967712
-0.006526,   0.035314,   0.034749,   0.000000,   594.687317,   0.517473,   4.089216,   24.163321,   585.920593,   196.180038,   59.106720,   0.495048,   526.616028,   441.648743
-0.006716,   0.035407,   0.034821,   0.000000,   594.788696,   0.517473,   4.089216,   23.307207,   582.959595,   194.493546,   68.812355,   0.491073,   527.724548,   447.831238
-0.006933,   0.035513,   0.034907,   0.000000,   594.889160,   0.517472,   4.089216,   22.451094,   579.551392,   192.766724,   78.534447,   0.486668,   528.983521,   454.417267
-0.007171,   0.035630,   0.035006,   0.000000,   595.053162,   0.517473,   4.089216,   21.594982,   575.785278,   191.108673,   88.222252,   0.481926,   530.436768,   461.276123
-0.007430,   0.035758,   0.035118,   0.000000,   595.231934,   0.517473,   4.089216,   20.738867,   571.628967,   189.572754,   97.850761,   0.476916,   532.030579,   468.244385
-0.007705,   0.035888,   0.035237,   0.000000,   595.436157,   0.517472,   4.089216,   19.882755,   567.095032,   188.210663,   107.430115,   0.471680,   533.769958,   475.256744
-0.007991,   0.036002,   0.035345,   0.000000,   595.633423,   0.517473,   4.089216,   19.026642,   562.163574,   187.101456,   116.933708,   0.466304,   535.605957,   482.169983
-0.008283,   0.036105,   0.035448,   0.000000,   595.860779,   0.517473,   4.089216,   18.170528,   556.829468,   186.334793,   126.429161,   0.460821,   537.564880,   488.975647
-0.008587,   0.036208,   0.035559,   0.000000,   596.138550,   0.517473,   4.089216,   17.314415,   551.184753,   185.905396,   135.799576,   0.455289,   539.649719,   495.633759
-0.008896,   0.036299,   0.035666,   0.000000,   596.457458,   0.517472,   4.089216,   16.458302,   545.122803,   185.882187,   145.178299,   0.449688,   541.860352,   502.171234
-0.009207,   0.036361,   0.035755,   0.000000,   596.753296,   0.517473,   4.089216,   15.602188,   538.508972,   186.223358,   154.631989,   0.443937,   544.170227,   508.630005
-0.009517,   0.036395,   0.035824,   0.000000,   597.033875,   0.517473,   4.089216,   14.746075,   531.364136,   186.982742,   164.097382,   0.438094,   546.569580,   514.955017
-0.009828,   0.036404,   0.035881,   0.000000,   597.334045,   0.517473,   4.089216,   13.889962,   523.595520,   188.253159,   173.680771,   0.432125,   549.106567,   521.214844
-0.010138,   0.036403,   0.035940,   0.000000,   597.674866,   0.517473,   4.089216,   13.033849,   515.198181,   190.052505,   183.355774,   0.426024,   551.808350,   527.436279
-0.010452,   0.036381,   0.035991,   0.000000,   597.965576,   0.517473,   4.089216,   12.177735,   505.893066,   192.272232,   193.269806,   0.419549,   554.695312,   533.761597
-0.010777,   0.036352,   0.036048,   0.000000,   598.265991,   0.517473,   4.089216,   11.321622,   495.662018,   195.077148,   203.393143,   0.412770,   557.808167,   540.157959
-0.011115,   0.036310,   0.036105,   0.000000,   598.503723,   0.517473,   4.089216,   10.465509,   484.314972,   198.438293,   213.735779,   0.405573,   561.142639,   546.641418
-0.011456,   0.036183,   0.036089,   0.000000,   598.383362,   0.517473,   4.089216,   9.609395,   471.257721,   202.275986,   224.400101,   0.397666,   564.571960,   553.151306
-0.011815,   0.036051,   0.036083,   0.000000,   598.187378,   0.517473,   4.089216,   8.753282,   456.773743,   206.946732,   235.216415,   0.389328,   568.261963,   559.665894
-0.012204,   0.035944,   0.036114,   0.000000,   597.934326,   0.517473,   4.089216,   7.897169,   440.919617,   212.488144,   246.009567,   0.380629,   572.217834,   566.120789
-0.012591,   0.035704,   0.036026,   0.000000,   597.060303,   0.517473,   4.089216,   7.041056,   422.252228,   219.058640,   257.055939,   0.370993,   576.210815,   572.369324
-0.012995,   0.035399,   0.035880,   0.000000,   595.619263,   0.517473,   4.089216,   6.184943,   401.460785,   226.439392,   267.730072,   0.360767,   580.152710,   578.126953
-0.013426,   0.035052,   0.035699,   0.000000,   593.622620,   0.517473,   4.089216,   5.328829,   377.793121,   235.239349,   278.118134,   0.349809,   584.159607,   583.433411
-0.013890,   0.034530,   0.035341,   0.000000,   590.357422,   0.517473,   4.089216,   4.472716,   350.287659,   245.284866,   287.821991,   0.337760,   587.767273,   587.715210
-0.017132,   0.042292,   0.043535,   0.000000,   607.342224,   0.523154,   4.859001,   53.488712,   385.030334,   227.471085,   -290.602600,   0.337590,   604.779114,   604.729675
-0.016427,   0.042392,   0.043381,   0.000000,   609.185181,   0.523154,   4.859001,   52.654621,   409.579773,   219.154709,   -279.020050,   0.349501,   599.649536,   598.931946
-0.015729,   0.042369,   0.043125,   0.000000,   610.204407,   0.523154,   4.859001,   51.820526,   430.685608,   212.249100,   -267.283508,   0.360481,   594.515381,   592.483215
-0.015085,   0.042260,   0.042804,   0.000000,   610.660156,   0.523154,   4.859001,   50.986435,   448.881744,   206.612839,   -255.668030,   0.370636,   589.523010,   585.668884
-0.014530,   0.042182,   0.042534,   0.000000,   610.779114,   0.523155,   4.859001,   50.152340,   465.078613,   201.530304,   -244.187943,   0.379921,   584.866150,   578.825562
-0.013980,   0.042102,   0.042287,   0.000000,   610.832764,   0.523154,   4.859001,   49.318245,   479.654846,   197.558350,   -232.835709,   0.388870,   580.496033,   571.863770
-0.013455,   0.041926,   0.041965,   0.000000,   610.416626,   0.523154,   4.859001,   48.484154,   492.208435,   194.025894,   -221.857574,   0.396947,   576.260681,   564.876038
-0.012976,   0.041756,   0.041662,   0.000000,   609.833313,   0.523155,   4.859001,   47.650059,   503.476837,   190.845367,   -211.097351,   0.404415,   572.285706,   557.995178
-0.012524,   0.041603,   0.041397,   0.000000,   609.274780,   0.523154,   4.859001,   46.815964,   513.629028,   188.290329,   -200.662354,   0.411460,   568.641174,   551.277161
-0.012112,   0.041461,   0.041158,   0.000000,   608.604553,   0.523155,   4.859001,   45.981869,   522.694641,   185.892395,   -190.565384,   0.417835,   565.284180,   544.855896
-0.011715,   0.041357,   0.040975,   0.000000,   608.107605,   0.523152,   4.859001,   45.147778,   531.179932,   184.131592,   -180.597626,   0.424096,   562.224182,   538.503845
-0.011334,   0.041251,   0.040804,   0.000000,   607.601257,   0.523154,   4.859001,   44.313686,   538.983826,   182.703964,   -170.749390,   0.430073,   559.353088,   532.223389
-0.010962,   0.041119,   0.040619,   0.000000,   607.062134,   0.523155,   4.859001,   43.479591,   546.094055,   181.650742,   -161.048157,   0.435811,   556.620911,   525.963074
-0.010613,   0.040994,   0.040451,   0.000000,   606.561951,   0.523154,   4.859001,   42.645496,   552.629028,   180.914261,   -151.513763,   0.441287,   554.093506,   519.822083
-0.010276,   0.040891,   0.040319,   0.000000,   606.198486,   0.523155,   4.859001,   41.811405,   558.838074,   180.623352,   -141.969788,   0.446720,   551.771545,   513.657776
-0.009949,   0.040790,   0.040200,   0.000000,   605.907593,   0.523154,   4.859001,   40.977310,   564.680786,   180.716599,   -132.398117,   0.452082,   549.603027,   507.433075
-0.009630,   0.040677,   0.040078,   0.000000,   605.640198,   0.523154,   4.859001,   40.143215,   570.067627,   181.125214,   -122.886482,   0.457289,   547.570129,   501.201202
-0.009331,   0.040572,   0.039969,   0.000000,   605.426147,   0.523154,   4.859001,   39.309124,   575.106995,   181.797501,   -113.331596,   0.462353,   545.689941,   494.971893
-0.009055,   0.040481,   0.039881,   0.000000,   605.281006,   0.523154,   4.859001,   38.475029,   579.782959,   182.695099,   -103.803314,   0.467211,   543.992310,   488.840088
-0.008792,   0.040409,   0.039821,   0.000000,   605.237610,   0.523155,   4.859001,   37.640938,   584.148193,   183.852737,   -94.269661,   0.471900,   542.488708,   482.793152
-0.008549,   0.040348,   0.039774,   0.000000,   605.239258,   0.523154,   4.859001,   36.806843,   588.142151,   185.146454,   -84.748886,   0.476323,   541.151611,   476.920349
-0.008327,   0.040295,   0.039739,   0.000000,   605.265137,   0.523154,   4.859001,   35.972748,   591.747986,   186.491867,   -75.237175,   0.480419,   539.972778,   471.311340
-0.008130,   0.040255,   0.039718,   0.000000,   605.326416,   0.523155,   4.859001,   35.138653,   594.967834,   187.865829,   -65.759460,   0.484162,   538.961121,   466.044708
-0.007957,   0.040224,   0.039707,   0.000000,   605.366272,   0.523154,   4.859001,   34.304562,   597.743835,   189.208298,   -56.321781,   0.487518,   538.066711,   461.161804
-0.007808,   0.040198,   0.039699,   0.000000,   605.451965,   0.523154,   4.859001,   33.470467,   600.139954,   190.421204,   -46.953804,   0.490392,   537.366516,   456.900696
-0.007687,   0.040181,   0.039698,   0.000000,   605.528015,   0.523154,   4.859001,   32.636375,   602.116028,   191.514374,   -37.584679,   0.492823,   536.791809,   453.207916
-0.007592,   0.040173,   0.039705,   0.000000,   605.363770,   0.523154,   4.859001,   31.802280,   603.437988,   192.456024,   -28.198616,   0.494846,   536.122131,   449.898926
-0.007525,   0.040171,   0.039713,   0.000000,   605.326660,   0.523154,   4.859001,   30.968187,   604.468750,   193.128342,   -18.804876,   0.496272,   535.725525,   447.588165
-0.007484,   0.040168,   0.039718,   0.000000,   605.224731,   0.523154,   4.859001,   30.134094,   605.009827,   193.469635,   -9.406986,   0.497098,   535.426758,   446.175476
-0.007471,   0.040167,   0.039719,   0.000000,   605.176697,   0.523154,   4.859001,   29.300001,   605.176697,   193.581253,   -0.000006,   0.497376,   535.314575,   445.688232
-0.007484,   0.040168,   0.039718,   0.000000,   605.224731,   0.523154,   4.859001,   28.465906,   605.009827,   193.469635,   9.406973,   0.497098,   535.426758,   446.175476
-0.007525,   0.040171,   0.039713,   0.000000,   605.326660,   0.523154,   4.859001,   27.631813,   604.468750,   193.128311,   18.804867,   0.496272,   535.725525,   447.588165
-0.007592,   0.040173,   0.039705,   0.000000,   605.363770,   0.523154,   4.859001,   26.797718,   603.437988,   192.456039,   28.198614,   0.494846,   536.122131,   449.898926
-0.007687,   0.040181,   0.039698,   0.000000,   605.528015,   0.523154,   4.859001,   25.963625,   602.116028,   191.514313,   37.584671,   0.492823,   536.791809,   453.207916
-0.007808,   0.040198,   0.039699,   0.000000,   605.451965,   0.523154,   4.859001,   25.129532,   600.139954,   190.421280,   46.953808,   0.490392,   537.366516,   456.900574
-0.007957,   0.040224,   0.039707,   0.000000,   605.366272,   0.523154,   4.859001,   24.295439,   597.743835,   189.208252,   56.321793,   0.487518,   538.066711,   461.161926
-0.008130,   0.040255,   0.039718,   0.000000,   605.326416,   0.523154,   4.859001,   23.461344,   594.967834,   187.865829,   65.759476,   0.484162,   538.961121,   466.044708
-0.008327,   0.040295,   0.039739,   0.000000,   605.265076,   0.523153,   4.859001,   22.627251,   591.747925,   186.491821,   75.237175,   0.480419,   539.972717,   471.311432
-0.008549,   0.040348,   0.039774,   0.000000,   605.239197,   0.523154,   4.859001,   21.793158,   588.142090,   185.146408,   84.748894,   0.476323,   541.151611,   476.920197
-0.008792,   0.040409,   0.039821,   0.000000,   605.237610,   0.523154,   4.859001,   20.959064,   584.148193,   183.852737,   94.269669,   0.471900,   542.488708,   482.793152
-0.009055,   0.040481,   0.039881,   0.000000,   605.281006,   0.523154,   4.859001,   20.124969,   579.782959,   182.695038,   103.803314,   0.467211,   543.992310,   488.840088
-0.009331,   0.040572,   0.039969,   0.000000,   605.426147,   0.523154,   4.859001,   19.290876,   575.106995,   181.797577,   113.331612,   0.462353,   545.689941,   494.971924
-0.009630,   0.040677,   0.040078,   0.000000,   605.640137,   0.523154,   4.859001,   18.456783,   570.067566,   181.125183,   122.886475,   0.457289,   547.570129,   501.201263
-0.009949,   0.040790,   0.040200,   0.000000,   605.907593,   0.523154,   4.859001,   17.622690,   564.680786,   180.716568,   132.398132,   0.452082,   549.603027,   507.433258
-0.010276,   0.040891,   0.040319,   0.000000,   606.198486,   0.523154,   4.859001,   16.788595,   558.838074,   180.623337,   141.969788,   0.446720,   551.771545,   513.657776
-0.010613,   0.040994,   0.040451,   0.000000,   606.561890,   0.523154,   4.859001,   15.954503,   552.628967,   180.914246,   151.513763,   0.441287,   554.093445,   519.821960
-0.010962,   0.041119,   0.040619,   0.000000,   607.062134,   0.523154,   4.859001,   15.120409,   546.094055,   181.650742,   161.048141,   0.435811,   556.620911,   525.963074
-0.011334,   0.041251,   0.040804,   0.000000,   607.601196,   0.523154,   4.859001,   14.286316,   538.983826,   182.703964,   170.749359,   0.430073,   559.353027,   532.223328
-0.011715,   0.041357,   0.040975,   0.000000,   608.107605,   0.523154,   4.859001,   13.452222,   531.179871,   184.131622,   180.597610,   0.424096,   562.224121,   538.503723
-0.012112,   0.041461,   0.041158,   0.000000,   608.604492,   0.523154,   4.859001,   12.618128,   522.694580,   185.892441,   190.565369,   0.417835,   565.284119,   544.855774
-0.012524,   0.041603,   0.041397,   0.000000,   609.274780,   0.523154,   4.859001,   11.784035,   513.629028,   188.290344,   200.662323,   0.411460,   568.641113,   551.277100
-0.012976,   0.041756,   0.041662,   0.000000,   609.833313,   0.523154,   4.859001,   10.949941,   503.476868,   190.845459,   211.097290,   0.404415,   572.285645,   557.994995
-0.013455,   0.041926,   0.041965,   0.000000,   610.416565,   0.523154,   4.859001,   10.115848,   492.208466,   194.025940,   221.857498,   0.396947,   576.260620,   564.875916
-0.013980,   0.042102,   0.042287,   0.000000,   610.832703,   0.523154,   4.859001,   9.281754,   479.654877,   197.558365,   232.835632,   0.388870,   580.495972,   571.863647
-0.014530,   0.042182,   0.042534,   0.000000,   610.779114,   0.523154,   4.859001,   8.447660,   465.078644,   201.530334,   244.187897,   0.379921,   584.866089,   578.825439
-0.015085,   0.042260,   0.042804,   0.000000,   610.660095,   0.523154,   4.859001,   7.613567,   448.881714,   206.612793,   255.668015,   0.370636,   589.523010,   585.668823
-0.015729,   0.042369,   0.043125,   0.000000,   610.204346,   0.523154,   4.859001,   6.779473,   430.685516,   212.249100,   267.283508,   0.360481,   594.515381,   592.483215
-0.016427,   0.042392,   0.043381,   0.000000,   609.184998,   0.523154,   4.859001,   5.945380,   409.579468,   219.154602,   279.020111,   0.349501,   599.649475,   598.931885
-0.017132,   0.042292,   0.043535,   0.000000,   607.342102,   0.523154,   4.859001,   5.111286,   385.030151,   227.471191,   290.602539,   0.337590,   604.778931,   604.729431
-0.020991,   0.051313,   0.052935,   0.000000,   623.184509,   0.527610,   5.656495,   52.883896,   420.243500,   207.832336,   -290.330841,   0.337265,   620.753357,   620.709961
-0.019979,   0.050939,   0.052219,   0.000000,   623.904846,   0.527611,   5.656495,   52.070660,   441.588043,   201.466248,   -277.520569,   0.348792,   614.553955,   613.882141
-0.019039,   0.050472,   0.051452,   0.000000,   624.123291,   0.527611,   5.656495,   51.257420,   459.915344,   196.590073,   -264.961029,   0.359584,   608.578674,   606.635803
-0.018111,   0.049978,   0.050704,   0.000000,   624.186523,   0.527610,   5.656495,   50.444183,   475.972839,   193.197723,   -252.741852,   0.369940,   602.954346,   599.161621
-0.017278,   0.049479,   0.049986,   0.000000,   623.735779,   0.527612,   5.656495,   49.630943,   489.804443,   189.925217,   -241.041107,   0.379075,   597.709167,   591.765259
-0.016551,   0.049012,   0.049322,   0.000000,   623.110107,   0.527610,   5.656495,   48.817707,   502.169159,   187.101852,   -229.632889,   0.387576,   592.805176,   584.412354
-0.015847,   0.048581,   0.048731,   0.000000,   622.506470,   0.527611,   5.656495,   48.004471,   513.264160,   184.970566,   -218.626221,   0.395617,   588.309204,   577.190979
-0.015238,   0.048187,   0.048193,   0.000000,   621.635254,   0.527611,   5.656495,   47.191231,   523.076782,   182.641998,   -208.005981,   0.402704,   584.149902,   570.296509
-0.014665,   0.047863,   0.047749,   0.000000,   620.942017,   0.527611,   5.656495,   46.377995,   532.133545,   180.932388,   -197.678009,   0.409533,   580.389709,   563.587646
-0.014130,   0.047568,   0.047353,   0.000000,   620.264099,   0.527611,   5.656495,   45.564754,   540.546204,   179.521729,   -187.443436,   0.416075,   576.873962,   556.951294
-0.013622,   0.047249,   0.046950,   0.000000,   619.467590,   0.527610,   5.656495,   44.751518,   548.038025,   178.300507,   -177.517273,   0.422131,   573.548950,   550.474976
-0.013159,   0.046970,   0.046598,   0.000000,   618.714600,   0.527611,   5.656495,   43.938282,   555.024353,   177.282700,   -167.674957,   0.427901,   570.464417,   544.139587
-0.012718,   0.046738,   0.046312,   0.000000,   618.135193,   0.527611,   5.656495,   43.125042,   561.635986,   176.702911,   -157.925888,   0.433557,   567.660034,   537.895996
-0.012300,   0.046530,   0.046064,   0.000000,   617.642273,   0.527611,   5.656495,   42.311806,   567.842773,   176.443466,   -148.227768,   0.439055,   565.066345,   531.710083
-0.011915,   0.046340,   0.045843,   0.000000,   617.191467,   0.527611,   5.656495,   41.498566,   573.593628,   176.393723,   -138.628357,   0.444301,   562.671814,   525.650452
-0.011553,   0.046183,   0.045666,   0.000000,   616.867371,   0.527611,   5.656495,   40.685329,   579.066528,   176.673019,   -128.994980,   0.449455,   560.486450,   519.620422
-0.011219,   0.046052,   0.045525,   0.000000,   616.627869,   0.527610,   5.656495,   39.872089,   584.154053,   177.174438,   -119.460197,   0.454375,   558.517517,   513.744324
-0.010907,   0.045967,   0.045439,   0.000000,   616.541443,   0.527611,   5.656495,   39.058853,   588.981750,   177.946793,   -109.943321,   0.459133,   556.794189,   508.002930
-0.010622,   0.045912,   0.045389,   0.000000,   616.535034,   0.527611,   5.656495,   38.245617,   593.505920,   178.870911,   -100.394257,   0.463668,   555.265808,   502.417786
-0.010360,   0.045860,   0.045348,   0.000000,   616.549194,   0.527611,   5.656495,   37.432377,   597.609375,   179.898071,   -90.940086,   0.467901,   553.896912,   497.052582
-0.010122,   0.045828,   0.045330,   0.000000,   616.613892,   0.527611,   5.656495,   36.619141,   601.343689,   180.996414,   -81.559616,   0.471820,   552.710388,   491.973450
-0.009908,   0.045814,   0.045333,   0.000000,   616.728516,   0.527610,   5.656495,   35.805901,   604.716553,   182.138214,   -72.251595,   0.475410,   551.702209,   487.225739
-0.009724,   0.045815,   0.045353,   0.000000,   616.867004,   0.527612,   5.656495,   34.992664,   607.697205,   183.235535,   -63.057938,   0.478604,   550.861450,   482.912140
-0.009564,   0.045828,   0.045384,   0.000000,   617.022583,   0.527610,   5.656495,   34.179428,   610.302979,   184.278534,   -53.924622,   0.481416,   550.169189,   479.040100
-0.009427,   0.045845,   0.045419,   0.000000,   617.186279,   0.527611,   5.656495,   33.366188,   612.527283,   185.266006,   -44.858902,   0.483855,   549.608643,   475.626251
-0.009314,   0.045861,   0.045451,   0.000000,   617.272461,   0.527611,   5.656495,   32.552952,   614.288147,   186.127548,   -35.870384,   0.485890,   549.106079,   472.680817
-0.009227,   0.045874,   0.045478,   0.000000,   617.398987,   0.527610,   5.656495,   31.739714,   615.716064,   186.760345,   -26.920788,   0.487423,   548.788208,   470.472137
-0.009165,   0.045887,   0.045500,   0.000000,   617.479248,   0.527610,   5.656495,   30.926476,   616.729919,   187.242554,   -17.955439,   0.488546,   548.547791,   468.824707
-0.009128,   0.045897,   0.045518,   0.000000,   617.305054,   0.527611,   5.656495,   30.113239,   617.117004,   187.581329,   -8.989143,   0.489314,   548.181519,   467.514191
-0.009116,   0.045901,   0.045524,   0.000000,   617.364197,   0.527611,   5.656495,   29.299999,   617.364197,   187.702454,   -0.000007,   0.489548,   548.169678,   467.197479
-0.009128,   0.045897,   0.045518,   0.000000,   617.305054,   0.527611,   5.656495,   28.486761,   617.117004,   187.581329,   8.989129,   0.489314,   548.181519,   467.514191
-0.009165,   0.045887,   0.045500,   0.000000,   617.479248,   0.527611,   5.656495,   27.673523,   616.729919,   187.242584,   17.955431,   0.488546,   548.547791,   468.824615
-0.009227,   0.045874,   0.045478,   0.000000,   617.398987,   0.527610,   5.656495,   26.860287,   615.716064,   186.760284,   26.920782,   0.487423,   548.788269,   470.472351
-0.009314,   0.045861,   0.045451,   0.000000,   617.272522,   0.527610,   5.656495,   26.047049,   614.288208,   186.127625,   35.870384,   0.485890,   549.106140,   472.680817
-0.009427,   0.045845,   0.045419,   0.000000,   617.186218,   0.527611,   5.656495,   25.233810,   612.527222,   185.265930,   44.858894,   0.483855,   549.608582,   475.626190
-0.009564,   0.045828,   0.045384,   0.000000,   617.022583,   0.527611,   5.656495,   24.420572,   610.302979,   184.278519,   53.924625,   0.481416,   550.169189,   479.040100
-0.009724,   0.045815,   0.045353,   0.000000,   616.867004,   0.527611,   5.656495,   23.607334,   607.697205,   183.235519,   63.057945,   0.478604,   550.861450,   482.912140
-0.009908,   0.045814,   0.045333,   0.000000,   616.728455,   0.527610,   5.656495,   22.794098,   604.716492,   182.138168,   72.251595,   0.475410,   551.702148,   487.225708
-0.010122,   0.045828,   0.045330,   0.000000,   616.613892,   0.527611,   5.656495,   21.980860,   601.343689,   180.996445,   81.559639,   0.471820,   552.710388,   491.973389
-0.010360,   0.045860,   0.045348,   0.000000,   616.549194,   0.527611,   5.656495,   21.167622,   597.609375,   179.897995,   90.940086,   0.467901,   553.896912,   497.052673
-0.010622,   0.045912,   0.045389,   0.000000,   616.535034,   0.527610,   5.656495,   20.354383,   593.505920,   178.870956,   100.394272,   0.463668,   555.265808,   502.417816
-0.010907,   0.045967,   0.045439,   0.000000,   616.541382,   0.527610,   5.656495,   19.541147,   588.981689,   177.946686,   109.943314,   0.459133,   556.794128,   508.002960
-0.011219,   0.046052,   0.045525,   0.000000,   616.627869,   0.527611,   5.656495,   18.727909,   584.154053,   177.174423,   119.460190,   0.454375,   558.517456,   513.744324
-0.011553,   0.046183,   0.045666,   0.000000,   616.867310,   0.527611,   5.656495,   17.914671,   579.066467,   176.673080,   128.994995,   0.449455,   560.486389,   519.620422
-0.011915,   0.046340,   0.045843,   0.000000,   617.191406,   0.527611,   5.656495,   17.101433,   573.593567,   176.393661,   138.628357,   0.444301,   562.671753,   525.650513
-0.012300,   0.046530,   0.046064,   0.000000,   617.642212,   0.527610,   5.656495,   16.288195,   567.842712,   176.443512,   148.227798,   0.439055,   565.066284,   531.710022
-0.012718,   0.046738,   0.046312,   0.000000,   618.135132,   0.527610,   5.656495,   15.474957,   561.635925,   176.702866,   157.925888,   0.433557,   567.660034,   537.896057
-0.013159,   0.046970,   0.046598,   0.000000,   618.714600,   0.527610,   5.656495,   14.661719,   555.024353,   177.282745,   167.674957,   0.427901,   570.464417,   544.139587
-0.013622,   0.047249,   0.046950,   0.000000,   619.467590,   0.527611,   5.656495,   13.848482,   548.038025,   178.300522,   177.517273,   0.422131,   573.549011,   550.474976
-0.014130,   0.047568,   0.047353,   0.000000,   620.264038,   0.527611,   5.656495,   13.035244,   540.546143,   179.521698,   187.443436,   0.416075,   576.873901,   556.951172
-0.014665,   0.047862,   0.047749,   0.000000,   620.942017,   0.527610,   5.656495,   12.222006,   532.133545,   180.932480,   197.677994,   0.409533,   580.389709,   563.587646
-0.015238,   0.048187,   0.048193,   0.000000,   621.635132,   0.527611,   5.656495,   11.408768,   523.076721,   182.642014,   208.005951,   0.402704,   584.149841,   570.296326
-0.015846,   0.048581,   0.048731,   0.000000,   622.506409,   0.527610,   5.656495,   10.595531,   513.264160,   184.970718,   218.626144,   0.395617,   588.309082,   577.190918
-0.016551,   0.049012,   0.049322,   0.000000,   623.110107,   0.527611,   5.656495,   9.782292,   502.169159,   187.101974,   229.632797,   0.387576,   592.805054,   584.412170
-0.017278,   0.049479,   0.049986,   0.000000,   623.735779,   0.527611,   5.656495,   8.969054,   489.804504,   189.925354,   241.041016,   0.379075,   597.709045,   591.765076
-0.018111,   0.049978,   0.050704,   0.000000,   624.186523,   0.527610,   5.656495,   8.155817,   475.972870,   193.197861,   252.741760,   0.369940,   602.954224,   599.161438
-0.019039,   0.050472,   0.051452,   0.000000,   624.123169,   0.527611,   5.656495,   7.342579,   459.915283,   196.590103,   264.960968,   0.359584,   608.578552,   606.635681
-0.019979,   0.050939,   0.052219,   0.000000,   623.904724,   0.527611,   5.656495,   6.529341,   441.587830,   201.466370,   277.520538,   0.348792,   614.553772,   613.882019
-0.020991,   0.051313,   0.052935,   0.000000,   623.184204,   0.527611,   5.656495,   5.716104,   420.242859,   207.832382,   290.330933,   0.337265,   620.753113,   620.709778
-0.025350,   0.061468,   0.063359,   0.000000,   637.786621,   0.530988,   6.480167,   52.313992,   455.461975,   187.499619,   -286.528198,   0.337398,   635.214905,   635.167480
-0.024068,   0.060564,   0.062051,   0.000000,   637.742249,   0.530988,   6.480167,   51.520405,   473.276337,   183.507843,   -273.324127,   0.348369,   628.437683,   627.788086
-0.022824,   0.059714,   0.060861,   0.000000,   637.699890,   0.530986,   6.480167,   50.726818,   489.006348,   180.988770,   -260.595428,   0.358950,   622.181152,   620.291138
-0.021638,   0.058858,   0.059729,   0.000000,   637.475220,   0.530986,   6.480167,   49.933235,   502.773132,   179.393692,   -248.403992,   0.368931,   616.345886,   612.684509
-0.020612,   0.058014,   0.058646,   0.000000,   636.768982,   0.530988,   6.480167,   49.139648,   514.526062,   177.717087,   -236.887863,   0.377703,   610.923828,   605.218384
-0.019658,   0.057248,   0.057673,   0.000000,   636.011658,   0.530986,   6.480167,   48.346062,   525.179565,   176.375046,   -225.704407,   0.385954,   605.904724,   597.851074
-0.018793,   0.056563,   0.056811,   0.000000,   635.231689,   0.530988,   6.480167,   47.552475,   534.825073,   175.292816,   -214.897400,   0.393660,   601.296204,   590.668152
-0.017976,   0.055910,   0.056006,   0.000000,   634.381897,   0.530988,   6.480167,   46.758888,   543.745544,   174.401474,   -204.183609,   0.401027,   596.923706,   583.481018
-0.017245,   0.055260,   0.055229,   0.000000,   633.317627,   0.530988,   6.480167,   45.965305,   551.457642,   173.432236,   -194.026352,   0.407567,   592.859558,   576.626099
-0.016562,   0.054694,   0.054554,   0.000000,   632.397644,   0.530986,   6.480167,   45.171719,   558.795532,   172.800293,   -183.922089,   0.413965,   589.096191,   569.849548
-0.015928,   0.054204,   0.053982,   0.000000,   631.614014,   0.530986,   6.480167,   44.378132,   565.683472,   172.444107,   -173.992325,   0.420106,   585.667114,   563.254150
-0.015342,   0.053774,   0.053484,   0.000000,   630.916809,   0.530988,   6.480167,   43.584549,   572.201477,   172.290665,   -164.098740,   0.426037,   582.493591,   556.758118
-0.014814,   0.053393,   0.053049,   0.000000,   630.280396,   0.530986,   6.480167,   42.790962,   578.238098,   172.290283,   -154.385406,   0.431644,   579.588623,   550.463440
-0.014319,   0.053068,   0.052686,   0.000000,   629.786926,   0.530989,   6.480167,   41.997375,   584.008911,   172.590652,   -144.670395,   0.437141,   576.929871,   544.230652
-0.013871,   0.052795,   0.052386,   0.000000,   629.377441,   0.530986,   6.480167,   41.203789,   589.400269,   173.020187,   -135.069916,   0.442346,   574.527832,   538.206604
-0.013461,   0.052592,   0.052167,   0.000000,   629.127075,   0.530988,   6.480167,   40.410202,   594.560669,   173.668671,   -125.473396,   0.447376,   572.396118,   532.337585
-0.013085,   0.052441,   0.052010,   0.000000,   628.998901,   0.530986,   6.480167,   39.616615,   599.431458,   174.502670,   -115.923615,   0.452188,   570.510071,   526.646484
-0.012745,   0.052311,   0.051882,   0.000000,   628.903381,   0.530986,   6.480167,   38.823032,   603.881470,   175.404419,   -106.524162,   0.456667,   568.821838,   521.209778
-0.012440,   0.052226,   0.051802,   0.000000,   628.884705,   0.530988,   6.480167,   38.029446,   608.041687,   176.362259,   -97.118210,   0.460864,   567.343445,   516.022949
-0.012166,   0.052180,   0.051769,   0.000000,   628.954834,   0.530986,   6.480167,   37.235859,   611.861877,   177.388153,   -87.855675,   0.464736,   566.092163,   511.171082
-0.011924,   0.052164,   0.051768,   0.000000,   629.078979,   0.530989,   6.480167,   36.442272,   615.338318,   178.431732,   -78.690430,   0.468275,   565.030823,   506.661072
-0.011708,   0.052167,   0.051790,   0.000000,   629.237915,   0.530986,   6.480167,   35.648685,   618.459900,   179.460938,   -69.625481,   0.471468,   564.138855,   502.522461
-0.011523,   0.052187,   0.051829,   0.000000,   629.408997,   0.530988,   6.480167,   34.855103,   621.204224,   180.411453,   -60.695389,   0.474271,   563.402527,   498.826569
-0.011365,   0.052219,   0.051879,   0.000000,   629.597717,   0.530986,   6.480167,   34.061516,   623.603088,   181.309692,   -51.839302,   0.476726,   562.806091,   495.546722
-0.011233,   0.052255,   0.051933,   0.000000,   629.775696,   0.530986,   6.480167,   33.267929,   625.627441,   182.094955,   -43.094059,   0.478794,   562.330811,   492.744202
-0.011123,   0.052288,   0.051983,   0.000000,   629.943481,   0.530988,   6.480167,   32.474346,   627.295654,   182.800079,   -34.408779,   0.480519,   561.958984,   490.383057
-0.011039,   0.052317,   0.052024,   0.000000,   630.089172,   0.530987,   6.480167,   31.680758,   628.600891,   183.407822,   -25.783463,   0.481895,   561.677490,   488.481110
-0.010979,   0.052338,   0.052055,   0.000000,   630.126282,   0.530987,   6.480167,   30.887173,   629.462036,   183.847794,   -17.217224,   0.482893,   561.414795,   487.033722
-0.010943,   0.052350,   0.052073,   0.000000,   630.203369,   0.530987,   6.480167,   30.093586,   630.036377,   184.076355,   -8.631379,   0.483452,   561.318665,   486.260132
-0.010931,   0.052354,   0.052079,   0.000000,   630.234558,   0.530988,   6.480167,   29.299999,   630.234558,   184.143829,   -0.000009,   0.483632,   561.293762,   486.016479
-0.010943,   0.052350,   0.052073,   0.000000,   630.203369,   0.530987,   6.480167,   28.506414,   630.036377,   184.076355,   8.631362,   0.483452,   561.318665,   486.260132
-0.010979,   0.052338,   0.052055,   0.000000,   630.126282,   0.530987,   6.480167,   27.712828,   629.462036,   183.847778,   17.217207,   0.482893,   561.414795,   487.033722
-0.011039,   0.052317,   0.052024,   0.000000,   630.089172,   0.530988,   6.480167,   26.919241,   628.600891,   183.407852,   25.783453,   0.481895,   561.677490,   488.481079
-0.011123,   0.052288,   0.051983,   0.000000,   629.943420,   0.530986,   6.480167,   26.125656,   627.295593,   182.800018,   34.408764,   0.480519,   561.958923,   490.383026
-0.011233,   0.052255,   0.051933,   0.000000,   629.775696,   0.530987,   6.480167,   25.332071,   625.627441,   182.094971,   43.094044,   0.478794,   562.330811,   492.744202
-0.011365,   0.052219,   0.051879,   0.000000,   629.597717,   0.530988,   6.480167,   24.538485,   623.603088,   181.309677,   51.839306,   0.476726,   562.806091,   495.546722
-0.011523,   0.052187,   0.051829,   0.000000,   629.408936,   0.530987,   6.480167,   23.744898,   621.204163,   180.411407,   60.695396,   0.474271,   563.402466,   498.826508
-0.011708,   0.052167,   0.051790,   0.000000,   629.237915,   0.530987,   6.480167,   22.951313,   618.459900,   179.460953,   69.625488,   0.471468,   564.138855,   502.522491
-0.011924,   0.052164,   0.051768,   0.000000,   629.078979,   0.530987,   6.480167,   22.157726,   615.338318,   178.431747,   78.690437,   0.468275,   565.030823,   506.660950
-0.012166,   0.052180,   0.051769,   0.000000,   628.954834,   0.530988,   6.480167,   21.364141,   611.861877,   177.388123,   87.855675,   0.464736,   566.092163,   511.171082
-0.012440,   0.052226,   0.051802,   0.000000,   628.884705,   0.530986,   6.480167,   20.570555,   608.041687,   176.362183,   97.118210,   0.460864,   567.343445,   516.023071
-0.012745,   0.052311,   0.051882,   0.000000,   628.903381,   0.530987,   6.480167,   19.776970,   603.881470,   175.404434,   106.524162,   0.456667,   568.821838,   521.209778
-0.013085,   0.052441,   0.052010,   0.000000,   628.998840,   0.530988,   6.480167,   18.983383,   599.431396,   174.502655,   115.923637,   0.452188,   570.510010,   526.646484
-0.013461,   0.052592,   0.052167,   0.000000,   629.127075,   0.530987,   6.480167,   18.189796,   594.560608,   173.668625,   125.473427,   0.447376,   572.396118,   532.337524
-0.013871,   0.052795,   0.052386,   0.000000,   629.377441,   0.530987,   6.480167,   17.396212,   589.400269,   173.020218,   135.069931,   0.442346,   574.527832,   538.206665
-0.014319,   0.053068,   0.052686,   0.000000,   629.786865,   0.530987,   6.480167,   16.602625,   584.008850,   172.590698,   144.670410,   0.437141,   576.929810,   544.230530
-0.014814,   0.053393,   0.053049,   0.000000,   630.280396,   0.530987,   6.480167,   15.809039,   578.238098,   172.290298,   154.385406,   0.431644,   579.588623,   550.463501
-0.015342,   0.053774,   0.053484,   0.000000,   630.916748,   0.530987,   6.480167,   15.015453,   572.201416,   172.290649,   164.098740,   0.426037,   582.493591,   556.758118
-0.015928,   0.054204,   0.053982,   0.000000,   631.614014,   0.530987,   6.480167,   14.221868,   565.683472,   172.444153,   173.992325,   0.420106,   585.667114,   563.254150
-0.016562,   0.054694,   0.054554,   0.000000,   632.397644,   0.530987,   6.480167,   13.428282,   558.795471,   172.800369,   183.922119,   0.413965,   589.096130,   569.849487
-0.017245,   0.055260,   0.055229,   0.000000,   633.317627,   0.530987,   6.480167,   12.634696,   551.457581,   173.432251,   194.026398,   0.407567,   592.859497,   576.626099
-0.017976,   0.055910,   0.056006,   0.000000,   634.381958,   0.530987,   6.480167,   11.841109,   543.745544,   174.401657,   204.183640,   0.401027,   596.923706,   583.480957
-0.018793,   0.056563,   0.056811,   0.000000,   635.231628,   0.530987,   6.480167,   11.047523,   534.825012,   175.292862,   214.897415,   0.393660,   601.296204,   590.668213
-0.019658,   0.057247,   0.057673,   0.000000,   636.011658,   0.530987,   6.480167,   10.253938,   525.179565,   176.375259,   225.704407,   0.385954,   605.904724,   597.851074
-0.020612,   0.058014,   0.058646,   0.000000,   636.769043,   0.530987,   6.480167,   9.460352,   514.526123,   177.717300,   236.887817,   0.377703,   610.923767,   605.218384
-0.021638,   0.058858,   0.059729,   0.000000,   637.475342,   0.530987,   6.480167,   8.666766,   502.773254,   179.393997,   248.403946,   0.368931,   616.345825,   612.684387
-0.022824,   0.059714,   0.060861,   0.000000,   637.700012,   0.530987,   6.480167,   7.873180,   489.006500,   180.989105,   260.595398,   0.358950,   622.181213,   620.291138
-0.024068,   0.060564,   0.062051,   0.000000,   637.742432,   0.530987,   6.480167,   7.079594,   473.276489,   183.508087,   273.324158,   0.348369,   628.437805,   627.788269
-0.025350,   0.061468,   0.063359,   0.000000,   637.786743,   0.530987,   6.480167,   6.286008,   455.461853,   187.499817,   286.528381,   0.337398,   635.215088,   635.167664
-0.030840,   0.073805,   0.075906,   0.000000,   652.615479,   0.533427,   7.328438,   51.780094,   490.745392,   166.799576,   -280.426575,   0.337117,   650.164734,   650.122681
-0.028982,   0.072149,   0.073799,   0.000000,   652.206482,   0.533425,   7.328438,   51.004917,   505.491486,   165.900879,   -267.111084,   0.348145,   642.828308,   642.183655
-0.027363,   0.070624,   0.071905,   0.000000,   651.521118,   0.533425,   7.328438,   50.229740,   518.128845,   165.299759,   -254.672668,   0.358097,   636.167786,   634.363770
-0.025899,   0.069218,   0.070183,   0.000000,   650.712708,   0.533425,   7.328438,   49.454567,   529.410400,   165.008667,   -242.728271,   0.367419,   629.997559,   626.572998
-0.024531,   0.067904,   0.068603,   0.000000,   649.859131,   0.533425,   7.328438,   48.679390,   539.546692,   165.114532,   -231.243073,   0.376262,   624.264771,   618.818176
-0.023255,   0.066688,   0.067173,   0.000000,   648.941345,   0.533425,   7.328438,   47.904217,   548.689148,   165.348877,   -220.184464,   0.384533,   618.965637,   611.193115
-0.022193,   0.065585,   0.065883,   0.000000,   647.777893,   0.533425,   7.328438,   47.129040,   556.603882,   165.163010,   -209.766388,   0.391752,   614.135254,   603.985840
-0.021199,   0.064653,   0.064799,   0.000000,   646.896729,   0.533426,   7.328438,   46.353867,   564.273621,   165.394196,   -199.457336,   0.398896,   609.739380,   596.903503
-0.020270,   0.063823,   0.063850,   0.000000,   646.124939,   0.533426,   7.328438,   45.578690,   571.511780,   165.838425,   -189.303207,   0.405793,   605.686890,   589.933411
-0.019417,   0.063040,   0.062969,   0.000000,   645.288513,   0.533425,   7.328438,   44.803513,   578.105957,   166.256409,   -179.395142,   0.412230,   601.898438,   583.129028
-0.018653,   0.062347,   0.062195,   0.000000,   644.546936,   0.533425,   7.328438,   44.028336,   584.330261,   166.827744,   -169.607346,   0.418421,   598.406860,   576.456970
-0.017941,   0.061736,   0.061525,   0.000000,   643.923157,   0.533425,   7.328438,   43.253162,   590.288452,   167.578476,   -159.839279,   0.424441,   595.188293,   569.869141
-0.017303,   0.061213,   0.060956,   0.000000,   643.387512,   0.533425,   7.328438,   42.477985,   595.879761,   168.390518,   -150.219971,   0.430135,   592.271606,   563.504761
-0.016719,   0.060784,   0.060495,   0.000000,   643.001892,   0.533426,   7.328438,   41.702808,   601.253906,   169.359787,   -140.618607,   0.435637,   589.645264,   557.290771
-0.016184,   0.060428,   0.060123,   0.000000,   642.735229,   0.533425,   7.328438,   40.927635,   606.352112,   170.464264,   -131.082718,   0.440906,   587.288330,   551.250427
-0.015709,   0.060129,   0.059813,   0.000000,   642.510986,   0.533426,   7.328438,   40.152458,   611.082581,   171.557495,   -121.660683,   0.445820,   585.168396,   545.468323
-0.015279,   0.059895,   0.059578,   0.000000,   642.390015,   0.533425,   7.328438,   39.377281,   615.551270,   172.732147,   -112.272163,   0.450480,   583.291809,   539.903687
-0.014889,   0.059718,   0.059409,   0.000000,   642.358643,   0.533425,   7.328438,   38.602108,   619.681396,   173.948334,   -103.064346,   0.454801,   581.667664,   534.660095
-0.014546,   0.059593,   0.059296,   0.000000,   642.383118,   0.533425,   7.328438,   37.826931,   623.516479,   175.125320,   -93.891289,   0.458788,   580.254150,   529.729980
-0.014245,   0.059518,   0.059237,   0.000000,   642.465698,   0.533425,   7.328438,   37.051758,   627.008972,   176.249207,   -84.889145,   0.462390,   579.061890,   525.205872
-0.013982,   0.059482,   0.059220,   0.000000,   642.606262,   0.533426,   7.328438,   36.276581,   630.196289,   177.351273,   -75.985481,   0.465663,   578.062378,   521.043518
-0.013748,   0.059472,   0.059231,   0.000000,   642.777405,   0.533425,   7.328438,   35.501404,   633.054077,   178.403061,   -67.195717,   0.468594,   577.227966,   517.263184
-0.013551,   0.059478,   0.059258,   0.000000,   642.944214,   0.533425,   7.328438,   34.726231,   635.550354,   179.329941,   -58.548252,   0.471136,   576.536194,   513.927734
-0.013383,   0.059499,   0.059299,   0.000000,   643.117065,   0.533426,   7.328438,   33.951054,   637.716675,   180.158875,   -50.001637,   0.473326,   575.977417,   511.019928
-0.013242,   0.059528,   0.059347,   0.000000,   643.291443,   0.533425,   7.328438,   33.175877,   639.560303,   180.908905,   -41.535786,   0.475193,   575.533630,   508.519928
-0.013130,   0.059562,   0.059397,   0.000000,   643.459167,   0.533425,   7.328438,   32.400703,   641.082153,   181.561234,   -33.135281,   0.476733,   575.194702,   506.446411
-0.013043,   0.059592,   0.059441,   0.000000,   643.593628,   0.533425,   7.328438,   31.625526,   642.259399,   182.064392,   -24.815191,   0.477916,   574.942932,   504.838287
-0.012980,   0.059612,   0.059470,   0.000000,   643.690369,   0.533425,   7.328438,   30.850351,   643.097778,   182.447556,   -16.532278,   0.478776,   574.760986,   503.657990
-0.012942,   0.059622,   0.059487,   0.000000,   643.759216,   0.533425,   7.328438,   30.075176,   643.611267,   182.725662,   -8.259418,   0.479326,   574.651611,   502.903198
-0.012929,   0.059626,   0.059492,   0.000000,   643.784668,   0.533426,   7.328438,   29.300001,   643.784668,   182.829330,   -0.000009,   0.479517,   574.615112,   502.641296
-0.012942,   0.059622,   0.059487,   0.000000,   643.759216,   0.533425,   7.328438,   28.524824,   643.611267,   182.725662,   8.259400,   0.479326,   574.651611,   502.903198
-0.012980,   0.059612,   0.059470,   0.000000,   643.690369,   0.533425,   7.328438,   27.749649,   643.097778,   182.447556,   16.532263,   0.478776,   574.760986,   503.657990
-0.013043,   0.059592,   0.059441,   0.000000,   643.593628,   0.533426,   7.328438,   26.974474,   642.259399,   182.064362,   24.815180,   0.477916,   574.942993,   504.838409
-0.013130,   0.059562,   0.059397,   0.000000,   643.459167,   0.533425,   7.328438,   26.199297,   641.082153,   181.561234,   33.135273,   0.476733,   575.194702,   506.446411
-0.013242,   0.059528,   0.059347,   0.000000,   643.291443,   0.533425,   7.328438,   25.424122,   639.560303,   180.908905,   41.535786,   0.475193,   575.533630,   508.519928
-0.013383,   0.059499,   0.059299,   0.000000,   643.117126,   0.533425,   7.328438,   24.648947,   637.716736,   180.158966,   50.001637,   0.473326,   575.977417,   511.019836
-0.013551,   0.059478,   0.059258,   0.000000,   642.944153,   0.533425,   7.328438,   23.873770,   635.550293,   179.329895,   58.548244,   0.471136,   576.536133,   513.927734
-0.013748,   0.059472,   0.059231,   0.000000,   642.777344,   0.533425,   7.328438,   23.098595,   633.054016,   178.403061,   67.195724,   0.468594,   577.227905,   517.263184
-0.013982,   0.059482,   0.059220,   0.000000,   642.606262,   0.533425,   7.328438,   22.323420,   630.196289,   177.351196,   75.985481,   0.465663,   578.062439,   521.043579
-0.014245,   0.059518,   0.059237,   0.000000,   642.465698,   0.533425,   7.328438,   21.548244,   627.008972,   176.249222,   84.889153,   0.462391,   579.061890,   525.205872
-0.014546,   0.059593,   0.059296,   0.000000,   642.383057,   0.533425,   7.328438,   20.773067,   623.516418,   175.125259,   93.891289,   0.458788,   580.254089,   529.729980
-0.014889,   0.059718,   0.059409,   0.000000,   642.358582,   0.533425,   7.328438,   19.997892,   619.681335,   173.948334,   103.064377,   0.454801,   581.667603,   534.660034
-0.015279,   0.059895,   0.059578,   0.000000,   642.390015,   0.533425,   7.328438,   19.222717,   615.551208,   172.732178,   112.272202,   0.450480,   583.291809,   539.903625
-0.015709,   0.060129,   0.059813,   0.000000,   642.510986,   0.533425,   7.328438,   18.447540,   611.082581,   171.557556,   121.660713,   0.445820,   585.168396,   545.468384
-0.016184,   0.060428,   0.060123,   0.000000,   642.735168,   0.533425,   7.328438,   17.672365,   606.352051,   170.464233,   131.082748,   0.440906,   587.288330,   551.250488
-0.016719,   0.060784,   0.060495,   0.000000,   643.001831,   0.533425,   7.328438,   16.897190,   601.253845,   169.359726,   140.618607,   0.435637,   589.645203,   557.290833
-0.017303,   0.061213,   0.060956,   0.000000,   643.387512,   0.533425,   7.328438,   16.122015,   595.879761,   168.390533,   150.219971,   0.430135,   592.271606,   563.504761
-0.017941,   0.061736,   0.061525,   0.000000,   643.923096,   0.533425,   7.328438,   15.346839,   590.288391,   167.578522,   159.839310,   0.424441,   595.188293,   569.869080
-0.018653,   0.062347,   0.062195,   0.000000,   644.546936,   0.533425,   7.328438,   14.571663,   584.330261,   166.827774,   169.607376,   0.418421,   598.406921,   576.456970
-0.019417,   0.063040,   0.062969,   0.000000,   645.288574,   0.533425,   7.328438,   13.796487,   578.105957,   166.256454,   179.395187,   0.412230,   601.898499,   583.129089
-0.020270,   0.063823,   0.063850,   0.000000,   646.125000,   0.533425,   7.328438,   13.021312,   571.511719,   165.838547,   189.303284,   0.405793,   605.686890,   589.933289
-0.021199,   0.064653,   0.064799,   0.000000,   646.896729,   0.533425,   7.328438,   12.246136,   564.273621,   165.394165,   199.457367,   0.398896,   609.739380,   596.903564
-0.022193,   0.065585,   0.065883,   0.000000,   647.778015,   0.533425,   7.328438,   11.470961,   556.603943,   165.163055,   209.766434,   0.391752,   614.135376,   603.986023
-0.023255,   0.066688,   0.067173,   0.000000,   648.941406,   0.533425,   7.328438,   10.695785,   548.689148,   165.348984,   220.184570,   0.384533,   618.965759,   611.193298
-0.024531,   0.067904,   0.068603,   0.000000,   649.859253,   0.533425,   7.328438,   9.920609,   539.546753,   165.114594,   231.243134,   0.376262,   624.264893,   618.818237
-0.025899,   0.069218,   0.070183,   0.000000,   650.712891,   0.533425,   7.328438,   9.145433,   529.410522,   165.008835,   242.728333,   0.367419,   629.997681,   626.573059
-0.027363,   0.070624,   0.071905,   0.000000,   651.521362,   0.533425,   7.328438,   8.370258,   518.129028,   165.299973,   254.672729,   0.358097,   636.167969,   634.363770
-0.028982,   0.072150,   0.073799,   0.000000,   652.206909,   0.533425,   7.328438,   7.595082,   505.491882,   165.901123,   267.111115,   0.348145,   642.828552,   642.183899
-0.030840,   0.073805,   0.075906,   0.000000,   652.616089,   0.533425,   7.328438,   6.819907,   490.746094,   166.799911,   280.426575,   0.337117,   650.165161,   650.123108
-0.036985,   0.087405,   0.089560,   0.000000,   666.033569,   0.535065,   8.199678,   51.283226,   524.676819,   145.974548,   -271.134399,   0.336806,   663.736694,   663.700562
-0.034641,   0.085105,   0.086794,   0.000000,   665.625061,   0.535064,   8.199678,   50.525185,   536.770386,   147.777313,   -258.315918,   0.347644,   656.368408,   655.754272
-0.032580,   0.083015,   0.084320,   0.000000,   664.988525,   0.535065,   8.199678,   49.767139,   547.309753,   149.508560,   -246.294647,   0.357530,   649.658691,   647.900879
-0.030832,   0.081127,   0.082105,   0.000000,   663.953735,   0.535064,   8.199678,   49.009098,   556.351379,   150.559158,   -235.037170,   0.366151,   643.551514,   640.313965
-0.029177,   0.079399,   0.080117,   0.000000,   663.078186,   0.535064,   8.199678,   48.251057,   564.683899,   152.093994,   -224.227386,   0.374536,   637.925720,   632.810669
-0.027670,   0.077808,   0.078309,   0.000000,   662.164856,   0.535065,   8.199678,   47.493015,   572.345337,   153.624161,   -213.721466,   0.382484,   632.680115,   625.380371
-0.026246,   0.076351,   0.076681,   0.000000,   661.365173,   0.535064,   8.199678,   46.734970,   579.541077,   155.421616,   -203.465881,   0.390226,   627.810181,   617.993042
-0.024993,   0.075025,   0.075214,   0.000000,   660.460205,   0.535064,   8.199678,   45.976933,   586.030334,   156.911423,   -193.595108,   0.397300,   623.325806,   610.867126
-0.023838,   0.073841,   0.073915,   0.000000,   659.699524,   0.535066,   8.199678,   45.218887,   592.390991,   158.576599,   -183.656921,   0.404312,   619.131592,   603.718384
-0.022815,   0.072792,   0.072776,   0.000000,   658.968140,   0.535064,   8.199678,   44.460846,   598.293152,   160.113495,   -173.976990,   0.410857,   615.304993,   596.824951
-0.021876,   0.071885,   0.071802,   0.000000,   658.388123,   0.535064,   8.199678,   43.702801,   603.984131,   161.756882,   -164.373764,   0.417195,   611.816772,   590.066284
-0.021021,   0.071105,   0.070974,   0.000000,   657.939453,   0.535065,   8.199678,   42.944759,   609.475098,   163.473190,   -154.803101,   0.423320,   608.639893,   583.436523
-0.020240,   0.070426,   0.070265,   0.000000,   657.587830,   0.535064,   8.199678,   42.186718,   614.695923,   165.241653,   -145.319168,   0.429184,   605.752014,   576.961060
-0.019545,   0.069836,   0.069654,   0.000000,   657.273865,   0.535064,   8.199678,   41.428677,   619.584656,   166.933548,   -135.943146,   0.434688,   603.128601,   570.710388
-0.018910,   0.069339,   0.069150,   0.000000,   657.069153,   0.535065,   8.199678,   40.670635,   624.238037,   168.683563,   -126.626442,   0.439943,   600.775635,   564.643188
-0.018339,   0.068928,   0.068742,   0.000000,   656.936584,   0.535065,   8.199678,   39.912590,   628.583130,   170.376816,   -117.454842,   0.444834,   598.695190,   558.876465
-0.017832,   0.068600,   0.068423,   0.000000,   656.876282,   0.535064,   8.199678,   39.154549,   632.663025,   172.014618,   -108.351585,   0.449393,   596.862183,   553.396179
-0.017382,   0.068345,   0.068183,   0.000000,   656.882751,   0.535065,   8.199678,   38.396507,   636.424988,   173.587326,   -99.434174,   0.453577,   595.277649,   548.276489
-0.016978,   0.068150,   0.068010,   0.000000,   656.947327,   0.535064,   8.199678,   37.638466,   639.922974,   175.096588,   -90.571533,   0.457436,   593.903625,   543.472412
-0.016632,   0.068006,   0.067887,   0.000000,   657.027039,   0.535064,   8.199678,   36.880424,   643.076599,   176.452530,   -81.879265,   0.460882,   592.725220,   539.090881
-0.016327,   0.067908,   0.067814,   0.000000,   657.148560,   0.535065,   8.199678,   36.122379,   645.941467,   177.713608,   -73.301170,   0.463978,   591.733948,   535.099854
-0.016062,   0.067854,   0.067785,   0.000000,   657.308289,   0.535064,   8.199678,   35.364338,   648.521851,   178.876312,   -64.836067,   0.466731,   590.917358,   531.514648
-0.015833,   0.067825,   0.067782,   0.000000,   657.479736,   0.535064,   8.199678,   34.606297,   650.802795,   179.928848,   -56.467594,   0.469147,   590.242493,   528.328613
-0.015638,   0.067807,   0.067788,   0.000000,   657.632568,   0.535065,   8.199678,   33.848255,   652.761169,   180.848511,   -48.193542,   0.471223,   589.678162,   525.545532
-0.015476,   0.067799,   0.067802,   0.000000,   657.772156,   0.535065,   8.199678,   33.090210,   654.409790,   181.630493,   -40.011921,   0.472962,   589.223145,   523.186646
-0.015351,   0.067801,   0.067820,   0.000000,   657.887634,   0.535064,   8.199678,   32.332169,   655.744995,   182.251144,   -31.923510,   0.474355,   588.866760,   521.274231
-0.015252,   0.067808,   0.067842,   0.000000,   658.002502,   0.535064,   8.199678,   31.574127,   656.802979,   182.788956,   -23.875328,   0.475470,   588.604858,   519.745667
-0.015182,   0.067817,   0.067862,   0.000000,   658.097290,   0.535064,   8.199678,   30.816084,   657.566772,   183.201477,   -15.872898,   0.476281,   588.426270,   518.633606
-0.015141,   0.067824,   0.067876,   0.000000,   658.158691,   0.535064,   8.199678,   30.058043,   658.026855,   183.456589,   -7.910796,   0.476769,   588.323120,   517.962524
-0.015127,   0.067827,   0.067881,   0.000000,   658.180054,   0.535065,   8.199678,   29.300001,   658.180054,   183.542725,   -0.000008,   0.476932,   588.289673,   517.739258
-0.015141,   0.067824,   0.067876,   0.000000,   658.158630,   0.535064,   8.199678,   28.541958,   658.026794,   183.456558,   7.910783,   0.476769,   588.322998,   517.962463
-0.015182,   0.067817,   0.067862,   0.000000,   658.097290,   0.535064,   8.199678,   27.783916,   657.566772,   183.201508,   15.872886,   0.476281,   588.426270,   518.633484
-0.015252,   0.067808,   0.067842,   0.000000,   658.002502,   0.535065,   8.199678,   27.025873,   656.802979,   182.788986,   23.875319,   0.475470,   588.604858,   519.745667
-0.015351,   0.067801,   0.067820,   0.000000,   657.887634,   0.535064,   8.199678,   26.267830,   655.744995,   182.251114,   31.923504,   0.474355,   588.866760,   521.274292
-0.015476,   0.067799,   0.067802,   0.000000,   657.772156,   0.535064,   8.199678,   25.509789,   654.409790,   181.630569,   40.011921,   0.472962,   589.223083,   523.186523
-0.015638,   0.067807,   0.067788,   0.000000,   657.632507,   0.535064,   8.199678,   24.751747,   652.761108,   180.848404,   48.193523,   0.471223,   589.678101,   525.545593
-0.015833,   0.067825,   0.067782,   0.000000,   657.479675,   0.535065,   8.199678,   23.993704,   650.802734,   179.928833,   56.467590,   0.469147,   590.242493,   528.328613
-0.016062,   0.067854,   0.067785,   0.000000,   657.308228,   0.535064,   8.199678,   23.235661,   648.521790,   178.876312,   64.836075,   0.466731,   590.917297,   531.514709
-0.016327,   0.067908,   0.067814,   0.000000,   657.148560,   0.535064,   8.199678,   22.477619,   645.941467,   177.713638,   73.301170,   0.463978,   591.733948,   535.099854
-0.016632,   0.068006,   0.067887,   0.000000,   657.027039,   0.535064,   8.199678,   21.719578,   643.076599,   176.452530,   81.879265,   0.460882,   592.725220,   539.090881
-0.016978,   0.068150,   0.068010,   0.000000,   656.947327,   0.535065,   8.199678,   20.961535,   639.922974,   175.096573,   90.571548,   0.457436,   593.903625,   543.472412
-0.017382,   0.068345,   0.068183,   0.000000,   656.882812,   0.535064,   8.199678,   20.203493,   636.424988,   173.587357,   99.434204,   0.453577,   595.277649,   548.276489
-0.017832,   0.068600,   0.068423,   0.000000,   656.876282,   0.535064,   8.199678,   19.445450,   632.663025,   172.014603,   108.351616,   0.449393,   596.862183,   553.396240
-0.018339,   0.068928,   0.068742,   0.000000,   656.936584,   0.535064,   8.199678,   18.687408,   628.583130,   170.376678,   117.454849,   0.444834,   598.695251,   558.876526
-0.018910,   0.069339,   0.069150,   0.000000,   657.069214,   0.535065,   8.199678,   17.929365,   624.238037,   168.683624,   126.626472,   0.439943,   600.775635,   564.643250
-0.019545,   0.069836,   0.069654,   0.000000,   657.273804,   0.535064,   8.199678,   17.171324,   619.584595,   166.933533,   135.943161,   0.434688,   603.128540,   570.710388
-0.020240,   0.070426,   0.070265,   0.000000,   657.587830,   0.535065,   8.199678,   16.413282,   614.695923,   165.241623,   145.319199,   0.429184,   605.752014,   576.961060
-0.021021,   0.071105,   0.070974,   0.000000,   657.939453,   0.535064,   8.199678,   15.655239,   609.475037,   163.473206,   154.803131,   0.423320,   608.639893,   583.436523
-0.021876,   0.071885,   0.071802,   0.000000,   658.388184,   0.535064,   8.199678,   14.897197,   603.984131,   161.756836,   164.373795,   0.417195,   611.816772,   590.066345
-0.022815,   0.072792,   0.072776,   0.000000,   658.968079,   0.535064,   8.199678,   14.139154,   598.293091,   160.113434,   173.977020,   0.410857,   615.304932,   596.824829
-0.023838,   0.073841,   0.073915,   0.000000,   659.699585,   0.535064,   8.199678,   13.381112,   592.390991,   158.576553,   183.656937,   0.404312,   619.131592,   603.718384
-0.024993,   0.075025,   0.075214,   0.000000,   660.460144,   0.535064,   8.199678,   12.623070,   586.030334,   156.911285,   193.595078,   0.397300,   623.325806,   610.867188
-0.026246,   0.076351,   0.076681,   0.000000,   661.365112,   0.535064,   8.199678,   11.865027,   579.541016,   155.421494,   203.465897,   0.390225,   627.810181,   617.993103
-0.027670,   0.077808,   0.078309,   0.000000,   662.164856,   0.535064,   8.199678,   11.106986,   572.345337,   153.624100,   213.721497,   0.382484,   632.680115,   625.380432
-0.029177,   0.079399,   0.080117,   0.000000,   663.078125,   0.535065,   8.199678,   10.348944,   564.683899,   152.093765,   224.227386,   0.374536,   637.925720,   632.810730
-0.030832,   0.081127,   0.082105,   0.000000,   663.953674,   0.535064,   8.199678,   9.590901,   556.351318,   150.558899,   235.037201,   0.366151,   643.551514,   640.314087
-0.032580,   0.083015,   0.084320,   0.000000,   664.988464,   0.535064,   8.199678,   8.832859,   547.309692,   149.508453,   246.294647,   0.357530,   649.658691,   647.900879
-0.034641,   0.085105,   0.086794,   0.000000,   665.624939,   0.535064,   8.199678,   8.074817,   536.770386,   147.777100,   258.315826,   0.347644,   656.368286,   655.754150
-0.036985,   0.087405,   0.089560,   0.000000,   666.033569,   0.535064,   8.199678,   7.316774,   524.677063,   145.974442,   271.134155,   0.336806,   663.736633,   663.700500
-0.044016,   0.102995,   0.105083,   0.000000,   679.454224,   0.536039,   9.092217,   50.824341,   558.310364,   126.052635,   -258.923187,   0.336952,   677.013184,   676.973206
-0.041286,   0.099984,   0.101598,   0.000000,   678.850952,   0.536039,   9.092217,   50.082123,   567.471741,   129.759796,   -247.300140,   0.346959,   669.849854,   669.282043
-0.038784,   0.097234,   0.098465,   0.000000,   678.147705,   0.536040,   9.092217,   49.339905,   575.738281,   133.309494,   -236.212967,   0.356357,   663.237732,   661.615356
-0.036525,   0.094734,   0.095650,   0.000000,   677.278564,   0.536039,   9.092217,   48.597683,   583.239014,   136.421097,   -225.526077,   0.365061,   657.113708,   654.028076
-0.034471,   0.092479,   0.093144,   0.000000,   676.538635,   0.536039,   9.092217,   47.855469,   590.182434,   139.704712,   -215.311264,   0.373437,   651.504639,   646.563049
-0.032675,   0.090447,   0.090906,   0.000000,   675.694275,   0.536040,   9.092217,   47.113247,   596.520081,   142.561752,   -205.451584,   0.381165,   646.335999,   639.286804
-0.030943,   0.088599,   0.088910,   0.000000,   675.104126,   0.536039,   9.092217,   46.371029,   602.753723,   145.822723,   -195.687805,   0.388953,   641.531189,   631.961792
-0.029425,   0.086930,   0.087120,   0.000000,   674.443176,   0.536039,   9.092217,   45.628811,   608.504883,   148.738815,   -186.182846,   0.396198,   637.091248,   624.813843
-0.028053,   0.085489,   0.085585,   0.000000,   673.962708,   0.536040,   9.092217,   44.886593,   614.178955,   151.681351,   -176.702927,   0.403273,   633.036560,   617.761902
-0.026799,   0.084225,   0.084253,   0.000000,   673.607300,   0.536039,   9.092217,   44.144371,   619.711365,   154.630524,   -167.244568,   0.410150,   629.316101,   610.781189
-0.025652,   0.083065,   0.083047,   0.000000,   673.240417,   0.536039,   9.092217,   43.402153,   624.889771,   157.456924,   -157.919205,   0.416677,   625.861084,   603.906250
-0.024627,   0.082037,   0.081988,   0.000000,   672.902100,   0.536040,   9.092217,   42.659935,   629.784546,   160.129517,   -148.692657,   0.422846,   622.696899,   597.205933
-0.023687,   0.081143,   0.081082,   0.000000,   672.682373,   0.536039,   9.092217,   41.917717,   634.494751,   162.831223,   -139.534943,   0.428786,   619.832275,   590.639832
-0.022842,   0.080375,   0.080313,   0.000000,   672.515625,   0.536039,   9.092217,   41.175499,   638.937134,   165.384125,   -130.494095,   0.434351,   617.258972,   584.324768
-0.022083,   0.079721,   0.079669,   0.000000,   672.419678,   0.536040,   9.092217,   40.433281,   643.143982,   167.849045,   -121.538757,   0.439594,   614.956421,   578.241333
-0.021403,   0.079171,   0.079136,   0.000000,   672.374939,   0.536039,   9.092217,   39.691059,   647.066101,   170.171204,   -112.739494,   0.444450,   612.920349,   572.471008
-0.020792,   0.078712,   0.078702,   0.000000,   672.383728,   0.536039,   9.092217,   38.948841,   650.749512,   172.373718,   -104.006325,   0.448970,   611.119812,   566.983643
-0.020257,   0.078331,   0.078348,   0.000000,   672.414062,   0.536040,   9.092217,   38.206623,   654.120728,   174.400482,   -95.448013,   0.453084,   609.541992,   561.865417
-0.019781,   0.078039,   0.078088,   0.000000,   672.512390,   0.536039,   9.092217,   37.464405,   657.259766,   176.301605,   -86.997139,   0.456849,   608.195862,   557.114014
-0.019358,   0.077811,   0.077896,   0.000000,   672.645203,   0.536039,   9.092217,   36.722187,   660.141357,   178.057190,   -78.640091,   0.460263,   607.042725,   552.731201
-0.018986,   0.077619,   0.077738,   0.000000,   672.760681,   0.536040,   9.092217,   35.979969,   662.706726,   179.623138,   -70.412857,   0.463299,   606.037231,   548.738770
-0.018670,   0.077465,   0.077616,   0.000000,   672.864136,   0.536039,   9.092217,   35.237751,   664.969727,   180.989777,   -62.314079,   0.465958,   605.176392,   545.169861
-0.018393,   0.077348,   0.077529,   0.000000,   672.982056,   0.536039,   9.092217,   34.495529,   666.977417,   182.224319,   -54.284702,   0.468302,   604.454773,   541.983398
-0.018159,   0.077261,   0.077472,   0.000000,   673.099243,   0.536039,   9.092217,   33.753311,   668.713623,   183.292374,   -46.347527,   0.470310,   603.861023,   539.219360
-0.017964,   0.077198,   0.077435,   0.000000,   673.209595,   0.536040,   9.092217,   33.011093,   670.179993,   184.197464,   -38.490475,   0.471994,   603.381348,   536.876709
-0.017810,   0.077155,   0.077413,   0.000000,   673.305847,   0.536039,   9.092217,   32.268875,   671.375916,   184.930786,   -30.700487,   0.473356,   603.004578,   534.964661
-0.017692,   0.077128,   0.077403,   0.000000,   673.388611,   0.536040,   9.092217,   31.526657,   672.308350,   185.502914,   -22.957361,   0.474408,   602.723633,   533.477905
-0.017609,   0.077113,   0.077401,   0.000000,   673.450012,   0.536040,   9.092217,   30.784437,   672.971680,   185.899261,   -15.271007,   0.475146,   602.531372,   532.430969
-0.017560,   0.077106,   0.077401,   0.000000,   673.484741,   0.536039,   9.092217,   30.042219,   673.365356,   186.121399,   -7.628037,   0.475575,   602.419250,   531.817932
-0.017544,   0.077104,   0.077402,   0.000000,   673.494995,   0.536040,   9.092217,   29.299999,   673.494995,   186.189255,   -0.000003,   0.475714,   602.382263,   531.618835
-0.017560,   0.077106,   0.077401,   0.000000,   673.484802,   0.536040,   9.092217,   28.557781,   673.365417,   186.121445,   7.628036,   0.475575,   602.419312,   531.817871
-0.017609,   0.077113,   0.077401,   0.000000,   673.450012,   0.536039,   9.092217,   27.815563,   672.971680,   185.899277,   15.271002,   0.475146,   602.531372,   532.430969
-0.017692,   0.077128,   0.077403,   0.000000,   673.388611,   0.536040,   9.092217,   27.073343,   672.308350,   185.502930,   22.957348,   0.474408,   602.723633,   533.477905
-0.017810,   0.077155,   0.077413,   0.000000,   673.305908,   0.536040,   9.092217,   26.331125,   671.375977,   184.930832,   30.700481,   0.473356,   603.004578,   534.964722
-0.017964,   0.077198,   0.077435,   0.000000,   673.209595,   0.536039,   9.092217,   25.588907,   670.179993,   184.197403,   38.490456,   0.471994,   603.381348,   536.876831
-0.018159,   0.077261,   0.077472,   0.000000,   673.099182,   0.536040,   9.092217,   24.846687,   668.713623,   183.292419,   46.347507,   0.470310,   603.861023,   539.219238
-0.018393,   0.077348,   0.077529,   0.000000,   672.982056,   0.536040,   9.092217,   24.104469,   666.977417,   182.224365,   54.284702,   0.468302,   604.454773,   541.983276
-0.018670,   0.077465,   0.077616,   0.000000,   672.864136,   0.536039,   9.092217,   23.362249,   664.969727,   180.989777,   62.314075,   0.465958,   605.176392,   545.169861
-0.018986,   0.077619,   0.077738,   0.000000,   672.760681,   0.536040,   9.092217,   22.620031,   662.706726,   179.623093,   70.412849,   0.463299,   606.037231,   548.738770
-0.019358,   0.077811,   0.077896,   0.000000,   672.645203,   0.536039,   9.092217,   21.877813,   660.141357,   178.057190,   78.640091,   0.460263,   607.042725,   552.731201
-0.019781,   0.078039,   0.078088,   0.000000,   672.512390,   0.536040,   9.092217,   21.135595,   657.259766,   176.301636,   86.997147,   0.456849,   608.195862,   557.114014
-0.020257,   0.078331,   0.078348,   0.000000,   672.414062,   0.536040,   9.092217,   20.393375,   654.120728,   174.400421,   95.448013,   0.453084,   609.541992,   561.865540
-0.020792,   0.078712,   0.078702,   0.000000,   672.383667,   0.536039,   9.092217,   19.651157,   650.749451,   172.373688,   104.006325,   0.448970,   611.119751,   566.983582
-0.021403,   0.079171,   0.079136,   0.000000,   672.374939,   0.536040,   9.092217,   18.908939,   647.066101,   170.171219,   112.739510,   0.444450,   612.920349,   572.471069
-0.022083,   0.079721,   0.079669,   0.000000,   672.419617,   0.536040,   9.092217,   18.166719,   643.143921,   167.848953,   121.538765,   0.439594,   614.956360,   578.241333
-0.022842,   0.080375,   0.080313,   0.000000,   672.515564,   0.536039,   9.092217,   17.424501,   638.937073,   165.384048,   130.494095,   0.434351,   617.258972,   584.324768
-0.023687,   0.081143,   0.081082,   0.000000,   672.682312,   0.536040,   9.092217,   16.682283,   634.494690,   162.831207,   139.534973,   0.428786,   619.832214,   590.639893
-0.024627,   0.082037,   0.081988,   0.000000,   672.902039,   0.536040,   9.092217,   15.940063,   629.784485,   160.129364,   148.692642,   0.422846,   622.696899,   597.206055
-0.025652,   0.083065,   0.083047,   0.000000,   673.240356,   0.536039,   9.092217,   15.197845,   624.889709,   157.456863,   157.919220,   0.416677,   625.861023,   603.906189
-0.026799,   0.084225,   0.084253,   0.000000,   673.607239,   0.536039,   9.092217,   14.455626,   619.711304,   154.630447,   167.244568,   0.410150,   629.316040,   610.781250
-0.028053,   0.085489,   0.085585,   0.000000,   673.962585,   0.536039,   9.092217,   13.713408,   614.178894,   151.681168,   176.702881,   0.403273,   633.036499,   617.761902
-0.029425,   0.086930,   0.087120,   0.000000,   674.443115,   0.536040,   9.092217,   12.971189,   608.504822,   148.738739,   186.182816,   0.396198,   637.091248,   624.813843
-0.030943,   0.088599,   0.088910,   0.000000,   675.104004,   0.536040,   9.092217,   12.228970,   602.753662,   145.822601,   195.687775,   0.388953,   641.531128,   631.961609
-0.032675,   0.090447,   0.090906,   0.000000,   675.694153,   0.536039,   9.092217,   11.486752,   596.520020,   142.561508,   205.451492,   0.381165,   646.335876,   639.286682
-0.034471,   0.092479,   0.093144,   0.000000,   676.538452,   0.536040,   9.092217,   10.744533,   590.182312,   139.704575,   215.311188,   0.373437,   651.504456,   646.562805
-0.036525,   0.094734,   0.095649,   0.000000,   677.278381,   0.536039,   9.092217,   10.002314,   583.238831,   136.420883,   225.526031,   0.365061,   657.113525,   654.027893
-0.038784,   0.097234,   0.098465,   0.000000,   678.147400,   0.536039,   9.092217,   9.260096,   575.738037,   133.309128,   236.212906,   0.356357,   663.237610,   661.615173
-0.041286,   0.099984,   0.101598,   0.000000,   678.850586,   0.536039,   9.092217,   8.517877,   567.471375,   129.759476,   247.300110,   0.346959,   669.849609,   669.281921
-0.044016,   0.102995,   0.105082,   0.000000,   679.453613,   0.536039,   9.092217,   7.775658,   558.309692,   126.052139,   258.923187,   0.336952,   677.012817,   676.972839
-0.051990,   0.120048,   0.121868,   0.000000,   691.968323,   0.536478,   10.004342,   50.404324,   590.302612,   106.854866,   -243.897446,   0.337090,   689.388367,   689.344482
-0.048626,   0.116322,   0.117707,   0.000000,   691.611511,   0.536478,   10.004342,   49.676586,   597.374207,   112.768677,   -233.556366,   0.346817,   682.534485,   681.968140
-0.045668,   0.113025,   0.114064,   0.000000,   691.175598,   0.536478,   10.004342,   48.948853,   603.854858,   118.117302,   -223.695908,   0.355842,   676.303345,   674.722961
-0.043011,   0.110060,   0.110824,   0.000000,   690.671692,   0.536478,   10.004342,   48.221115,   609.977905,   122.983673,   -214.030121,   0.364371,   670.527710,   667.517395
-0.040608,   0.107380,   0.107929,   0.000000,   690.266296,   0.536476,   10.004342,   47.493382,   615.794006,   127.828148,   -204.660797,   0.372634,   665.195190,   660.355103
-0.038420,   0.104969,   0.105351,   0.000000,   689.904602,   0.536478,   10.004342,   46.765648,   621.423889,   132.465164,   -195.381256,   0.380613,   660.241699,   653.211853
-0.036425,   0.102782,   0.103033,   0.000000,   689.624146,   0.536478,   10.004342,   46.037910,   626.891785,   137.074677,   -186.179352,   0.388418,   655.621887,   646.037170
-0.034574,   0.100784,   0.100942,   0.000000,   689.393738,   0.536478,   10.004342,   45.310177,   632.171631,   141.617111,   -177.045013,   0.396017,   651.310120,   638.834717
-0.032925,   0.098965,   0.099057,   0.000000,   689.121277,   0.536478,   10.004342,   44.582439,   637.106018,   145.867249,   -168.099701,   0.403188,   647.318298,   631.739197
-0.031409,   0.097344,   0.097395,   0.000000,   688.926086,   0.536478,   10.004342,   43.854706,   641.968201,   149.999023,   -159.081345,   0.410162,   643.621704,   624.659302
-0.030036,   0.095912,   0.095947,   0.000000,   688.802917,   0.536478,   10.004342,   43.126968,   646.626038,   153.991867,   -150.188797,   0.416819,   640.260559,   617.718445
-0.028796,   0.094649,   0.094682,   0.000000,   688.711121,   0.536476,   10.004342,   42.399235,   651.054199,   157.767883,   -141.399048,   0.423111,   637.203186,   610.950378
-0.027671,   0.093541,   0.093588,   0.000000,   688.690674,   0.536478,   10.004342,   41.671501,   655.288574,   161.437546,   -132.707794,   0.429108,   634.437622,   604.336060
-0.026661,   0.092576,   0.092647,   0.000000,   688.692871,   0.536478,   10.004342,   40.943764,   659.277161,   164.867249,   -124.131760,   0.434710,   631.949707,   597.966064
-0.025746,   0.091736,   0.091841,   0.000000,   688.734375,   0.536478,   10.004342,   40.216030,   663.050842,   168.122345,   -115.633751,   0.439973,   629.715332,   591.818848
-0.024933,   0.091008,   0.091152,   0.000000,   688.784180,   0.536478,   10.004342,   39.488293,   666.546143,   171.137512,   -107.291412,   0.444827,   627.722168,   585.978638
-0.024201,   0.090399,   0.090587,   0.000000,   688.885193,   0.536478,   10.004342,   38.760559,   669.830017,   173.964615,   -99.054970,   0.449323,   625.975159,   580.452026
-0.023544,   0.089882,   0.090119,   0.000000,   689.008728,   0.536478,   10.004342,   38.032822,   672.876221,   176.588516,   -90.921028,   0.453455,   624.438599,   575.249329
-0.022966,   0.089422,   0.089706,   0.000000,   689.090210,   0.536476,   10.004342,   37.305088,   675.605774,   178.936752,   -82.940536,   0.457172,   623.063599,   570.416077
-0.022447,   0.089032,   0.089363,   0.000000,   689.185974,   0.536478,   10.004342,   36.577354,   678.110657,   181.099289,   -75.014732,   0.460561,   621.857910,   565.917053
-0.021992,   0.088708,   0.089087,   0.000000,   689.291992,   0.536478,   10.004342,   35.849617,   680.371155,   183.047028,   -67.202248,   0.463589,   620.821716,   561.818359
-0.021597,   0.088441,   0.088864,   0.000000,   689.392151,   0.536478,   10.004342,   35.121883,   682.376526,   184.760056,   -59.500504,   0.466252,   619.934631,   558.142639
-0.021257,   0.088224,   0.088688,   0.000000,   689.494446,   0.536478,   10.004342,   34.394146,   684.148682,   186.273743,   -51.866096,   0.468586,   619.183838,   554.870056
-0.020970,   0.088051,   0.088552,   0.000000,   689.593872,   0.536478,   10.004342,   33.666412,   685.683167,   187.578064,   -44.308342,   0.470588,   618.560852,   552.025085
-0.020732,   0.087916,   0.088449,   0.000000,   689.684204,   0.536476,   10.004342,   32.938675,   686.978943,   188.672852,   -36.815388,   0.472264,   618.052856,   549.613464
-0.020540,   0.087812,   0.088373,   0.000000,   689.756714,   0.536479,   10.004342,   32.210941,   688.030396,   189.545807,   -29.385611,   0.473611,   617.649353,   547.651184
-0.020392,   0.087735,   0.088317,   0.000000,   689.810913,   0.536477,   10.004342,   31.483206,   688.842041,   190.206879,   -22.001070,   0.474641,   617.342407,   546.133972
-0.020288,   0.087682,   0.088280,   0.000000,   689.847717,   0.536479,   10.004342,   30.755470,   689.417603,   190.665207,   -14.652425,   0.475365,   617.127197,   545.059692
-0.020227,   0.087651,   0.088258,   0.000000,   689.870544,   0.536478,   10.004342,   30.027735,   689.763062,   190.939667,   -7.322131,   0.475798,   616.999817,   544.414429
-0.020206,   0.087641,   0.088251,   0.000000,   689.878906,   0.536477,   10.004342,   29.299999,   689.878906,   191.033417,   -0.000001,   0.475944,   616.957642,   544.197449
-0.020227,   0.087651,   0.088258,   0.000000,   689.870544,   0.536478,   10.004342,   28.572264,   689.763062,   190.939667,   7.322130,   0.475798,   616.999817,   544.414429
-0.020288,   0.087682,   0.088280,   0.000000,   689.847717,   0.536478,   10.004342,   27.844528,   689.417603,   190.665176,   14.652416,   0.475365,   617.127197,   545.059692
-0.020392,   0.087735,   0.088317,   0.000000,   689.810852,   0.536478,   10.004342,   27.116795,   688.841980,   190.206833,   22.001059,   0.474641,   617.342346,   546.134094
-0.020540,   0.087812,   0.088373,   0.000000,   689.756714,   0.536477,   10.004342,   26.389059,   688.030396,   189.545898,   29.385605,   0.473611,   617.649353,   547.651062
-0.020732,   0.087916,   0.088449,   0.000000,   689.684143,   0.536478,   10.004342,   25.661324,   686.978882,   188.672775,   36.815361,   0.472264,   618.052856,   549.613525
-0.020970,   0.088051,   0.088552,   0.000000,   689.593872,   0.536478,   10.004342,   24.933588,   685.683167,   187.578064,   44.308342,   0.470588,   618.560852,   552.025085
-0.021257,   0.088224,   0.088688,   0.000000,   689.494446,   0.536477,   10.004342,   24.205853,   684.148682,   186.273788,   51.866093,   0.468586,   619.183838,   554.869934
-0.021597,   0.088441,   0.088864,   0.000000,   689.392151,   0.536478,   10.004342,   23.478117,   682.376526,   184.760056,   59.500488,   0.466252,   619.934631,   558.142639
-0.021992,   0.088708,   0.089087,   0.000000,   689.291992,   0.536478,   10.004342,   22.750381,   680.371155,   183.047028,   67.202217,   0.463589,   620.821716,   561.818359
-0.022447,   0.089032,   0.089363,   0.000000,   689.185974,   0.536477,   10.004342,   22.022648,   678.110657,   181.099335,   75.014725,   0.460561,   621.857910,   565.917053
-0.022966,   0.089422,   0.089706,   0.000000,   689.090210,   0.536478,   10.004342,   21.294912,   675.605774,   178.936661,   82.940514,   0.457172,   623.063538,   570.416138
-0.023544,   0.089882,   0.090119,   0.000000,   689.008667,   0.536478,   10.004342,   20.567177,   672.876160,   176.588501,   90.921028,   0.453455,   624.438538,   575.249268
-0.024201,   0.090399,   0.090587,   0.000000,   688.885071,   0.536478,   10.004342,   19.839441,   669.829956,   173.964584,   99.054955,   0.449323,   625.975098,   580.451904
-0.024933,   0.091008,   0.091152,   0.000000,   688.784180,   0.536477,   10.004342,   19.111706,   666.546143,   171.137543,   107.291428,   0.444827,   627.722168,   585.978577
-0.025746,   0.091736,   0.091841,   0.000000,   688.734375,   0.536478,   10.004342,   18.383970,   663.050842,   168.122299,   115.633743,   0.439973,   629.715271,   591.818909
-0.026661,   0.092576,   0.092647,   0.000000,   688.692871,   0.536478,   10.004342,   17.656237,   659.277161,   164.867203,   124.131752,   0.434710,   631.949707,   597.966125
-0.027671,   0.093541,   0.093588,   0.000000,   688.690613,   0.536477,   10.004342,   16.928501,   655.288513,   161.437561,   132.707809,   0.429108,   634.437561,   604.335938
-0.028796,   0.094649,   0.094682,   0.000000,   688.711060,   0.536478,   10.004342,   16.200766,   651.054138,   157.767776,   141.399048,   0.423110,   637.203186,   610.950378
-0.030036,   0.095912,   0.095946,   0.000000,   688.802917,   0.536477,   10.004342,   15.473030,   646.625977,   153.991852,   150.188843,   0.416819,   640.260559,   617.718567
-0.031409,   0.097344,   0.097395,   0.000000,   688.926025,   0.536478,   10.004342,   14.745295,   641.968140,   149.998978,   159.081360,   0.410162,   643.621704,   624.659302
-0.032925,   0.098965,   0.099057,   0.000000,   689.121277,   0.536477,   10.004342,   14.017559,   637.105957,   145.867264,   168.099716,   0.403188,   647.318237,   631.739197
-0.034574,   0.100784,   0.100942,   0.000000,   689.393677,   0.536478,   10.004342,   13.289824,   632.171570,   141.617111,   177.045044,   0.396017,   651.310120,   638.834778
-0.036425,   0.102782,   0.103033,   0.000000,   689.624146,   0.536478,   10.004342,   12.562089,   626.891724,   137.074783,   186.179398,   0.388418,   655.621826,   646.036987
-0.038420,   0.104969,   0.105351,   0.000000,   689.904541,   0.536478,   10.004342,   11.834353,   621.423828,   132.465240,   195.381241,   0.380613,   660.241699,   653.211731
-0.040608,   0.107380,   0.107929,   0.000000,   690.266235,   0.536478,   10.004342,   11.106618,   615.793945,   127.828140,   204.660812,   0.372634,   665.195129,   660.355042
-0.043011,   0.110060,   0.110824,   0.000000,   690.671692,   0.536478,   10.004342,   10.378882,   609.977844,   122.983856,   214.030167,   0.364371,   670.527588,   667.517273
-0.045668,   0.113025,   0.114064,   0.000000,   691.175598,   0.536478,   10.004342,   9.651148,   603.854858,   118.117439,   223.695938,   0.355842,   676.303406,   674.723083
-0.048626,   0.116322,   0.117707,   0.000000,   691.611511,   0.536478,   10.004342,   8.923412,   597.374146,   112.768814,   233.556427,   0.346817,   682.534485,   681.968201
-0.051990,   0.120048,   0.121868,   0.000000,   691.968323,   0.536478,   10.004342,   8.195677,   590.302551,   106.854950,   243.897537,   0.337090,   689.388428,   689.344543
-0.060588,   0.138275,   0.139674,   0.000000,   703.829712,   0.536501,   10.934303,   50.023975,   620.319702,   89.330368,   -226.532211,   0.337477,   700.937622,   700.883240
-0.056714,   0.134141,   0.135181,   0.000000,   704.117249,   0.536499,   10.934303,   49.309357,   626.048096,   97.201324,   -217.672714,   0.347008,   694.748779,   694.155701
-0.053288,   0.130423,   0.131174,   0.000000,   704.291992,   0.536501,   10.934303,   48.594734,   631.505859,   104.468315,   -208.946976,   0.356060,   688.997437,   687.355652
-0.050231,   0.127060,   0.127574,   0.000000,   704.324951,   0.536501,   10.934303,   47.880116,   636.779480,   111.074913,   -200.178299,   0.364664,   683.600464,   680.471863
-0.047406,   0.123965,   0.124305,   0.000000,   704.426147,   0.536499,   10.934303,   47.165497,   641.917236,   117.645065,   -191.517700,   0.373135,   678.540222,   673.472595
-0.044830,   0.121145,   0.121360,   0.000000,   704.507446,   0.536499,   10.934303,   46.450878,   646.866150,   123.909264,   -182.938370,   0.381295,   673.821899,   666.431458
-0.042559,   0.118594,   0.118713,   0.000000,   704.498901,   0.536501,   10.934303,   45.736256,   651.564392,   129.678528,   -174.435806,   0.389007,   669.434326,   659.428589
-0.040412,   0.116271,   0.116340,   0.000000,   704.640259,   0.536501,   10.934303,   45.021637,   656.261047,   135.552094,   -165.927826,   0.396690,   665.350708,   652.317322
-0.038422,   0.114162,   0.114218,   0.000000,   704.834412,   0.536501,   10.934303,   44.307014,   660.776550,   141.311615,   -157.567780,   0.404121,   661.590515,   645.214294
-0.036642,   0.112280,   0.112339,   0.000000,   704.994446,   0.536499,   10.934303,   43.592396,   665.113098,   146.674759,   -149.219772,   0.411160,   658.128601,   638.196899
-0.035029,   0.110604,   0.110685,   0.000000,   705.195251,   0.536501,   10.934303,   42.877777,   669.291504,   151.840378,   -140.952133,   0.417899,   654.968445,   631.260620
-0.033564,   0.109105,   0.109222,   0.000000,   705.393799,   0.536499,   10.934303,   42.163158,   673.271729,   156.733246,   -132.755783,   0.424286,   652.080017,   624.443359
-0.032222,   0.107767,   0.107934,   0.000000,   705.602112,   0.536501,   10.934303,   41.448536,   677.050781,   161.385422,   -124.652008,   0.430328,   649.454590,   617.771790
-0.031022,   0.106578,   0.106801,   0.000000,   705.785217,   0.536499,   10.934303,   40.733917,   680.584351,   165.708252,   -116.663658,   0.435957,   647.075806,   611.322876
-0.029934,   0.105535,   0.105823,   0.000000,   705.982117,   0.536501,   10.934303,   40.019299,   683.918762,   169.765549,   -108.769264,   0.441219,   644.943115,   605.108582
-0.028946,   0.104612,   0.104970,   0.000000,   706.171875,   0.536501,   10.934303,   39.304676,   687.031006,   173.550369,   -100.969498,   0.446111,   643.025146,   599.145264
-0.028065,   0.103779,   0.104206,   0.000000,   706.309082,   0.536499,   10.934303,   38.590057,   689.861511,   177.005615,   -93.304703,   0.450588,   641.286072,   593.483582
-0.027266,   0.103047,   0.103545,   0.000000,   706.452148,   0.536501,   10.934303,   37.875439,   692.498962,   180.224411,   -85.688675,   0.454733,   639.732788,   588.099243
-0.026552,   0.102411,   0.102980,   0.000000,   706.584473,   0.536499,   10.934303,   37.160820,   694.898499,   183.144211,   -78.210686,   0.458485,   638.364929,   583.091919
-0.025920,   0.101862,   0.102498,   0.000000,   706.714844,   0.536501,   10.934303,   36.446198,   697.093567,   185.807602,   -70.793938,   0.461893,   637.160889,   578.433411
-0.025365,   0.101393,   0.102094,   0.000000,   706.841553,   0.536499,   10.934303,   35.731579,   699.074219,   188.204681,   -63.469925,   0.464947,   636.114807,   574.166870
-0.024879,   0.100993,   0.101754,   0.000000,   706.958008,   0.536501,   10.934303,   35.016960,   700.838013,   190.332062,   -56.229362,   0.467650,   635.211365,   570.310181
-0.024459,   0.100657,   0.101472,   0.000000,   707.062439,   0.536501,   10.934303,   34.302338,   702.389954,   192.194748,   -49.048008,   0.470014,   634.438293,   566.872742
-0.024103,   0.100377,   0.101242,   0.000000,   707.154358,   0.536501,   10.934303,   33.587719,   703.729492,   193.794479,   -41.930672,   0.472042,   633.787964,   563.873962
-0.023806,   0.100150,   0.101056,   0.000000,   707.230957,   0.536498,   10.934303,   32.873100,   704.856445,   195.130356,   -34.871193,   0.473738,   633.251587,   561.327942
-0.023566,   0.099969,   0.100910,   0.000000,   707.292725,   0.536502,   10.934303,   32.158482,   705.774414,   196.213303,   -27.856167,   0.475115,   632.821228,   559.236145
-0.023381,   0.099830,   0.100800,   0.000000,   707.339722,   0.536500,   10.934303,   31.443859,   706.486267,   197.050293,   -20.869062,   0.476179,   632.491028,   557.601257
-0.023249,   0.099733,   0.100722,   0.000000,   707.373779,   0.536500,   10.934303,   30.729240,   706.994629,   197.648956,   -13.901664,   0.476938,   632.257507,   556.426208
-0.023171,   0.099675,   0.100676,   0.000000,   707.393921,   0.536501,   10.934303,   30.014620,   707.299194,   198.007431,   -6.947199,   0.477393,   632.118164,   555.718811
-0.023145,   0.099656,   0.100661,   0.000000,   707.400452,   0.536499,   10.934303,   29.299999,   707.400452,   198.125870,   -0.000005,   0.477544,   632.071960,   555.483643
-0.023171,   0.099675,   0.100676,   0.000000,   707.393921,   0.536501,   10.934303,   28.585381,   707.299194,   198.007431,   6.947190,   0.477393,   632.118164,   555.718811
-0.023249,   0.099733,   0.100722,   0.000000,   707.373779,   0.536500,   10.934303,   27.870760,   706.994629,   197.648956,   13.901651,   0.476938,   632.257507,   556.426208
-0.023381,   0.099830,   0.100800,   0.000000,   707.339722,   0.536501,   10.934303,   27.156141,   706.486267,   197.050339,   20.869057,   0.476179,   632.491028,   557.601257
-0.023566,   0.099969,   0.100910,   0.000000,   707.292725,   0.536499,   10.934303,   26.441521,   705.774414,   196.213272,   27.856148,   0.475114,   632.821289,   559.236145
-0.023806,   0.100150,   0.101056,   0.000000,   707.230957,   0.536501,   10.934303,   25.726900,   704.856445,   195.130356,   34.871181,   0.473738,   633.251587,   561.327942
-0.024103,   0.100377,   0.101242,   0.000000,   707.154358,   0.536500,   10.934303,   25.012281,   703.729492,   193.794540,   41.930672,   0.472042,   633.787964,   563.873840
-0.024459,   0.100657,   0.101472,   0.000000,   707.062378,   0.536500,   10.934303,   24.297661,   702.389893,   192.194702,   49.047993,   0.470014,   634.438171,   566.872803
-0.024879,   0.100993,   0.101754,   0.000000,   706.958008,   0.536500,   10.934303,   23.583042,   700.838013,   190.332108,   56.229351,   0.467650,   635.211365,   570.310059
-0.025365,   0.101393,   0.102094,   0.000000,   706.841492,   0.536501,   10.934303,   22.868422,   699.074158,   188.204590,   63.469891,   0.464947,   636.114746,   574.166870
-0.025920,   0.101862,   0.102498,   0.000000,   706.714844,   0.536499,   10.934303,   22.153801,   697.093567,   185.807602,   70.793915,   0.461893,   637.160889,   578.433350
-0.026552,   0.102411,   0.102980,   0.000000,   706.584473,   0.536501,   10.934303,   21.439182,   694.898499,   183.144318,   78.210686,   0.458485,   638.364929,   583.091858
-0.027266,   0.103047,   0.103545,   0.000000,   706.452148,   0.536500,   10.934303,   20.724562,   692.498962,   180.224457,   85.688675,   0.454733,   639.732788,   588.099243
-0.028065,   0.103779,   0.104206,   0.000000,   706.309082,   0.536501,   10.934303,   20.009941,   689.861511,   177.005508,   93.304672,   0.450588,   641.286133,   593.483704
-0.028946,   0.104612,   0.104970,   0.000000,   706.171875,   0.536499,   10.934303,   19.295322,   687.031006,   173.550369,   100.969505,   0.446111,   643.025146,   599.145264
-0.029934,   0.105535,   0.105823,   0.000000,   705.982178,   0.536501,   10.934303,   18.580702,   683.918762,   169.765549,   108.769272,   0.441219,   644.943115,   605.108582
-0.031022,   0.106578,   0.106801,   0.000000,   705.785156,   0.536500,   10.934303,   17.866083,   680.584290,   165.708176,   116.663658,   0.435957,   647.075745,   611.322815
-0.032222,   0.107767,   0.107934,   0.000000,   705.602051,   0.536500,   10.934303,   17.151463,   677.050720,   161.385361,   124.652008,   0.430328,   649.454529,   617.771729
-0.033564,   0.109105,   0.109222,   0.000000,   705.393799,   0.536500,   10.934303,   16.436844,   673.271729,   156.733398,   132.755829,   0.424286,   652.080017,   624.443359
-0.035029,   0.110604,   0.110685,   0.000000,   705.195251,   0.536500,   10.934303,   15.722223,   669.291504,   151.840363,   140.952179,   0.417899,   654.968445,   631.260742
-0.036642,   0.112280,   0.112339,   0.000000,   704.994385,   0.536501,   10.934303,   15.007604,   665.113037,   146.674667,   149.219803,   0.411160,   658.128540,   638.196838
-0.038422,   0.114162,   0.114218,   0.000000,   704.834351,   0.536500,   10.934303,   14.292984,   660.776489,   141.311615,   157.567841,   0.404121,   661.590515,   645.214172
-0.040412,   0.116271,   0.116340,   0.000000,   704.640320,   0.536501,   10.934303,   13.578364,   656.261047,   135.552139,   165.927887,   0.396690,   665.350708,   652.317383
-0.042559,   0.118594,   0.118713,   0.000000,   704.498901,   0.536500,   10.934303,   12.863744,   651.564331,   129.678558,   174.435852,   0.389007,   669.434326,   659.428528
-0.044830,   0.121145,   0.121360,   0.000000,   704.507446,   0.536500,   10.934303,   12.149125,   646.866089,   123.909187,   182.938385,   0.381295,   673.821899,   666.431519
-0.047406,   0.123965,   0.124305,   0.000000,   704.426208,   0.536500,   10.934303,   11.434505,   641.917236,   117.645287,   191.517792,   0.373136,   678.540222,   673.472656
-0.050231,   0.127060,   0.127574,   0.000000,   704.325012,   0.536500,   10.934303,   10.719885,   636.779480,   111.074989,   200.178360,   0.364664,   683.600464,   680.471802
-0.053288,   0.130423,   0.131174,   0.000000,   704.292053,   0.536500,   10.934303,   10.005265,   631.505920,   104.468491,   208.947006,   0.356061,   688.997375,   687.355591
-0.056714,   0.134141,   0.135181,   0.000000,   704.117371,   0.536500,   10.934303,   9.290645,   626.048218,   97.201424,   217.672684,   0.347008,   694.748779,   694.155762
-0.060588,   0.138275,   0.139674,   0.000000,   703.829956,   0.536500,   10.934303,   8.576026,   620.319946,   89.330727,   226.532181,   0.337477,   700.937744,   700.883301
-0.069051,   0.156341,   0.157144,   0.000000,   714.567993,   0.536220,   11.880316,   49.684025,   647.984497,   74.400902,   -206.457214,   0.338818,   710.691589,   710.594910
-0.064922,   0.152155,   0.152677,   0.000000,   715.701416,   0.536219,   11.880316,   48.981129,   653.020081,   83.903824,   -199.002350,   0.348264,   705.329712,   704.610840
-0.061180,   0.148320,   0.148629,   0.000000,   716.636353,   0.536220,   11.880316,   48.278233,   657.912292,   92.695274,   -191.416702,   0.357295,   700.269043,   698.411499
-0.057879,   0.144816,   0.144955,   0.000000,   717.376099,   0.536220,   11.880316,   47.575333,   662.625671,   100.795921,   -183.733551,   0.365888,   695.497437,   692.055603
-0.054739,   0.141603,   0.141635,   0.000000,   718.239746,   0.536220,   11.880316,   46.872437,   667.394836,   108.944046,   -176.010239,   0.374487,   691.024475,   685.497131
-0.051853,   0.138638,   0.138609,   0.000000,   719.068237,   0.536219,   11.880316,   46.169540,   672.053284,   116.848747,   -168.265625,   0.382877,   686.819214,   678.762878
-0.049216,   0.135911,   0.135857,   0.000000,   719.781067,   0.536220,   11.880316,   45.466640,   676.510498,   124.287483,   -160.522079,   0.390889,   682.886597,   671.946716
-0.046784,   0.133421,   0.133374,   0.000000,   720.522522,   0.536220,   11.880316,   44.763744,   680.848389,   131.616226,   -152.854065,   0.398716,   679.234680,   665.018616
-0.044497,   0.131140,   0.131142,   0.000000,   721.272766,   0.536220,   11.880316,   44.060844,   685.060364,   138.766800,   -145.237518,   0.406313,   675.856567,   658.009155
-0.042470,   0.129057,   0.129112,   0.000000,   721.863281,   0.536219,   11.880316,   43.357948,   688.998169,   145.347321,   -137.649048,   0.413424,   672.712463,   651.049377
-0.040608,   0.127164,   0.127289,   0.000000,   722.408386,   0.536220,   11.880316,   42.655052,   692.739746,   151.595291,   -130.135498,   0.420180,   669.820251,   644.139832
-0.038904,   0.125449,   0.125658,   0.000000,   722.909119,   0.536219,   11.880316,   41.952156,   696.291260,   157.503494,   -122.677940,   0.426578,   667.165771,   637.312744
-0.037345,   0.123887,   0.124190,   0.000000,   723.349731,   0.536220,   11.880316,   41.249256,   699.631042,   163.054367,   -115.279976,   0.432602,   664.726135,   630.601440
-0.035915,   0.122459,   0.122862,   0.000000,   723.729553,   0.536219,   11.880316,   40.546360,   702.744385,   168.261414,   -107.965752,   0.438252,   662.485229,   624.037476
-0.034626,   0.121158,   0.121663,   0.000000,   724.040833,   0.536220,   11.880316,   39.843464,   705.615845,   173.087540,   -100.753662,   0.443498,   660.434387,   617.685425
-0.033446,   0.119991,   0.120601,   0.000000,   724.336487,   0.536220,   11.880316,   39.140564,   708.317444,   177.621933,   -93.583405,   0.448411,   658.577271,   611.534119
-0.032381,   0.118950,   0.119665,   0.000000,   724.598145,   0.536219,   11.880316,   38.437668,   710.802490,   181.799759,   -86.534668,   0.452929,   656.911255,   605.681885
-0.031423,   0.118025,   0.118843,   0.000000,   724.838318,   0.536220,   11.880316,   37.734772,   713.104309,   185.664703,   -79.540413,   0.457098,   655.416565,   600.112000
-0.030565,   0.117207,   0.118124,   0.000000,   725.057678,   0.536220,   11.880316,   37.031872,   715.210083,   189.209625,   -72.641754,   0.460906,   654.088379,   594.875488
-0.029801,   0.116487,   0.117498,   0.000000,   725.252258,   0.536220,   11.880316,   36.328976,   717.126160,   192.430222,   -65.800980,   0.464360,   652.910339,   589.991394
-0.029125,   0.115857,   0.116956,   0.000000,   725.423706,   0.536219,   11.880316,   35.626076,   718.849548,   195.328979,   -59.033356,   0.467461,   651.874817,   585.492676
-0.028532,   0.115310,   0.116490,   0.000000,   725.573792,   0.536220,   11.880316,   34.923180,   720.384216,   197.913300,   -52.329086,   0.470219,   650.971924,   581.398071
-0.028017,   0.114839,   0.116092,   0.000000,   725.701843,   0.536220,   11.880316,   34.220284,   721.731812,   200.181351,   -45.676353,   0.472636,   650.193176,   577.731689
-0.027578,   0.114441,   0.115759,   0.000000,   725.809265,   0.536220,   11.880316,   33.517384,   722.893982,   202.137650,   -39.072266,   0.474717,   649.531494,   574.513123
-0.027211,   0.114110,   0.115484,   0.000000,   725.898804,   0.536219,   11.880316,   32.814487,   723.874878,   203.791626,   -32.507244,   0.476473,   648.981018,   571.754272
-0.026913,   0.113844,   0.115263,   0.000000,   725.972168,   0.536220,   11.880316,   32.111591,   724.677063,   205.148148,   -25.971706,   0.477909,   648.536865,   569.468079
-0.026684,   0.113639,   0.115095,   0.000000,   726.029419,   0.536220,   11.880316,   31.408693,   725.301086,   206.206268,   -19.457973,   0.479026,   648.195129,   567.670471
-0.026520,   0.113495,   0.114976,   0.000000,   726.070129,   0.536220,   11.880316,   30.705795,   725.746460,   206.962738,   -12.961961,   0.479823,   647.953003,   566.376587
-0.026423,   0.113408,   0.114906,   0.000000,   726.094543,   0.536220,   11.880316,   30.002897,   726.013611,   207.417236,   -6.478179,   0.480302,   647.808472,   565.596130
-0.026391,   0.113379,   0.114882,   0.000000,   726.102722,   0.536220,   11.880316,   29.299999,   726.102722,   207.569138,   -0.000001,   0.480461,   647.760437,   565.334839
-0.026423,   0.113408,   0.114906,   0.000000,   726.094543,   0.536220,   11.880316,   28.597103,   726.013611,   207.417282,   6.478174,   0.480302,   647.808472,   565.596008
-0.026520,   0.113495,   0.114976,   0.000000,   726.070129,   0.536220,   11.880316,   27.894205,   725.746460,   206.962738,   12.961951,   0.479823,   647.953003,   566.376587
-0.026684,   0.113639,   0.115095,   0.000000,   726.029419,   0.536220,   11.880316,   27.191309,   725.301086,   206.206268,   19.457966,   0.479026,   648.195129,   567.670471
-0.026913,   0.113844,   0.115263,   0.000000,   725.972107,   0.536220,   11.880316,   26.488411,   724.677002,   205.148102,   25.971684,   0.477909,   648.536804,   569.468140
-0.027211,   0.114110,   0.115484,   0.000000,   725.898804,   0.536220,   11.880316,   25.785513,   723.874878,   203.791733,   32.507248,   0.476473,   648.981018,   571.754150
-0.027578,   0.114441,   0.115759,   0.000000,   725.809265,   0.536220,   11.880316,   25.082615,   722.893982,   202.137604,   39.072250,   0.474717,   649.531494,   574.513123
-0.028017,   0.114839,   0.116092,   0.000000,   725.701843,   0.536220,   11.880316,   24.379717,   721.731812,   200.181351,   45.676338,   0.472636,   650.193176,   577.731689
-0.028532,   0.115310,   0.116490,   0.000000,   725.573792,   0.536220,   11.880316,   23.676821,   720.384216,   197.913254,   52.329063,   0.470219,   650.971924,   581.398010
-0.029125,   0.115857,   0.116956,   0.000000,   725.423767,   0.536220,   11.880316,   22.973923,   718.849609,   195.329086,   59.033356,   0.467461,   651.874817,   585.492615
-0.029801,   0.116487,   0.117498,   0.000000,   725.252258,   0.536220,   11.880316,   22.271025,   717.126160,   192.430191,   65.800957,   0.464360,   652.910339,   589.991394
-0.030565,   0.117207,   0.118124,   0.000000,   725.057617,   0.536220,   11.880316,   21.568127,   715.210022,   189.209641,   72.641747,   0.460906,   654.088318,   594.875305
-0.031423,   0.118025,   0.118843,   0.000000,   724.838318,   0.536220,   11.880316,   20.865231,   713.104309,   185.664673,   79.540382,   0.457098,   655.416565,   600.112122
-0.032381,   0.118950,   0.119665,   0.000000,   724.598206,   0.536220,   11.880316,   20.162333,   710.802551,   181.799896,   86.534676,   0.452929,   656.911255,   605.681763
-0.033446,   0.119991,   0.120601,   0.000000,   724.336487,   0.536219,   11.880316,   19.459436,   708.317444,   177.621948,   93.583382,   0.448411,   658.577209,   611.534058
-0.034626,   0.121158,   0.121663,   0.000000,   724.040833,   0.536220,   11.880316,   18.756538,   705.615845,   173.087555,   100.753632,   0.443498,   660.434387,   617.685364
-0.035915,   0.122459,   0.122862,   0.000000,   723.729553,   0.536220,   11.880316,   18.053640,   702.744385,   168.261490,   107.965752,   0.438252,   662.485168,   624.037415
-0.037345,   0.123887,   0.124190,   0.000000,   723.349731,   0.536220,   11.880316,   17.350744,   699.631042,   163.054352,   115.279961,   0.432602,   664.726135,   630.601440
-0.038904,   0.125449,   0.125658,   0.000000,   722.908997,   0.536220,   11.880316,   16.647846,   696.291199,   157.503311,   122.677917,   0.426578,   667.165771,   637.312744
-0.040608,   0.127164,   0.127289,   0.000000,   722.408325,   0.536220,   11.880316,   15.944948,   692.739685,   151.595245,   130.135513,   0.420180,   669.820190,   644.139893
-0.042470,   0.129057,   0.129111,   0.000000,   721.863220,   0.536220,   11.880316,   15.242051,   688.998108,   145.347351,   137.649094,   0.413424,   672.712402,   651.049377
-0.044497,   0.131140,   0.131142,   0.000000,   721.272705,   0.536220,   11.880316,   14.539153,   685.060303,   138.766678,   145.237534,   0.406313,   675.856567,   658.009155
-0.046784,   0.133421,   0.133374,   0.000000,   720.522522,   0.536220,   11.880316,   13.836256,   680.848328,   131.616074,   152.854080,   0.398716,   679.234680,   665.018616
-0.049216,   0.135911,   0.135857,   0.000000,   719.780945,   0.536220,   11.880316,   13.133358,   676.510376,   124.287323,   160.522095,   0.390889,   682.886536,   671.946594
-0.051853,   0.138637,   0.138609,   0.000000,   719.068237,   0.536220,   11.880316,   12.430461,   672.053223,   116.848740,   168.265686,   0.382877,   686.819214,   678.762878
-0.054739,   0.141603,   0.141635,   0.000000,   718.239685,   0.536220,   11.880316,   11.727564,   667.394714,   108.943871,   176.010254,   0.374487,   691.024414,   685.497192
-0.057879,   0.144816,   0.144954,   0.000000,   717.375916,   0.536220,   11.880316,   11.024666,   662.625488,   100.795708,   183.733536,   0.365887,   695.497314,   692.055542
-0.061180,   0.148320,   0.148629,   0.000000,   716.636230,   0.536220,   11.880316,   10.321769,   657.912170,   92.695061,   191.416687,   0.357295,   700.268982,   698.411438
-0.064922,   0.152155,   0.152677,   0.000000,   715.701294,   0.536220,   11.880316,   9.618871,   653.019897,   83.903694,   199.002365,   0.348264,   705.329590,   704.610779
-0.069051,   0.156340,   0.157144,   0.000000,   714.567688,   0.536220,   11.880316,   8.915974,   647.984192,   74.400642,   206.457214,   0.338818,   710.691406,   710.594727
-0.077251,   0.173539,   0.173638,   0.000000,   723.951172,   0.535738,   12.840565,   49.385132,   672.596985,   61.817051,   -184.400055,   0.340585,   718.776917,   718.605469
-0.073010,   0.169678,   0.169573,   0.000000,   726.223755,   0.535738,   12.840565,   48.692539,   677.681458,   72.950851,   -178.076904,   0.350272,   714.332397,   713.393188
-0.069068,   0.166022,   0.165774,   0.000000,   728.235046,   0.535738,   12.840565,   47.999950,   682.637390,   83.509338,   -171.458435,   0.359674,   710.038696,   707.756104
-0.065397,   0.162617,   0.162292,   0.000000,   730.109070,   0.535738,   12.840565,   47.307358,   687.454834,   93.667351,   -164.763321,   0.368809,   705.986206,   701.821655
-0.062047,   0.159506,   0.159156,   0.000000,   731.873474,   0.535738,   12.840565,   46.614769,   692.131470,   103.384270,   -158.042419,   0.377620,   702.218628,   695.685852
-0.058950,   0.156642,   0.156310,   0.000000,   733.531067,   0.535738,   12.840565,   45.922176,   696.663391,   112.717400,   -151.287643,   0.386136,   698.700867,   689.346985
-0.056089,   0.154005,   0.153724,   0.000000,   735.062317,   0.535738,   12.840565,   45.229588,   701.034790,   121.622322,   -144.477859,   0.394324,   695.414917,   682.837891
-0.053442,   0.151567,   0.151368,   0.000000,   736.492798,   0.535738,   12.840565,   44.536995,   705.213684,   130.185623,   -137.712570,   0.402200,   692.358459,   676.190186
-0.050995,   0.149278,   0.149181,   0.000000,   737.756287,   0.535738,   12.840565,   43.844406,   709.152344,   138.317200,   -130.943939,   0.409716,   689.477844,   669.415405
-0.048708,   0.147118,   0.147141,   0.000000,   738.858459,   0.535738,   12.840565,   43.151814,   712.842957,   146.028427,   -124.188477,   0.416870,   686.762268,   662.551086
-0.046595,   0.145098,   0.145255,   0.000000,   739.815369,   0.535739,   12.840565,   42.459225,   716.278564,   153.300491,   -117.493347,   0.423632,   684.225281,   655.677979
-0.044649,   0.143220,   0.143522,   0.000000,   740.658630,   0.535737,   12.840565,   41.766632,   719.488892,   160.155563,   -110.856277,   0.430014,   681.873352,   648.845703
-0.042878,   0.141492,   0.141939,   0.000000,   741.383179,   0.535738,   12.840565,   41.074043,   722.472351,   166.570236,   -104.260269,   0.436003,   679.691223,   642.099121
-0.041233,   0.139908,   0.140511,   0.000000,   742.055969,   0.535738,   12.840565,   40.381451,   725.286987,   172.665878,   -97.714417,   0.441672,   677.692200,   635.440735
-0.039731,   0.138458,   0.139217,   0.000000,   742.644714,   0.535738,   12.840565,   39.688862,   727.885864,   178.352036,   -91.259621,   0.446953,   675.864075,   628.961060
-0.038363,   0.137137,   0.138049,   0.000000,   743.172607,   0.535738,   12.840565,   38.996269,   730.305664,   183.679016,   -84.846786,   0.451889,   674.195435,   622.658020
-0.037120,   0.135939,   0.137001,   0.000000,   743.640686,   0.535738,   12.840565,   38.303680,   732.534363,   188.629898,   -78.511925,   0.456463,   672.682922,   616.591980
-0.035995,   0.134854,   0.136060,   0.000000,   744.049927,   0.535738,   12.840565,   37.611088,   734.580383,   193.201553,   -72.223907,   0.460680,   671.313660,   610.792053
-0.034981,   0.133878,   0.135220,   0.000000,   744.407898,   0.535738,   12.840565,   36.918499,   736.445129,   197.403519,   -65.997581,   0.464545,   670.081909,   605.294434
-0.034073,   0.133003,   0.134474,   0.000000,   744.716736,   0.535738,   12.840565,   36.225906,   738.132385,   201.230286,   -59.820553,   0.468057,   668.979797,   600.136230
-0.033265,   0.132225,   0.133815,   0.000000,   744.982117,   0.535738,   12.840565,   35.533318,   739.645813,   204.688019,   -53.695148,   0.471223,   668.001526,   595.350037
-0.032553,   0.131539,   0.133238,   0.000000,   745.209290,   0.535738,   12.840565,   34.840725,   740.990601,   207.783493,   -47.615414,   0.474050,   667.140991,   590.963135
-0.031933,   0.130942,   0.132738,   0.000000,   745.401733,   0.535738,   12.840565,   34.148136,   742.170349,   210.517624,   -41.574394,   0.476539,   666.393188,   587.005493
-0.031402,   0.130431,   0.132313,   0.000000,   745.563782,   0.535738,   12.840565,   33.455544,   743.188904,   212.894104,   -35.567322,   0.478697,   665.753845,   583.503601
-0.030957,   0.130003,   0.131958,   0.000000,   745.697449,   0.535738,   12.840565,   32.762955,   744.047913,   214.910431,   -29.589876,   0.480522,   665.219360,   580.486206
-0.030596,   0.129656,   0.131672,   0.000000,   745.804932,   0.535738,   12.840565,   32.070362,   744.749146,   216.565842,   -23.638393,   0.482017,   664.786560,   577.978149
-0.030317,   0.129388,   0.131451,   0.000000,   745.887268,   0.535738,   12.840565,   31.377773,   745.293335,   217.856323,   -17.708921,   0.483179,   664.452759,   576.002869
-0.030119,   0.129197,   0.131295,   0.000000,   745.945435,   0.535738,   12.840565,   30.685183,   745.681458,   218.779877,   -11.796256,   0.484010,   664.215942,   574.578613
-0.030001,   0.129084,   0.131202,   0.000000,   745.980042,   0.535739,   12.840565,   29.992590,   745.914062,   219.334793,   -5.895044,   0.484508,   664.074463,   573.718384
-0.029961,   0.129046,   0.131171,   0.000000,   745.991577,   0.535738,   12.840565,   29.299999,   745.991577,   219.519882,   0.000003,   0.484675,   664.027405,   573.430664
-0.030001,   0.129084,   0.131202,   0.000000,   745.980042,   0.535737,   12.840565,   28.607409,   745.914062,   219.334793,   5.895042,   0.484508,   664.074463,   573.718384
-0.030119,   0.129197,   0.131295,   0.000000,   745.945435,   0.535738,   12.840565,   27.914818,   745.681458,   218.779877,   11.796247,   0.484010,   664.215942,   574.578613
-0.030317,   0.129388,   0.131451,   0.000000,   745.887268,   0.535738,   12.840565,   27.222227,   745.293335,   217.856323,   17.708914,   0.483179,   664.452759,   576.002869
-0.030596,   0.129656,   0.131672,   0.000000,   745.804932,   0.535738,   12.840565,   26.529636,   744.749146,   216.565826,   23.638382,   0.482017,   664.786499,   577.978088
-0.030957,   0.130003,   0.131958,   0.000000,   745.697449,   0.535738,   12.840565,   25.837046,   744.047913,   214.910446,   29.589870,   0.480522,   665.219360,   580.486206
-0.031402,   0.130431,   0.132313,   0.000000,   745.563782,   0.535738,   12.840565,   25.144455,   743.188904,   212.894089,   35.567307,   0.478697,   665.753845,   583.503601
-0.031933,   0.130942,   0.132738,   0.000000,   745.401733,   0.535738,   12.840565,   24.451864,   742.170349,   210.517624,   41.574383,   0.476540,   666.393127,   587.005493
-0.032553,   0.131539,   0.133238,   0.000000,   745.209290,   0.535738,   12.840565,   23.759274,   740.990601,   207.783508,   47.615410,   0.474050,   667.140991,   590.963135
-0.033265,   0.132225,   0.133815,   0.000000,   744.982056,   0.535738,   12.840565,   23.066683,   739.645752,   204.688034,   53.695145,   0.471223,   668.001404,   595.349976
-0.034073,   0.133003,   0.134474,   0.000000,   744.716736,   0.535738,   12.840565,   22.374092,   738.132385,   201.230286,   59.820541,   0.468057,   668.979797,   600.136230
-0.034981,   0.133878,   0.135220,   0.000000,   744.407898,   0.535739,   12.840565,   21.681501,   736.445129,   197.403473,   65.997566,   0.464545,   670.081909,   605.294373
-0.035995,   0.134854,   0.136060,   0.000000,   744.049866,   0.535738,   12.840565,   20.988911,   734.580322,   193.201523,   72.223885,   0.460680,   671.313599,   610.791992
-0.037120,   0.135939,   0.137001,   0.000000,   743.640686,   0.535738,   12.840565,   20.296320,   732.534363,   188.629898,   78.511932,   0.456463,   672.682922,   616.591980
-0.038363,   0.137137,   0.138049,   0.000000,   743.172607,   0.535737,   12.840565,   19.603729,   730.305664,   183.678970,   84.846756,   0.451889,   674.195374,   622.658081
-0.039731,   0.138458,   0.139217,   0.000000,   742.644714,   0.535738,   12.840565,   18.911140,   727.885864,   178.352051,   91.259598,   0.446953,   675.864075,   628.961060
-0.041233,   0.139908,   0.140511,   0.000000,   742.055969,   0.535738,   12.840565,   18.218550,   725.286987,   172.665909,   97.714409,   0.441672,   677.692200,   635.440735
-0.042878,   0.141492,   0.141939,   0.000000,   741.383179,   0.535738,   12.840565,   17.525959,   722.472351,   166.570221,   104.260216,   0.436003,   679.691223,   642.099060
-0.044649,   0.143220,   0.143522,   0.000000,   740.658752,   0.535738,   12.840565,   16.833368,   719.488953,   160.155670,   110.856285,   0.430014,   681.873352,   648.845703
-0.046595,   0.145098,   0.145255,   0.000000,   739.815369,   0.535738,   12.840565,   16.140778,   716.278564,   153.300598,   117.493378,   0.423632,   684.225220,   655.677917
-0.048708,   0.147118,   0.147141,   0.000000,   738.858398,   0.535738,   12.840565,   15.448186,   712.842896,   146.028381,   124.188477,   0.416870,   686.762207,   662.551025
-0.050995,   0.149278,   0.149181,   0.000000,   737.756287,   0.535738,   12.840565,   14.755594,   709.152344,   138.317169,   130.943954,   0.409716,   689.477844,   669.415405
-0.053442,   0.151567,   0.151368,   0.000000,   736.492737,   0.535738,   12.840565,   14.063004,   705.213623,   130.185562,   137.712585,   0.402200,   692.358398,   676.190125
-0.056089,   0.154004,   0.153724,   0.000000,   735.062317,   0.535738,   12.840565,   13.370413,   701.034790,   121.622284,   144.477890,   0.394324,   695.414917,   682.837891
-0.058950,   0.156642,   0.156310,   0.000000,   733.531006,   0.535738,   12.840565,   12.677823,   696.663330,   112.717354,   151.287720,   0.386136,   698.700867,   689.347046
-0.062047,   0.159506,   0.159156,   0.000000,   731.873352,   0.535738,   12.840565,   11.985232,   692.131348,   103.384224,   158.042480,   0.377620,   702.218567,   695.685791
-0.065397,   0.162617,   0.162292,   0.000000,   730.109009,   0.535738,   12.840565,   11.292642,   687.454712,   93.667320,   164.763382,   0.368809,   705.986084,   701.821594
-0.069068,   0.166022,   0.165774,   0.000000,   728.234985,   0.535738,   12.840565,   10.600051,   682.637268,   83.509323,   171.458496,   0.359674,   710.038696,   707.756104
-0.073010,   0.169677,   0.169573,   0.000000,   726.223694,   0.535738,   12.840565,   9.907460,   677.681335,   72.950859,   178.076965,   0.350272,   714.332275,   713.393066
-0.077251,   0.173539,   0.173638,   0.000000,   723.951111,   0.535738,   12.840565,   9.214869,   672.596863,   61.817062,   184.400101,   0.340585,   718.776855,   718.605469
-0.084018,   0.187452,   0.186742,   0.000000,   730.517456,   0.535148,   13.813208,   49.127861,   692.762573,   51.202866,   -160.148254,   0.342579,   723.887207,   723.606140
-0.079944,   0.184562,   0.183741,   0.000000,   734.433899,   0.535147,   13.813208,   48.444141,   698.668945,   64.201241,   -154.825226,   0.352869,   720.636658,   719.372803
-0.076119,   0.181805,   0.180934,   0.000000,   738.024414,   0.535148,   13.813208,   47.760422,   704.350342,   76.614952,   -149.239243,   0.362809,   717.518311,   714.618835
-0.072373,   0.179171,   0.178325,   0.000000,   741.487915,   0.535148,   13.813208,   47.076702,   709.890625,   88.889366,   -143.597824,   0.372618,   714.566528,   709.371582
-0.068967,   0.176639,   0.175853,   0.000000,   744.509216,   0.535148,   13.813208,   46.392986,   714.993652,   100.332916,   -137.888428,   0.381842,   711.747742,   703.755981
-0.065770,   0.174199,   0.173512,   0.000000,   747.207581,   0.535148,   13.813208,   45.709267,   719.752930,   111.185471,   -132.143036,   0.390629,   709.059814,   697.807312
-0.062775,   0.171861,   0.171306,   0.000000,   749.612427,   0.535148,   13.813208,   45.025547,   724.196716,   121.455475,   -126.352837,   0.398984,   706.505371,   691.590576
-0.059974,   0.169631,   0.169235,   0.000000,   751.760681,   0.535147,   13.813208,   44.341827,   728.341675,   131.187134,   -120.553825,   0.406922,   704.089661,   685.165100
-0.057424,   0.167514,   0.167284,   0.000000,   753.614624,   0.535148,   13.813208,   43.658108,   732.156494,   140.248520,   -114.724327,   0.414365,   701.800476,   678.626770
-0.054968,   0.165510,   0.165481,   0.000000,   755.354004,   0.535148,   13.813208,   42.974388,   735.795654,   149.026337,   -108.897903,   0.421547,   699.662354,   671.914734
-0.052681,   0.163618,   0.163801,   0.000000,   756.915161,   0.535150,   13.813208,   42.290668,   739.186829,   157.353775,   -103.098091,   0.428355,   697.661255,   665.127258
-0.050554,   0.161835,   0.162238,   0.000000,   758.310791,   0.535148,   13.813208,   41.606945,   742.333252,   165.236877,   -97.344086,   0.434789,   695.793518,   658.312073
-0.048593,   0.160163,   0.160787,   0.000000,   759.538574,   0.535147,   13.813208,   40.923229,   745.234131,   172.628632,   -91.626602,   0.440821,   694.054810,   651.539978
-0.046778,   0.158603,   0.159448,   0.000000,   760.645752,   0.535148,   13.813208,   40.239510,   747.932922,   179.626297,   -85.944130,   0.446514,   692.444946,   644.809937
-0.045105,   0.157149,   0.158212,   0.000000,   761.623901,   0.535148,   13.813208,   39.555790,   750.416077,   186.182846,   -80.308365,   0.451836,   690.957336,   638.192261
-0.043569,   0.155797,   0.157073,   0.000000,   762.484253,   0.535148,   13.813208,   38.872070,   752.696838,   192.309113,   -74.703117,   0.456800,   689.584290,   631.720154
-0.042162,   0.154545,   0.156027,   0.000000,   763.239807,   0.535148,   13.813208,   38.188351,   754.781555,   198.015564,   -69.143448,   0.461410,   688.323547,   625.436401
-0.040879,   0.153392,   0.155069,   0.000000,   763.904907,   0.535147,   13.813208,   37.504631,   756.684692,   203.299530,   -63.621563,   0.465666,   687.176758,   619.392151
-0.039716,   0.152335,   0.154197,   0.000000,   764.478333,   0.535148,   13.813208,   36.820915,   758.401733,   208.173401,   -58.141548,   0.469580,   686.127991,   613.609680
-0.038667,   0.151374,   0.153409,   0.000000,   764.975037,   0.535148,   13.813208,   36.137192,   759.946594,   212.635864,   -52.701210,   0.473151,   685.181152,   608.140076
-0.037729,   0.150508,   0.152702,   0.000000,   765.403015,   0.535148,   13.813208,   35.453476,   761.325806,   216.688156,   -47.299480,   0.476383,   684.333374,   603.024536
-0.036899,   0.149735,   0.152073,   0.000000,   765.769531,   0.535148,   13.813208,   34.769756,   762.545593,   220.330139,   -41.934055,   0.479277,   683.582336,   598.303833
-0.036174,   0.149055,   0.151522,   0.000000,   766.080261,   0.535148,   13.813208,   34.086037,   763.610718,   223.558624,   -36.602802,   0.481834,   682.925537,   594.019348
-0.035551,   0.148467,   0.151048,   0.000000,   766.339355,   0.535147,   13.813208,   33.402317,   764.524597,   226.366516,   -31.303904,   0.484050,   682.361084,   590.213928
-0.035027,   0.147971,   0.150648,   0.000000,   766.552002,   0.535148,   13.813208,   32.718597,   765.291626,   228.752518,   -26.035368,   0.485928,   681.887207,   586.922485
-0.034602,   0.147565,   0.150323,   0.000000,   766.721252,   0.535148,   13.813208,   32.034878,   765.914612,   230.710571,   -20.793846,   0.487465,   681.502136,   584.180725
-0.034272,   0.147251,   0.150071,   0.000000,   766.849915,   0.535148,   13.813208,   31.351158,   766.396179,   232.237350,   -15.574849,   0.488661,   681.204224,   582.016968
-0.034038,   0.147027,   0.149891,   0.000000,   766.940247,   0.535147,   13.813208,   30.667439,   766.738586,   233.329834,   -10.373296,   0.489515,   680.992493,   580.454468
-0.033898,   0.146892,   0.149784,   0.000000,   766.993652,   0.535149,   13.813208,   29.983719,   766.943237,   233.985870,   -5.183677,   0.490028,   680.865662,   579.510315
-0.033851,   0.146848,   0.149748,   0.000000,   767.011353,   0.535147,   13.813208,   29.299999,   767.011353,   234.204666,   0.000001,   0.490199,   680.823486,   579.194336
-0.033898,   0.146892,   0.149784,   0.000000,   766.993652,   0.535148,   13.813208,   28.616280,   766.943237,   233.985825,   5.183674,   0.490028,   680.865723,   579.510254
-0.034038,   0.147027,   0.149891,   0.000000,   766.940186,   0.535148,   13.813208,   27.932560,   766.738525,   233.329788,   10.373290,   0.489515,   680.992371,   580.454407
-0.034272,   0.147251,   0.150071,   0.000000,   766.849915,   0.535147,   13.813208,   27.248842,   766.396179,   232.237396,   15.574849,   0.488661,   681.204224,   582.016968
-0.034602,   0.147565,   0.150323,   0.000000,   766.721252,   0.535148,   13.813208,   26.565123,   765.914612,   230.710571,   20.793839,   0.487465,   681.502136,   584.180725
-0.035027,   0.147971,   0.150648,   0.000000,   766.552002,   0.535148,   13.813208,   25.881403,   765.291626,   228.752518,   26.035366,   0.485928,   681.887207,   586.922485
-0.035551,   0.148467,   0.151048,   0.000000,   766.339294,   0.535147,   13.813208,   25.197683,   764.524536,   226.366455,   31.303892,   0.484050,   682.361084,   590.213867
-0.036174,   0.149055,   0.151522,   0.000000,   766.080261,   0.535148,   13.813208,   24.513964,   763.610718,   223.558624,   36.602798,   0.481834,   682.925537,   594.019348
-0.036899,   0.149735,   0.152073,   0.000000,   765.769531,   0.535147,   13.813208,   23.830246,   762.545593,   220.330185,   41.934059,   0.479277,   683.582336,   598.303772
-0.037729,   0.150508,   0.152702,   0.000000,   765.403015,   0.535148,   13.813208,   23.146526,   761.325806,   216.688156,   47.299469,   0.476383,   684.333374,   603.024536
-0.038667,   0.151374,   0.153409,   0.000000,   764.975037,   0.535148,   13.813208,   22.462807,   759.946594,   212.635880,   52.701210,   0.473151,   685.181152,   608.140076
-0.039716,   0.152335,   0.154197,   0.000000,   764.478333,   0.535148,   13.813208,   21.779087,   758.401733,   208.173508,   58.141552,   0.469580,   686.127930,   613.609558
-0.040879,   0.153392,   0.155069,   0.000000,   763.904846,   0.535148,   13.813208,   21.095367,   756.684631,   203.299408,   63.621529,   0.465666,   687.176758,   619.392273
-0.042162,   0.154545,   0.156027,   0.000000,   763.239807,   0.535148,   13.813208,   20.411648,   754.781555,   198.015564,   69.143456,   0.461410,   688.323547,   625.436401
-0.043569,   0.155797,   0.157073,   0.000000,   762.484192,   0.535147,   13.813208,   19.727928,   752.696777,   192.309158,   74.703117,   0.456800,   689.584229,   631.720032
-0.045105,   0.157149,   0.158212,   0.000000,   761.623901,   0.535148,   13.813208,   19.044209,   750.416077,   186.182831,   80.308350,   0.451836,   690.957336,   638.192383
-0.046778,   0.158603,   0.159448,   0.000000,   760.645752,   0.535147,   13.813208,   18.360491,   747.932922,   179.626373,   85.944145,   0.446514,   692.444946,   644.809814
-0.048593,   0.160163,   0.160787,   0.000000,   759.538574,   0.535148,   13.813208,   17.676771,   745.234131,   172.628525,   91.626572,   0.440821,   694.054810,   651.540039
-0.050554,   0.161835,   0.162238,   0.000000,   758.310791,   0.535148,   13.813208,   16.993052,   742.333252,   165.236908,   97.344116,   0.434789,   695.793518,   658.311951
-0.052681,   0.163618,   0.163801,   0.000000,   756.915161,   0.535147,   13.813208,   16.309332,   739.186829,   157.353745,   103.098061,   0.428355,   697.661194,   665.127197
-0.054968,   0.165510,   0.165481,   0.000000,   755.354065,   0.535149,   13.813208,   15.625613,   735.795715,   149.026413,   108.897888,   0.421547,   699.662354,   671.914795
-0.057424,   0.167514,   0.167284,   0.000000,   753.614624,   0.535148,   13.813208,   14.941894,   732.156494,   140.248611,   114.724342,   0.414365,   701.800476,   678.626770
-0.059974,   0.169631,   0.169235,   0.000000,   751.760681,   0.535148,   13.813208,   14.258174,   728.341675,   131.187073,   120.553802,   0.406922,   704.089661,   685.165161
-0.062775,   0.171861,   0.171306,   0.000000,   749.612427,   0.535148,   13.813208,   13.574455,   724.196716,   121.455475,   126.352852,   0.398984,   706.505371,   691.590576
-0.065770,   0.174199,   0.173512,   0.000000,   747.207581,   0.535148,   13.813208,   12.890736,   719.752869,   111.185509,   132.143082,   0.390629,   709.059753,   697.807251
-0.068967,   0.176639,   0.175853,   0.000000,   744.509155,   0.535148,   13.813208,   12.207016,   714.993591,   100.332932,   137.888489,   0.381842,   711.747742,   703.755920
-0.072373,   0.179171,   0.178325,   0.000000,   741.487854,   0.535148,   13.813208,   11.523296,   709.890564,   88.889343,   143.597900,   0.372617,   714.566528,   709.371521
-0.076119,   0.181805,   0.180934,   0.000000,   738.024414,   0.535148,   13.813208,   10.839578,   704.350281,   76.614899,   149.239334,   0.362808,   717.518372,   714.618713
-0.079944,   0.184562,   0.183741,   0.000000,   734.433838,   0.535148,   13.813208,   10.155858,   698.668823,   64.201080,   154.825317,   0.352868,   720.636658,   719.372742
-0.084018,   0.187452,   0.186742,   0.000000,   730.517395,   0.535148,   13.813208,   9.472138,   692.762390,   51.202747,   160.148422,   0.342579,   723.887207,   723.606018
-0.088767,   0.196958,   0.195437,   0.000000,   733.613037,   0.534530,   14.796378,   48.912712,   707.894226,   41.424118,   -133.425171,   0.344093,   725.887817,   725.505432
-0.084970,   0.195344,   0.193788,   0.000000,   739.518433,   0.534527,   14.796378,   48.236412,   715.013428,   56.851795,   -129.339691,   0.355426,   723.887268,   722.258484
-0.081374,   0.193778,   0.192257,   0.000000,   744.903809,   0.534530,   14.796378,   47.560112,   721.686829,   71.440132,   -125.043114,   0.366171,   722.001038,   718.364319
-0.077931,   0.192231,   0.190808,   0.000000,   749.914734,   0.534529,   14.796378,   46.883808,   728.009460,   85.529808,   -120.638046,   0.376527,   720.213318,   713.849487
-0.074691,   0.190693,   0.189414,   0.000000,   754.356689,   0.534529,   14.796378,   46.207512,   733.828796,   98.633827,   -116.019821,   0.386207,   718.494751,   708.849121
-0.071607,   0.189165,   0.188072,   0.000000,   758.381287,   0.534530,   14.796378,   45.531208,   739.240723,   111.064850,   -111.310432,   0.395388,   716.853271,   703.409912
-0.068672,   0.187636,   0.186764,   0.000000,   762.012146,   0.534529,   14.796378,   44.854908,   744.253906,   122.855957,   -106.537643,   0.404090,   715.277771,   697.588989
-0.065884,   0.186115,   0.185492,   0.000000,   765.284363,   0.534527,   14.796378,   44.178608,   748.893555,   134.042740,   -101.718033,   0.412336,   713.768127,   691.446533
-0.063265,   0.184619,   0.184263,   0.000000,   768.184265,   0.534530,   14.796378,   43.502308,   753.138428,   144.514114,   -96.869095,   0.420055,   712.329651,   685.104614
-0.060771,   0.183156,   0.183087,   0.000000,   770.851074,   0.534529,   14.796378,   42.826008,   757.104248,   154.585800,   -92.041733,   0.427438,   710.971924,   678.513428
-0.058428,   0.181731,   0.181959,   0.000000,   773.241394,   0.534529,   14.796378,   42.149708,   760.757629,   164.098969,   -87.203072,   0.434397,   709.685974,   671.782104
-0.056230,   0.180351,   0.180881,   0.000000,   775.381958,   0.534530,   14.796378,   41.473408,   764.117371,   173.077728,   -82.369301,   0.440946,   708.472778,   664.962036
-0.054174,   0.179017,   0.179850,   0.000000,   777.286682,   0.534527,   14.796378,   40.797108,   767.195496,   181.518875,   -77.537216,   0.447088,   707.328491,   658.109558
-0.052254,   0.177735,   0.178867,   0.000000,   778.987122,   0.534530,   14.796378,   40.120808,   770.016479,   189.471420,   -72.720863,   0.452854,   706.253296,   651.255310
-0.050468,   0.176507,   0.177933,   0.000000,   780.496948,   0.534529,   14.796378,   39.444504,   772.590759,   196.933746,   -67.924561,   0.458244,   705.245667,   644.453735
-0.048812,   0.175337,   0.177048,   0.000000,   781.832031,   0.534529,   14.796378,   38.768208,   774.931702,   203.912430,   -63.149361,   0.463268,   704.304443,   637.753296
-0.047283,   0.174228,   0.176214,   0.000000,   783.010315,   0.534530,   14.796378,   38.091904,   777.052979,   210.422012,   -58.404728,   0.467934,   703.429443,   631.198242
-0.045879,   0.173184,   0.175431,   0.000000,   784.045532,   0.534527,   14.796378,   37.415604,   778.965942,   216.466095,   -53.694267,   0.472248,   702.620117,   624.837830
-0.044596,   0.172209,   0.174700,   0.000000,   784.950500,   0.534529,   14.796378,   36.739307,   780.681335,   222.044922,   -49.021889,   0.476212,   701.876343,   618.724060
-0.043432,   0.171305,   0.174025,   0.000000,   785.737366,   0.534530,   14.796378,   36.063004,   782.209961,   227.159119,   -44.388390,   0.479831,   701.197937,   612.907349
-0.042386,   0.170477,   0.173408,   0.000000,   786.417175,   0.534529,   14.796378,   35.386703,   783.561768,   231.807205,   -39.794865,   0.483105,   700.584900,   607.439209
-0.041456,   0.169728,   0.172849,   0.000000,   786.999634,   0.534530,   14.796378,   34.710403,   784.745544,   235.984833,   -35.242504,   0.486036,   700.037476,   602.372681
-0.040640,   0.169060,   0.172352,   0.000000,   787.493286,   0.534529,   14.796378,   34.034103,   785.769287,   239.686951,   -30.731514,   0.488623,   699.555481,   597.758911
-0.039936,   0.168477,   0.171917,   0.000000,   787.905823,   0.534527,   14.796378,   33.357803,   786.640564,   242.909164,   -26.259651,   0.490866,   699.138550,   593.646362
-0.039343,   0.167980,   0.171547,   0.000000,   788.243164,   0.534530,   14.796378,   32.681503,   787.365417,   245.643463,   -21.823380,   0.492763,   698.786560,   590.083008
-0.038859,   0.167571,   0.171243,   0.000000,   788.511414,   0.534529,   14.796378,   32.005203,   787.950195,   247.887421,   -17.418610,   0.494316,   698.499084,   587.107666
-0.038484,   0.167251,   0.171005,   0.000000,   788.715149,   0.534530,   14.796378,   31.328901,   788.399719,   249.636932,   -13.040170,   0.495524,   698.275818,   584.755310
-0.038217,   0.167022,   0.170834,   0.000000,   788.858093,   0.534528,   14.796378,   30.652601,   788.717957,   250.889008,   -8.682018,   0.496387,   698.116577,   583.053955
-0.038057,   0.166884,   0.170732,   0.000000,   788.942810,   0.534530,   14.796378,   29.976301,   788.907776,   251.641266,   -4.337546,   0.496904,   698.021118,   582.024414
-0.038004,   0.166838,   0.170698,   0.000000,   788.970886,   0.534529,   14.796378,   29.300001,   788.970886,   251.892151,   -0.000001,   0.497077,   697.989380,   581.679993
-0.038057,   0.166884,   0.170732,   0.000000,   788.942810,   0.534530,   14.796378,   28.623699,   788.907776,   251.641266,   4.337543,   0.496904,   698.021118,   582.024414
-0.038217,   0.167022,   0.170834,   0.000000,   788.858093,   0.534529,   14.796378,   27.947399,   788.717957,   250.889053,   8.682019,   0.496387,   698.116577,   583.053833
-0.038484,   0.167251,   0.171005,   0.000000,   788.715088,   0.534529,   14.796378,   27.271099,   788.399658,   249.636871,   13.040164,   0.495524,   698.275818,   584.755249
-0.038859,   0.167571,   0.171243,   0.000000,   788.511353,   0.534530,   14.796378,   26.594799,   787.950134,   247.887375,   17.418604,   0.494316,   698.499023,   587.107605
-0.039343,   0.167980,   0.171547,   0.000000,   788.243164,   0.534530,   14.796378,   25.918497,   787.365417,   245.643509,   21.823381,   0.492763,   698.786560,   590.083008
-0.039936,   0.168477,   0.171917,   0.000000,   787.905823,   0.534528,   14.796378,   25.242197,   786.640564,   242.909210,   26.259651,   0.490866,   699.138550,   593.646240
-0.040640,   0.169060,   0.172352,   0.000000,   787.493225,   0.534530,   14.796378,   24.565897,   785.769226,   239.686890,   30.731514,   0.488623,   699.555420,   597.758972
-0.041456,   0.169728,   0.172849,   0.000000,   786.999634,   0.534529,   14.796378,   23.889597,   784.745544,   235.984833,   35.242508,   0.486036,   700.037476,   602.372681
-0.042386,   0.170477,   0.173408,   0.000000,   786.417175,   0.534530,   14.796378,   23.213297,   783.561768,   231.807159,   39.794853,   0.483105,   700.584900,   607.439270
-0.043432,   0.171305,   0.174025,   0.000000,   785.737366,   0.534529,   14.796378,   22.536997,   782.209961,   227.159225,   44.388405,   0.479831,   701.197937,   612.907288
-0.044596,   0.172209,   0.174700,   0.000000,   784.950439,   0.534529,   14.796378,   21.860695,   780.681274,   222.044830,   49.021862,   0.476212,   701.876282,   618.724060
-0.045878,   0.173184,   0.175430,   0.000000,   784.045532,   0.534530,   14.796378,   21.184395,   778.965942,   216.466141,   53.694286,   0.472248,   702.620117,   624.837708
-0.047283,   0.174228,   0.176214,   0.000000,   783.010254,   0.534530,   14.796378,   20.508095,   777.052917,   210.422058,   58.404739,   0.467934,   703.429382,   631.198120
-0.048812,   0.175337,   0.177048,   0.000000,   781.832031,   0.534528,   14.796378,   19.831795,   774.931702,   203.912384,   63.149357,   0.463268,   704.304443,   637.753296
-0.050468,   0.176507,   0.177933,   0.000000,   780.496948,   0.534530,   14.796378,   19.155495,   772.590759,   196.933716,   67.924553,   0.458244,   705.245667,   644.453735
-0.052254,   0.177735,   0.178867,   0.000000,   778.987061,   0.534529,   14.796378,   18.479193,   770.016418,   189.471466,   72.720871,   0.452854,   706.253174,   651.255188
-0.054174,   0.179017,   0.179850,   0.000000,   777.286743,   0.534530,   14.796378,   17.802893,   767.195496,   181.518951,   77.537231,   0.447088,   707.328491,   658.109436
-0.056230,   0.180351,   0.180880,   0.000000,   775.381958,   0.534529,   14.796378,   17.126593,   764.117371,   173.077850,   82.369308,   0.440946,   708.472717,   664.961853
-0.058428,   0.181731,   0.181959,   0.000000,   773.241272,   0.534529,   14.796378,   16.450293,   760.757568,   164.098892,   87.203033,   0.434397,   709.685974,   671.782104
-0.060771,   0.183156,   0.183087,   0.000000,   770.851074,   0.534530,   14.796378,   15.773993,   757.104248,   154.585815,   92.041733,   0.427438,   710.971924,   678.513428
-0.063265,   0.184619,   0.184263,   0.000000,   768.184326,   0.534529,   14.796378,   15.097692,   753.138489,   144.514236,   96.869102,   0.420055,   712.329712,   685.104553
-0.065884,   0.186115,   0.185492,   0.000000,   765.284424,   0.534529,   14.796378,   14.421391,   748.893616,   134.042877,   101.718040,   0.412336,   713.768127,   691.446533
-0.068672,   0.187636,   0.186764,   0.000000,   762.012207,   0.534530,   14.796378,   13.745091,   744.253967,   122.856003,   106.537643,   0.404090,   715.277771,   697.588989
-0.071607,   0.189165,   0.188072,   0.000000,   758.381348,   0.534529,   14.796378,   13.068790,   739.240784,   111.065002,   111.310455,   0.395388,   716.853333,   703.409851
-0.074691,   0.190693,   0.189414,   0.000000,   754.356750,   0.534529,   14.796378,   12.392490,   733.828857,   98.633911,   116.019852,   0.386207,   718.494873,   708.849243
-0.077931,   0.192231,   0.190808,   0.000000,   749.914795,   0.534529,   14.796378,   11.716190,   728.009521,   85.529892,   120.638100,   0.376527,   720.213379,   713.849487
-0.081374,   0.193778,   0.192257,   0.000000,   744.903870,   0.534530,   14.796378,   11.039889,   721.686890,   71.440269,   125.043221,   0.366171,   722.001099,   718.364441
-0.084970,   0.195344,   0.193788,   0.000000,   739.518494,   0.534529,   14.796378,   10.363589,   715.013428,   56.851849,   129.339874,   0.355426,   723.887329,   722.258606
-0.088768,   0.196958,   0.195437,   0.000000,   733.613098,   0.534529,   14.796378,   9.687288,   707.894226,   41.424110,   133.425354,   0.344093,   725.887939,   725.505554
-0.091481,   0.202012,   0.199763,   0.000000,   733.329712,   0.533953,   15.788191,   48.740093,   717.643677,   31.840851,   -104.897987,   0.344407,   725.387268,   724.982361
-0.088086,   0.201732,   0.199508,   0.000000,   741.167603,   0.533950,   15.788191,   48.069744,   726.058105,   49.587646,   -102.222382,   0.356843,   724.544006,   722.694824
-0.084830,   0.201420,   0.199294,   0.000000,   748.357605,   0.533951,   15.788191,   47.399399,   733.912842,   66.412025,   -99.249916,   0.368588,   723.774597,   719.559143
-0.081706,   0.201070,   0.199108,   0.000000,   754.976929,   0.533950,   15.788191,   46.729050,   741.247009,   82.440132,   -96.093124,   0.379715,   723.074463,   715.674377
-0.078713,   0.200683,   0.198938,   0.000000,   760.991516,   0.533950,   15.788191,   46.058701,   748.044922,   97.522522,   -92.680504,   0.390152,   722.426208,   711.160156
-0.075850,   0.200267,   0.198784,   0.000000,   766.500977,   0.533951,   15.788191,   45.388355,   754.371460,   111.828720,   -89.111511,   0.400000,   721.833862,   706.094116
-0.073110,   0.199820,   0.198640,   0.000000,   771.539856,   0.533950,   15.788191,   44.718006,   760.246094,   125.391624,   -85.425072,   0.409283,   721.291199,   700.555603
-0.070489,   0.199340,   0.198492,   0.000000,   776.138977,   0.533950,   15.788191,   44.047657,   765.688538,   138.244797,   -81.647362,   0.418029,   720.789124,   694.611877
-0.067988,   0.198828,   0.198336,   0.000000,   780.312500,   0.533951,   15.788191,   43.377312,   770.707642,   150.369553,   -77.785088,   0.426235,   720.320679,   688.347595
-0.065600,   0.198283,   0.198168,   0.000000,   784.131287,   0.533950,   15.788191,   42.706963,   775.353943,   161.913498,   -73.901413,   0.433990,   719.884521,   681.777771
-0.063327,   0.197707,   0.197978,   0.000000,   787.588501,   0.533950,   15.788191,   42.036613,   779.622864,   172.814529,   -69.979050,   0.441268,   719.470398,   674.988159
-0.061170,   0.197101,   0.197766,   0.000000,   790.711609,   0.533951,   15.788191,   41.366264,   783.534424,   183.100677,   -66.037346,   0.448092,   719.075195,   668.033081
-0.059128,   0.196471,   0.197531,   0.000000,   793.523560,   0.533950,   15.788191,   40.695919,   787.107971,   192.786118,   -62.081287,   0.454478,   718.696228,   660.969666
-0.057202,   0.195823,   0.197275,   0.000000,   796.049561,   0.533953,   15.788191,   40.025570,   790.362671,   201.893158,   -58.128231,   0.460444,   718.332703,   653.851135
-0.055391,   0.195164,   0.197000,   0.000000,   798.311279,   0.533950,   15.788191,   39.355221,   793.316223,   210.434952,   -54.189201,   0.466004,   717.984314,   646.733032
-0.053697,   0.194501,   0.196710,   0.000000,   800.328186,   0.533950,   15.788191,   38.684872,   795.985046,   218.418167,   -50.272301,   0.471168,   717.651001,   639.674316
-0.052120,   0.193842,   0.196409,   0.000000,   802.119751,   0.533951,   15.788191,   38.014526,   798.385681,   225.850418,   -46.387726,   0.475946,   717.333862,   632.733643
-0.050660,   0.193195,   0.196103,   0.000000,   803.703674,   0.533950,   15.788191,   37.344177,   800.533813,   232.735703,   -42.542625,   0.480345,   717.033508,   625.970947
-0.049317,   0.192566,   0.195796,   0.000000,   805.097046,   0.533950,   15.788191,   36.673828,   802.445190,   239.078522,   -38.742821,   0.484372,   716.751282,   619.445496
-0.048091,   0.191964,   0.195493,   0.000000,   806.315491,   0.533951,   15.788191,   36.003483,   804.134399,   244.879395,   -34.993557,   0.488035,   716.488464,   613.218445
-0.046982,   0.191396,   0.195201,   0.000000,   807.372681,   0.533950,   15.788191,   35.333134,   805.614868,   250.136002,   -31.297281,   0.491335,   716.246155,   607.352844
-0.045991,   0.190868,   0.194923,   0.000000,   808.281799,   0.533951,   15.788191,   34.662785,   806.899902,   254.846680,   -27.654795,   0.494278,   716.025757,   601.909058
-0.045118,   0.190386,   0.194665,   0.000000,   809.054688,   0.533950,   15.788191,   33.992435,   808.001831,   259.009674,   -24.064774,   0.496866,   715.828186,   596.945129
-0.044361,   0.189957,   0.194431,   0.000000,   809.702026,   0.533950,   15.788191,   33.322090,   808.932007,   262.622589,   -20.524364,   0.499102,   715.654602,   592.516785
-0.043721,   0.189585,   0.194226,   0.000000,   810.233704,   0.533951,   15.788191,   32.651741,   809.701172,   265.685272,   -17.029169,   0.500991,   715.506104,   588.672546
-0.043198,   0.189275,   0.194054,   0.000000,   810.657410,   0.533951,   15.788191,   31.981392,   810.317810,   268.194275,   -13.573326,   0.502533,   715.383301,   585.459839
-0.042791,   0.189030,   0.193916,   0.000000,   810.980103,   0.533951,   15.788191,   31.311045,   810.789612,   270.148285,   -10.150226,   0.503732,   715.287048,   582.917419
-0.042500,   0.188852,   0.193816,   0.000000,   811.206848,   0.533950,   15.788191,   30.640696,   811.122375,   271.545288,   -6.752419,   0.504586,   715.217896,   581.077393
-0.042326,   0.188745,   0.193755,   0.000000,   811.341431,   0.533951,   15.788191,   29.970348,   811.320312,   272.384094,   -3.371859,   0.505099,   715.176270,   579.963989
-0.042268,   0.188709,   0.193735,   0.000000,   811.385986,   0.533951,   15.788191,   29.299999,   811.385986,   272.663849,   -0.000001,   0.505270,   715.162354,   579.590881
-0.042326,   0.188745,   0.193755,   0.000000,   811.341431,   0.533951,   15.788191,   28.629652,   811.320312,   272.384155,   3.371856,   0.505099,   715.176270,   579.963684
-0.042500,   0.188852,   0.193816,   0.000000,   811.206848,   0.533950,   15.788191,   27.959303,   811.122375,   271.545288,   6.752417,   0.504586,   715.217896,   581.077393
-0.042791,   0.189030,   0.193916,   0.000000,   810.980103,   0.533951,   15.788191,   27.288956,   810.789612,   270.148285,   10.150221,   0.503732,   715.287048,   582.917419
-0.043198,   0.189275,   0.194054,   0.000000,   810.657410,   0.533951,   15.788191,   26.618608,   810.317810,   268.194366,   13.573331,   0.502534,   715.383240,   585.459717
-0.043721,   0.189585,   0.194226,   0.000000,   810.233643,   0.533951,   15.788191,   25.948259,   809.701111,   265.685242,   17.029163,   0.500991,   715.506042,   588.672546
-0.044361,   0.189957,   0.194431,   0.000000,   809.702026,   0.533951,   15.788191,   25.277912,   808.932007,   262.622559,   20.524364,   0.499102,   715.654663,   592.516785
-0.045118,   0.190386,   0.194665,   0.000000,   809.054688,   0.533951,   15.788191,   24.607563,   808.001831,   259.009705,   24.064787,   0.496866,   715.828186,   596.945129
-0.045991,   0.190868,   0.194923,   0.000000,   808.281799,   0.533951,   15.788191,   23.937216,   806.899902,   254.846649,   27.654791,   0.494278,   716.025757,   601.908997
-0.046982,   0.191396,   0.195201,   0.000000,   807.372681,   0.533951,   15.788191,   23.266867,   805.614868,   250.136047,   31.297293,   0.491335,   716.246155,   607.352661
-0.048091,   0.191964,   0.195493,   0.000000,   806.315430,   0.533950,   15.788191,   22.596519,   804.134338,   244.879318,   34.993553,   0.488035,   716.488464,   613.218506
-0.049317,   0.192566,   0.195796,   0.000000,   805.097046,   0.533951,   15.788191,   21.926172,   802.445190,   239.078552,   38.742832,   0.484372,   716.751282,   619.445496
-0.050660,   0.193195,   0.196103,   0.000000,   803.703674,   0.533951,   15.788191,   21.255823,   800.533813,   232.735733,   42.542660,   0.480345,   717.033508,   625.971008
-0.052120,   0.193842,   0.196409,   0.000000,   802.119751,   0.533951,   15.788191,   20.585474,   798.385681,   225.850372,   46.387733,   0.475946,   717.333862,   632.733643
-0.053697,   0.194501,   0.196710,   0.000000,   800.328186,   0.533950,   15.788191,   19.915127,   795.985046,   218.418182,   50.272316,   0.471168,   717.651062,   639.674377
-0.055391,   0.195164,   0.197000,   0.000000,   798.311279,   0.533951,   15.788191,   19.244780,   793.316223,   210.435013,   54.189232,   0.466004,   717.984314,   646.732971
-0.057202,   0.195823,   0.197275,   0.000000,   796.049622,   0.533951,   15.788191,   18.574430,   790.362732,   201.893250,   58.128235,   0.460444,   718.332764,   653.851135
-0.059128,   0.196471,   0.197531,   0.000000,   793.523621,   0.533951,   15.788191,   17.904083,   787.108032,   192.786240,   62.081329,   0.454478,   718.696228,   660.969666
-0.061170,   0.197101,   0.197766,   0.000000,   790.711609,   0.533951,   15.788191,   17.233734,   783.534424,   183.100632,   66.037369,   0.448092,   719.075256,   668.033081
-0.063327,   0.197707,   0.197978,   0.000000,   787.588501,   0.533951,   15.788191,   16.563387,   779.622864,   172.814636,   69.979073,   0.441268,   719.470459,   674.988098
-0.065600,   0.198283,   0.198168,   0.000000,   784.131287,   0.533951,   15.788191,   15.893039,   775.353943,   161.913620,   73.901451,   0.433990,   719.884460,   681.777710
-0.067988,   0.198828,   0.198336,   0.000000,   780.312500,   0.533950,   15.788191,   15.222691,   770.707642,   150.369614,   77.785110,   0.426235,   720.320618,   688.347534
-0.070489,   0.199340,   0.198492,   0.000000,   776.139160,   0.533950,   15.788191,   14.552342,   765.688660,   138.244965,   81.647415,   0.418030,   720.789246,   694.612000
-0.073110,   0.199821,   0.198640,   0.000000,   771.539978,   0.533951,   15.788191,   13.881994,   760.246216,   125.391800,   85.425110,   0.409284,   721.291260,   700.555603
-0.075850,   0.200267,   0.198784,   0.000000,   766.501099,   0.533950,   15.788191,   13.211646,   754.371582,   111.828880,   89.111534,   0.400000,   721.833923,   706.094116
-0.078713,   0.200683,   0.198938,   0.000000,   760.991699,   0.533951,   15.788191,   12.541299,   748.045105,   97.522781,   92.680527,   0.390152,   722.426331,   711.160156
-0.081706,   0.201070,   0.199108,   0.000000,   754.977173,   0.533951,   15.788191,   11.870951,   741.247253,   82.440437,   96.093132,   0.379715,   723.074585,   715.674438
-0.084831,   0.201420,   0.199294,   0.000000,   748.357910,   0.533951,   15.788191,   11.200602,   733.913147,   66.412407,   99.249916,   0.368589,   723.774719,   719.559265
-0.088086,   0.201732,   0.199508,   0.000000,   741.168091,   0.533950,   15.788191,   10.530254,   726.058594,   49.588219,   102.222382,   0.356844,   724.544312,   722.695068
-0.091481,   0.202012,   0.199764,   0.000000,   733.330383,   0.533951,   15.788191,   9.859906,   717.644348,   31.841557,   104.897942,   0.344407,   725.387573,   724.982666
-0.092531,   0.203485,   0.200664,   0.000000,   730.598450,   0.533467,   16.786739,   48.610340,   722.622437,   22.726797,   -75.139908,   0.343478,   723.335876,   722.997314
-0.089522,   0.204311,   0.201549,   0.000000,   739.937378,   0.533467,   16.786739,   47.944466,   732.157288,   42.135822,   -73.681374,   0.356798,   723.371582,   721.532654
-0.086613,   0.205098,   0.202475,   0.000000,   748.652344,   0.533465,   16.786739,   47.278591,   741.122192,   60.787132,   -71.970451,   0.369461,   723.495483,   719.065613
-0.083804,   0.205849,   0.203436,   0.000000,   756.767517,   0.533467,   16.786739,   46.612720,   749.531433,   78.666496,   -70.048584,   0.381464,   723.700989,   715.705627
-0.081095,   0.206568,   0.204425,   0.000000,   764.299805,   0.533465,   16.786739,   45.946846,   757.405151,   95.741447,   -67.893036,   0.392806,   723.976685,   711.556519
-0.078492,   0.207257,   0.205437,   0.000000,   771.285278,   0.533467,   16.786739,   45.280972,   764.770996,   112.028061,   -65.533081,   0.403507,   724.315491,   706.714417
-0.075991,   0.207916,   0.206463,   0.000000,   777.757812,   0.533467,   16.786739,   44.615097,   771.653992,   127.549553,   -62.998196,   0.413594,   724.707520,   701.263428
-0.073589,   0.208537,   0.207488,   0.000000,   783.741699,   0.533465,   16.786739,   43.949223,   778.069458,   142.317001,   -60.318558,   0.423084,   725.140442,   695.283569
-0.071283,   0.209113,   0.208499,   0.000000,   789.259460,   0.533467,   16.786739,   43.283348,   784.035095,   156.341095,   -57.502941,   0.431999,   725.600769,   688.847961
-0.069071,   0.209637,   0.209480,   0.000000,   794.342041,   0.533465,   16.786739,   42.617477,   789.569641,   169.661209,   -54.600620,   0.440371,   726.078125,   682.017578
-0.066949,   0.210102,   0.210419,   0.000000,   799.003357,   0.533467,   16.786739,   41.951603,   794.681091,   182.271103,   -51.630093,   0.448209,   726.560669,   674.868103
-0.064918,   0.210504,   0.211305,   0.000000,   803.263916,   0.533465,   16.786739,   41.285728,   799.383545,   194.179688,   -48.615528,   0.455529,   727.039307,   667.470093
-0.062981,   0.210841,   0.212132,   0.000000,   807.144714,   0.533467,   16.786739,   40.619858,   803.693054,   205.394806,   -45.574444,   0.462350,   727.506897,   659.894470
-0.061138,   0.211117,   0.212896,   0.000000,   810.667480,   0.533468,   16.786739,   39.953979,   807.626648,   215.924011,   -42.526459,   0.468686,   727.958435,   652.213989
-0.059394,   0.211335,   0.213596,   0.000000,   813.854004,   0.533465,   16.786739,   39.288105,   811.202148,   225.776230,   -39.490288,   0.474553,   728.390076,   644.500061
-0.057749,   0.211498,   0.214230,   0.000000,   816.724915,   0.533467,   16.786739,   38.622231,   814.437256,   234.957428,   -36.481060,   0.479965,   728.798706,   636.826050
-0.056208,   0.211613,   0.214800,   0.000000,   819.300354,   0.533465,   16.786739,   37.956360,   817.350098,   243.474274,   -33.511135,   0.484938,   729.181885,   629.264160
-0.054772,   0.211684,   0.215307,   0.000000,   821.599792,   0.533467,   16.786739,   37.290485,   819.958740,   251.332901,   -30.591427,   0.489484,   729.537842,   621.887024
-0.053443,   0.211718,   0.215754,   0.000000,   823.641052,   0.533465,   16.786739,   36.624611,   822.280334,   258.537231,   -27.729845,   0.493615,   729.865173,   614.767639
-0.052223,   0.211722,   0.216143,   0.000000,   825.441467,   0.533467,   16.786739,   35.958740,   824.332153,   265.092499,   -24.931814,   0.497343,   730.163025,   607.977539
-0.051114,   0.211700,   0.216478,   0.000000,   827.017517,   0.533465,   16.786739,   35.292866,   826.131165,   271.004700,   -22.199907,   0.500680,   730.430908,   601.584839
-0.050118,   0.211660,   0.216764,   0.000000,   828.384338,   0.533467,   16.786739,   34.626991,   827.693176,   276.278839,   -19.534117,   0.503635,   730.668640,   595.655579
-0.049236,   0.211607,   0.217003,   0.000000,   829.555725,   0.533467,   16.786739,   33.961117,   829.033142,   280.919983,   -16.932190,   0.506220,   730.876282,   590.253113
-0.048470,   0.211548,   0.217200,   0.000000,   830.544434,   0.533465,   16.786739,   33.295242,   830.164917,   284.932831,   -14.390099,   0.508443,   731.054382,   585.436218
-0.047819,   0.211488,   0.217359,   0.000000,   831.361450,   0.533467,   16.786739,   32.629368,   831.100586,   288.320648,   -11.902296,   0.510310,   731.203491,   581.260254
-0.047285,   0.211432,   0.217484,   0.000000,   832.016541,   0.533467,   16.786739,   31.963495,   831.851013,   291.087646,   -9.461856,   0.511829,   731.324219,   577.772522
-0.046870,   0.211384,   0.217577,   0.000000,   832.517517,   0.533466,   16.786739,   31.297621,   832.425049,   293.236511,   -7.060745,   0.513005,   731.417297,   575.014709
-0.046573,   0.211347,   0.217642,   0.000000,   832.870850,   0.533466,   16.786739,   30.631748,   832.829956,   294.769684,   -4.689950,   0.513842,   731.483337,   573.020630
-0.046394,   0.211323,   0.217680,   0.000000,   833.081055,   0.533467,   16.786739,   29.965874,   833.070862,   295.688965,   -2.339759,   0.514343,   731.522766,   571.813965
-0.046335,   0.211316,   0.217692,   0.000000,   833.150757,   0.533466,   16.786739,   29.299999,   833.150757,   295.995239,   0.000003,   0.514509,   731.535828,   571.410034
-0.046394,   0.211323,   0.217680,   0.000000,   833.080994,   0.533466,   16.786739,   28.634127,   833.070801,   295.688934,   2.339764,   0.514343,   731.522705,   571.813782
-0.046573,   0.211347,   0.217642,   0.000000,   832.870850,   0.533466,   16.786739,   27.968252,   832.829956,   294.769684,   4.689955,   0.513842,   731.483337,   573.020630
-0.046870,   0.211384,   0.217577,   0.000000,   832.517517,   0.533467,   16.786739,   27.302378,   832.425049,   293.236450,   7.060755,   0.513005,   731.417297,   575.015015
-0.047285,   0.211432,   0.217484,   0.000000,   832.016479,   0.533466,   16.786739,   26.636505,   831.850952,   291.087616,   9.461864,   0.511829,   731.324219,   577.772522
-0.047819,   0.211488,   0.217359,   0.000000,   831.361450,   0.533466,   16.786739,   25.970631,   831.100586,   288.320709,   11.902294,   0.510310,   731.203430,   581.260254
-0.048470,   0.211548,   0.217200,   0.000000,   830.544434,   0.533467,   16.786739,   25.304758,   830.164917,   284.932831,   14.390113,   0.508443,   731.054382,   585.436218
-0.049236,   0.211607,   0.217003,   0.000000,   829.555786,   0.533466,   16.786739,   24.638884,   829.033203,   280.920044,   16.932194,   0.506220,   730.876282,   590.253174
-0.050118,   0.211660,   0.216764,   0.000000,   828.384338,   0.533466,   16.786739,   23.973009,   827.693176,   276.278900,   19.534117,   0.503636,   730.668579,   595.655579
-0.051114,   0.211700,   0.216478,   0.000000,   827.017517,   0.533466,   16.786739,   23.307137,   826.131165,   271.004700,   22.199924,   0.500680,   730.430969,   601.584900
-0.052223,   0.211722,   0.216143,   0.000000,   825.441528,   0.533466,   16.786739,   22.641262,   824.332214,   265.092560,   24.931805,   0.497343,   730.163086,   607.977539
-0.053443,   0.211718,   0.215754,   0.000000,   823.641052,   0.533467,   16.786739,   21.975388,   822.280334,   258.537201,   27.729872,   0.493615,   729.865173,   614.767944
-0.054772,   0.211684,   0.215307,   0.000000,   821.599792,   0.533467,   16.786739,   21.309513,   819.958740,   251.333008,   30.591436,   0.489484,   729.537842,   621.886780
-0.056208,   0.211613,   0.214800,   0.000000,   819.300354,   0.533466,   16.786739,   20.643641,   817.350098,   243.474243,   33.511162,   0.484938,   729.181885,   629.264160
-0.057749,   0.211498,   0.214230,   0.000000,   816.724915,   0.533466,   16.786739,   19.977766,   814.437256,   234.957489,   36.481068,   0.479966,   728.798706,   636.825928
-0.059394,   0.211335,   0.213596,   0.000000,   813.854004,   0.533466,   16.786739,   19.311893,   811.202148,   225.776230,   39.490318,   0.474553,   728.390076,   644.500061
-0.061138,   0.211117,   0.212896,   0.000000,   810.667480,   0.533466,   16.786739,   18.646019,   807.626648,   215.924011,   42.526482,   0.468686,   727.958435,   652.213989
-0.062981,   0.210841,   0.212132,   0.000000,   807.144775,   0.533466,   16.786739,   17.980146,   803.693115,   205.394913,   45.574451,   0.462350,   727.506897,   659.894531
-0.064918,   0.210504,   0.211305,   0.000000,   803.263916,   0.533467,   16.786739,   17.314272,   799.383545,   194.179688,   48.615555,   0.455529,   727.039307,   667.470093
-0.066949,   0.210102,   0.210419,   0.000000,   799.003418,   0.533466,   16.786739,   16.648397,   794.681152,   182.271164,   51.630100,   0.448209,   726.560730,   674.868042
-0.069071,   0.209638,   0.209480,   0.000000,   794.342041,   0.533466,   16.786739,   15.982523,   789.569641,   169.661209,   54.600658,   0.440371,   726.078125,   682.017517
-0.071283,   0.209113,   0.208499,   0.000000,   789.259521,   0.533466,   16.786739,   15.316649,   784.035156,   156.341110,   57.502926,   0.431999,   725.600830,   688.847961
-0.073589,   0.208537,   0.207488,   0.000000,   783.741699,   0.533466,   16.786739,   14.650777,   778.069458,   142.316986,   60.318584,   0.423084,   725.140442,   695.283569
-0.075991,   0.207916,   0.206463,   0.000000,   777.757812,   0.533466,   16.786739,   13.984902,   771.653992,   127.549545,   62.998173,   0.413594,   724.707520,   701.263428
-0.078492,   0.207257,   0.205437,   0.000000,   771.285278,   0.533466,   16.786739,   13.319029,   764.770996,   112.028008,   65.533051,   0.403507,   724.315491,   706.714478
-0.081095,   0.206568,   0.204425,   0.000000,   764.299805,   0.533466,   16.786739,   12.653154,   757.405151,   95.741348,   67.893013,   0.392806,   723.976807,   711.556580
-0.083804,   0.205849,   0.203436,   0.000000,   756.767456,   0.533466,   16.786739,   11.987281,   749.531372,   78.666336,   70.048500,   0.381464,   723.701050,   715.705750
-0.086613,   0.205098,   0.202475,   0.000000,   748.652222,   0.533466,   16.786739,   11.321407,   741.122070,   60.786888,   71.970375,   0.369460,   723.495483,   719.065613
-0.089522,   0.204311,   0.201549,   0.000000,   739.937195,   0.533466,   16.786739,   10.655534,   732.157166,   42.135517,   73.681267,   0.356798,   723.371582,   721.532593
-0.092531,   0.203485,   0.200664,   0.000000,   730.598267,   0.533466,   16.786739,   9.989659,   722.622253,   22.726446,   75.139816,   0.343477,   723.335815,   722.997314
-0.092635,   0.203104,   0.199900,   0.000000,   727.375671,   0.533122,   17.790113,   48.523701,   724.534546,   15.666698,   -44.967133,   0.342187,   721.048401,   720.791687
-0.089909,   0.204652,   0.201524,   0.000000,   737.540222,   0.533123,   17.790113,   47.860813,   734.742615,   35.752731,   -44.309372,   0.355906,   721.627258,   719.931274
-0.087268,   0.206202,   0.203233,   0.000000,   747.219910,   0.533122,   17.790113,   47.197926,   744.478760,   55.398956,   -43.547676,   0.369118,   722.332031,   717.994690
-0.084710,   0.207750,   0.205017,   0.000000,   756.399536,   0.533121,   17.790113,   46.535042,   753.732544,   74.533005,   -42.644188,   0.381786,   723.149780,   715.049377
-0.082238,   0.209294,   0.206863,   0.000000,   765.076294,   0.533122,   17.790113,   45.872154,   762.503479,   93.105560,   -41.579285,   0.393890,   724.067261,   711.166626
-0.079851,   0.210830,   0.208759,   0.000000,   773.242920,   0.533123,   17.790113,   45.209270,   770.785828,   111.050674,   -40.336674,   0.405402,   725.070984,   706.427490
-0.077550,   0.212353,   0.210694,   0.000000,   780.908081,   0.533122,   17.790113,   44.546383,   778.586121,   128.338699,   -38.925987,   0.416318,   726.147461,   700.910583
-0.075334,   0.213855,   0.212652,   0.000000,   788.080200,   0.533121,   17.790113,   43.883495,   785.909546,   144.939148,   -37.363789,   0.426633,   727.282776,   694.697693
-0.073200,   0.215331,   0.214620,   0.000000,   794.769836,   0.533123,   17.790113,   43.220608,   792.763428,   160.825043,   -35.664589,   0.436347,   728.462952,   687.873169
-0.071149,   0.216773,   0.216583,   0.000000,   800.989685,   0.533121,   17.790113,   42.557724,   799.155457,   175.973969,   -33.858585,   0.445463,   729.674500,   680.524902
-0.069178,   0.218174,   0.218528,   0.000000,   806.755798,   0.533122,   17.790113,   41.894836,   805.097107,   190.374374,   -31.974867,   0.453991,   730.904297,   672.737671
-0.067289,   0.219524,   0.220440,   0.000000,   812.083130,   0.533121,   17.790113,   41.231953,   810.599487,   204.010361,   -30.036175,   0.461939,   732.139038,   664.601929
-0.065482,   0.220820,   0.222307,   0.000000,   816.988281,   0.533123,   17.790113,   40.569065,   815.675842,   216.870911,   -28.064516,   0.469318,   733.366577,   656.208984
-0.063759,   0.222055,   0.224117,   0.000000,   821.488892,   0.533121,   17.790113,   39.906178,   820.341003,   228.948273,   -26.080347,   0.476143,   734.575745,   647.651733
-0.062122,   0.223226,   0.225861,   0.000000,   825.603882,   0.533122,   17.790113,   39.243294,   824.611389,   240.239731,   -24.103041,   0.482429,   735.756409,   639.022278
-0.060575,   0.224329,   0.227529,   0.000000,   829.351685,   0.533123,   17.790113,   38.580406,   828.503845,   250.744904,   -22.148418,   0.488194,   736.898987,   630.412170
-0.059120,   0.225361,   0.229112,   0.000000,   832.750427,   0.533120,   17.790113,   37.917519,   832.035339,   260.465118,   -20.229650,   0.493454,   737.994873,   621.914246
-0.057760,   0.226320,   0.230603,   0.000000,   835.818115,   0.533123,   17.790113,   37.254635,   835.223145,   269.404938,   -18.357294,   0.498229,   739.036133,   613.618347
-0.056498,   0.227204,   0.231996,   0.000000,   838.571899,   0.533121,   17.790113,   36.591747,   838.084351,   277.572388,   -16.538689,   0.502537,   740.015747,   605.610352
-0.055336,   0.228012,   0.233283,   0.000000,   841.028320,   0.533123,   17.790113,   35.928864,   840.635559,   284.976807,   -14.778278,   0.506398,   740.927429,   597.974548
-0.054277,   0.228743,   0.234460,   0.000000,   843.202454,   0.533120,   17.790113,   35.265976,   842.892334,   291.628510,   -13.078504,   0.509829,   741.765686,   590.790588
-0.053323,   0.229395,   0.235523,   0.000000,   845.108521,   0.533123,   17.790113,   34.603092,   844.869507,   297.538971,   -11.439646,   0.512848,   742.526062,   584.134827
-0.052476,   0.229970,   0.236467,   0.000000,   846.759277,   0.533123,   17.790113,   33.940201,   846.580566,   302.719788,   -9.860023,   0.515471,   743.204468,   578.078003
-0.051739,   0.230467,   0.237291,   0.000000,   848.166138,   0.533120,   17.790113,   33.277317,   848.037659,   307.182312,   -8.336232,   0.517712,   743.797791,   572.685303
-0.051112,   0.230886,   0.237990,   0.000000,   849.339172,   0.533123,   17.790113,   32.614429,   849.251709,   310.937469,   -6.863172,   0.519586,   744.303528,   568.015991
-0.050597,   0.231228,   0.238565,   0.000000,   850.287048,   0.533122,   17.790113,   31.951544,   850.231995,   313.994934,   -5.434432,   0.521103,   744.719604,   564.121765
-0.050195,   0.231493,   0.239013,   0.000000,   851.016785,   0.533121,   17.790113,   31.288658,   850.986206,   316.363403,   -4.042445,   0.522273,   745.044617,   561.046082
-0.049907,   0.231682,   0.239333,   0.000000,   851.533936,   0.533122,   17.790113,   30.625772,   851.520508,   318.049805,   -2.678839,   0.523103,   745.277405,   558.823914
-0.049735,   0.231795,   0.239525,   0.000000,   851.842651,   0.533122,   17.790113,   29.962887,   851.839294,   319.059479,   -1.334536,   0.523599,   745.417358,   557.480469
-0.049677,   0.231833,   0.239590,   0.000000,   851.945251,   0.533122,   17.790113,   29.300001,   851.945251,   319.395691,   0.000005,   0.523764,   745.464050,   557.030823
-0.049735,   0.231795,   0.239525,   0.000000,   851.842651,   0.533122,   17.790113,   28.637114,   851.839294,   319.059479,   1.334545,   0.523599,   745.417358,   557.480469
-0.049907,   0.231682,   0.239333,   0.000000,   851.533936,   0.533122,   17.790113,   27.974228,   851.520508,   318.049835,   2.678847,   0.523103,   745.277405,   558.823914
-0.050195,   0.231493,   0.239013,   0.000000,   851.016785,   0.533123,   17.790113,   27.311340,   850.986206,   316.363403,   4.042454,   0.522273,   745.044617,   561.046082
-0.050597,   0.231228,   0.238565,   0.000000,   850.287048,   0.533122,   17.790113,   26.648455,   850.231995,   313.994995,   5.434431,   0.521103,   744.719604,   564.121582
-0.051112,   0.230886,   0.237990,   0.000000,   849.339233,   0.533121,   17.790113,   25.985569,   849.251770,   310.937500,   6.863177,   0.519586,   744.303589,   568.016174
-0.051739,   0.230467,   0.237291,   0.000000,   848.166199,   0.533122,   17.790113,   25.322683,   848.037720,   307.182312,   8.336252,   0.517712,   743.797852,   572.685486
-0.052476,   0.229970,   0.236467,   0.000000,   846.759277,   0.533121,   17.790113,   24.659798,   846.580566,   302.719788,   9.860035,   0.515471,   743.204468,   578.078003
-0.053323,   0.229395,   0.235523,   0.000000,   845.108521,   0.533122,   17.790113,   23.996910,   844.869507,   297.538971,   11.439656,   0.512848,   742.526062,   584.134827
-0.054277,   0.228743,   0.234460,   0.000000,   843.202515,   0.533121,   17.790113,   23.334024,   842.892395,   291.628540,   13.078517,   0.509829,   741.765747,   590.790466
-0.055336,   0.228012,   0.233283,   0.000000,   841.028320,   0.533122,   17.790113,   22.671139,   840.635559,   284.976837,   14.778287,   0.506398,   740.927429,   597.974365
-0.056498,   0.227204,   0.231996,   0.000000,   838.571960,   0.533123,   17.790113,   22.008251,   838.084412,   277.572479,   16.538664,   0.502537,   740.015808,   605.610413
-0.057760,   0.226320,   0.230603,   0.000000,   835.818115,   0.533122,   17.790113,   21.345366,   835.223145,   269.404968,   18.357290,   0.498229,   739.036133,   613.618164
-0.059120,   0.225361,   0.229112,   0.000000,   832.750488,   0.533122,   17.790113,   20.682480,   832.035400,   260.465118,   20.229689,   0.493454,   737.994873,   621.914368
-0.060575,   0.224329,   0.227529,   0.000000,   829.351746,   0.533122,   17.790113,   20.019594,   828.503906,   250.744934,   22.148413,   0.488194,   736.899048,   630.412354
-0.062122,   0.223226,   0.225861,   0.000000,   825.603943,   0.533121,   17.790113,   19.356709,   824.611450,   240.239792,   24.103014,   0.482429,   735.756470,   639.022156
-0.063759,   0.222055,   0.224117,   0.000000,   821.488953,   0.533122,   17.790113,   18.693821,   820.341064,   228.948227,   26.080397,   0.476143,   734.575806,   647.651855
-0.065482,   0.220820,   0.222307,   0.000000,   816.988281,   0.533121,   17.790113,   18.030935,   815.675842,   216.870941,   28.064507,   0.469318,   733.366577,   656.208984
-0.067289,   0.219524,   0.220440,   0.000000,   812.083130,   0.533123,   17.790113,   17.368050,   810.599487,   204.010391,   30.036131,   0.461939,   732.139038,   664.601868
-0.069178,   0.218174,   0.218528,   0.000000,   806.755859,   0.533122,   17.790113,   16.705162,   805.097168,   190.374344,   31.974897,   0.453991,   730.904358,   672.737793
-0.071149,   0.216773,   0.216583,   0.000000,   800.989685,   0.533122,   17.790113,   16.042276,   799.155518,   175.973953,   33.858543,   0.445463,   729.674561,   680.524902
-0.073200,   0.215331,   0.214620,   0.000000,   794.769836,   0.533122,   17.790113,   15.379390,   792.763428,   160.825012,   35.664589,   0.436347,   728.462952,   687.873108
-0.075334,   0.213856,   0.212652,   0.000000,   788.080200,   0.533122,   17.790113,   14.716504,   785.909546,   144.939117,   37.363743,   0.426633,   727.282776,   694.697754
-0.077551,   0.212353,   0.210694,   0.000000,   780.908020,   0.533122,   17.790113,   14.053617,   778.586060,   128.338623,   38.926033,   0.416318,   726.147400,   700.910522
-0.079851,   0.210830,   0.208759,   0.000000,   773.242859,   0.533122,   17.790113,   13.390732,   770.785828,   111.050613,   40.336643,   0.405402,   725.070984,   706.427551
-0.082238,   0.209294,   0.206863,   0.000000,   765.076172,   0.533122,   17.790113,   12.727845,   762.503418,   93.105492,   41.579247,   0.393890,   724.067200,   711.166565
-0.084710,   0.207750,   0.205017,   0.000000,   756.399475,   0.533122,   17.790113,   12.064960,   753.732483,   74.532913,   42.644249,   0.381786,   723.149719,   715.049438
-0.087268,   0.206202,   0.203233,   0.000000,   747.219849,   0.533122,   17.790113,   11.402073,   744.478699,   55.398815,   43.547653,   0.369118,   722.331970,   717.994690
-0.089909,   0.204652,   0.201524,   0.000000,   737.540100,   0.533122,   17.790113,   10.739187,   734.742493,   35.752571,   44.309383,   0.355906,   721.627258,   719.931213
-0.092635,   0.203104,   0.199900,   0.000000,   727.375488,   0.533122,   17.790113,   10.076301,   724.534363,   15.666435,   44.967094,   0.342187,   721.048401,   720.791687
-0.092490,   0.202476,   0.199083,   0.000000,   725.378174,   0.532940,   18.796381,   48.480339,   725.065186,   11.969882,   -14.943184,   0.341400,   719.620544,   719.408142
-0.089909,   0.204362,   0.201051,   0.000000,   735.820129,   0.532942,   18.796381,   47.818947,   735.510742,   32.103760,   -14.755769,   0.355155,   720.449280,   718.868225
-0.087410,   0.206285,   0.203142,   0.000000,   745.895325,   0.532942,   18.796381,   47.157555,   745.589905,   52.027138,   -14.556789,   0.368537,   721.426331,   717.237122
-0.084989,   0.208235,   0.205337,   0.000000,   755.576660,   0.532939,   18.796381,   46.496166,   755.276978,   71.678680,   -14.316384,   0.381506,   722.536377,   714.539429
-0.082646,   0.210202,   0.207620,   0.000000,   764.834900,   0.532942,   18.796381,   45.834774,   764.543274,   90.979431,   -14.018993,   0.394015,   723.764893,   710.813843
-0.080377,   0.212178,   0.209973,   0.000000,   773.643250,   0.532942,   18.796381,   45.173382,   773.362488,   109.841682,   -13.652234,   0.406016,   725.097534,   706.114563
-0.078184,   0.214156,   0.212385,   0.000000,   781.981995,   0.532939,   18.796381,   44.511990,   781.714905,   128.178955,   -13.214760,   0.417466,   726.520813,   700.512390
-0.076068,   0.216132,   0.214842,   0.000000,   789.843994,   0.532942,   18.796381,   43.850601,   789.593079,   145.922302,   -12.710468,   0.428337,   728.021973,   694.086731
-0.074029,   0.218102,   0.217335,   0.000000,   797.227783,   0.532940,   18.796381,   43.189209,   796.995117,   163.008118,   -12.147390,   0.438605,   729.588196,   686.927856
-0.072068,   0.220063,   0.219853,   0.000000,   804.137695,   0.532942,   18.796381,   42.527821,   803.924683,   179.382141,   -11.535485,   0.448258,   731.206055,   679.132202
-0.070187,   0.222009,   0.222383,   0.000000,   810.584473,   0.532940,   18.796381,   41.866428,   810.391907,   195.006287,   -10.887400,   0.457293,   732.861938,   670.797180
-0.068385,   0.223934,   0.224914,   0.000000,   816.580750,   0.532940,   18.796381,   41.205036,   816.408813,   209.847305,   -10.212943,   0.465713,   734.541321,   662.023926
-0.066663,   0.225830,   0.227430,   0.000000,   822.140076,   0.532942,   18.796381,   40.543648,   821.988525,   223.877563,   -9.522498,   0.473524,   736.229248,   652.916931
-0.065023,   0.227688,   0.229918,   0.000000,   827.277344,   0.532940,   18.796381,   39.882256,   827.145386,   237.075241,   -8.824811,   0.480736,   737.910645,   643.583191
-0.063466,   0.229500,   0.232362,   0.000000,   832.008484,   0.532940,   18.796381,   39.220863,   831.895081,   249.425522,   -8.128263,   0.487364,   739.570679,   634.130310
-0.061994,   0.231257,   0.234746,   0.000000,   836.350098,   0.532942,   18.796381,   38.559475,   836.253906,   260.920837,   -7.440797,   0.493426,   741.195190,   624.664246
-0.060609,   0.232949,   0.237054,   0.000000,   840.318787,   0.532939,   18.796381,   37.898083,   840.238220,   271.559113,   -6.767989,   0.498942,   742.770264,   615.290405
-0.059315,   0.234567,   0.239271,   0.000000,   843.930359,   0.532942,   18.796381,   37.236691,   843.863892,   281.343018,   -6.114036,   0.503933,   744.282898,   606.111206
-0.058113,   0.236100,   0.241382,   0.000000,   847.200073,   0.532942,   18.796381,   36.575302,   847.146118,   290.278870,   -5.482136,   0.508423,   745.721069,   597.227112
-0.057007,   0.237540,   0.243370,   0.000000,   850.141846,   0.532940,   18.796381,   35.913910,   850.098755,   298.376068,   -4.874528,   0.512433,   747.073181,   588.735535
-0.055998,   0.238877,   0.245221,   0.000000,   852.768311,   0.532940,   18.796381,   35.252518,   852.734619,   305.646088,   -4.292620,   0.515986,   748.328918,   580.729187
-0.055089,   0.240103,   0.246921,   0.000000,   855.090759,   0.532942,   18.796381,   34.591129,   855.065063,   312.102051,   -3.736382,   0.519102,   749.478638,   573.296814
-0.054282,   0.241207,   0.248456,   0.000000,   857.118958,   0.532940,   18.796381,   33.929737,   857.099915,   317.757385,   -3.205260,   0.521801,   750.513794,   566.521179
-0.053579,   0.242183,   0.249814,   0.000000,   858.861206,   0.532940,   18.796381,   33.268345,   858.847656,   322.625671,   -2.697967,   0.524102,   751.426758,   560.479370
-0.052982,   0.243022,   0.250983,   0.000000,   860.324463,   0.532940,   18.796381,   32.606956,   860.315308,   326.720093,   -2.212292,   0.526021,   752.210632,   555.240356
-0.052491,   0.243719,   0.251955,   0.000000,   861.514465,   0.532942,   18.796381,   31.945564,   861.508728,   330.052338,   -1.745698,   0.527571,   752.859863,   550.865784
-0.052108,   0.244267,   0.252719,   0.000000,   862.435608,   0.532940,   18.796381,   31.284174,   862.432434,   332.632812,   -1.294911,   0.528764,   753.369751,   547.406982
-0.051834,   0.244661,   0.253270,   0.000000,   863.091309,   0.532941,   18.796381,   30.622782,   863.089905,   334.469818,   -0.856348,   0.529610,   753.736633,   544.906006
-0.051669,   0.244899,   0.253602,   0.000000,   863.483765,   0.532941,   18.796381,   29.961391,   863.483398,   335.569550,   -0.426070,   0.530115,   753.957764,   543.392700
-0.051614,   0.244979,   0.253714,   0.000000,   863.614441,   0.532940,   18.796381,   29.300001,   863.614441,   335.935699,   0.000002,   0.530283,   754.031677,   542.886169
-0.051669,   0.244899,   0.253602,   0.000000,   863.483765,   0.532941,   18.796381,   28.638609,   863.483398,   335.569550,   0.426074,   0.530115,   753.957764,   543.392700
-0.051834,   0.244661,   0.253270,   0.000000,   863.091309,   0.532941,   18.796381,   27.977219,   863.089905,   334.469818,   0.856352,   0.529610,   753.736633,   544.906006
-0.052108,   0.244267,   0.252719,   0.000000,   862.435669,   0.532941,   18.796381,   27.315826,   862.432495,   332.632843,   1.294909,   0.528764,   753.369812,   547.407043
-0.052491,   0.243719,   0.251955,   0.000000,   861.514526,   0.532940,   18.796381,   26.654436,   861.508789,   330.052338,   1.745696,   0.527571,   752.859924,   550.865845
-0.052982,   0.243022,   0.250983,   0.000000,   860.324524,   0.532940,   18.796381,   25.993046,   860.315369,   326.720062,   2.212315,   0.526021,   752.210693,   555.240540
-0.053579,   0.242183,   0.249814,   0.000000,   858.861206,   0.532942,   18.796381,   25.331656,   858.847656,   322.625732,   2.697952,   0.524102,   751.426758,   560.479370
-0.054282,   0.241207,   0.248456,   0.000000,   857.119019,   0.532940,   18.796381,   24.670263,   857.099976,   317.757385,   3.205291,   0.521801,   750.513916,   566.521240
-0.055089,   0.240103,   0.246921,   0.000000,   855.090820,   0.532941,   18.796381,   24.008873,   855.065125,   312.102081,   3.736370,   0.519102,   749.478699,   573.296692
-0.055998,   0.238878,   0.245221,   0.000000,   852.768372,   0.532941,   18.796381,   23.347481,   852.734680,   305.646118,   4.292605,   0.515986,   748.328979,   580.729187
-0.057007,   0.237540,   0.243370,   0.000000,   850.141907,   0.532940,   18.796381,   22.686090,   850.098816,   298.376068,   4.874568,   0.512433,   747.073242,   588.735657
-0.058113,   0.236100,   0.241382,   0.000000,   847.200073,   0.532941,   18.796381,   22.024700,   847.146118,   290.278900,   5.482108,   0.508423,   745.721069,   597.227112
-0.059315,   0.234567,   0.239271,   0.000000,   843.930420,   0.532940,   18.796381,   21.363308,   843.863953,   281.343048,   6.114034,   0.503933,   744.282959,   606.111206
-0.060609,   0.232949,   0.237054,   0.000000,   840.318848,   0.532942,   18.796381,   20.701918,   840.238281,   271.559113,   6.768003,   0.498942,   742.770325,   615.290527
-0.061994,   0.231257,   0.234746,   0.000000,   836.350159,   0.532940,   18.796381,   20.040525,   836.253967,   260.920837,   7.440791,   0.493426,   741.195251,   624.664368
-0.063466,   0.229500,   0.232362,   0.000000,   832.008545,   0.532940,   18.796381,   19.379135,   831.895142,   249.425537,   8.128302,   0.487364,   739.570740,   634.130310
-0.065023,   0.227688,   0.229918,   0.000000,   827.277405,   0.532941,   18.796381,   18.717745,   827.145447,   237.075256,   8.824746,   0.480736,   737.910706,   643.583252
-0.066663,   0.225830,   0.227430,   0.000000,   822.140076,   0.532941,   18.796381,   18.056355,   821.988525,   223.877563,   9.522518,   0.473524,   736.229248,   652.916931
-0.068385,   0.223934,   0.224914,   0.000000,   816.580750,   0.532941,   18.796381,   17.394962,   816.408813,   209.847321,   10.212953,   0.465713,   734.541260,   662.023926
-0.070187,   0.222009,   0.222383,   0.000000,   810.584534,   0.532940,   18.796381,   16.733572,   810.391968,   195.006271,   10.887351,   0.457293,   732.862000,   670.797119
-0.072068,   0.220063,   0.219853,   0.000000,   804.137695,   0.532941,   18.796381,   16.072182,   803.924683,   179.382156,   11.535463,   0.448258,   731.206055,   679.132202
-0.074029,   0.218102,   0.217335,   0.000000,   797.227783,   0.532941,   18.796381,   15.410790,   796.995117,   163.008118,   12.147429,   0.438605,   729.588196,   686.927856
-0.076068,   0.216132,   0.214842,   0.000000,   789.844055,   0.532941,   18.796381,   14.749399,   789.593140,   145.922318,   12.710449,   0.428337,   728.022034,   694.086853
-0.078184,   0.214156,   0.212385,   0.000000,   781.981995,   0.532941,   18.796381,   14.088008,   781.714905,   128.178955,   13.214759,   0.417466,   726.520813,   700.512390
-0.080377,   0.212178,   0.209973,   0.000000,   773.643250,   0.532940,   18.796381,   13.426618,   773.362488,   109.841682,   13.652237,   0.406016,   725.097534,   706.114563
-0.082646,   0.210202,   0.207620,   0.000000,   764.834961,   0.532940,   18.796381,   12.765226,   764.543335,   90.979500,   14.018976,   0.394015,   723.764893,   710.813782
-0.084989,   0.208235,   0.205337,   0.000000,   755.576721,   0.532941,   18.796381,   12.103836,   755.277039,   71.678711,   14.316413,   0.381506,   722.536377,   714.539490
-0.087410,   0.206285,   0.203142,   0.000000,   745.895325,   0.532940,   18.796381,   11.442445,   745.589905,   52.027187,   14.556786,   0.368537,   721.426270,   717.237122
-0.089909,   0.204362,   0.201051,   0.000000,   735.820190,   0.532941,   18.796381,   10.781054,   735.510803,   32.103859,   14.755793,   0.355156,   720.449280,   718.868225
-0.092490,   0.202477,   0.199083,   0.000000,   725.378296,   0.532941,   18.796381,   10.119662,   725.065308,   11.970036,   14.943224,   0.341400,   719.620605,   719.408081
-0.092490,   0.202476,   0.199083,   0.000000,   725.378235,   0.532941,   19.803617,   48.480339,   725.065247,   11.969901,   14.943179,   0.341400,   719.620605,   719.408081
-0.089909,   0.204362,   0.201051,   0.000000,   735.820129,   0.532943,   19.803617,   47.818947,   735.510742,   32.103764,   14.755761,   0.355155,   720.449280,   718.868225
-0.087410,   0.206285,   0.203142,   0.000000,   745.895264,   0.532943,   19.803617,   47.157555,   745.589905,   52.027138,   14.556779,   0.368537,   721.426331,   717.237122
-0.084989,   0.208235,   0.205337,   0.000000,   755.576660,   0.532940,   19.803617,   46.496166,   755.276978,   71.678680,   14.316373,   0.381506,   722.536377,   714.539429
-0.082646,   0.210202,   0.207620,   0.000000,   764.834900,   0.532943,   19.803617,   45.834774,   764.543274,   90.979424,   14.018981,   0.394015,   723.764893,   710.813843
-0.080377,   0.212178,   0.209973,   0.000000,   773.643250,   0.532943,   19.803617,   45.173382,   773.362488,   109.841675,   13.652222,   0.406016,   725.097534,   706.114563
-0.078184,   0.214156,   0.212385,   0.000000,   781.981995,   0.532940,   19.803617,   44.511990,   781.714905,   128.178955,   13.214748,   0.417466,   726.520813,   700.512390
-0.076068,   0.216132,   0.214842,   0.000000,   789.843994,   0.532943,   19.803617,   43.850601,   789.593079,   145.922287,   12.710458,   0.428337,   728.021973,   694.086731
-0.074029,   0.218102,   0.217335,   0.000000,   797.227783,   0.532941,   19.803617,   43.189209,   796.995117,   163.008118,   12.147380,   0.438605,   729.588196,   686.927856
-0.072068,   0.220063,   0.219853,   0.000000,   804.137695,   0.532943,   19.803617,   42.527821,   803.924683,   179.382141,   11.535475,   0.448258,   731.206055,   679.132202
-0.070187,   0.222009,   0.222383,   0.000000,   810.584473,   0.532941,   19.803617,   41.866428,   810.391907,   195.006287,   10.887390,   0.457293,   732.861938,   670.797180
-0.068385,   0.223934,   0.224914,   0.000000,   816.580750,   0.532941,   19.803617,   41.205036,   816.408813,   209.847305,   10.212934,   0.465713,   734.541321,   662.023926
-0.066663,   0.225830,   0.227430,   0.000000,   822.140015,   0.532943,   19.803617,   40.543648,   821.988464,   223.877548,   9.522491,   0.473524,   736.229187,   652.916992
-0.065023,   0.227688,   0.229918,   0.000000,   827.277344,   0.532941,   19.803617,   39.882256,   827.145386,   237.075241,   8.824803,   0.480736,   737.910645,   643.583191
-0.063466,   0.229500,   0.232362,   0.000000,   832.008484,   0.532941,   19.803617,   39.220863,   831.895081,   249.425522,   8.128256,   0.487364,   739.570679,   634.130310
-0.061994,   0.231257,   0.234746,   0.000000,   836.350098,   0.532943,   19.803617,   38.559475,   836.253906,   260.920837,   7.440790,   0.493426,   741.195190,   624.664246
-0.060609,   0.232949,   0.237054,   0.000000,   840.318787,   0.532940,   19.803617,   37.898083,   840.238220,   271.559113,   6.767983,   0.498942,   742.770264,   615.290405
-0.059315,   0.234567,   0.239271,   0.000000,   843.930359,   0.532943,   19.803617,   37.236691,   843.863892,   281.342987,   6.114030,   0.503933,   744.282959,   606.111206
-0.058113,   0.236100,   0.241382,   0.000000,   847.200073,   0.532943,   19.803617,   36.575302,   847.146118,   290.278839,   5.482131,   0.508423,   745.721069,   597.227417
-0.057007,   0.237540,   0.243370,   0.000000,   850.141846,   0.532941,   19.803617,   35.913910,   850.098755,   298.376068,   4.874525,   0.512433,   747.073181,   588.735535
-0.055998,   0.238877,   0.245221,   0.000000,   852.768311,   0.532941,   19.803617,   35.252518,   852.734619,   305.646088,   4.292616,   0.515986,   748.328918,   580.729187
-0.055089,   0.240103,   0.246921,   0.000000,   855.090759,   0.532943,   19.803617,   34.591129,   855.065063,   312.102051,   3.736379,   0.519102,   749.478638,   573.296814
-0.054282,   0.241207,   0.248456,   0.000000,   857.118958,   0.532941,   19.803617,   33.929737,   857.099915,   317.757385,   3.205257,   0.521801,   750.513794,   566.521179
-0.053579,   0.242183,   0.249814,   0.000000,   858.861206,   0.532941,   19.803617,   33.268345,   858.847656,   322.625671,   2.697965,   0.524102,   751.426758,   560.479370
-0.052982,   0.243022,   0.250983,   0.000000,   860.324463,   0.532941,   19.803617,   32.606956,   860.315308,   326.720062,   2.212290,   0.526021,   752.210632,   555.240356
-0.052491,   0.243719,   0.251955,   0.000000,   861.514465,   0.532943,   19.803617,   31.945564,   861.508728,   330.052307,   1.745697,   0.527571,   752.859863,   550.865784
-0.052108,   0.244267,   0.252719,   0.000000,   862.435608,   0.532941,   19.803617,   31.284174,   862.432434,   332.632812,   1.294910,   0.528764,   753.369751,   547.406982
-0.051834,   0.244661,   0.253270,   0.000000,   863.091248,   0.532942,   19.803617,   30.622782,   863.089844,   334.469818,   0.856347,   0.529610,   753.736572,   544.905823
-0.051669,   0.244899,   0.253602,   0.000000,   863.483765,   0.532942,   19.803617,   29.961391,   863.483398,   335.569550,   0.426070,   0.530115,   753.957764,   543.392700
-0.051614,   0.244979,   0.253714,   0.000000,   863.614441,   0.532941,   19.803617,   29.300001,   863.614441,   335.935699,   -0.000002,   0.530283,   754.031677,   542.886169
-0.051669,   0.244899,   0.253602,   0.000000,   863.483765,   0.532942,   19.803617,   28.638609,   863.483398,   335.569550,   -0.426074,   0.530115,   753.957764,   543.392700
-0.051834,   0.244661,   0.253270,   0.000000,   863.091309,   0.532942,   19.803617,   27.977219,   863.089905,   334.469818,   -0.856351,   0.529610,   753.736633,   544.906006
-0.052108,   0.244267,   0.252719,   0.000000,   862.435608,   0.532942,   19.803617,   27.315826,   862.432434,   332.632812,   -1.294908,   0.528764,   753.369751,   547.406982
-0.052491,   0.243719,   0.251955,   0.000000,   861.514465,   0.532941,   19.803617,   26.654436,   861.508728,   330.052338,   -1.745694,   0.527571,   752.859863,   550.865784
-0.052982,   0.243022,   0.250983,   0.000000,   860.324524,   0.532941,   19.803617,   25.993046,   860.315369,   326.720062,   -2.212313,   0.526021,   752.210693,   555.240540
-0.053579,   0.242183,   0.249814,   0.000000,   858.861206,   0.532943,   19.803617,   25.331656,   858.847656,   322.625702,   -2.697950,   0.524102,   751.426758,   560.479370
-0.054282,   0.241207,   0.248456,   0.000000,   857.119019,   0.532941,   19.803617,   24.670263,   857.099976,   317.757385,   -3.205288,   0.521801,   750.513916,   566.521240
-0.055089,   0.240103,   0.246921,   0.000000,   855.090820,   0.532942,   19.803617,   24.008873,   855.065125,   312.102081,   -3.736367,   0.519102,   749.478699,   573.296692
-0.055998,   0.238878,   0.245221,   0.000000,   852.768372,   0.532942,   19.803617,   23.347481,   852.734680,   305.646118,   -4.292602,   0.515986,   748.328979,   580.729187
-0.057007,   0.237540,   0.243370,   0.000000,   850.141907,   0.532941,   19.803617,   22.686090,   850.098816,   298.376068,   -4.874564,   0.512433,   747.073242,   588.735657
-0.058113,   0.236100,   0.241382,   0.000000,   847.200073,   0.532942,   19.803617,   22.024700,   847.146118,   290.278900,   -5.482103,   0.508423,   745.721069,   597.227112
-0.059315,   0.234567,   0.239271,   0.000000,   843.930420,   0.532941,   19.803617,   21.363308,   843.863953,   281.343048,   -6.114029,   0.503933,   744.282959,   606.111206
-0.060609,   0.232949,   0.237054,   0.000000,   840.318848,   0.532943,   19.803617,   20.701918,   840.238281,   271.559113,   -6.767998,   0.498942,   742.770325,   615.290527
-0.061994,   0.231257,   0.234746,   0.000000,   836.350159,   0.532941,   19.803617,   20.040525,   836.253967,   260.920837,   -7.440784,   0.493426,   741.195251,   624.664368
-0.063466,   0.229500,   0.232362,   0.000000,   832.008545,   0.532941,   19.803617,   19.379135,   831.895142,   249.425537,   -8.128295,   0.487364,   739.570740,   634.130310
-0.065023,   0.227688,   0.229918,   0.000000,   827.277405,   0.532942,   19.803617,   18.717745,   827.145447,   237.075241,   -8.824739,   0.480736,   737.910706,   643.583252
-0.066663,   0.225830,   0.227430,   0.000000,   822.140076,   0.532942,   19.803617,   18.056355,   821.988525,   223.877548,   -9.522511,   0.473524,   736.229248,   652.916870
-0.068385,   0.223934,   0.224914,   0.000000,   816.580750,   0.532942,   19.803617,   17.394962,   816.408813,   209.847305,   -10.212944,   0.465713,   734.541321,   662.023926
-0.070187,   0.222009,   0.222383,   0.000000,   810.584534,   0.532941,   19.803617,   16.733572,   810.391968,   195.006271,   -10.887341,   0.457293,   732.862000,   670.797119
-0.072068,   0.220063,   0.219853,   0.000000,   804.137695,   0.532942,   19.803617,   16.072182,   803.924683,   179.382156,   -11.535454,   0.448258,   731.206055,   679.132202
-0.074029,   0.218102,   0.217335,   0.000000,   797.227783,   0.532942,   19.803617,   15.410790,   796.995117,   163.008118,   -12.147419,   0.438605,   729.588196,   686.927856
-0.076068,   0.216132,   0.214842,   0.000000,   789.844055,   0.532942,   19.803617,   14.749399,   789.593140,   145.922318,   -12.710439,   0.428337,   728.022034,   694.086853
-0.078184,   0.214156,   0.212385,   0.000000,   781.981995,   0.532942,   19.803617,   14.088008,   781.714905,   128.178955,   -13.214747,   0.417466,   726.520813,   700.512390
-0.080377,   0.212178,   0.209973,   0.000000,   773.643250,   0.532942,   19.803617,   13.426618,   773.362488,   109.841682,   -13.652225,   0.406016,   725.097534,   706.114563
-0.082646,   0.210202,   0.207620,   0.000000,   764.834961,   0.532942,   19.803617,   12.765226,   764.543335,   90.979492,   -14.018965,   0.394015,   723.764893,   710.813782
-0.084989,   0.208235,   0.205337,   0.000000,   755.576721,   0.532942,   19.803617,   12.103836,   755.277039,   71.678711,   -14.316401,   0.381506,   722.536377,   714.539490
-0.087410,   0.206285,   0.203142,   0.000000,   745.895264,   0.532942,   19.803617,   11.442445,   745.589905,   52.027187,   -14.556775,   0.368537,   721.426270,   717.237122
-0.089909,   0.204362,   0.201051,   0.000000,   735.820190,   0.532942,   19.803617,   10.781054,   735.510803,   32.103863,   -14.755785,   0.355156,   720.449280,   718.868225
-0.092490,   0.202477,   0.199083,   0.000000,   725.378357,   0.532942,   19.803617,   10.119662,   725.065369,   11.970055,   -14.943218,   0.341400,   719.620605,   719.408203
-0.092635,   0.203104,   0.199900,   0.000000,   727.375671,   0.533120,   20.809887,   48.523701,   724.534546,   15.666665,   44.967125,   0.342187,   721.048401,   720.791626
-0.089909,   0.204652,   0.201524,   0.000000,   737.540161,   0.533122,   20.809887,   47.860813,   734.742554,   35.752712,   44.309368,   0.355906,   721.627197,   719.931213
-0.087268,   0.206202,   0.203233,   0.000000,   747.219910,   0.533120,   20.809887,   47.197926,   744.478760,   55.398945,   43.547676,   0.369118,   722.332031,   717.994690
-0.084710,   0.207750,   0.205017,   0.000000,   756.399536,   0.533120,   20.809887,   46.535042,   753.732544,   74.532997,   42.644188,   0.381786,   723.149780,   715.049377
-0.082238,   0.209294,   0.206863,   0.000000,   765.076294,   0.533120,   20.809887,   45.872154,   762.503479,   93.105560,   41.579281,   0.393890,   724.067261,   711.166626
-0.079851,   0.210830,   0.208759,   0.000000,   773.242920,   0.533122,   20.809887,   45.209270,   770.785828,   111.050674,   40.336674,   0.405402,   725.070984,   706.427490
-0.077550,   0.212353,   0.210694,   0.000000,   780.908081,   0.533120,   20.809887,   44.546383,   778.586121,   128.338699,   38.925987,   0.416318,   726.147461,   700.910583
-0.075334,   0.213855,   0.212652,   0.000000,   788.080200,   0.533120,   20.809887,   43.883495,   785.909546,   144.939148,   37.363785,   0.426633,   727.282776,   694.697693
-0.073200,   0.215331,   0.214620,   0.000000,   794.769836,   0.533122,   20.809887,   43.220608,   792.763428,   160.825058,   35.664585,   0.436347,   728.462952,   687.873169
-0.071149,   0.216773,   0.216583,   0.000000,   800.989685,   0.533120,   20.809887,   42.557724,   799.155457,   175.973969,   33.858582,   0.445463,   729.674500,   680.524902
-0.069178,   0.218174,   0.218528,   0.000000,   806.755859,   0.533120,   20.809887,   41.894836,   805.097168,   190.374390,   31.974865,   0.453991,   730.904358,   672.737671
-0.067289,   0.219524,   0.220440,   0.000000,   812.083130,   0.533120,   20.809887,   41.231953,   810.599487,   204.010361,   30.036173,   0.461939,   732.139038,   664.601929
-0.065482,   0.220820,   0.222307,   0.000000,   816.988281,   0.533122,   20.809887,   40.569065,   815.675842,   216.870926,   28.064514,   0.469318,   733.366577,   656.208984
-0.063759,   0.222055,   0.224117,   0.000000,   821.488892,   0.533120,   20.809887,   39.906178,   820.341003,   228.948288,   26.080345,   0.476143,   734.575745,   647.651733
-0.062122,   0.223226,   0.225861,   0.000000,   825.603882,   0.533120,   20.809887,   39.243294,   824.611389,   240.239746,   24.103041,   0.482429,   735.756409,   639.022278
-0.060575,   0.224329,   0.227529,   0.000000,   829.351685,   0.533122,   20.809887,   38.580406,   828.503845,   250.744919,   22.148417,   0.488194,   736.898987,   630.412170
-0.059120,   0.225361,   0.229112,   0.000000,   832.750488,   0.533119,   20.809887,   37.917519,   832.035400,   260.465118,   20.229650,   0.493454,   737.994873,   621.914368
-0.057760,   0.226320,   0.230603,   0.000000,   835.818115,   0.533122,   20.809887,   37.254635,   835.223145,   269.404938,   18.357296,   0.498229,   739.036133,   613.618347
-0.056498,   0.227204,   0.231996,   0.000000,   838.571899,   0.533120,   20.809887,   36.591747,   838.084351,   277.572418,   16.538691,   0.502537,   740.015747,   605.610352
-0.055336,   0.228012,   0.233283,   0.000000,   841.028320,   0.533122,   20.809887,   35.928864,   840.635559,   284.976837,   14.778279,   0.506398,   740.927429,   597.974365
-0.054277,   0.228743,   0.234460,   0.000000,   843.202454,   0.533119,   20.809887,   35.265976,   842.892334,   291.628540,   13.078504,   0.509829,   741.765686,   590.790588
-0.053323,   0.229395,   0.235523,   0.000000,   845.108521,   0.533122,   20.809887,   34.603092,   844.869507,   297.538971,   11.439647,   0.512848,   742.526062,   584.134827
-0.052476,   0.229970,   0.236467,   0.000000,   846.759277,   0.533122,   20.809887,   33.940201,   846.580566,   302.719788,   9.860023,   0.515471,   743.204468,   578.078003
-0.051739,   0.230467,   0.237291,   0.000000,   848.166199,   0.533119,   20.809887,   33.277317,   848.037720,   307.182343,   8.336233,   0.517712,   743.797852,   572.685364
-0.051112,   0.230886,   0.237990,   0.000000,   849.339172,   0.533122,   20.809887,   32.614429,   849.251709,   310.937500,   6.863172,   0.519586,   744.303528,   568.015991
-0.050597,   0.231228,   0.238565,   0.000000,   850.287048,   0.533121,   20.809887,   31.951544,   850.231995,   313.994965,   5.434433,   0.521103,   744.719604,   564.121765
-0.050195,   0.231493,   0.239013,   0.000000,   851.016785,   0.533120,   20.809887,   31.288658,   850.986206,   316.363403,   4.042445,   0.522273,   745.044617,   561.046082
-0.049907,   0.231682,   0.239333,   0.000000,   851.533936,   0.533120,   20.809887,   30.625772,   851.520508,   318.049835,   2.678839,   0.523103,   745.277405,   558.823914
-0.049735,   0.231795,   0.239525,   0.000000,   851.842651,   0.533121,   20.809887,   29.962887,   851.839294,   319.059479,   1.334536,   0.523599,   745.417358,   557.480469
-0.049677,   0.231833,   0.239590,   0.000000,   851.945251,   0.533120,   20.809887,   29.300001,   851.945251,   319.395691,   -0.000005,   0.523764,   745.464050,   557.030823
-0.049735,   0.231795,   0.239525,   0.000000,   851.842651,   0.533121,   20.809887,   28.637114,   851.839294,   319.059479,   -1.334545,   0.523599,   745.417358,   557.480469
-0.049907,   0.231682,   0.239333,   0.000000,   851.533936,   0.533120,   20.809887,   27.974228,   851.520508,   318.049835,   -2.678847,   0.523103,   745.277405,   558.823914
-0.050195,   0.231493,   0.239013,   0.000000,   851.016785,   0.533122,   20.809887,   27.311340,   850.986206,   316.363434,   -4.042455,   0.522273,   745.044617,   561.046082
-0.050597,   0.231228,   0.238565,   0.000000,   850.287048,   0.533120,   20.809887,   26.648455,   850.231995,   313.994995,   -5.434432,   0.521103,   744.719604,   564.121582
-0.051112,   0.230886,   0.237990,   0.000000,   849.339233,   0.533120,   20.809887,   25.985569,   849.251770,   310.937500,   -6.863178,   0.519586,   744.303589,   568.016174
-0.051739,   0.230467,   0.237291,   0.000000,   848.166199,   0.533121,   20.809887,   25.322683,   848.037720,   307.182343,   -8.336253,   0.517712,   743.797852,   572.685364
-0.052476,   0.229970,   0.236467,   0.000000,   846.759277,   0.533120,   20.809887,   24.659798,   846.580566,   302.719818,   -9.860035,   0.515471,   743.204468,   578.077881
-0.053323,   0.229395,   0.235523,   0.000000,   845.108521,   0.533121,   20.809887,   23.996910,   844.869507,   297.538971,   -11.439657,   0.512848,   742.526062,   584.134827
-0.054277,   0.228743,   0.234460,   0.000000,   843.202515,   0.533120,   20.809887,   23.334024,   842.892395,   291.628540,   -13.078518,   0.509829,   741.765747,   590.790466
-0.055336,   0.228012,   0.233283,   0.000000,   841.028320,   0.533120,   20.809887,   22.671139,   840.635559,   284.976837,   -14.778288,   0.506398,   740.927429,   597.974365
-0.056498,   0.227204,   0.231996,   0.000000,   838.571960,   0.533122,   20.809887,   22.008251,   838.084412,   277.572479,   -16.538664,   0.502537,   740.015808,   605.610413
-0.057760,   0.226320,   0.230603,   0.000000,   835.818115,   0.533120,   20.809887,   21.345366,   835.223145,   269.404999,   -18.357290,   0.498229,   739.036133,   613.618164
-0.059120,   0.225361,   0.229112,   0.000000,   832.750488,   0.533121,   20.809887,   20.682480,   832.035400,   260.465118,   -20.229689,   0.493454,   737.994873,   621.914368
-0.060575,   0.224329,   0.227529,   0.000000,   829.351746,   0.533120,   20.809887,   20.019594,   828.503906,   250.744949,   -22.148413,   0.488194,   736.899048,   630.412231
-0.062122,   0.223226,   0.225861,   0.000000,   825.603943,   0.533120,   20.809887,   19.356709,   824.611450,   240.239807,   -24.103012,   0.482429,   735.756470,   639.022034
-0.063759,   0.222055,   0.224117,   0.000000,   821.488953,   0.533121,   20.809887,   18.693821,   820.341064,   228.948242,   -26.080395,   0.476143,   734.575806,   647.651855
-0.065482,   0.220820,   0.222307,   0.000000,   816.988281,   0.533120,   20.809887,   18.030935,   815.675842,   216.870956,   -28.064505,   0.469318,   733.366577,   656.208984
-0.067289,   0.219525,   0.220440,   0.000000,   812.083130,   0.533122,   20.809887,   17.368050,   810.599487,   204.010391,   -30.036129,   0.461939,   732.139038,   664.601868
-0.069178,   0.218174,   0.218528,   0.000000,   806.755859,   0.533120,   20.809887,   16.705162,   805.097168,   190.374359,   -31.974895,   0.453991,   730.904358,   672.737671
-0.071149,   0.216773,   0.216583,   0.000000,   800.989685,   0.533121,   20.809887,   16.042276,   799.155518,   175.973969,   -33.858540,   0.445463,   729.674561,   680.524780
-0.073200,   0.215331,   0.214620,   0.000000,   794.769836,   0.533121,   20.809887,   15.379390,   792.763428,   160.825027,   -35.664585,   0.436347,   728.462952,   687.873169
-0.075334,   0.213856,   0.212652,   0.000000,   788.080200,   0.533121,   20.809887,   14.716504,   785.909546,   144.939117,   -37.363739,   0.426633,   727.282776,   694.697754
-0.077551,   0.212353,   0.210694,   0.000000,   780.908020,   0.533121,   20.809887,   14.053617,   778.586060,   128.338623,   -38.926029,   0.416318,   726.147400,   700.910522
-0.079851,   0.210830,   0.208759,   0.000000,   773.242859,   0.533121,   20.809887,   13.390732,   770.785828,   111.050606,   -40.336643,   0.405402,   725.070984,   706.427490
-0.082238,   0.209294,   0.206863,   0.000000,   765.076172,   0.533121,   20.809887,   12.727845,   762.503418,   93.105484,   -41.579243,   0.393890,   724.067200,   711.166565
-0.084710,   0.207750,   0.205017,   0.000000,   756.399475,   0.533121,   20.809887,   12.064960,   753.732483,   74.532906,   -42.644249,   0.381786,   723.149719,   715.049438
-0.087268,   0.206202,   0.203233,   0.000000,   747.219849,   0.533121,   20.809887,   11.402073,   744.478699,   55.398800,   -43.547649,   0.369118,   722.331970,   717.994690
-0.089909,   0.204652,   0.201524,   0.000000,   737.540100,   0.533121,   20.809887,   10.739187,   734.742493,   35.752552,   -44.309380,   0.355906,   721.627258,   719.931213
-0.092635,   0.203104,   0.199900,   0.000000,   727.375488,   0.533121,   20.809887,   10.076301,   724.534363,   15.666403,   -44.967087,   0.342187,   721.048340,   720.791687
-0.092531,   0.203485,   0.200664,   0.000000,   730.598450,   0.533468,   21.813259,   48.610340,   722.622437,   22.726765,   75.139877,   0.343478,   723.335876,   722.997437
-0.089522,   0.204311,   0.201549,   0.000000,   739.937378,   0.533468,   21.813259,   47.944466,   732.157288,   42.135796,   73.681343,   0.356798,   723.371582,   721.532593
-0.086613,   0.205098,   0.202475,   0.000000,   748.652344,   0.533466,   21.813259,   47.278591,   741.122192,   60.787106,   71.970421,   0.369461,   723.495483,   719.065613
-0.083804,   0.205849,   0.203436,   0.000000,   756.767517,   0.533468,   21.813259,   46.612720,   749.531433,   78.666473,   70.048553,   0.381464,   723.701050,   715.705688
-0.081095,   0.206568,   0.204425,   0.000000,   764.299805,   0.533466,   21.813259,   45.946846,   757.405151,   95.741425,   67.893013,   0.392806,   723.976746,   711.556519
-0.078492,   0.207257,   0.205437,   0.000000,   771.285278,   0.533468,   21.813259,   45.280972,   764.770996,   112.028046,   65.533066,   0.403507,   724.315491,   706.714417
-0.075991,   0.207916,   0.206463,   0.000000,   777.757812,   0.533468,   21.813259,   44.615097,   771.653992,   127.549545,   62.998177,   0.413594,   724.707520,   701.263428
-0.073589,   0.208537,   0.207488,   0.000000,   783.741699,   0.533466,   21.813259,   43.949223,   778.069458,   142.316986,   60.318542,   0.423084,   725.140442,   695.283569
-0.071283,   0.209113,   0.208499,   0.000000,   789.259460,   0.533468,   21.813259,   43.283348,   784.035095,   156.341080,   57.502926,   0.431999,   725.600769,   688.848022
-0.069071,   0.209637,   0.209480,   0.000000,   794.342041,   0.533466,   21.813259,   42.617477,   789.569641,   169.661194,   54.600605,   0.440371,   726.078125,   682.017517
-0.066949,   0.210102,   0.210419,   0.000000,   799.003357,   0.533468,   21.813259,   41.951603,   794.681091,   182.271103,   51.630081,   0.448209,   726.560669,   674.868103
-0.064918,   0.210504,   0.211305,   0.000000,   803.263916,   0.533466,   21.813259,   41.285728,   799.383545,   194.179688,   48.615517,   0.455529,   727.039307,   667.470093
-0.062981,   0.210841,   0.212132,   0.000000,   807.144714,   0.533468,   21.813259,   40.619858,   803.693054,   205.394821,   45.574436,   0.462350,   727.506897,   659.894470
-0.061138,   0.211117,   0.212896,   0.000000,   810.667480,   0.533469,   21.813259,   39.953979,   807.626648,   215.924011,   42.526451,   0.468686,   727.958435,   652.213989
-0.059394,   0.211335,   0.213596,   0.000000,   813.854004,   0.533466,   21.813259,   39.288105,   811.202148,   225.776230,   39.490280,   0.474553,   728.390076,   644.500061
-0.057749,   0.211498,   0.214230,   0.000000,   816.724854,   0.533468,   21.813259,   38.622231,   814.437256,   234.957428,   36.481052,   0.479965,   728.798706,   636.826050
-0.056208,   0.211613,   0.214800,   0.000000,   819.300354,   0.533466,   21.813259,   37.956360,   817.350098,   243.474274,   33.511127,   0.484938,   729.181885,   629.264160
-0.054772,   0.211684,   0.215307,   0.000000,   821.599792,   0.533468,   21.813259,   37.290485,   819.958740,   251.332901,   30.591423,   0.489484,   729.537842,   621.887024
-0.053443,   0.211718,   0.215754,   0.000000,   823.641052,   0.533466,   21.813259,   36.624611,   822.280334,   258.537231,   27.729839,   0.493615,   729.865173,   614.767639
-0.052223,   0.211722,   0.216143,   0.000000,   825.441467,   0.533468,   21.813259,   35.958740,   824.332153,   265.092499,   24.931810,   0.497343,   730.163025,   607.977539
-0.051114,   0.211700,   0.216478,   0.000000,   827.017517,   0.533466,   21.813259,   35.292866,   826.131165,   271.004700,   22.199903,   0.500680,   730.430908,   601.584839
-0.050118,   0.211660,   0.216764,   0.000000,   828.384338,   0.533468,   21.813259,   34.626991,   827.693176,   276.278839,   19.534115,   0.503635,   730.668640,   595.655579
-0.049236,   0.211607,   0.217003,   0.000000,   829.555725,   0.533468,   21.813259,   33.961117,   829.033142,   280.919983,   16.932188,   0.506220,   730.876282,   590.253113
-0.048470,   0.211548,   0.217200,   0.000000,   830.544434,   0.533466,   21.813259,   33.295242,   830.164917,   284.932831,   14.390097,   0.508443,   731.054382,   585.436218
-0.047819,   0.211488,   0.217359,   0.000000,   831.361450,   0.533468,   21.813259,   32.629368,   831.100586,   288.320648,   11.902295,   0.510310,   731.203491,   581.260254
-0.047285,   0.211432,   0.217484,   0.000000,   832.016541,   0.533468,   21.813259,   31.963495,   831.851013,   291.087646,   9.461855,   0.511829,   731.324219,   577.772522
-0.046870,   0.211384,   0.217577,   0.000000,   832.517517,   0.533467,   21.813259,   31.297621,   832.425049,   293.236481,   7.060744,   0.513005,   731.417297,   575.015015
-0.046573,   0.211347,   0.217642,   0.000000,   832.870850,   0.533467,   21.813259,   30.631748,   832.829956,   294.769684,   4.689950,   0.513842,   731.483337,   573.020630
-0.046394,   0.211323,   0.217680,   0.000000,   833.081055,   0.533468,   21.813259,   29.965874,   833.070862,   295.688965,   2.339759,   0.514343,   731.522766,   571.813965
-0.046335,   0.211316,   0.217692,   0.000000,   833.150757,   0.533467,   21.813259,   29.299999,   833.150757,   295.995239,   -0.000003,   0.514509,   731.535828,   571.410034
-0.046394,   0.211323,   0.217680,   0.000000,   833.080994,   0.533467,   21.813259,   28.634127,   833.070801,   295.688934,   -2.339764,   0.514343,   731.522705,   571.813782
-0.046573,   0.211347,   0.217642,   0.000000,   832.870850,   0.533467,   21.813259,   27.968252,   832.829956,   294.769684,   -4.689954,   0.513842,   731.483337,   573.020630
-0.046870,   0.211384,   0.217577,   0.000000,   832.517517,   0.533468,   21.813259,   27.302378,   832.425049,   293.236450,   -7.060754,   0.513005,   731.417297,   575.015015
-0.047285,   0.211432,   0.217484,   0.000000,   832.016479,   0.533467,   21.813259,   26.636505,   831.850952,   291.087616,   -9.461864,   0.511829,   731.324219,   577.772522
-0.047819,   0.211488,   0.217359,   0.000000,   831.361450,   0.533467,   21.813259,   25.970631,   831.100586,   288.320709,   -11.902292,   0.510310,   731.203430,   581.260254
-0.048470,   0.211548,   0.217200,   0.000000,   830.544434,   0.533468,   21.813259,   25.304758,   830.164917,   284.932831,   -14.390111,   0.508443,   731.054382,   585.436218
-0.049236,   0.211607,   0.217003,   0.000000,   829.555786,   0.533467,   21.813259,   24.638884,   829.033203,   280.920044,   -16.932192,   0.506220,   730.876282,   590.253174
-0.050118,   0.211660,   0.216764,   0.000000,   828.384338,   0.533467,   21.813259,   23.973009,   827.693176,   276.278900,   -19.534113,   0.503636,   730.668579,   595.655579
-0.051114,   0.211700,   0.216478,   0.000000,   827.017517,   0.533467,   21.813259,   23.307137,   826.131165,   271.004700,   -22.199921,   0.500680,   730.430969,   601.584900
-0.052223,   0.211722,   0.216143,   0.000000,   825.441528,   0.533467,   21.813259,   22.641262,   824.332214,   265.092560,   -24.931801,   0.497343,   730.163086,   607.977539
-0.053443,   0.211718,   0.215754,   0.000000,   823.641052,   0.533468,   21.813259,   21.975388,   822.280334,   258.537201,   -27.729868,   0.493615,   729.865173,   614.767944
-0.054772,   0.211684,   0.215307,   0.000000,   821.599792,   0.533468,   21.813259,   21.309513,   819.958740,   251.333008,   -30.591433,   0.489484,   729.537781,   621.886780
-0.056208,   0.211613,   0.214800,   0.000000,   819.300354,   0.533467,   21.813259,   20.643641,   817.350098,   243.474243,   -33.511154,   0.484938,   729.181885,   629.264160
-0.057749,   0.211498,   0.214230,   0.000000,   816.724915,   0.533467,   21.813259,   19.977766,   814.437256,   234.957489,   -36.481060,   0.479966,   728.798706,   636.825928
-0.059394,   0.211335,   0.213596,   0.000000,   813.854004,   0.533467,   21.813259,   19.311893,   811.202148,   225.776230,   -39.490311,   0.474553,   728.390076,   644.500061
-0.061138,   0.211117,   0.212896,   0.000000,   810.667480,   0.533467,   21.813259,   18.646019,   807.626648,   215.924011,   -42.526474,   0.468686,   727.958435,   652.213989
-0.062981,   0.210841,   0.212132,   0.000000,   807.144775,   0.533467,   21.813259,   17.980146,   803.693115,   205.394913,   -45.574444,   0.462350,   727.506897,   659.894531
-0.064918,   0.210504,   0.211305,   0.000000,   803.263916,   0.533468,   21.813259,   17.314272,   799.383545,   194.179688,   -48.615543,   0.455529,   727.039307,   667.470093
-0.066949,   0.210102,   0.210419,   0.000000,   799.003418,   0.533467,   21.813259,   16.648397,   794.681152,   182.271164,   -51.630089,   0.448209,   726.560730,   674.868042
-0.069071,   0.209638,   0.209480,   0.000000,   794.342041,   0.533467,   21.813259,   15.982523,   789.569641,   169.661209,   -54.600643,   0.440371,   726.078125,   682.017517
-0.071283,   0.209113,   0.208499,   0.000000,   789.259521,   0.533467,   21.813259,   15.316649,   784.035156,   156.341095,   -57.502911,   0.431999,   725.600769,   688.848022
-0.073589,   0.208537,   0.207488,   0.000000,   783.741699,   0.533467,   21.813259,   14.650777,   778.069458,   142.316971,   -60.318565,   0.423084,   725.140442,   695.283630
-0.075991,   0.207916,   0.206463,   0.000000,   777.757812,   0.533467,   21.813259,   13.984902,   771.653992,   127.549530,   -62.998154,   0.413594,   724.707520,   701.263550
-0.078492,   0.207257,   0.205437,   0.000000,   771.285278,   0.533467,   21.813259,   13.319029,   764.770996,   112.027985,   -65.533028,   0.403507,   724.315491,   706.714417
-0.081095,   0.206568,   0.204425,   0.000000,   764.299744,   0.533467,   21.813259,   12.653154,   757.405151,   95.741325,   -67.892990,   0.392806,   723.976746,   711.556519
-0.083804,   0.205849,   0.203436,   0.000000,   756.767456,   0.533467,   21.813259,   11.987281,   749.531372,   78.666313,   -70.048470,   0.381464,   723.700989,   715.705688
-0.086613,   0.205098,   0.202475,   0.000000,   748.652222,   0.533467,   21.813259,   11.321407,   741.122070,   60.786861,   -71.970345,   0.369460,   723.495483,   719.065613
-0.089522,   0.204311,   0.201549,   0.000000,   739.937134,   0.533467,   21.813259,   10.655534,   732.157104,   42.135490,   -73.681229,   0.356798,   723.371521,   721.532532
-0.092531,   0.203485,   0.200664,   0.000000,   730.598206,   0.533467,   21.813259,   9.989659,   722.622192,   22.726414,   -75.139778,   0.343477,   723.335815,   722.997314
-0.091481,   0.202012,   0.199763,   0.000000,   733.329773,   0.533953,   22.811810,   48.740093,   717.643738,   31.840914,   104.898003,   0.344407,   725.387329,   724.982300
-0.088086,   0.201732,   0.199508,   0.000000,   741.167664,   0.533950,   22.811810,   48.069744,   726.058167,   49.587692,   102.222404,   0.356843,   724.544067,   722.694946
-0.084830,   0.201420,   0.199294,   0.000000,   748.357605,   0.533951,   22.811810,   47.399399,   733.912842,   66.412064,   99.249931,   0.368588,   723.774536,   719.559143
-0.081706,   0.201070,   0.199108,   0.000000,   754.976929,   0.533950,   22.811810,   46.729050,   741.247009,   82.440163,   96.093147,   0.379715,   723.074463,   715.674316
-0.078713,   0.200683,   0.198938,   0.000000,   760.991577,   0.533950,   22.811810,   46.058701,   748.044983,   97.522552,   92.680519,   0.390152,   722.426270,   711.160156
-0.075850,   0.200267,   0.198784,   0.000000,   766.500977,   0.533951,   22.811810,   45.388355,   754.371460,   111.828743,   89.111526,   0.400000,   721.833862,   706.094116
-0.073110,   0.199820,   0.198640,   0.000000,   771.539856,   0.533950,   22.811810,   44.718006,   760.246094,   125.391647,   85.425087,   0.409283,   721.291199,   700.555542
-0.070489,   0.199340,   0.198492,   0.000000,   776.139038,   0.533950,   22.811810,   44.047657,   765.688538,   138.244812,   81.647377,   0.418030,   720.789124,   694.611877
-0.067988,   0.198828,   0.198336,   0.000000,   780.312500,   0.533951,   22.811810,   43.377312,   770.707642,   150.369553,   77.785103,   0.426235,   720.320679,   688.347656
-0.065600,   0.198283,   0.198168,   0.000000,   784.131287,   0.533950,   22.811810,   42.706963,   775.353943,   161.913513,   73.901428,   0.433990,   719.884521,   681.777771
-0.063327,   0.197707,   0.197978,   0.000000,   787.588440,   0.533950,   22.811810,   42.036613,   779.622803,   172.814529,   69.979065,   0.441268,   719.470398,   674.988098
-0.061170,   0.197101,   0.197766,   0.000000,   790.711609,   0.533951,   22.811810,   41.366264,   783.534424,   183.100693,   66.037354,   0.448092,   719.075195,   668.033081
-0.059128,   0.196471,   0.197531,   0.000000,   793.523560,   0.533950,   22.811810,   40.695919,   787.107971,   192.786118,   62.081299,   0.454478,   718.696228,   660.969666
-0.057202,   0.195823,   0.197275,   0.000000,   796.049561,   0.533953,   22.811810,   40.025570,   790.362671,   201.893158,   58.128242,   0.460444,   718.332703,   653.851135
-0.055391,   0.195164,   0.197000,   0.000000,   798.311218,   0.533950,   22.811810,   39.355221,   793.316162,   210.434952,   54.189213,   0.466004,   717.984253,   646.732910
-0.053697,   0.194501,   0.196710,   0.000000,   800.328186,   0.533950,   22.811810,   38.684872,   795.985046,   218.418167,   50.272308,   0.471168,   717.651062,   639.674316
-0.052120,   0.193842,   0.196409,   0.000000,   802.119751,   0.533951,   22.811810,   38.014526,   798.385681,   225.850418,   46.387733,   0.475946,   717.333862,   632.733643
-0.050660,   0.193195,   0.196103,   0.000000,   803.703613,   0.533950,   22.811810,   37.344177,   800.533752,   232.735687,   42.542633,   0.480345,   717.033508,   625.971130
-0.049317,   0.192566,   0.195796,   0.000000,   805.097046,   0.533950,   22.811810,   36.673828,   802.445190,   239.078506,   38.742828,   0.484372,   716.751282,   619.445496
-0.048091,   0.191964,   0.195493,   0.000000,   806.315491,   0.533951,   22.811810,   36.003483,   804.134399,   244.879379,   34.993565,   0.488035,   716.488464,   613.218445
-0.046982,   0.191396,   0.195200,   0.000000,   807.372681,   0.533950,   22.811810,   35.333134,   805.614868,   250.135986,   31.297287,   0.491335,   716.246155,   607.352844
-0.045991,   0.190868,   0.194923,   0.000000,   808.281799,   0.533951,   22.811810,   34.662785,   806.899902,   254.846680,   27.654799,   0.494278,   716.025757,   601.909058
-0.045118,   0.190386,   0.194665,   0.000000,   809.054688,   0.533950,   22.811810,   33.992435,   808.001831,   259.009644,   24.064779,   0.496866,   715.828186,   596.945129
-0.044361,   0.189957,   0.194431,   0.000000,   809.702026,   0.533950,   22.811810,   33.322090,   808.932007,   262.622589,   20.524368,   0.499102,   715.654602,   592.516785
-0.043721,   0.189585,   0.194226,   0.000000,   810.233643,   0.533951,   22.811810,   32.651741,   809.701111,   265.685242,   17.029171,   0.500991,   715.506042,   588.672546
-0.043198,   0.189275,   0.194054,   0.000000,   810.657410,   0.533951,   22.811810,   31.981392,   810.317810,   268.194244,   13.573328,   0.502533,   715.383301,   585.459839
-0.042791,   0.189030,   0.193916,   0.000000,   810.980103,   0.533951,   22.811810,   31.311045,   810.789612,   270.148254,   10.150228,   0.503732,   715.287048,   582.917419
-0.042500,   0.188852,   0.193816,   0.000000,   811.206787,   0.533950,   22.811810,   30.640696,   811.122314,   271.545258,   6.752420,   0.504586,   715.217896,   581.077454
-0.042326,   0.188745,   0.193755,   0.000000,   811.341431,   0.533951,   22.811810,   29.970348,   811.320312,   272.384094,   3.371859,   0.505099,   715.176270,   579.963989
-0.042268,   0.188709,   0.193735,   0.000000,   811.385986,   0.533951,   22.811810,   29.299999,   811.385986,   272.663818,   0.000001,   0.505270,   715.162354,   579.590881
-0.042326,   0.188745,   0.193755,   0.000000,   811.341431,   0.533951,   22.811810,   28.629652,   811.320312,   272.384125,   -3.371857,   0.505099,   715.176270,   579.963684
-0.042500,   0.188852,   0.193816,   0.000000,   811.206787,   0.533950,   22.811810,   27.959303,   811.122314,   271.545258,   -6.752418,   0.504586,   715.217896,   581.077454
-0.042791,   0.189030,   0.193916,   0.000000,   810.980103,   0.533951,   22.811810,   27.288956,   810.789612,   270.148254,   -10.150222,   0.503732,   715.287048,   582.917419
-0.043198,   0.189275,   0.194054,   0.000000,   810.657410,   0.533951,   22.811810,   26.618608,   810.317810,   268.194366,   -13.573334,   0.502534,   715.383240,   585.459717
-0.043721,   0.189585,   0.194226,   0.000000,   810.233643,   0.533951,   22.811810,   25.948259,   809.701111,   265.685211,   -17.029167,   0.500991,   715.506042,   588.672546
-0.044361,   0.189957,   0.194431,   0.000000,   809.702026,   0.533951,   22.811810,   25.277912,   808.932007,   262.622528,   -20.524366,   0.499102,   715.654663,   592.516785
-0.045118,   0.190386,   0.194665,   0.000000,   809.054688,   0.533951,   22.811810,   24.607563,   808.001831,   259.009705,   -24.064791,   0.496866,   715.828186,   596.945129
-0.045991,   0.190868,   0.194923,   0.000000,   808.281738,   0.533951,   22.811810,   23.937216,   806.899841,   254.846634,   -27.654795,   0.494278,   716.025696,   601.908997
-0.046982,   0.191396,   0.195200,   0.000000,   807.372681,   0.533951,   22.811810,   23.266867,   805.614868,   250.136032,   -31.297298,   0.491335,   716.246155,   607.352844
-0.048091,   0.191964,   0.195493,   0.000000,   806.315430,   0.533950,   22.811810,   22.596519,   804.134338,   244.879318,   -34.993557,   0.488035,   716.488464,   613.218506
-0.049317,   0.192566,   0.195796,   0.000000,   805.097046,   0.533951,   22.811810,   21.926172,   802.445190,   239.078552,   -38.742840,   0.484372,   716.751282,   619.445496
-0.050660,   0.193195,   0.196103,   0.000000,   803.703613,   0.533951,   22.811810,   21.255823,   800.533752,   232.735718,   -42.542667,   0.480345,   717.033447,   625.970825
-0.052120,   0.193842,   0.196409,   0.000000,   802.119690,   0.533951,   22.811810,   20.585474,   798.385620,   225.850372,   -46.387745,   0.475946,   717.333801,   632.733643
-0.053697,   0.194501,   0.196710,   0.000000,   800.328186,   0.533950,   22.811810,   19.915127,   795.985046,   218.418182,   -50.272327,   0.471168,   717.651062,   639.674377
-0.055391,   0.195164,   0.197000,   0.000000,   798.311279,   0.533951,   22.811810,   19.244780,   793.316223,   210.434998,   -54.189243,   0.466004,   717.984314,   646.732971
-0.057202,   0.195823,   0.197275,   0.000000,   796.049561,   0.533951,   22.811810,   18.574430,   790.362671,   201.893250,   -58.128246,   0.460444,   718.332703,   653.851013
-0.059128,   0.196471,   0.197531,   0.000000,   793.523621,   0.533951,   22.811810,   17.904083,   787.108032,   192.786240,   -62.081341,   0.454478,   718.696228,   660.969666
-0.061170,   0.197101,   0.197766,   0.000000,   790.711609,   0.533951,   22.811810,   17.233734,   783.534424,   183.100632,   -66.037376,   0.448092,   719.075256,   668.033020
-0.063327,   0.197707,   0.197978,   0.000000,   787.588501,   0.533951,   22.811810,   16.563387,   779.622864,   172.814651,   -69.979088,   0.441268,   719.470398,   674.988159
-0.065600,   0.198283,   0.198168,   0.000000,   784.131287,   0.533951,   22.811810,   15.893039,   775.353943,   161.913635,   -73.901474,   0.433990,   719.884460,   681.777710
-0.067988,   0.198828,   0.198336,   0.000000,   780.312500,   0.533950,   22.811810,   15.222691,   770.707642,   150.369629,   -77.785133,   0.426235,   720.320679,   688.347534
-0.070489,   0.199340,   0.198492,   0.000000,   776.139160,   0.533950,   22.811810,   14.552342,   765.688660,   138.244980,   -81.647430,   0.418030,   720.789185,   694.611877
-0.073110,   0.199821,   0.198640,   0.000000,   771.539978,   0.533951,   22.811810,   13.881994,   760.246216,   125.391815,   -85.425125,   0.409284,   721.291260,   700.555603
-0.075850,   0.200267,   0.198784,   0.000000,   766.501099,   0.533950,   22.811810,   13.211646,   754.371582,   111.828903,   -89.111549,   0.400000,   721.833984,   706.094177
-0.078713,   0.200683,   0.198938,   0.000000,   760.991699,   0.533951,   22.811810,   12.541299,   748.045105,   97.522812,   -92.680542,   0.390152,   722.426331,   711.160095
-0.081706,   0.201070,   0.199108,   0.000000,   754.977173,   0.533951,   22.811810,   11.870951,   741.247253,   82.440468,   -96.093147,   0.379715,   723.074585,   715.674377
-0.084831,   0.201420,   0.199294,   0.000000,   748.357910,   0.533951,   22.811810,   11.200602,   733.913147,   66.412445,   -99.249931,   0.368589,   723.774658,   719.559265
-0.088086,   0.201732,   0.199508,   0.000000,   741.168091,   0.533950,   22.811810,   10.530254,   726.058594,   49.588264,   -102.222404,   0.356844,   724.544250,   722.695007
-0.091481,   0.202012,   0.199764,   0.000000,   733.330444,   0.533951,   22.811810,   9.859906,   717.644409,   31.841619,   -104.897957,   0.344407,   725.387634,   724.982666
-0.088767,   0.196958,   0.195437,   0.000000,   733.613037,   0.534530,   23.803621,   48.912712,   707.894226,   41.424145,   133.425217,   0.344093,   725.887817,   725.505493
-0.084970,   0.195344,   0.193788,   0.000000,   739.518433,   0.534527,   23.803621,   48.236412,   715.013428,   56.851830,   129.339737,   0.355426,   723.887268,   722.258606
-0.081374,   0.193778,   0.192257,   0.000000,   744.903809,   0.534530,   23.803621,   47.560112,   721.686829,   71.440170,   125.043152,   0.366171,   722.001038,   718.364319
-0.077931,   0.192231,   0.190808,   0.000000,   749.914734,   0.534528,   23.803621,   46.883808,   728.009460,   85.529846,   120.638069,   0.376527,   720.213318,   713.849426
-0.074691,   0.190693,   0.189414,   0.000000,   754.356689,   0.534528,   23.803621,   46.207512,   733.828796,   98.633858,   116.019844,   0.386207,   718.494812,   708.849243
-0.071607,   0.189165,   0.188072,   0.000000,   758.381287,   0.534530,   23.803621,   45.531208,   739.240723,   111.064873,   111.310448,   0.395388,   716.853271,   703.409912
-0.068672,   0.187636,   0.186764,   0.000000,   762.012146,   0.534528,   23.803621,   44.854908,   744.253906,   122.855980,   106.537651,   0.404090,   715.277710,   697.588989
-0.065884,   0.186115,   0.185492,   0.000000,   765.284363,   0.534527,   23.803621,   44.178608,   748.893555,   134.042755,   101.718040,   0.412336,   713.768127,   691.446533
-0.063265,   0.184619,   0.184263,   0.000000,   768.184265,   0.534530,   23.803621,   43.502308,   753.138428,   144.514145,   96.869102,   0.420055,   712.329712,   685.104553
-0.060771,   0.183156,   0.183087,   0.000000,   770.851074,   0.534528,   23.803621,   42.826008,   757.104248,   154.585815,   92.041740,   0.427438,   710.971924,   678.513428
-0.058428,   0.181731,   0.181959,   0.000000,   773.241333,   0.534528,   23.803621,   42.149708,   760.757568,   164.098969,   87.203072,   0.434397,   709.685974,   671.781982
-0.056230,   0.180351,   0.180881,   0.000000,   775.381958,   0.534530,   23.803621,   41.473408,   764.117371,   173.077728,   82.369301,   0.440946,   708.472778,   664.962036
-0.054174,   0.179017,   0.179850,   0.000000,   777.286682,   0.534527,   23.803621,   40.797108,   767.195496,   181.518875,   77.537216,   0.447088,   707.328491,   658.109558
-0.052254,   0.177735,   0.178867,   0.000000,   778.987061,   0.534530,   23.803621,   40.120808,   770.016418,   189.471420,   72.720863,   0.452854,   706.253235,   651.255310
-0.050468,   0.176507,   0.177933,   0.000000,   780.496948,   0.534528,   23.803621,   39.444504,   772.590759,   196.933746,   67.924561,   0.458244,   705.245667,   644.453735
-0.048812,   0.175337,   0.177048,   0.000000,   781.832031,   0.534528,   23.803621,   38.768208,   774.931702,   203.912430,   63.149361,   0.463268,   704.304443,   637.753296
-0.047283,   0.174228,   0.176214,   0.000000,   783.010254,   0.534530,   23.803621,   38.091904,   777.052917,   210.422012,   58.404728,   0.467934,   703.429443,   631.198242
-0.045879,   0.173184,   0.175430,   0.000000,   784.045532,   0.534527,   23.803621,   37.415604,   778.965942,   216.466095,   53.694263,   0.472248,   702.620117,   624.837830
-0.044596,   0.172209,   0.174700,   0.000000,   784.950500,   0.534528,   23.803621,   36.739307,   780.681335,   222.044922,   49.021885,   0.476212,   701.876343,   618.724060
-0.043432,   0.171305,   0.174025,   0.000000,   785.737366,   0.534530,   23.803621,   36.063004,   782.209961,   227.159119,   44.388386,   0.479831,   701.197937,   612.907349
-0.042386,   0.170477,   0.173408,   0.000000,   786.417175,   0.534528,   23.803621,   35.386703,   783.561768,   231.807205,   39.794861,   0.483105,   700.584900,   607.439209
-0.041456,   0.169728,   0.172849,   0.000000,   786.999634,   0.534530,   23.803621,   34.710403,   784.745544,   235.984833,   35.242504,   0.486036,   700.037476,   602.372681
-0.040640,   0.169060,   0.172352,   0.000000,   787.493286,   0.534528,   23.803621,   34.034103,   785.769287,   239.686951,   30.731512,   0.488623,   699.555481,   597.758911
-0.039936,   0.168477,   0.171917,   0.000000,   787.905823,   0.534527,   23.803621,   33.357803,   786.640564,   242.909164,   26.259649,   0.490866,   699.138550,   593.646362
-0.039343,   0.167980,   0.171547,   0.000000,   788.243164,   0.534530,   23.803621,   32.681503,   787.365417,   245.643463,   21.823378,   0.492763,   698.786560,   590.083008
-0.038859,   0.167571,   0.171243,   0.000000,   788.511414,   0.534528,   23.803621,   32.005203,   787.950195,   247.887421,   17.418608,   0.494316,   698.499084,   587.107666
-0.038484,   0.167251,   0.171005,   0.000000,   788.715149,   0.534529,   23.803621,   31.328901,   788.399719,   249.636917,   13.040168,   0.495524,   698.275879,   584.755310
-0.038217,   0.167022,   0.170834,   0.000000,   788.858093,   0.534528,   23.803621,   30.652601,   788.717957,   250.888992,   8.682017,   0.496387,   698.116577,   583.053894
-0.038057,   0.166884,   0.170732,   0.000000,   788.942810,   0.534529,   23.803621,   29.976301,   788.907776,   251.641266,   4.337545,   0.496904,   698.021118,   582.024414
-0.038004,   0.166838,   0.170698,   0.000000,   788.970825,   0.534528,   23.803621,   29.300001,   788.970825,   251.892136,   0.000001,   0.497077,   697.989258,   581.680054
-0.038057,   0.166884,   0.170732,   0.000000,   788.942810,   0.534529,   23.803621,   28.623699,   788.907776,   251.641266,   -4.337542,   0.496904,   698.021118,   582.024414
-0.038217,   0.167022,   0.170834,   0.000000,   788.858093,   0.534528,   23.803621,   27.947399,   788.717957,   250.889038,   -8.682018,   0.496387,   698.116577,   583.053955
-0.038484,   0.167251,   0.171005,   0.000000,   788.715088,   0.534528,   23.803621,   27.271099,   788.399658,   249.636856,   -13.040162,   0.495524,   698.275818,   584.755249
-0.038859,   0.167571,   0.171243,   0.000000,   788.511353,   0.534529,   23.803621,   26.594799,   787.950134,   247.887375,   -17.418602,   0.494316,   698.499023,   587.107605
-0.039343,   0.167980,   0.171547,   0.000000,   788.243164,   0.534529,   23.803621,   25.918497,   787.365417,   245.643494,   -21.823380,   0.492763,   698.786560,   590.083008
-0.039936,   0.168477,   0.171917,   0.000000,   787.905823,   0.534528,   23.803621,   25.242197,   786.640564,   242.909195,   -26.259649,   0.490866,   699.138550,   593.646240
-0.040640,   0.169060,   0.172352,   0.000000,   787.493225,   0.534529,   23.803621,   24.565897,   785.769226,   239.686890,   -30.731510,   0.488623,   699.555420,   597.758972
-0.041456,   0.169728,   0.172849,   0.000000,   786.999634,   0.534528,   23.803621,   23.889597,   784.745544,   235.984818,   -35.242504,   0.486036,   700.037476,   602.372681
-0.042386,   0.170477,   0.173408,   0.000000,   786.417175,   0.534529,   23.803621,   23.213297,   783.561768,   231.807144,   -39.794849,   0.483105,   700.584961,   607.439270
-0.043432,   0.171305,   0.174025,   0.000000,   785.737366,   0.534528,   23.803621,   22.536997,   782.209961,   227.159210,   -44.388401,   0.479831,   701.197937,   612.907288
-0.044596,   0.172209,   0.174700,   0.000000,   784.950439,   0.534528,   23.803621,   21.860695,   780.681274,   222.044815,   -49.021858,   0.476212,   701.876282,   618.724060
-0.045878,   0.173184,   0.175430,   0.000000,   784.045532,   0.534529,   23.803621,   21.184395,   778.965942,   216.466141,   -53.694283,   0.472248,   702.620117,   624.837708
-0.047283,   0.174228,   0.176214,   0.000000,   783.010254,   0.534529,   23.803621,   20.508095,   777.052917,   210.422058,   -58.404739,   0.467934,   703.429382,   631.198120
-0.048812,   0.175337,   0.177048,   0.000000,   781.832031,   0.534528,   23.803621,   19.831795,   774.931702,   203.912384,   -63.149357,   0.463268,   704.304443,   637.753296
-0.050468,   0.176507,   0.177933,   0.000000,   780.496948,   0.534529,   23.803621,   19.155495,   772.590759,   196.933716,   -67.924553,   0.458244,   705.245667,   644.453735
-0.052254,   0.177735,   0.178867,   0.000000,   778.987061,   0.534528,   23.803621,   18.479193,   770.016418,   189.471466,   -72.720871,   0.452854,   706.253174,   651.255188
-0.054174,   0.179017,   0.179850,   0.000000,   777.286743,   0.534529,   23.803621,   17.802893,   767.195496,   181.518951,   -77.537231,   0.447088,   707.328491,   658.109436
-0.056230,   0.180351,   0.180880,   0.000000,   775.381958,   0.534528,   23.803621,   17.126593,   764.117371,   173.077850,   -82.369316,   0.440946,   708.472717,   664.961853
-0.058428,   0.181731,   0.181959,   0.000000,   773.241272,   0.534528,   23.803621,   16.450293,   760.757568,   164.098907,   -87.203041,   0.434397,   709.685974,   671.782104
-0.060771,   0.183156,   0.183087,   0.000000,   770.851074,   0.534529,   23.803621,   15.773993,   757.104248,   154.585831,   -92.041733,   0.427438,   710.971924,   678.513489
-0.063265,   0.184619,   0.184263,   0.000000,   768.184326,   0.534528,   23.803621,   15.097692,   753.138489,   144.514267,   -96.869110,   0.420055,   712.329712,   685.104492
-0.065884,   0.186115,   0.185492,   0.000000,   765.284424,   0.534528,   23.803621,   14.421391,   748.893616,   134.042908,   -101.718048,   0.412336,   713.768127,   691.446533
-0.068672,   0.187636,   0.186764,   0.000000,   762.012207,   0.534529,   23.803621,   13.745091,   744.253967,   122.856033,   -106.537659,   0.404090,   715.277771,   697.588989
-0.071607,   0.189165,   0.188072,   0.000000,   758.381409,   0.534528,   23.803621,   13.068790,   739.240784,   111.065033,   -111.310471,   0.395388,   716.853271,   703.409851
-0.074691,   0.190693,   0.189414,   0.000000,   754.356750,   0.534529,   23.803621,   12.392490,   733.828857,   98.633942,   -116.019875,   0.386207,   718.494873,   708.849243
-0.077931,   0.192231,   0.190808,   0.000000,   749.914856,   0.534528,   23.803621,   11.716190,   728.009521,   85.529922,   -120.638130,   0.376527,   720.213379,   713.849487
-0.081374,   0.193778,   0.192257,   0.000000,   744.903931,   0.534529,   23.803621,   11.039889,   721.686890,   71.440308,   -125.043251,   0.366171,   722.001099,   718.364380
-0.084970,   0.195344,   0.193788,   0.000000,   739.518494,   0.534528,   23.803621,   10.363589,   715.013428,   56.851883,   -129.339905,   0.355426,   723.887329,   722.258667
-0.088768,   0.196958,   0.195437,   0.000000,   733.613159,   0.534529,   23.803621,   9.687288,   707.894226,   41.424141,   -133.425415,   0.344093,   725.887939,   725.505615
-0.084018,   0.187452,   0.186742,   0.000000,   730.517456,   0.535148,   24.786791,   49.127861,   692.762573,   51.202847,   160.148254,   0.342579,   723.887207,   723.606140
-0.079944,   0.184562,   0.183741,   0.000000,   734.433899,   0.535147,   24.786791,   48.444141,   698.668945,   64.201218,   154.825241,   0.352869,   720.636719,   719.372803
-0.076119,   0.181805,   0.180934,   0.000000,   738.024414,   0.535148,   24.786791,   47.760422,   704.350342,   76.614937,   149.239243,   0.362809,   717.518311,   714.618835
-0.072373,   0.179171,   0.178325,   0.000000,   741.487915,   0.535148,   24.786791,   47.076702,   709.890625,   88.889351,   143.597839,   0.372617,   714.566528,   709.371582
-0.068967,   0.176639,   0.175853,   0.000000,   744.509216,   0.535148,   24.786791,   46.392986,   714.993652,   100.332909,   137.888428,   0.381842,   711.747742,   703.755981
-0.065770,   0.174199,   0.173512,   0.000000,   747.207581,   0.535148,   24.786791,   45.709267,   719.752930,   111.185463,   132.143036,   0.390629,   709.059814,   697.807312
-0.062775,   0.171861,   0.171306,   0.000000,   749.612427,   0.535148,   24.786791,   45.025547,   724.196716,   121.455467,   126.352837,   0.398984,   706.505371,   691.590576
-0.059974,   0.169631,   0.169235,   0.000000,   751.760681,   0.535147,   24.786791,   44.341827,   728.341675,   131.187134,   120.553825,   0.406922,   704.089661,   685.165100
-0.057424,   0.167514,   0.167284,   0.000000,   753.614624,   0.535148,   24.786791,   43.658108,   732.156494,   140.248520,   114.724327,   0.414365,   701.800476,   678.626770
-0.054968,   0.165510,   0.165481,   0.000000,   755.354004,   0.535148,   24.786791,   42.974388,   735.795654,   149.026337,   108.897888,   0.421547,   699.662354,   671.914734
-0.052681,   0.163618,   0.163801,   0.000000,   756.915161,   0.535150,   24.786791,   42.290668,   739.186829,   157.353775,   103.098083,   0.428355,   697.661255,   665.127258
-0.050554,   0.161835,   0.162238,   0.000000,   758.310791,   0.535148,   24.786791,   41.606945,   742.333252,   165.236877,   97.344078,   0.434789,   695.793518,   658.312073
-0.048593,   0.160163,   0.160787,   0.000000,   759.538574,   0.535147,   24.786791,   40.923229,   745.234131,   172.628632,   91.626595,   0.440821,   694.054810,   651.539978
-0.046778,   0.158603,   0.159448,   0.000000,   760.645752,   0.535148,   24.786791,   40.239510,   747.932922,   179.626297,   85.944122,   0.446514,   692.444946,   644.809937
-0.045105,   0.157149,   0.158212,   0.000000,   761.623901,   0.535148,   24.786791,   39.555790,   750.416077,   186.182846,   80.308357,   0.451836,   690.957336,   638.192261
-0.043569,   0.155797,   0.157073,   0.000000,   762.484253,   0.535148,   24.786791,   38.872070,   752.696838,   192.309113,   74.703110,   0.456800,   689.584290,   631.720154
-0.042162,   0.154545,   0.156027,   0.000000,   763.239807,   0.535148,   24.786791,   38.188351,   754.781555,   198.015549,   69.143440,   0.461410,   688.323547,   625.436401
-0.040879,   0.153392,   0.155069,   0.000000,   763.904907,   0.535147,   24.786791,   37.504631,   756.684692,   203.299530,   63.621555,   0.465666,   687.176758,   619.392151
-0.039716,   0.152335,   0.154197,   0.000000,   764.478333,   0.535148,   24.786791,   36.820915,   758.401733,   208.173401,   58.141541,   0.469580,   686.127991,   613.609680
-0.038667,   0.151374,   0.153409,   0.000000,   764.975037,   0.535148,   24.786791,   36.137192,   759.946594,   212.635864,   52.701202,   0.473151,   685.181152,   608.140076
-0.037729,   0.150508,   0.152702,   0.000000,   765.403076,   0.535148,   24.786791,   35.453476,   761.325867,   216.688156,   47.299473,   0.476383,   684.333435,   603.024658
-0.036899,   0.149735,   0.152073,   0.000000,   765.769531,   0.535148,   24.786791,   34.769756,   762.545593,   220.330139,   41.934048,   0.479277,   683.582336,   598.303833
-0.036174,   0.149055,   0.151522,   0.000000,   766.080261,   0.535148,   24.786791,   34.086037,   763.610718,   223.558624,   36.602798,   0.481834,   682.925537,   594.019348
-0.035551,   0.148467,   0.151048,   0.000000,   766.339355,   0.535147,   24.786791,   33.402317,   764.524597,   226.366516,   31.303900,   0.484050,   682.361084,   590.213928
-0.035027,   0.147971,   0.150648,   0.000000,   766.552002,   0.535148,   24.786791,   32.718597,   765.291626,   228.752518,   26.035364,   0.485928,   681.887207,   586.922485
-0.034602,   0.147565,   0.150323,   0.000000,   766.721252,   0.535148,   24.786791,   32.034878,   765.914612,   230.710571,   20.793842,   0.487465,   681.502136,   584.180725
-0.034272,   0.147251,   0.150071,   0.000000,   766.849915,   0.535148,   24.786791,   31.351158,   766.396179,   232.237350,   15.574847,   0.488661,   681.204224,   582.016968
-0.034038,   0.147027,   0.149891,   0.000000,   766.940247,   0.535147,   24.786791,   30.667439,   766.738586,   233.329834,   10.373294,   0.489515,   680.992493,   580.454468
-0.033898,   0.146892,   0.149784,   0.000000,   766.993713,   0.535149,   24.786791,   29.983719,   766.943298,   233.985870,   5.183676,   0.490028,   680.865723,   579.510315
-0.033851,   0.146848,   0.149748,   0.000000,   767.011414,   0.535147,   24.786791,   29.299999,   767.011414,   234.204666,   -0.000001,   0.490199,   680.823547,   579.194519
-0.033898,   0.146892,   0.149784,   0.000000,   766.993652,   0.535148,   24.786791,   28.616280,   766.943237,   233.985825,   -5.183673,   0.490028,   680.865723,   579.510254
-0.034038,   0.147027,   0.149891,   0.000000,   766.940186,   0.535148,   24.786791,   27.932560,   766.738525,   233.329788,   -10.373288,   0.489515,   680.992371,   580.454407
-0.034272,   0.147251,   0.150071,   0.000000,   766.849915,   0.535147,   24.786791,   27.248842,   766.396179,   232.237396,   -15.574846,   0.488661,   681.204224,   582.016968
-0.034602,   0.147565,   0.150323,   0.000000,   766.721252,   0.535148,   24.786791,   26.565123,   765.914612,   230.710571,   -20.793835,   0.487465,   681.502136,   584.180725
-0.035027,   0.147971,   0.150648,   0.000000,   766.552002,   0.535148,   24.786791,   25.881403,   765.291626,   228.752518,   -26.035362,   0.485928,   681.887207,   586.922485
-0.035551,   0.148467,   0.151048,   0.000000,   766.339355,   0.535147,   24.786791,   25.197683,   764.524597,   226.366455,   -31.303886,   0.484050,   682.361084,   590.213928
-0.036174,   0.149055,   0.151522,   0.000000,   766.080261,   0.535148,   24.786791,   24.513964,   763.610718,   223.558624,   -36.602791,   0.481834,   682.925537,   594.019348
-0.036899,   0.149735,   0.152073,   0.000000,   765.769531,   0.535147,   24.786791,   23.830246,   762.545593,   220.330185,   -41.934055,   0.479277,   683.582336,   598.303772
-0.037729,   0.150508,   0.152702,   0.000000,   765.403015,   0.535148,   24.786791,   23.146526,   761.325806,   216.688156,   -47.299461,   0.476383,   684.333374,   603.024536
-0.038667,   0.151374,   0.153409,   0.000000,   764.975037,   0.535148,   24.786791,   22.462807,   759.946594,   212.635880,   -52.701202,   0.473151,   685.181152,   608.140076
-0.039716,   0.152335,   0.154197,   0.000000,   764.478333,   0.535148,   24.786791,   21.779087,   758.401733,   208.173508,   -58.141544,   0.469580,   686.127930,   613.609558
-0.040879,   0.153392,   0.155069,   0.000000,   763.904846,   0.535148,   24.786791,   21.095367,   756.684631,   203.299408,   -63.621521,   0.465666,   687.176758,   619.392273
-0.042162,   0.154545,   0.156027,   0.000000,   763.239807,   0.535148,   24.786791,   20.411648,   754.781555,   198.015549,   -69.143440,   0.461410,   688.323547,   625.436401
-0.043569,   0.155797,   0.157073,   0.000000,   762.484192,   0.535147,   24.786791,   19.727928,   752.696777,   192.309158,   -74.703110,   0.456800,   689.584229,   631.720032
-0.045105,   0.157149,   0.158212,   0.000000,   761.623901,   0.535148,   24.786791,   19.044209,   750.416077,   186.182831,   -80.308342,   0.451836,   690.957336,   638.192383
-0.046778,   0.158603,   0.159448,   0.000000,   760.645752,   0.535147,   24.786791,   18.360491,   747.932922,   179.626373,   -85.944138,   0.446514,   692.444946,   644.809814
-0.048593,   0.160163,   0.160787,   0.000000,   759.538574,   0.535148,   24.786791,   17.676771,   745.234131,   172.628525,   -91.626556,   0.440821,   694.054810,   651.540039
-0.050554,   0.161835,   0.162238,   0.000000,   758.310791,   0.535148,   24.786791,   16.993052,   742.333252,   165.236908,   -97.344109,   0.434789,   695.793518,   658.311951
-0.052681,   0.163618,   0.163801,   0.000000,   756.915161,   0.535147,   24.786791,   16.309332,   739.186829,   157.353745,   -103.098053,   0.428355,   697.661194,   665.127197
-0.054968,   0.165510,   0.165481,   0.000000,   755.354004,   0.535149,   24.786791,   15.625613,   735.795715,   149.026413,   -108.897881,   0.421547,   699.662354,   671.914795
-0.057424,   0.167514,   0.167284,   0.000000,   753.614624,   0.535148,   24.786791,   14.941894,   732.156494,   140.248611,   -114.724335,   0.414365,   701.800476,   678.626770
-0.059974,   0.169631,   0.169235,   0.000000,   751.760681,   0.535148,   24.786791,   14.258174,   728.341675,   131.187073,   -120.553802,   0.406922,   704.089661,   685.165161
-0.062775,   0.171861,   0.171306,   0.000000,   749.612427,   0.535148,   24.786791,   13.574455,   724.196716,   121.455467,   -126.352844,   0.398984,   706.505371,   691.590576
-0.065770,   0.174199,   0.173512,   0.000000,   747.207581,   0.535148,   24.786791,   12.890736,   719.752869,   111.185501,   -132.143082,   0.390629,   709.059753,   697.807190
-0.068967,   0.176639,   0.175853,   0.000000,   744.509155,   0.535148,   24.786791,   12.207016,   714.993591,   100.332924,   -137.888489,   0.381842,   711.747742,   703.755920
-0.072373,   0.179171,   0.178325,   0.000000,   741.487854,   0.535148,   24.786791,   11.523296,   709.890564,   88.889328,   -143.597916,   0.372617,   714.566528,   709.371460
-0.076119,   0.181805,   0.180934,   0.000000,   738.024414,   0.535148,   24.786791,   10.839578,   704.350281,   76.614883,   -149.239334,   0.362808,   717.518372,   714.618835
-0.079944,   0.184562,   0.183741,   0.000000,   734.433777,   0.535148,   24.786791,   10.155858,   698.668762,   64.201057,   -154.825317,   0.352868,   720.636658,   719.372742
-0.084018,   0.187452,   0.186742,   0.000000,   730.517395,   0.535148,   24.786791,   9.472138,   692.762390,   51.202728,   -160.148422,   0.342579,   723.887207,   723.606140
-0.077251,   0.173539,   0.173638,   0.000000,   723.951172,   0.535738,   25.759434,   49.385132,   672.596924,   61.817039,   184.400055,   0.340585,   718.776855,   718.605530
-0.073010,   0.169677,   0.169573,   0.000000,   726.223755,   0.535738,   25.759434,   48.692539,   677.681458,   72.950836,   178.076904,   0.350272,   714.332397,   713.393188
-0.069068,   0.166022,   0.165774,   0.000000,   728.235046,   0.535738,   25.759434,   47.999950,   682.637390,   83.509323,   171.458420,   0.359674,   710.038696,   707.756042
-0.065397,   0.162617,   0.162292,   0.000000,   730.109070,   0.535738,   25.759434,   47.307358,   687.454834,   93.667328,   164.763321,   0.368809,   705.986206,   701.821594
-0.062047,   0.159506,   0.159156,   0.000000,   731.873413,   0.535738,   25.759434,   46.614769,   692.131409,   103.384254,   158.042419,   0.377620,   702.218567,   695.685730
-0.058950,   0.156642,   0.156310,   0.000000,   733.531067,   0.535738,   25.759434,   45.922176,   696.663391,   112.717377,   151.287643,   0.386136,   698.700867,   689.347046
-0.056089,   0.154005,   0.153724,   0.000000,   735.062317,   0.535738,   25.759434,   45.229588,   701.034790,   121.622307,   144.477859,   0.394324,   695.414917,   682.837891
-0.053442,   0.151567,   0.151368,   0.000000,   736.492798,   0.535738,   25.759434,   44.536995,   705.213684,   130.185593,   137.712570,   0.402200,   692.358459,   676.190125
-0.050995,   0.149278,   0.149181,   0.000000,   737.756287,   0.535738,   25.759434,   43.844406,   709.152344,   138.317184,   130.943924,   0.409716,   689.477844,   669.415405
-0.048708,   0.147118,   0.147141,   0.000000,   738.858459,   0.535738,   25.759434,   43.151814,   712.842957,   146.028412,   124.188469,   0.416870,   686.762268,   662.551147
-0.046595,   0.145098,   0.145255,   0.000000,   739.815369,   0.535739,   25.759434,   42.459225,   716.278564,   153.300491,   117.493340,   0.423632,   684.225281,   655.677979
-0.044649,   0.143220,   0.143522,   0.000000,   740.658630,   0.535737,   25.759434,   41.766632,   719.488892,   160.155548,   110.856270,   0.430014,   681.873352,   648.845703
-0.042878,   0.141492,   0.141939,   0.000000,   741.383179,   0.535738,   25.759434,   41.074043,   722.472351,   166.570221,   104.260254,   0.436003,   679.691223,   642.099121
-0.041233,   0.139908,   0.140511,   0.000000,   742.055969,   0.535738,   25.759434,   40.381451,   725.286987,   172.665863,   97.714409,   0.441672,   677.692200,   635.440735
-0.039731,   0.138458,   0.139217,   0.000000,   742.644714,   0.535738,   25.759434,   39.688862,   727.885864,   178.352036,   91.259613,   0.446953,   675.864075,   628.961060
-0.038363,   0.137137,   0.138049,   0.000000,   743.172607,   0.535738,   25.759434,   38.996269,   730.305664,   183.679001,   84.846771,   0.451889,   674.195374,   622.657959
-0.037120,   0.135939,   0.137001,   0.000000,   743.640686,   0.535738,   25.759434,   38.303680,   732.534363,   188.629883,   78.511917,   0.456463,   672.682922,   616.591980
-0.035995,   0.134854,   0.136060,   0.000000,   744.049927,   0.535738,   25.759434,   37.611088,   734.580383,   193.201538,   72.223900,   0.460680,   671.313660,   610.792053
-0.034981,   0.133878,   0.135220,   0.000000,   744.407898,   0.535738,   25.759434,   36.918499,   736.445129,   197.403503,   65.997574,   0.464544,   670.081970,   605.294434
-0.034073,   0.133003,   0.134474,   0.000000,   744.716736,   0.535738,   25.759434,   36.225906,   738.132385,   201.230286,   59.820545,   0.468057,   668.979797,   600.136230
-0.033265,   0.132225,   0.133815,   0.000000,   744.982117,   0.535738,   25.759434,   35.533318,   739.645813,   204.688019,   53.695141,   0.471223,   668.001526,   595.350037
-0.032553,   0.131539,   0.133238,   0.000000,   745.209290,   0.535738,   25.759434,   34.840725,   740.990601,   207.783493,   47.615410,   0.474050,   667.140991,   590.963135
-0.031933,   0.130942,   0.132739,   0.000000,   745.401794,   0.535738,   25.759434,   34.148136,   742.170410,   210.517624,   41.574387,   0.476540,   666.393188,   587.005493
-0.031402,   0.130431,   0.132313,   0.000000,   745.563782,   0.535738,   25.759434,   33.455544,   743.188904,   212.894104,   35.567318,   0.478697,   665.753845,   583.503601
-0.030957,   0.130003,   0.131958,   0.000000,   745.697449,   0.535738,   25.759434,   32.762955,   744.047913,   214.910431,   29.589872,   0.480522,   665.219360,   580.486206
-0.030596,   0.129656,   0.131672,   0.000000,   745.804932,   0.535738,   25.759434,   32.070362,   744.749146,   216.565842,   23.638390,   0.482017,   664.786560,   577.978088
-0.030317,   0.129388,   0.131451,   0.000000,   745.887268,   0.535738,   25.759434,   31.377773,   745.293335,   217.856323,   17.708918,   0.483179,   664.452759,   576.002869
-0.030119,   0.129198,   0.131295,   0.000000,   745.945435,   0.535738,   25.759434,   30.685183,   745.681458,   218.779892,   11.796255,   0.484010,   664.215942,   574.578491
-0.030001,   0.129084,   0.131202,   0.000000,   745.980103,   0.535739,   25.759434,   29.992590,   745.914124,   219.334793,   5.895043,   0.484508,   664.074524,   573.718445
-0.029961,   0.129046,   0.131171,   0.000000,   745.991638,   0.535738,   25.759434,   29.299999,   745.991638,   219.519882,   -0.000003,   0.484674,   664.027466,   573.430725
-0.030001,   0.129084,   0.131202,   0.000000,   745.980103,   0.535737,   25.759434,   28.607409,   745.914124,   219.334793,   -5.895042,   0.484508,   664.074524,   573.718445
-0.030119,   0.129198,   0.131295,   0.000000,   745.945435,   0.535738,   25.759434,   27.914818,   745.681458,   218.779892,   -11.796247,   0.484010,   664.215942,   574.578491
-0.030317,   0.129388,   0.131451,   0.000000,   745.887268,   0.535738,   25.759434,   27.222227,   745.293335,   217.856323,   -17.708912,   0.483179,   664.452759,   576.002869
-0.030596,   0.129656,   0.131672,   0.000000,   745.804932,   0.535738,   25.759434,   26.529636,   744.749146,   216.565826,   -23.638378,   0.482017,   664.786499,   577.978088
-0.030957,   0.130003,   0.131958,   0.000000,   745.697449,   0.535738,   25.759434,   25.837046,   744.047913,   214.910446,   -29.589867,   0.480522,   665.219360,   580.486206
-0.031402,   0.130431,   0.132313,   0.000000,   745.563782,   0.535738,   25.759434,   25.144455,   743.188904,   212.894104,   -35.567303,   0.478697,   665.753845,   583.503601
-0.031933,   0.130942,   0.132739,   0.000000,   745.401733,   0.535738,   25.759434,   24.451864,   742.170349,   210.517624,   -41.574379,   0.476540,   666.393127,   587.005493
-0.032553,   0.131539,   0.133238,   0.000000,   745.209290,   0.535738,   25.759434,   23.759274,   740.990601,   207.783508,   -47.615402,   0.474050,   667.140991,   590.963135
-0.033265,   0.132225,   0.133815,   0.000000,   744.982117,   0.535738,   25.759434,   23.066683,   739.645813,   204.688034,   -53.695137,   0.471223,   668.001526,   595.350037
-0.034073,   0.133003,   0.134474,   0.000000,   744.716736,   0.535738,   25.759434,   22.374092,   738.132385,   201.230286,   -59.820534,   0.468057,   668.979797,   600.136230
-0.034981,   0.133878,   0.135220,   0.000000,   744.407898,   0.535739,   25.759434,   21.681501,   736.445129,   197.403473,   -65.997559,   0.464545,   670.081909,   605.294373
-0.035995,   0.134854,   0.136060,   0.000000,   744.049927,   0.535738,   25.759434,   20.988911,   734.580383,   193.201523,   -72.223877,   0.460680,   671.313599,   610.792053
-0.037120,   0.135939,   0.137001,   0.000000,   743.640686,   0.535738,   25.759434,   20.296320,   732.534363,   188.629898,   -78.511925,   0.456463,   672.682922,   616.591980
-0.038363,   0.137137,   0.138049,   0.000000,   743.172607,   0.535737,   25.759434,   19.603729,   730.305664,   183.678955,   -84.846748,   0.451889,   674.195374,   622.658081
-0.039731,   0.138458,   0.139217,   0.000000,   742.644714,   0.535738,   25.759434,   18.911140,   727.885864,   178.352036,   -91.259590,   0.446953,   675.864075,   628.961060
-0.041233,   0.139908,   0.140511,   0.000000,   742.055969,   0.535738,   25.759434,   18.218550,   725.286987,   172.665894,   -97.714401,   0.441672,   677.692200,   635.440735
-0.042878,   0.141492,   0.141939,   0.000000,   741.383179,   0.535738,   25.759434,   17.525959,   722.472351,   166.570221,   -104.260208,   0.436003,   679.691223,   642.099060
-0.044649,   0.143220,   0.143522,   0.000000,   740.658691,   0.535738,   25.759434,   16.833368,   719.488953,   160.155655,   -110.856277,   0.430014,   681.873352,   648.845703
-0.046595,   0.145098,   0.145255,   0.000000,   739.815369,   0.535738,   25.759434,   16.140778,   716.278564,   153.300598,   -117.493362,   0.423632,   684.225220,   655.677917
-0.048708,   0.147118,   0.147141,   0.000000,   738.858398,   0.535738,   25.759434,   15.448186,   712.842896,   146.028366,   -124.188469,   0.416870,   686.762207,   662.551025
-0.050995,   0.149278,   0.149181,   0.000000,   737.756287,   0.535738,   25.759434,   14.755594,   709.152344,   138.317154,   -130.943939,   0.409716,   689.477844,   669.415405
-0.053442,   0.151567,   0.151368,   0.000000,   736.492737,   0.535738,   25.759434,   14.063004,   705.213623,   130.185547,   -137.712570,   0.402200,   692.358398,   676.190063
-0.056089,   0.154004,   0.153724,   0.000000,   735.062256,   0.535738,   25.759434,   13.370413,   701.034729,   121.622269,   -144.477890,   0.394324,   695.414856,   682.837830
-0.058950,   0.156642,   0.156310,   0.000000,   733.531006,   0.535738,   25.759434,   12.677823,   696.663330,   112.717339,   -151.287720,   0.386136,   698.700867,   689.347046
-0.062047,   0.159506,   0.159156,   0.000000,   731.873352,   0.535738,   25.759434,   11.985232,   692.131348,   103.384201,   -158.042480,   0.377620,   702.218567,   695.685791
-0.065397,   0.162617,   0.162292,   0.000000,   730.109009,   0.535738,   25.759434,   11.292642,   687.454712,   93.667297,   -164.763382,   0.368809,   705.986145,   701.821594
-0.069068,   0.166022,   0.165774,   0.000000,   728.234985,   0.535738,   25.759434,   10.600051,   682.637268,   83.509300,   -171.458496,   0.359674,   710.038696,   707.756104
-0.073009,   0.169677,   0.169573,   0.000000,   726.223694,   0.535738,   25.759434,   9.907460,   677.681335,   72.950844,   -178.076965,   0.350272,   714.332275,   713.393066
-0.077251,   0.173539,   0.173638,   0.000000,   723.951111,   0.535738,   25.759434,   9.214869,   672.596863,   61.817055,   -184.400101,   0.340585,   718.776855,   718.605469
-0.069051,   0.156340,   0.157144,   0.000000,   714.567993,   0.536220,   26.719685,   49.684025,   647.984497,   74.400871,   206.457199,   0.338818,   710.691589,   710.594849
-0.064922,   0.152155,   0.152677,   0.000000,   715.701416,   0.536219,   26.719685,   48.981129,   653.020081,   83.903793,   199.002335,   0.348265,   705.329651,   704.610779
-0.061180,   0.148320,   0.148629,   0.000000,   716.636353,   0.536220,   26.719685,   48.278233,   657.912292,   92.695251,   191.416687,   0.357295,   700.268982,   698.411438
-0.057879,   0.144816,   0.144955,   0.000000,   717.376038,   0.536220,   26.719685,   47.575333,   662.625610,   100.795891,   183.733536,   0.365888,   695.497375,   692.055664
-0.054739,   0.141603,   0.141635,   0.000000,   718.239746,   0.536220,   26.719685,   46.872437,   667.394836,   108.944016,   176.010223,   0.374487,   691.024414,   685.497070
-0.051853,   0.138638,   0.138609,   0.000000,   719.068237,   0.536219,   26.719685,   46.169540,   672.053284,   116.848724,   168.265625,   0.382877,   686.819214,   678.762939
-0.049216,   0.135911,   0.135857,   0.000000,   719.781067,   0.536220,   26.719685,   45.466640,   676.510498,   124.287453,   160.522079,   0.390889,   682.886597,   671.946716
-0.046784,   0.133421,   0.133374,   0.000000,   720.522522,   0.536220,   26.719685,   44.763744,   680.848389,   131.616196,   152.854050,   0.398716,   679.234680,   665.018555
-0.044497,   0.131140,   0.131142,   0.000000,   721.272766,   0.536220,   26.719685,   44.060844,   685.060364,   138.766769,   145.237503,   0.406313,   675.856628,   658.009155
-0.042470,   0.129057,   0.129112,   0.000000,   721.863281,   0.536219,   26.719685,   43.357948,   688.998169,   145.347290,   137.649048,   0.413424,   672.712463,   651.049377
-0.040608,   0.127164,   0.127289,   0.000000,   722.408386,   0.536220,   26.719685,   42.655052,   692.739746,   151.595276,   130.135483,   0.420180,   669.820251,   644.139832
-0.038904,   0.125449,   0.125658,   0.000000,   722.909119,   0.536219,   26.719685,   41.952156,   696.291260,   157.503464,   122.677925,   0.426578,   667.165771,   637.312683
-0.037345,   0.123887,   0.124190,   0.000000,   723.349731,   0.536220,   26.719685,   41.249256,   699.631042,   163.054337,   115.279968,   0.432602,   664.726135,   630.601440
-0.035915,   0.122459,   0.122862,   0.000000,   723.729553,   0.536219,   26.719685,   40.546360,   702.744385,   168.261398,   107.965736,   0.438252,   662.485168,   624.037476
-0.034626,   0.121158,   0.121663,   0.000000,   724.040833,   0.536220,   26.719685,   39.843464,   705.615845,   173.087524,   100.753654,   0.443498,   660.434387,   617.685364
-0.033446,   0.119991,   0.120601,   0.000000,   724.336487,   0.536220,   26.719685,   39.140564,   708.317444,   177.621918,   93.583397,   0.448411,   658.577271,   611.534241
-0.032381,   0.118950,   0.119665,   0.000000,   724.598206,   0.536219,   26.719685,   38.437668,   710.802551,   181.799759,   86.534660,   0.452929,   656.911316,   605.682007
-0.031423,   0.118025,   0.118843,   0.000000,   724.838379,   0.536220,   26.719685,   37.734772,   713.104370,   185.664688,   79.540413,   0.457098,   655.416626,   600.112122
-0.030565,   0.117207,   0.118124,   0.000000,   725.057678,   0.536220,   26.719685,   37.031872,   715.210083,   189.209610,   72.641754,   0.460906,   654.088379,   594.875488
-0.029801,   0.116487,   0.117498,   0.000000,   725.252319,   0.536220,   26.719685,   36.328976,   717.126221,   192.430222,   65.800980,   0.464360,   652.910400,   589.991455
-0.029125,   0.115857,   0.116956,   0.000000,   725.423706,   0.536219,   26.719685,   35.626076,   718.849548,   195.328979,   59.033352,   0.467461,   651.874817,   585.492676
-0.028532,   0.115310,   0.116490,   0.000000,   725.573792,   0.536220,   26.719685,   34.923180,   720.384216,   197.913315,   52.329082,   0.470219,   650.971924,   581.397949
-0.028017,   0.114839,   0.116092,   0.000000,   725.701843,   0.536220,   26.719685,   34.220284,   721.731812,   200.181351,   45.676350,   0.472636,   650.193176,   577.731689
-0.027578,   0.114441,   0.115759,   0.000000,   725.809265,   0.536220,   26.719685,   33.517384,   722.893982,   202.137650,   39.072262,   0.474717,   649.531494,   574.513123
-0.027211,   0.114110,   0.115484,   0.000000,   725.898804,   0.536219,   26.719685,   32.814487,   723.874878,   203.791641,   32.507244,   0.476473,   648.981018,   571.754272
-0.026913,   0.113844,   0.115263,   0.000000,   725.972168,   0.536220,   26.719685,   32.111591,   724.677063,   205.148163,   25.971704,   0.477909,   648.536865,   569.468079
-0.026684,   0.113639,   0.115095,   0.000000,   726.029419,   0.536220,   26.719685,   31.408693,   725.301086,   206.206284,   19.457973,   0.479026,   648.195129,   567.670349
-0.026520,   0.113495,   0.114976,   0.000000,   726.070129,   0.536220,   26.719685,   30.705795,   725.746460,   206.962738,   12.961961,   0.479823,   647.953003,   566.376587
-0.026423,   0.113408,   0.114906,   0.000000,   726.094543,   0.536220,   26.719685,   30.002897,   726.013611,   207.417252,   6.478179,   0.480302,   647.808472,   565.596130
-0.026391,   0.113379,   0.114882,   0.000000,   726.102722,   0.536220,   26.719685,   29.299999,   726.102722,   207.569138,   0.000001,   0.480461,   647.760437,   565.334839
-0.026423,   0.113408,   0.114906,   0.000000,   726.094543,   0.536220,   26.719685,   28.597103,   726.013611,   207.417297,   -6.478174,   0.480302,   647.808472,   565.596008
-0.026520,   0.113495,   0.114976,   0.000000,   726.070129,   0.536220,   26.719685,   27.894205,   725.746460,   206.962738,   -12.961950,   0.479823,   647.953003,   566.376587
-0.026684,   0.113639,   0.115095,   0.000000,   726.029419,   0.536220,   26.719685,   27.191309,   725.301086,   206.206284,   -19.457964,   0.479026,   648.195129,   567.670349
-0.026913,   0.113844,   0.115263,   0.000000,   725.972168,   0.536220,   26.719685,   26.488411,   724.677063,   205.148117,   -25.971682,   0.477909,   648.536865,   569.468079
-0.027211,   0.114110,   0.115484,   0.000000,   725.898804,   0.536220,   26.719685,   25.785513,   723.874878,   203.791733,   -32.507244,   0.476473,   648.981018,   571.754150
-0.027578,   0.114441,   0.115759,   0.000000,   725.809265,   0.536220,   26.719685,   25.082615,   722.893982,   202.137604,   -39.072250,   0.474717,   649.531494,   574.513123
-0.028017,   0.114839,   0.116092,   0.000000,   725.701843,   0.536220,   26.719685,   24.379717,   721.731812,   200.181351,   -45.676334,   0.472636,   650.193176,   577.731689
-0.028532,   0.115310,   0.116490,   0.000000,   725.573792,   0.536220,   26.719685,   23.676821,   720.384216,   197.913269,   -52.329060,   0.470219,   650.971924,   581.398010
-0.029125,   0.115857,   0.116956,   0.000000,   725.423767,   0.536220,   26.719685,   22.973923,   718.849609,   195.329086,   -59.033352,   0.467461,   651.874817,   585.492615
-0.029801,   0.116487,   0.117498,   0.000000,   725.252258,   0.536220,   26.719685,   22.271025,   717.126160,   192.430191,   -65.800957,   0.464360,   652.910339,   589.991394
-0.030565,   0.117207,   0.118124,   0.000000,   725.057678,   0.536220,   26.719685,   21.568127,   715.210083,   189.209625,   -72.641739,   0.460906,   654.088379,   594.875427
-0.031423,   0.118025,   0.118843,   0.000000,   724.838318,   0.536220,   26.719685,   20.865231,   713.104309,   185.664658,   -79.540375,   0.457098,   655.416565,   600.112122
-0.032381,   0.118950,   0.119665,   0.000000,   724.598206,   0.536220,   26.719685,   20.162333,   710.802551,   181.799881,   -86.534668,   0.452929,   656.911255,   605.681763
-0.033446,   0.119991,   0.120601,   0.000000,   724.336487,   0.536219,   26.719685,   19.459436,   708.317444,   177.621933,   -93.583374,   0.448411,   658.577209,   611.534058
-0.034626,   0.121158,   0.121663,   0.000000,   724.040833,   0.536220,   26.719685,   18.756538,   705.615845,   173.087540,   -100.753624,   0.443498,   660.434387,   617.685364
-0.035915,   0.122459,   0.122862,   0.000000,   723.729614,   0.536220,   26.719685,   18.053640,   702.744446,   168.261475,   -107.965744,   0.438252,   662.485229,   624.037537
-0.037345,   0.123887,   0.124190,   0.000000,   723.349731,   0.536220,   26.719685,   17.350744,   699.631042,   163.054321,   -115.279953,   0.432602,   664.726135,   630.601440
-0.038904,   0.125449,   0.125658,   0.000000,   722.908997,   0.536220,   26.719685,   16.647846,   696.291199,   157.503281,   -122.677910,   0.426578,   667.165771,   637.312744
-0.040608,   0.127164,   0.127289,   0.000000,   722.408386,   0.536220,   26.719685,   15.944948,   692.739746,   151.595230,   -130.135513,   0.420180,   669.820251,   644.139954
-0.042470,   0.129057,   0.129111,   0.000000,   721.863220,   0.536220,   26.719685,   15.242051,   688.998108,   145.347321,   -137.649094,   0.413424,   672.712402,   651.049316
-0.044497,   0.131140,   0.131142,   0.000000,   721.272705,   0.536220,   26.719685,   14.539153,   685.060303,   138.766647,   -145.237518,   0.406313,   675.856567,   658.009155
-0.046784,   0.133421,   0.133374,   0.000000,   720.522461,   0.536220,   26.719685,   13.836256,   680.848328,   131.616043,   -152.854065,   0.398716,   679.234680,   665.018677
-0.049216,   0.135911,   0.135857,   0.000000,   719.780945,   0.536220,   26.719685,   13.133358,   676.510376,   124.287292,   -160.522079,   0.390889,   682.886536,   671.946655
-0.051853,   0.138637,   0.138609,   0.000000,   719.068176,   0.536220,   26.719685,   12.430461,   672.053223,   116.848709,   -168.265671,   0.382877,   686.819214,   678.762878
-0.054739,   0.141603,   0.141635,   0.000000,   718.239624,   0.536220,   26.719685,   11.727564,   667.394653,   108.943840,   -176.010254,   0.374487,   691.024353,   685.497009
-0.057879,   0.144816,   0.144954,   0.000000,   717.375854,   0.536220,   26.719685,   11.024666,   662.625488,   100.795685,   -183.733521,   0.365887,   695.497314,   692.055664
-0.061180,   0.148320,   0.148629,   0.000000,   716.636169,   0.536220,   26.719685,   10.321769,   657.912109,   92.695038,   -191.416672,   0.357295,   700.268921,   698.411377
-0.064922,   0.152155,   0.152677,   0.000000,   715.701233,   0.536220,   26.719685,   9.618871,   653.019836,   83.903671,   -199.002350,   0.348264,   705.329529,   704.610657
-0.069051,   0.156340,   0.157144,   0.000000,   714.567688,   0.536220,   26.719685,   8.915974,   647.984192,   74.400620,   -206.457199,   0.338818,   710.691406,   710.594727
-0.060588,   0.138275,   0.139674,   0.000000,   703.829651,   0.536501,   27.665697,   50.023975,   620.319641,   89.330315,   226.532181,   0.337477,   700.937561,   700.883179
-0.056714,   0.134141,   0.135180,   0.000000,   704.117188,   0.536499,   27.665697,   49.309357,   626.048035,   97.201271,   217.672684,   0.347008,   694.748657,   694.155518
-0.053288,   0.130423,   0.131174,   0.000000,   704.291931,   0.536501,   27.665697,   48.594734,   631.505859,   104.468262,   208.946945,   0.356060,   688.997375,   687.355652
-0.050231,   0.127060,   0.127574,   0.000000,   704.324951,   0.536501,   27.665697,   47.880116,   636.779480,   111.074860,   200.178284,   0.364664,   683.600464,   680.471802
-0.047406,   0.123965,   0.124305,   0.000000,   704.426025,   0.536499,   27.665697,   47.165497,   641.917175,   117.645020,   191.517670,   0.373135,   678.540161,   673.472595
-0.044830,   0.121145,   0.121360,   0.000000,   704.507446,   0.536499,   27.665697,   46.450878,   646.866150,   123.909210,   182.938354,   0.381295,   673.821899,   666.431396
-0.042559,   0.118595,   0.118713,   0.000000,   704.498901,   0.536501,   27.665697,   45.736256,   651.564392,   129.678482,   174.435791,   0.389007,   669.434326,   659.428650
-0.040412,   0.116271,   0.116340,   0.000000,   704.640259,   0.536501,   27.665697,   45.021637,   656.261047,   135.552048,   165.927811,   0.396690,   665.350647,   652.317261
-0.038422,   0.114162,   0.114218,   0.000000,   704.834412,   0.536501,   27.665697,   44.307014,   660.776550,   141.311569,   157.567780,   0.404121,   661.590576,   645.214233
-0.036642,   0.112280,   0.112339,   0.000000,   704.994446,   0.536499,   27.665697,   43.592396,   665.113098,   146.674713,   149.219757,   0.411160,   658.128540,   638.196838
-0.035029,   0.110604,   0.110685,   0.000000,   705.195251,   0.536501,   27.665697,   42.877777,   669.291504,   151.840332,   140.952133,   0.417899,   654.968445,   631.260681
-0.033564,   0.109105,   0.109222,   0.000000,   705.393738,   0.536499,   27.665697,   42.163158,   673.271729,   156.733215,   132.755768,   0.424286,   652.080017,   624.443420
-0.032222,   0.107767,   0.107934,   0.000000,   705.602112,   0.536501,   27.665697,   41.448536,   677.050781,   161.385391,   124.652000,   0.430328,   649.454590,   617.771790
-0.031022,   0.106578,   0.106801,   0.000000,   705.785217,   0.536499,   27.665697,   40.733917,   680.584351,   165.708221,   116.663658,   0.435957,   647.075806,   611.322876
-0.029934,   0.105535,   0.105823,   0.000000,   705.982117,   0.536501,   27.665697,   40.019299,   683.918762,   169.765533,   108.769264,   0.441219,   644.943115,   605.108582
-0.028946,   0.104612,   0.104970,   0.000000,   706.171875,   0.536501,   27.665697,   39.304676,   687.031006,   173.550354,   100.969498,   0.446111,   643.025146,   599.145264
-0.028065,   0.103779,   0.104206,   0.000000,   706.309082,   0.536499,   27.665697,   38.590057,   689.861511,   177.005600,   93.304695,   0.450588,   641.286072,   593.483582
-0.027266,   0.103047,   0.103545,   0.000000,   706.452148,   0.536501,   27.665697,   37.875439,   692.498962,   180.224411,   85.688675,   0.454733,   639.732788,   588.099243
-0.026552,   0.102411,   0.102980,   0.000000,   706.584473,   0.536499,   27.665697,   37.160820,   694.898499,   183.144211,   78.210686,   0.458485,   638.364929,   583.091919
-0.025920,   0.101862,   0.102498,   0.000000,   706.714844,   0.536501,   27.665697,   36.446198,   697.093567,   185.807602,   70.793938,   0.461893,   637.160889,   578.433411
-0.025365,   0.101393,   0.102094,   0.000000,   706.841553,   0.536499,   27.665697,   35.731579,   699.074219,   188.204681,   63.469925,   0.464947,   636.114807,   574.166870
-0.024879,   0.100993,   0.101754,   0.000000,   706.958008,   0.536501,   27.665697,   35.016960,   700.838013,   190.332062,   56.229362,   0.467650,   635.211365,   570.310181
-0.024459,   0.100657,   0.101472,   0.000000,   707.062439,   0.536501,   27.665697,   34.302338,   702.389954,   192.194748,   49.048008,   0.470014,   634.438293,   566.872742
-0.024103,   0.100377,   0.101242,   0.000000,   707.154358,   0.536501,   27.665697,   33.587719,   703.729492,   193.794495,   41.930668,   0.472042,   633.787964,   563.874023
-0.023806,   0.100150,   0.101056,   0.000000,   707.230957,   0.536498,   27.665697,   32.873100,   704.856445,   195.130371,   34.871193,   0.473738,   633.251587,   561.327942
-0.023566,   0.099969,   0.100910,   0.000000,   707.292725,   0.536502,   27.665697,   32.158482,   705.774414,   196.213318,   27.856167,   0.475115,   632.821228,   559.236145
-0.023381,   0.099830,   0.100800,   0.000000,   707.339722,   0.536500,   27.665697,   31.443859,   706.486267,   197.050308,   20.869062,   0.476179,   632.491028,   557.601257
-0.023249,   0.099733,   0.100722,   0.000000,   707.373779,   0.536500,   27.665697,   30.729240,   706.994629,   197.648956,   13.901664,   0.476938,   632.257507,   556.426208
-0.023171,   0.099675,   0.100676,   0.000000,   707.393921,   0.536501,   27.665697,   30.014620,   707.299194,   198.007431,   6.947199,   0.477393,   632.118164,   555.718811
-0.023145,   0.099656,   0.100661,   0.000000,   707.400452,   0.536499,   27.665697,   29.299999,   707.400452,   198.125870,   0.000005,   0.477544,   632.071960,   555.483643
-0.023171,   0.099675,   0.100676,   0.000000,   707.393921,   0.536501,   27.665697,   28.585381,   707.299194,   198.007431,   -6.947190,   0.477393,   632.118164,   555.718811
-0.023249,   0.099733,   0.100722,   0.000000,   707.373779,   0.536500,   27.665697,   27.870760,   706.994629,   197.648956,   -13.901651,   0.476938,   632.257507,   556.426208
-0.023381,   0.099830,   0.100800,   0.000000,   707.339783,   0.536501,   27.665697,   27.156141,   706.486328,   197.050354,   -20.869057,   0.476179,   632.491028,   557.601257
-0.023566,   0.099969,   0.100910,   0.000000,   707.292725,   0.536499,   27.665697,   26.441521,   705.774414,   196.213272,   -27.856148,   0.475114,   632.821289,   559.236145
-0.023806,   0.100150,   0.101056,   0.000000,   707.230957,   0.536501,   27.665697,   25.726900,   704.856445,   195.130371,   -34.871181,   0.473738,   633.251587,   561.327942
-0.024103,   0.100377,   0.101242,   0.000000,   707.154419,   0.536500,   27.665697,   25.012281,   703.729553,   193.794540,   -41.930672,   0.472042,   633.788025,   563.873901
-0.024459,   0.100657,   0.101472,   0.000000,   707.062439,   0.536500,   27.665697,   24.297661,   702.389954,   192.194702,   -49.047993,   0.470014,   634.438293,   566.872803
-0.024879,   0.100993,   0.101754,   0.000000,   706.958008,   0.536500,   27.665697,   23.583042,   700.838013,   190.332108,   -56.229351,   0.467650,   635.211365,   570.310059
-0.025365,   0.101393,   0.102094,   0.000000,   706.841492,   0.536501,   27.665697,   22.868422,   699.074158,   188.204590,   -63.469891,   0.464947,   636.114746,   574.166870
-0.025920,   0.101862,   0.102498,   0.000000,   706.714844,   0.536499,   27.665697,   22.153801,   697.093567,   185.807602,   -70.793915,   0.461893,   637.160889,   578.433350
-0.026552,   0.102411,   0.102980,   0.000000,   706.584473,   0.536501,   27.665697,   21.439182,   694.898499,   183.144318,   -78.210686,   0.458485,   638.364929,   583.091858
-0.027266,   0.103047,   0.103545,   0.000000,   706.452148,   0.536500,   27.665697,   20.724562,   692.498962,   180.224457,   -85.688667,   0.454733,   639.732788,   588.099243
-0.028065,   0.103779,   0.104206,   0.000000,   706.309082,   0.536501,   27.665697,   20.009941,   689.861511,   177.005508,   -93.304672,   0.450588,   641.286133,   593.483704
-0.028946,   0.104612,   0.104970,   0.000000,   706.171875,   0.536499,   27.665697,   19.295322,   687.031006,   173.550354,   -100.969505,   0.446111,   643.025146,   599.145264
-0.029934,   0.105535,   0.105823,   0.000000,   705.982117,   0.536501,   27.665697,   18.580702,   683.918762,   169.765518,   -108.769264,   0.441219,   644.943115,   605.108582
-0.031022,   0.106578,   0.106801,   0.000000,   705.785156,   0.536500,   27.665697,   17.866083,   680.584290,   165.708160,   -116.663658,   0.435957,   647.075745,   611.322815
-0.032222,   0.107767,   0.107934,   0.000000,   705.602051,   0.536500,   27.665697,   17.151463,   677.050720,   161.385330,   -124.652008,   0.430328,   649.454529,   617.771851
-0.033564,   0.109105,   0.109222,   0.000000,   705.393799,   0.536500,   27.665697,   16.436844,   673.271729,   156.733368,   -132.755829,   0.424286,   652.080017,   624.443359
-0.035029,   0.110604,   0.110685,   0.000000,   705.195251,   0.536500,   27.665697,   15.722223,   669.291504,   151.840332,   -140.952179,   0.417899,   654.968445,   631.260742
-0.036642,   0.112280,   0.112339,   0.000000,   704.994385,   0.536501,   27.665697,   15.007604,   665.113037,   146.674622,   -149.219788,   0.411160,   658.128601,   638.196899
-0.038422,   0.114162,   0.114218,   0.000000,   704.834351,   0.536500,   27.665697,   14.292984,   660.776489,   141.311569,   -157.567825,   0.404121,   661.590515,   645.214172
-0.040412,   0.116271,   0.116340,   0.000000,   704.640259,   0.536501,   27.665697,   13.578364,   656.260986,   135.552094,   -165.927872,   0.396690,   665.350647,   652.317200
-0.042559,   0.118594,   0.118713,   0.000000,   704.498901,   0.536500,   27.665697,   12.863744,   651.564331,   129.678513,   -174.435837,   0.389006,   669.434326,   659.428589
-0.044830,   0.121145,   0.121360,   0.000000,   704.507385,   0.536500,   27.665697,   12.149125,   646.866089,   123.909142,   -182.938370,   0.381295,   673.821899,   666.431458
-0.047406,   0.123965,   0.124305,   0.000000,   704.426147,   0.536500,   27.665697,   11.434505,   641.917175,   117.645241,   -191.517776,   0.373136,   678.540161,   673.472534
-0.050231,   0.127060,   0.127574,   0.000000,   704.324951,   0.536500,   27.665697,   10.719885,   636.779480,   111.074944,   -200.178329,   0.364664,   683.600464,   680.471863
-0.053288,   0.130423,   0.131174,   0.000000,   704.292053,   0.536500,   27.665697,   10.005265,   631.505920,   104.468437,   -208.946976,   0.356061,   688.997437,   687.355652
-0.056714,   0.134141,   0.135181,   0.000000,   704.117310,   0.536500,   27.665697,   9.290645,   626.048218,   97.201370,   -217.672653,   0.347008,   694.748779,   694.155701
-0.060588,   0.138275,   0.139674,   0.000000,   703.829895,   0.536500,   27.665697,   8.576026,   620.319946,   89.330673,   -226.532135,   0.337477,   700.937683,   700.883240
-0.051990,   0.120048,   0.121868,   0.000000,   691.968262,   0.536478,   28.595657,   50.404324,   590.302612,   106.854828,   243.897369,   0.337090,   689.388306,   689.344360
-0.048626,   0.116322,   0.117707,   0.000000,   691.611450,   0.536478,   28.595657,   49.676586,   597.374207,   112.768623,   233.556305,   0.346817,   682.534424,   681.968079
-0.045668,   0.113025,   0.114064,   0.000000,   691.175537,   0.536478,   28.595657,   48.948853,   603.854858,   118.117241,   223.695877,   0.355842,   676.303406,   674.723083
-0.043011,   0.110060,   0.110824,   0.000000,   690.671631,   0.536478,   28.595657,   48.221115,   609.977905,   122.983612,   214.030090,   0.364370,   670.527710,   667.517334
-0.040608,   0.107380,   0.107929,   0.000000,   690.266235,   0.536477,   28.595657,   47.493382,   615.794006,   127.828094,   204.660782,   0.372634,   665.195190,   660.355042
-0.038420,   0.104969,   0.105351,   0.000000,   689.904541,   0.536478,   28.595657,   46.765648,   621.423889,   132.465118,   195.381241,   0.380613,   660.241760,   653.211792
-0.036425,   0.102782,   0.103033,   0.000000,   689.624146,   0.536478,   28.595657,   46.037910,   626.891785,   137.074631,   186.179352,   0.388418,   655.621887,   646.037170
-0.034574,   0.100784,   0.100942,   0.000000,   689.393738,   0.536478,   28.595657,   45.310177,   632.171631,   141.617065,   177.045013,   0.396017,   651.310120,   638.834839
-0.032925,   0.098965,   0.099057,   0.000000,   689.121277,   0.536478,   28.595657,   44.582439,   637.106018,   145.867218,   168.099701,   0.403188,   647.318298,   631.739197
-0.031409,   0.097344,   0.097395,   0.000000,   688.926086,   0.536478,   28.595657,   43.854706,   641.968201,   149.998993,   159.081345,   0.410162,   643.621704,   624.659424
-0.030036,   0.095912,   0.095947,   0.000000,   688.802917,   0.536478,   28.595657,   43.126968,   646.626038,   153.991837,   150.188797,   0.416819,   640.260559,   617.718506
-0.028796,   0.094649,   0.094682,   0.000000,   688.711121,   0.536477,   28.595657,   42.399235,   651.054199,   157.767868,   141.399048,   0.423111,   637.203186,   610.950378
-0.027671,   0.093541,   0.093588,   0.000000,   688.690674,   0.536478,   28.595657,   41.671501,   655.288574,   161.437531,   132.707794,   0.429108,   634.437622,   604.336060
-0.026662,   0.092576,   0.092647,   0.000000,   688.692871,   0.536478,   28.595657,   40.943764,   659.277161,   164.867233,   124.131767,   0.434710,   631.949707,   597.966064
-0.025746,   0.091736,   0.091841,   0.000000,   688.734375,   0.536478,   28.595657,   40.216030,   663.050842,   168.122330,   115.633759,   0.439973,   629.715332,   591.818970
-0.024933,   0.091008,   0.091152,   0.000000,   688.784180,   0.536478,   28.595657,   39.488293,   666.546143,   171.137512,   107.291420,   0.444827,   627.722168,   585.978638
-0.024201,   0.090399,   0.090587,   0.000000,   688.885193,   0.536478,   28.595657,   38.760559,   669.830017,   173.964615,   99.054970,   0.449323,   625.975159,   580.452026
-0.023544,   0.089882,   0.090119,   0.000000,   689.008728,   0.536478,   28.595657,   38.032822,   672.876221,   176.588516,   90.921036,   0.453455,   624.438599,   575.249329
-0.022966,   0.089422,   0.089706,   0.000000,   689.090210,   0.536477,   28.595657,   37.305088,   675.605774,   178.936752,   82.940544,   0.457172,   623.063599,   570.416077
-0.022447,   0.089032,   0.089363,   0.000000,   689.185974,   0.536478,   28.595657,   36.577354,   678.110657,   181.099289,   75.014740,   0.460561,   621.857910,   565.917053
-0.021992,   0.088708,   0.089087,   0.000000,   689.291992,   0.536478,   28.595657,   35.849617,   680.371155,   183.047028,   67.202248,   0.463589,   620.821716,   561.818359
-0.021597,   0.088441,   0.088864,   0.000000,   689.392151,   0.536478,   28.595657,   35.121883,   682.376526,   184.760056,   59.500504,   0.466252,   619.934631,   558.142639
-0.021257,   0.088224,   0.088688,   0.000000,   689.494446,   0.536478,   28.595657,   34.394146,   684.148682,   186.273743,   51.866100,   0.468586,   619.183838,   554.870056
-0.020970,   0.088051,   0.088552,   0.000000,   689.593872,   0.536478,   28.595657,   33.666412,   685.683167,   187.578064,   44.308346,   0.470588,   618.560852,   552.025085
-0.020732,   0.087916,   0.088449,   0.000000,   689.684204,   0.536477,   28.595657,   32.938675,   686.978943,   188.672852,   36.815388,   0.472264,   618.052856,   549.613464
-0.020540,   0.087812,   0.088373,   0.000000,   689.756714,   0.536479,   28.595657,   32.210941,   688.030396,   189.545807,   29.385611,   0.473611,   617.649353,   547.651184
-0.020392,   0.087735,   0.088317,   0.000000,   689.810913,   0.536478,   28.595657,   31.483206,   688.842041,   190.206879,   22.001070,   0.474641,   617.342407,   546.133972
-0.020288,   0.087682,   0.088280,   0.000000,   689.847717,   0.536479,   28.595657,   30.755470,   689.417603,   190.665222,   14.652426,   0.475365,   617.127197,   545.059692
-0.020227,   0.087651,   0.088258,   0.000000,   689.870544,   0.536478,   28.595657,   30.027735,   689.763062,   190.939682,   7.322132,   0.475798,   616.999817,   544.414429
-0.020206,   0.087641,   0.088251,   0.000000,   689.878906,   0.536478,   28.595657,   29.299999,   689.878906,   191.033417,   0.000001,   0.475944,   616.957642,   544.197449
-0.020227,   0.087651,   0.088258,   0.000000,   689.870544,   0.536478,   28.595657,   28.572264,   689.763062,   190.939682,   -7.322130,   0.475798,   616.999817,   544.414429
-0.020288,   0.087682,   0.088280,   0.000000,   689.847717,   0.536478,   28.595657,   27.844528,   689.417603,   190.665176,   -14.652417,   0.475365,   617.127197,   545.059692
-0.020392,   0.087735,   0.088317,   0.000000,   689.810852,   0.536478,   28.595657,   27.116795,   688.841980,   190.206833,   -22.001060,   0.474641,   617.342346,   546.134094
-0.020540,   0.087812,   0.088373,   0.000000,   689.756714,   0.536478,   28.595657,   26.389059,   688.030396,   189.545898,   -29.385607,   0.473611,   617.649353,   547.651062
-0.020732,   0.087916,   0.088449,   0.000000,   689.684143,   0.536478,   28.595657,   25.661324,   686.978882,   188.672775,   -36.815365,   0.472264,   618.052856,   549.613525
-0.020970,   0.088051,   0.088552,   0.000000,   689.593872,   0.536478,   28.595657,   24.933588,   685.683167,   187.578064,   -44.308342,   0.470588,   618.560852,   552.025085
-0.021257,   0.088224,   0.088688,   0.000000,   689.494446,   0.536478,   28.595657,   24.205853,   684.148682,   186.273788,   -51.866096,   0.468586,   619.183838,   554.869934
-0.021597,   0.088441,   0.088864,   0.000000,   689.392151,   0.536478,   28.595657,   23.478117,   682.376526,   184.760056,   -59.500492,   0.466252,   619.934631,   558.142639
-0.021992,   0.088708,   0.089087,   0.000000,   689.291992,   0.536478,   28.595657,   22.750381,   680.371155,   183.047028,   -67.202225,   0.463589,   620.821716,   561.818359
-0.022447,   0.089032,   0.089363,   0.000000,   689.185974,   0.536478,   28.595657,   22.022648,   678.110657,   181.099335,   -75.014732,   0.460561,   621.857910,   565.917053
-0.022966,   0.089422,   0.089706,   0.000000,   689.090210,   0.536478,   28.595657,   21.294912,   675.605774,   178.936646,   -82.940521,   0.457172,   623.063599,   570.416138
-0.023544,   0.089882,   0.090119,   0.000000,   689.008667,   0.536478,   28.595657,   20.567177,   672.876160,   176.588501,   -90.921036,   0.453455,   624.438538,   575.249268
-0.024201,   0.090399,   0.090587,   0.000000,   688.885071,   0.536478,   28.595657,   19.839441,   669.829956,   173.964569,   -99.054962,   0.449323,   625.975098,   580.451904
-0.024933,   0.091008,   0.091152,   0.000000,   688.784180,   0.536478,   28.595657,   19.111706,   666.546143,   171.137527,   -107.291435,   0.444827,   627.722168,   585.978638
-0.025746,   0.091736,   0.091841,   0.000000,   688.734375,   0.536478,   28.595657,   18.383970,   663.050842,   168.122284,   -115.633751,   0.439973,   629.715332,   591.818970
-0.026661,   0.092576,   0.092647,   0.000000,   688.692871,   0.536478,   28.595657,   17.656237,   659.277161,   164.867188,   -124.131760,   0.434710,   631.949707,   597.966125
-0.027671,   0.093541,   0.093588,   0.000000,   688.690613,   0.536478,   28.595657,   16.928501,   655.288513,   161.437546,   -132.707809,   0.429108,   634.437561,   604.335938
-0.028796,   0.094649,   0.094682,   0.000000,   688.711060,   0.536479,   28.595657,   16.200766,   651.054138,   157.767746,   -141.399048,   0.423110,   637.203186,   610.950378
-0.030036,   0.095912,   0.095946,   0.000000,   688.802917,   0.536478,   28.595657,   15.473030,   646.625977,   153.991821,   -150.188843,   0.416819,   640.260559,   617.718506
-0.031409,   0.097344,   0.097395,   0.000000,   688.926025,   0.536478,   28.595657,   14.745295,   641.968140,   149.998947,   -159.081360,   0.410162,   643.621704,   624.659302
-0.032925,   0.098965,   0.099057,   0.000000,   689.121216,   0.536478,   28.595657,   14.017559,   637.105957,   145.867233,   -168.099716,   0.403188,   647.318237,   631.739197
-0.034574,   0.100784,   0.100942,   0.000000,   689.393677,   0.536478,   28.595657,   13.289824,   632.171570,   141.617081,   -177.045044,   0.396017,   651.310120,   638.834839
-0.036425,   0.102782,   0.103033,   0.000000,   689.624146,   0.536478,   28.595657,   12.562089,   626.891724,   137.074738,   -186.179382,   0.388418,   655.621826,   646.037109
-0.038420,   0.104969,   0.105351,   0.000000,   689.904480,   0.536478,   28.595657,   11.834353,   621.423828,   132.465179,   -195.381226,   0.380613,   660.241699,   653.211731
-0.040608,   0.107380,   0.107929,   0.000000,   690.266235,   0.536478,   28.595657,   11.106618,   615.793945,   127.828087,   -204.660797,   0.372634,   665.195129,   660.354980
-0.043011,   0.110060,   0.110824,   0.000000,   690.671631,   0.536478,   28.595657,   10.378882,   609.977844,   122.983795,   -214.030136,   0.364371,   670.527588,   667.517212
-0.045668,   0.113025,   0.114064,   0.000000,   691.175598,   0.536478,   28.595657,   9.651148,   603.854858,   118.117378,   -223.695892,   0.355842,   676.303345,   674.723022
-0.048626,   0.116322,   0.117707,   0.000000,   691.611511,   0.536478,   28.595657,   8.923412,   597.374207,   112.768761,   -233.556366,   0.346817,   682.534485,   681.968140
-0.051990,   0.120048,   0.121868,   0.000000,   691.968262,   0.536478,   28.595657,   8.195677,   590.302551,   106.854912,   -243.897461,   0.337090,   689.388367,   689.344421
-0.044016,   0.102995,   0.105083,   0.000000,   679.454346,   0.536039,   29.507784,   50.824341,   558.310486,   126.052643,   258.923157,   0.336952,   677.013306,   676.973206
-0.041286,   0.099984,   0.101598,   0.000000,   678.851013,   0.536039,   29.507784,   50.082123,   567.471802,   129.759811,   247.300125,   0.346959,   669.849915,   669.282166
-0.038784,   0.097234,   0.098465,   0.000000,   678.147766,   0.536040,   29.507784,   49.339905,   575.738342,   133.309509,   236.212952,   0.356357,   663.237732,   661.615295
-0.036525,   0.094734,   0.095650,   0.000000,   677.278564,   0.536039,   29.507784,   48.597683,   583.239014,   136.421097,   225.526062,   0.365061,   657.113647,   654.028015
-0.034471,   0.092479,   0.093145,   0.000000,   676.538635,   0.536039,   29.507784,   47.855469,   590.182434,   139.704727,   215.311264,   0.373437,   651.504639,   646.563049
-0.032675,   0.090447,   0.090906,   0.000000,   675.694275,   0.536040,   29.507784,   47.113247,   596.520081,   142.561752,   205.451584,   0.381165,   646.335999,   639.286804
-0.030943,   0.088599,   0.088910,   0.000000,   675.104126,   0.536039,   29.507784,   46.371029,   602.753723,   145.822723,   195.687820,   0.388953,   641.531250,   631.961792
-0.029425,   0.086930,   0.087120,   0.000000,   674.443176,   0.536039,   29.507784,   45.628811,   608.504883,   148.738815,   186.182861,   0.396198,   637.091309,   624.813904
-0.028053,   0.085489,   0.085585,   0.000000,   673.962708,   0.536040,   29.507784,   44.886593,   614.178955,   151.681351,   176.702942,   0.403273,   633.036560,   617.761963
-0.026799,   0.084225,   0.084253,   0.000000,   673.607300,   0.536039,   29.507784,   44.144371,   619.711365,   154.630524,   167.244583,   0.410150,   629.316101,   610.781250
-0.025652,   0.083065,   0.083047,   0.000000,   673.240417,   0.536039,   29.507784,   43.402153,   624.889771,   157.456909,   157.919220,   0.416677,   625.861084,   603.906250
-0.024627,   0.082037,   0.081988,   0.000000,   672.902100,   0.536040,   29.507784,   42.659935,   629.784546,   160.129517,   148.692673,   0.422846,   622.696899,   597.205933
-0.023687,   0.081143,   0.081082,   0.000000,   672.682312,   0.536039,   29.507784,   41.917717,   634.494690,   162.831223,   139.534958,   0.428786,   619.832214,   590.639832
-0.022842,   0.080375,   0.080313,   0.000000,   672.515625,   0.536039,   29.507784,   41.175499,   638.937134,   165.384109,   130.494110,   0.434351,   617.258972,   584.324768
-0.022083,   0.079721,   0.079669,   0.000000,   672.419678,   0.536040,   29.507784,   40.433281,   643.143921,   167.849045,   121.538765,   0.439594,   614.956360,   578.241333
-0.021403,   0.079171,   0.079136,   0.000000,   672.374939,   0.536039,   29.507784,   39.691059,   647.066101,   170.171204,   112.739502,   0.444450,   612.920349,   572.471069
-0.020792,   0.078712,   0.078702,   0.000000,   672.383667,   0.536039,   29.507784,   38.948841,   650.749451,   172.373718,   104.006332,   0.448970,   611.119812,   566.983582
-0.020257,   0.078331,   0.078348,   0.000000,   672.414062,   0.536040,   29.507784,   38.206623,   654.120728,   174.400482,   95.448021,   0.453084,   609.541992,   561.865417
-0.019781,   0.078039,   0.078088,   0.000000,   672.512390,   0.536039,   29.507784,   37.464405,   657.259766,   176.301605,   86.997147,   0.456849,   608.195862,   557.114014
-0.019358,   0.077811,   0.077896,   0.000000,   672.645203,   0.536039,   29.507784,   36.722187,   660.141357,   178.057190,   78.640099,   0.460263,   607.042725,   552.731201
-0.018986,   0.077619,   0.077738,   0.000000,   672.760681,   0.536040,   29.507784,   35.979969,   662.706726,   179.623138,   70.412865,   0.463299,   606.037231,   548.738770
-0.018670,   0.077465,   0.077616,   0.000000,   672.864075,   0.536039,   29.507784,   35.237751,   664.969666,   180.989777,   62.314083,   0.465958,   605.176331,   545.169739
-0.018393,   0.077348,   0.077529,   0.000000,   672.981995,   0.536039,   29.507784,   34.495529,   666.977356,   182.224319,   54.284706,   0.468302,   604.454712,   541.983215
-0.018159,   0.077261,   0.077472,   0.000000,   673.099243,   0.536039,   29.507784,   33.753311,   668.713623,   183.292374,   46.347530,   0.470310,   603.861023,   539.219360
-0.017964,   0.077198,   0.077435,   0.000000,   673.209595,   0.536040,   29.507784,   33.011093,   670.179993,   184.197464,   38.490479,   0.471994,   603.381348,   536.876709
-0.017810,   0.077155,   0.077413,   0.000000,   673.305847,   0.536039,   29.507784,   32.268875,   671.375916,   184.930786,   30.700487,   0.473356,   603.004578,   534.964661
-0.017692,   0.077128,   0.077403,   0.000000,   673.388611,   0.536040,   29.507784,   31.526657,   672.308350,   185.502930,   22.957361,   0.474408,   602.723633,   533.477905
-0.017609,   0.077113,   0.077401,   0.000000,   673.450012,   0.536040,   29.507784,   30.784437,   672.971680,   185.899261,   15.271008,   0.475146,   602.531372,   532.430969
-0.017560,   0.077106,   0.077401,   0.000000,   673.484741,   0.536039,   29.507784,   30.042219,   673.365356,   186.121399,   7.628038,   0.475575,   602.419250,   531.817932
-0.017544,   0.077104,   0.077402,   0.000000,   673.494995,   0.536040,   29.507784,   29.299999,   673.494995,   186.189270,   0.000003,   0.475714,   602.382263,   531.618835
-0.017560,   0.077106,   0.077401,   0.000000,   673.484741,   0.536040,   29.507784,   28.557781,   673.365356,   186.121445,   -7.628036,   0.475575,   602.419250,   531.817810
-0.017609,   0.077113,   0.077401,   0.000000,   673.450012,   0.536039,   29.507784,   27.815563,   672.971680,   185.899277,   -15.271002,   0.475146,   602.531372,   532.430969
-0.017692,   0.077128,   0.077403,   0.000000,   673.388611,   0.536040,   29.507784,   27.073343,   672.308350,   185.502930,   -22.957348,   0.474408,   602.723633,   533.477905
-0.017810,   0.077155,   0.077413,   0.000000,   673.305847,   0.536040,   29.507784,   26.331125,   671.375916,   184.930832,   -30.700483,   0.473356,   603.004578,   534.964661
-0.017964,   0.077198,   0.077435,   0.000000,   673.209595,   0.536039,   29.507784,   25.588907,   670.179993,   184.197403,   -38.490456,   0.471994,   603.381348,   536.876831
-0.018159,   0.077261,   0.077472,   0.000000,   673.099243,   0.536040,   29.507784,   24.846687,   668.713623,   183.292419,   -46.347511,   0.470310,   603.861023,   539.219238
-0.018393,   0.077348,   0.077529,   0.000000,   672.982056,   0.536040,   29.507784,   24.104469,   666.977417,   182.224365,   -54.284706,   0.468302,   604.454773,   541.983276
-0.018670,   0.077465,   0.077616,   0.000000,   672.864075,   0.536039,   29.507784,   23.362249,   664.969666,   180.989777,   -62.314083,   0.465958,   605.176331,   545.169739
-0.018986,   0.077619,   0.077738,   0.000000,   672.760681,   0.536040,   29.507784,   22.620031,   662.706726,   179.623093,   -70.412857,   0.463299,   606.037231,   548.738770
-0.019358,   0.077811,   0.077896,   0.000000,   672.645203,   0.536039,   29.507784,   21.877813,   660.141357,   178.057190,   -78.640099,   0.460263,   607.042725,   552.731201
-0.019781,   0.078039,   0.078088,   0.000000,   672.512390,   0.536040,   29.507784,   21.135595,   657.259766,   176.301636,   -86.997154,   0.456849,   608.195862,   557.114014
-0.020257,   0.078331,   0.078348,   0.000000,   672.414062,   0.536040,   29.507784,   20.393375,   654.120728,   174.400421,   -95.448021,   0.453084,   609.541992,   561.865540
-0.020792,   0.078712,   0.078702,   0.000000,   672.383667,   0.536039,   29.507784,   19.651157,   650.749451,   172.373688,   -104.006340,   0.448970,   611.119812,   566.983643
-0.021403,   0.079171,   0.079136,   0.000000,   672.374878,   0.536040,   29.507784,   18.908939,   647.066040,   170.171219,   -112.739525,   0.444450,   612.920288,   572.471069
-0.022083,   0.079721,   0.079669,   0.000000,   672.419617,   0.536040,   29.507784,   18.166719,   643.143921,   167.848953,   -121.538773,   0.439594,   614.956360,   578.241333
-0.022842,   0.080375,   0.080313,   0.000000,   672.515564,   0.536039,   29.507784,   17.424501,   638.937073,   165.384048,   -130.494110,   0.434351,   617.258972,   584.324768
-0.023687,   0.081143,   0.081082,   0.000000,   672.682312,   0.536040,   29.507784,   16.682283,   634.494690,   162.831207,   -139.534988,   0.428786,   619.832214,   590.639893
-0.024627,   0.082037,   0.081988,   0.000000,   672.902039,   0.536040,   29.507784,   15.940063,   629.784485,   160.129364,   -148.692657,   0.422846,   622.696899,   597.206055
-0.025652,   0.083065,   0.083047,   0.000000,   673.240356,   0.536039,   29.507784,   15.197845,   624.889709,   157.456863,   -157.919220,   0.416677,   625.861023,   603.906189
-0.026799,   0.084225,   0.084253,   0.000000,   673.607239,   0.536039,   29.507784,   14.455626,   619.711304,   154.630447,   -167.244583,   0.410150,   629.316101,   610.781250
-0.028053,   0.085489,   0.085585,   0.000000,   673.962524,   0.536039,   29.507784,   13.713408,   614.178833,   151.681168,   -176.702896,   0.403273,   633.036499,   617.761780
-0.029425,   0.086930,   0.087120,   0.000000,   674.443115,   0.536040,   29.507784,   12.971189,   608.504822,   148.738739,   -186.182816,   0.396198,   637.091248,   624.813843
-0.030943,   0.088599,   0.088910,   0.000000,   675.104004,   0.536040,   29.507784,   12.228970,   602.753662,   145.822601,   -195.687775,   0.388953,   641.531128,   631.961609
-0.032675,   0.090447,   0.090906,   0.000000,   675.694153,   0.536039,   29.507784,   11.486752,   596.520020,   142.561508,   -205.451508,   0.381165,   646.335876,   639.286682
-0.034471,   0.092479,   0.093144,   0.000000,   676.538452,   0.536040,   29.507784,   10.744533,   590.182312,   139.704575,   -215.311172,   0.373437,   651.504456,   646.562805
-0.036525,   0.094734,   0.095649,   0.000000,   677.278381,   0.536039,   29.507784,   10.002314,   583.238831,   136.420898,   -225.526016,   0.365061,   657.113525,   654.027893
-0.038784,   0.097234,   0.098465,   0.000000,   678.147400,   0.536039,   29.507784,   9.260096,   575.738098,   133.309143,   -236.212875,   0.356357,   663.237610,   661.615173
-0.041286,   0.099984,   0.101598,   0.000000,   678.850647,   0.536039,   29.507784,   8.517877,   567.471436,   129.759491,   -247.300079,   0.346959,   669.849609,   669.281799
-0.044016,   0.102995,   0.105083,   0.000000,   679.453674,   0.536039,   29.507784,   7.775658,   558.309814,   126.052139,   -258.923157,   0.336952,   677.012878,   676.972839
-0.036985,   0.087405,   0.089560,   0.000000,   666.033630,   0.535065,   30.400322,   51.283226,   524.676880,   145.974564,   271.134399,   0.336806,   663.736816,   663.700623
-0.034641,   0.085105,   0.086794,   0.000000,   665.625122,   0.535064,   30.400322,   50.525185,   536.770447,   147.777328,   258.315918,   0.347644,   656.368408,   655.754211
-0.032580,   0.083015,   0.084320,   0.000000,   664.988586,   0.535065,   30.400322,   49.767139,   547.309814,   149.508591,   246.294632,   0.357530,   649.658691,   647.900818
-0.030832,   0.081127,   0.082105,   0.000000,   663.953796,   0.535064,   30.400322,   49.009098,   556.351440,   150.559189,   235.037155,   0.366151,   643.551514,   640.313965
-0.029177,   0.079399,   0.080117,   0.000000,   663.078247,   0.535064,   30.400322,   48.251057,   564.683960,   152.094025,   224.227371,   0.374536,   637.925720,   632.810730
-0.027670,   0.077808,   0.078309,   0.000000,   662.164856,   0.535065,   30.400322,   47.493015,   572.345398,   153.624191,   213.721466,   0.382484,   632.680115,   625.380371
-0.026246,   0.076351,   0.076681,   0.000000,   661.365173,   0.535064,   30.400322,   46.734970,   579.541077,   155.421646,   203.465881,   0.390226,   627.810181,   617.993042
-0.024993,   0.075025,   0.075214,   0.000000,   660.460205,   0.535064,   30.400322,   45.976933,   586.030334,   156.911438,   193.595108,   0.397300,   623.325806,   610.867126
-0.023838,   0.073841,   0.073915,   0.000000,   659.699524,   0.535066,   30.400322,   45.218887,   592.390991,   158.576614,   183.656921,   0.404312,   619.131592,   603.718384
-0.022815,   0.072792,   0.072776,   0.000000,   658.968079,   0.535064,   30.400322,   44.460846,   598.293091,   160.113510,   173.977005,   0.410857,   615.304932,   596.824829
-0.021876,   0.071885,   0.071802,   0.000000,   658.388184,   0.535064,   30.400322,   43.702801,   603.984131,   161.756882,   164.373779,   0.417195,   611.816772,   590.066284
-0.021021,   0.071105,   0.070974,   0.000000,   657.939453,   0.535065,   30.400322,   42.944759,   609.475037,   163.473206,   154.803116,   0.423320,   608.639893,   583.436523
-0.020240,   0.070426,   0.070265,   0.000000,   657.587830,   0.535064,   30.400322,   42.186718,   614.695923,   165.241669,   145.319183,   0.429184,   605.752014,   576.960999
-0.019545,   0.069836,   0.069654,   0.000000,   657.273804,   0.535064,   30.400322,   41.428677,   619.584595,   166.933563,   135.943161,   0.434688,   603.128540,   570.710266
-0.018910,   0.069339,   0.069150,   0.000000,   657.069153,   0.535065,   30.400322,   40.670635,   624.238037,   168.683563,   126.626450,   0.439943,   600.775635,   564.643188
-0.018339,   0.068928,   0.068742,   0.000000,   656.936584,   0.535065,   30.400322,   39.912590,   628.583130,   170.376816,   117.454857,   0.444834,   598.695190,   558.876465
-0.017832,   0.068600,   0.068423,   0.000000,   656.876282,   0.535064,   30.400322,   39.154549,   632.663025,   172.014618,   108.351593,   0.449393,   596.862183,   553.396240
-0.017382,   0.068345,   0.068183,   0.000000,   656.882690,   0.535065,   30.400322,   38.396507,   636.424927,   173.587326,   99.434181,   0.453577,   595.277588,   548.276428
-0.016978,   0.068150,   0.068010,   0.000000,   656.947327,   0.535064,   30.400322,   37.638466,   639.922974,   175.096588,   90.571541,   0.457436,   593.903625,   543.472412
-0.016632,   0.068006,   0.067887,   0.000000,   657.027039,   0.535064,   30.400322,   36.880424,   643.076599,   176.452530,   81.879272,   0.460882,   592.725220,   539.090881
-0.016327,   0.067908,   0.067814,   0.000000,   657.148560,   0.535065,   30.400322,   36.122379,   645.941467,   177.713608,   73.301178,   0.463978,   591.733948,   535.099854
-0.016062,   0.067854,   0.067785,   0.000000,   657.308228,   0.535064,   30.400322,   35.364338,   648.521790,   178.876312,   64.836075,   0.466731,   590.917297,   531.514709
-0.015833,   0.067825,   0.067782,   0.000000,   657.479675,   0.535064,   30.400322,   34.606297,   650.802734,   179.928848,   56.467598,   0.469147,   590.242493,   528.328613
-0.015638,   0.067807,   0.067788,   0.000000,   657.632568,   0.535065,   30.400322,   33.848255,   652.761169,   180.848511,   48.193546,   0.471223,   589.678162,   525.545593
-0.015476,   0.067799,   0.067802,   0.000000,   657.772156,   0.535065,   30.400322,   33.090210,   654.409790,   181.630508,   40.011925,   0.472962,   589.223145,   523.186646
-0.015351,   0.067801,   0.067820,   0.000000,   657.887634,   0.535064,   30.400322,   32.332169,   655.744995,   182.251160,   31.923512,   0.474355,   588.866760,   521.274231
-0.015252,   0.067808,   0.067842,   0.000000,   658.002502,   0.535064,   30.400322,   31.574127,   656.802979,   182.788956,   23.875330,   0.475470,   588.604858,   519.745667
-0.015182,   0.067817,   0.067862,   0.000000,   658.097229,   0.535064,   30.400322,   30.816084,   657.566711,   183.201477,   15.872899,   0.476281,   588.426208,   518.633423
-0.015141,   0.067824,   0.067876,   0.000000,   658.158630,   0.535064,   30.400322,   30.058043,   658.026794,   183.456589,   7.910796,   0.476769,   588.322998,   517.962341
-0.015127,   0.067827,   0.067881,   0.000000,   658.180054,   0.535065,   30.400322,   29.300001,   658.180054,   183.542725,   0.000008,   0.476932,   588.289673,   517.739258
-0.015141,   0.067824,   0.067876,   0.000000,   658.158630,   0.535064,   30.400322,   28.541958,   658.026794,   183.456558,   -7.910783,   0.476769,   588.322998,   517.962463
-0.015182,   0.067817,   0.067862,   0.000000,   658.097290,   0.535064,   30.400322,   27.783916,   657.566772,   183.201523,   -15.872887,   0.476281,   588.426270,   518.633484
-0.015252,   0.067808,   0.067842,   0.000000,   658.002502,   0.535065,   30.400322,   27.025873,   656.802979,   182.789001,   -23.875320,   0.475470,   588.604858,   519.745667
-0.015351,   0.067801,   0.067820,   0.000000,   657.887634,   0.535064,   30.400322,   26.267830,   655.744995,   182.251129,   -31.923506,   0.474355,   588.866760,   521.274292
-0.015476,   0.067799,   0.067802,   0.000000,   657.772156,   0.535064,   30.400322,   25.509789,   654.409790,   181.630569,   -40.011925,   0.472962,   589.223083,   523.186523
-0.015638,   0.067807,   0.067788,   0.000000,   657.632507,   0.535064,   30.400322,   24.751747,   652.761108,   180.848404,   -48.193527,   0.471223,   589.678101,   525.545593
-0.015833,   0.067825,   0.067782,   0.000000,   657.479675,   0.535065,   30.400322,   23.993704,   650.802734,   179.928848,   -56.467594,   0.469147,   590.242493,   528.328613
-0.016062,   0.067854,   0.067785,   0.000000,   657.308228,   0.535064,   30.400322,   23.235661,   648.521790,   178.876312,   -64.836075,   0.466731,   590.917297,   531.514709
-0.016327,   0.067908,   0.067814,   0.000000,   657.148560,   0.535064,   30.400322,   22.477619,   645.941467,   177.713638,   -73.301178,   0.463978,   591.733948,   535.099854
-0.016632,   0.068006,   0.067887,   0.000000,   657.027039,   0.535064,   30.400322,   21.719578,   643.076599,   176.452530,   -81.879272,   0.460882,   592.725220,   539.090881
-0.016978,   0.068150,   0.068010,   0.000000,   656.947266,   0.535065,   30.400322,   20.961535,   639.922913,   175.096573,   -90.571556,   0.457436,   593.903564,   543.472351
-0.017382,   0.068345,   0.068183,   0.000000,   656.882751,   0.535064,   30.400322,   20.203493,   636.424927,   173.587357,   -99.434212,   0.453577,   595.277588,   548.276428
-0.017832,   0.068600,   0.068423,   0.000000,   656.876282,   0.535064,   30.400322,   19.445450,   632.663025,   172.014603,   -108.351624,   0.449393,   596.862183,   553.396240
-0.018339,   0.068928,   0.068742,   0.000000,   656.936523,   0.535064,   30.400322,   18.687408,   628.583069,   170.376678,   -117.454865,   0.444834,   598.695190,   558.876526
-0.018910,   0.069339,   0.069150,   0.000000,   657.069214,   0.535065,   30.400322,   17.929365,   624.238037,   168.683624,   -126.626488,   0.439943,   600.775635,   564.643250
-0.019545,   0.069836,   0.069654,   0.000000,   657.273804,   0.535064,   30.400322,   17.171324,   619.584595,   166.933533,   -135.943176,   0.434688,   603.128540,   570.710388
-0.020240,   0.070426,   0.070265,   0.000000,   657.587769,   0.535065,   30.400322,   16.413282,   614.695862,   165.241623,   -145.319214,   0.429184,   605.752014,   576.961060
-0.021021,   0.071105,   0.070974,   0.000000,   657.939453,   0.535064,   30.400322,   15.655239,   609.475037,   163.473221,   -154.803146,   0.423320,   608.639893,   583.436584
-0.021876,   0.071885,   0.071802,   0.000000,   658.388184,   0.535064,   30.400322,   14.897197,   603.984131,   161.756851,   -164.373810,   0.417195,   611.816772,   590.066345
-0.022815,   0.072792,   0.072776,   0.000000,   658.968079,   0.535064,   30.400322,   14.139154,   598.293091,   160.113449,   -173.977036,   0.410857,   615.304993,   596.824890
-0.023838,   0.073841,   0.073915,   0.000000,   659.699585,   0.535064,   30.400322,   13.381112,   592.390991,   158.576569,   -183.656937,   0.404312,   619.131592,   603.718445
-0.024993,   0.075025,   0.075214,   0.000000,   660.460144,   0.535064,   30.400322,   12.623070,   586.030334,   156.911316,   -193.595078,   0.397300,   623.325806,   610.867249
-0.026246,   0.076351,   0.076681,   0.000000,   661.365173,   0.535064,   30.400322,   11.865027,   579.541077,   155.421524,   -203.465897,   0.390225,   627.810242,   617.993042
-0.027670,   0.077808,   0.078309,   0.000000,   662.164856,   0.535064,   30.400322,   11.106986,   572.345337,   153.624130,   -213.721497,   0.382484,   632.680115,   625.380432
-0.029177,   0.079399,   0.080117,   0.000000,   663.078125,   0.535065,   30.400322,   10.348944,   564.683899,   152.093796,   -224.227386,   0.374536,   637.925720,   632.810730
-0.030832,   0.081127,   0.082105,   0.000000,   663.953674,   0.535064,   30.400322,   9.590901,   556.351318,   150.558929,   -235.037186,   0.366151,   643.551514,   640.313965
-0.032580,   0.083015,   0.084320,   0.000000,   664.988464,   0.535064,   30.400322,   8.832859,   547.309692,   149.508484,   -246.294647,   0.357530,   649.658691,   647.900879
-0.034641,   0.085105,   0.086794,   0.000000,   665.625000,   0.535064,   30.400322,   8.074817,   536.770447,   147.777130,   -258.315826,   0.347644,   656.368286,   655.754150
-0.036985,   0.087405,   0.089560,   0.000000,   666.033630,   0.535064,   30.400322,   7.316774,   524.677124,   145.974457,   -271.134155,   0.336806,   663.736633,   663.700439
-0.030840,   0.073805,   0.075906,   0.000000,   652.615601,   0.533428,   31.271563,   51.780094,   490.745453,   166.799652,   280.426605,   0.337117,   650.164795,   650.122742
-0.028982,   0.072149,   0.073799,   0.000000,   652.206604,   0.533425,   31.271563,   51.004917,   505.491547,   165.900955,   267.111115,   0.348145,   642.828369,   642.183716
-0.027363,   0.070624,   0.071905,   0.000000,   651.521179,   0.533425,   31.271563,   50.229740,   518.128906,   165.299835,   254.672684,   0.358097,   636.167847,   634.363770
-0.025899,   0.069218,   0.070183,   0.000000,   650.712708,   0.533425,   31.271563,   49.454567,   529.410400,   165.008743,   242.728287,   0.367419,   629.997559,   626.573059
-0.024531,   0.067904,   0.068603,   0.000000,   649.859192,   0.533425,   31.271563,   48.679390,   539.546753,   165.114609,   231.243073,   0.376262,   624.264771,   618.818176
-0.023255,   0.066688,   0.067173,   0.000000,   648.941406,   0.533425,   31.271563,   47.904217,   548.689209,   165.348938,   220.184464,   0.384533,   618.965698,   611.193176
-0.022193,   0.065585,   0.065883,   0.000000,   647.777893,   0.533425,   31.271563,   47.129040,   556.603882,   165.163071,   209.766388,   0.391752,   614.135254,   603.985840
-0.021199,   0.064653,   0.064799,   0.000000,   646.896729,   0.533426,   31.271563,   46.353867,   564.273621,   165.394257,   199.457336,   0.398896,   609.739319,   596.903564
-0.020270,   0.063823,   0.063850,   0.000000,   646.124939,   0.533426,   31.271563,   45.578690,   571.511780,   165.838470,   189.303207,   0.405793,   605.686890,   589.933411
-0.019417,   0.063040,   0.062969,   0.000000,   645.288574,   0.533425,   31.271563,   44.803513,   578.105957,   166.256454,   179.395142,   0.412230,   601.898438,   583.129028
-0.018653,   0.062347,   0.062195,   0.000000,   644.546936,   0.533425,   31.271563,   44.028336,   584.330261,   166.827774,   169.607346,   0.418421,   598.406860,   576.456970
-0.017941,   0.061736,   0.061525,   0.000000,   643.923096,   0.533425,   31.271563,   43.253162,   590.288391,   167.578506,   159.839279,   0.424441,   595.188293,   569.869080
-0.017303,   0.061213,   0.060956,   0.000000,   643.387512,   0.533425,   31.271563,   42.477985,   595.879761,   168.390533,   150.219971,   0.430135,   592.271606,   563.504761
-0.016719,   0.060784,   0.060495,   0.000000,   643.001831,   0.533426,   31.271563,   41.702808,   601.253845,   169.359787,   140.618622,   0.435637,   589.645203,   557.290771
-0.016184,   0.060428,   0.060123,   0.000000,   642.735229,   0.533425,   31.271563,   40.927635,   606.352112,   170.464279,   131.082718,   0.440906,   587.288330,   551.250427
-0.015709,   0.060129,   0.059813,   0.000000,   642.510986,   0.533426,   31.271563,   40.152458,   611.082581,   171.557495,   121.660690,   0.445820,   585.168396,   545.468323
-0.015279,   0.059895,   0.059578,   0.000000,   642.389954,   0.533425,   31.271563,   39.377281,   615.551208,   172.732147,   112.272171,   0.450480,   583.291809,   539.903625
-0.014889,   0.059718,   0.059409,   0.000000,   642.358582,   0.533425,   31.271563,   38.602108,   619.681335,   173.948349,   103.064354,   0.454801,   581.667603,   534.659973
-0.014546,   0.059593,   0.059296,   0.000000,   642.383118,   0.533425,   31.271563,   37.826931,   623.516479,   175.125320,   93.891296,   0.458788,   580.254150,   529.729980
-0.014245,   0.059518,   0.059237,   0.000000,   642.465698,   0.533425,   31.271563,   37.051758,   627.008972,   176.249207,   84.889153,   0.462390,   579.061951,   525.205872
-0.013982,   0.059482,   0.059220,   0.000000,   642.606262,   0.533426,   31.271563,   36.276581,   630.196289,   177.351273,   75.985489,   0.465663,   578.062378,   521.043518
-0.013748,   0.059472,   0.059231,   0.000000,   642.777344,   0.533425,   31.271563,   35.501404,   633.054016,   178.403061,   67.195724,   0.468594,   577.227905,   517.263184
-0.013551,   0.059478,   0.059258,   0.000000,   642.944153,   0.533425,   31.271563,   34.726231,   635.550293,   179.329941,   58.548256,   0.471136,   576.536133,   513.927734
-0.013383,   0.059499,   0.059299,   0.000000,   643.117065,   0.533426,   31.271563,   33.951054,   637.716675,   180.158875,   50.001640,   0.473326,   575.977417,   511.019928
-0.013242,   0.059528,   0.059347,   0.000000,   643.291443,   0.533425,   31.271563,   33.175877,   639.560303,   180.908905,   41.535789,   0.475193,   575.533630,   508.519928
-0.013130,   0.059562,   0.059397,   0.000000,   643.459167,   0.533425,   31.271563,   32.400703,   641.082153,   181.561249,   33.135284,   0.476733,   575.194702,   506.446320
-0.013043,   0.059592,   0.059441,   0.000000,   643.593628,   0.533426,   31.271563,   31.625526,   642.259399,   182.064407,   24.815193,   0.477916,   574.942932,   504.838287
-0.012980,   0.059612,   0.059470,   0.000000,   643.690369,   0.533425,   31.271563,   30.850351,   643.097778,   182.447556,   16.532280,   0.478776,   574.760986,   503.657990
-0.012942,   0.059622,   0.059487,   0.000000,   643.759216,   0.533425,   31.271563,   30.075176,   643.611267,   182.725662,   8.259419,   0.479326,   574.651611,   502.903198
-0.012929,   0.059626,   0.059492,   0.000000,   643.784668,   0.533426,   31.271563,   29.300001,   643.784668,   182.829346,   0.000009,   0.479517,   574.615112,   502.641296
-0.012942,   0.059622,   0.059487,   0.000000,   643.759216,   0.533425,   31.271563,   28.524824,   643.611267,   182.725662,   -8.259401,   0.479326,   574.651611,   502.903198
-0.012980,   0.059612,   0.059470,   0.000000,   643.690369,   0.533425,   31.271563,   27.749649,   643.097778,   182.447556,   -16.532263,   0.478776,   574.760986,   503.657990
-0.013043,   0.059592,   0.059441,   0.000000,   643.593628,   0.533426,   31.271563,   26.974474,   642.259399,   182.064362,   -24.815182,   0.477916,   574.942993,   504.838409
-0.013130,   0.059562,   0.059397,   0.000000,   643.459167,   0.533425,   31.271563,   26.199297,   641.082153,   181.561249,   -33.135277,   0.476733,   575.194702,   506.446320
-0.013242,   0.059528,   0.059347,   0.000000,   643.291443,   0.533425,   31.271563,   25.424122,   639.560303,   180.908905,   -41.535789,   0.475193,   575.533630,   508.519928
-0.013383,   0.059499,   0.059299,   0.000000,   643.117126,   0.533426,   31.271563,   24.648947,   637.716736,   180.158966,   -50.001640,   0.473326,   575.977417,   511.019867
-0.013551,   0.059478,   0.059258,   0.000000,   642.944153,   0.533426,   31.271563,   23.873770,   635.550293,   179.329895,   -58.548248,   0.471136,   576.536133,   513.927734
-0.013748,   0.059472,   0.059231,   0.000000,   642.777344,   0.533425,   31.271563,   23.098595,   633.054016,   178.403061,   -67.195732,   0.468594,   577.227905,   517.263184
-0.013982,   0.059482,   0.059220,   0.000000,   642.606262,   0.533425,   31.271563,   22.323420,   630.196289,   177.351196,   -75.985481,   0.465663,   578.062439,   521.043579
-0.014245,   0.059518,   0.059237,   0.000000,   642.465698,   0.533426,   31.271563,   21.548244,   627.008972,   176.249237,   -84.889160,   0.462391,   579.061890,   525.205872
-0.014546,   0.059593,   0.059296,   0.000000,   642.383057,   0.533426,   31.271563,   20.773067,   623.516418,   175.125275,   -93.891296,   0.458788,   580.254089,   529.729980
-0.014889,   0.059718,   0.059409,   0.000000,   642.358582,   0.533425,   31.271563,   19.997892,   619.681335,   173.948334,   -103.064384,   0.454801,   581.667603,   534.660156
-0.015279,   0.059895,   0.059578,   0.000000,   642.390015,   0.533426,   31.271563,   19.222717,   615.551208,   172.732178,   -112.272209,   0.450480,   583.291809,   539.903625
-0.015709,   0.060129,   0.059813,   0.000000,   642.511047,   0.533425,   31.271563,   18.447540,   611.082581,   171.557556,   -121.660721,   0.445820,   585.168396,   545.468384
-0.016184,   0.060428,   0.060123,   0.000000,   642.735168,   0.533426,   31.271563,   17.672365,   606.352051,   170.464249,   -131.082748,   0.440906,   587.288330,   551.250488
-0.016719,   0.060784,   0.060495,   0.000000,   643.001831,   0.533425,   31.271563,   16.897190,   601.253845,   169.359741,   -140.618622,   0.435637,   589.645203,   557.290833
-0.017303,   0.061213,   0.060956,   0.000000,   643.387512,   0.533426,   31.271563,   16.122015,   595.879761,   168.390549,   -150.219986,   0.430135,   592.271606,   563.504761
-0.017941,   0.061736,   0.061525,   0.000000,   643.923096,   0.533425,   31.271563,   15.346839,   590.288391,   167.578552,   -159.839310,   0.424441,   595.188293,   569.869080
-0.018653,   0.062347,   0.062195,   0.000000,   644.546936,   0.533426,   31.271563,   14.571663,   584.330261,   166.827805,   -169.607391,   0.418421,   598.406860,   576.456848
-0.019417,   0.063040,   0.062969,   0.000000,   645.288574,   0.533425,   31.271563,   13.796487,   578.105957,   166.256485,   -179.395187,   0.412230,   601.898438,   583.129150
-0.020270,   0.063823,   0.063850,   0.000000,   646.125000,   0.533426,   31.271563,   13.021312,   571.511719,   165.838593,   -189.303284,   0.405793,   605.686890,   589.933289
-0.021199,   0.064653,   0.064799,   0.000000,   646.896729,   0.533425,   31.271563,   12.246136,   564.273621,   165.394226,   -199.457367,   0.398896,   609.739380,   596.903564
-0.022193,   0.065585,   0.065883,   0.000000,   647.778015,   0.533426,   31.271563,   11.470961,   556.603943,   165.163116,   -209.766434,   0.391752,   614.135315,   603.985840
-0.023255,   0.066688,   0.067173,   0.000000,   648.941467,   0.533425,   31.271563,   10.695785,   548.689148,   165.349045,   -220.184570,   0.384533,   618.965759,   611.193115
-0.024531,   0.067904,   0.068603,   0.000000,   649.859253,   0.533425,   31.271563,   9.920609,   539.546753,   165.114655,   -231.243134,   0.376262,   624.264893,   618.818237
-0.025899,   0.069218,   0.070183,   0.000000,   650.712891,   0.533425,   31.271563,   9.145433,   529.410522,   165.008911,   -242.728348,   0.367419,   629.997742,   626.573120
-0.027363,   0.070624,   0.071905,   0.000000,   651.521423,   0.533425,   31.271563,   8.370258,   518.129089,   165.300049,   -254.672745,   0.358097,   636.168030,   634.363953
-0.028982,   0.072150,   0.073799,   0.000000,   652.206970,   0.533425,   31.271563,   7.595082,   505.491943,   165.901199,   -267.111145,   0.348145,   642.828674,   642.183960
-0.030840,   0.073805,   0.075906,   0.000000,   652.616211,   0.533425,   31.271563,   6.819907,   490.746155,   166.799988,   -280.426605,   0.337117,   650.165222,   650.123108
-0.025350,   0.061467,   0.063359,   0.000000,   637.786560,   0.530986,   32.119831,   52.313992,   455.461823,   187.499619,   286.528259,   0.337398,   635.214905,   635.167480
-0.024068,   0.060564,   0.062051,   0.000000,   637.742249,   0.530986,   32.119831,   51.520405,   473.276306,   183.507889,   273.324127,   0.348369,   628.437683,   627.788086
-0.022824,   0.059714,   0.060861,   0.000000,   637.699890,   0.530985,   32.119831,   50.726818,   489.006378,   180.988831,   260.595428,   0.358950,   622.181213,   620.291138
-0.021638,   0.058858,   0.059729,   0.000000,   637.475281,   0.530985,   32.119831,   49.933235,   502.773163,   179.393768,   248.403976,   0.368931,   616.345886,   612.684448
-0.020612,   0.058014,   0.058646,   0.000000,   636.768982,   0.530986,   32.119831,   49.139648,   514.526062,   177.717148,   236.887848,   0.377703,   610.923828,   605.218384
-0.019658,   0.057248,   0.057673,   0.000000,   636.011719,   0.530985,   32.119831,   48.346062,   525.179626,   176.375107,   225.704391,   0.385954,   605.904785,   597.851196
-0.018793,   0.056563,   0.056811,   0.000000,   635.231689,   0.530986,   32.119831,   47.552475,   534.825073,   175.292877,   214.897400,   0.393660,   601.296204,   590.668152
-0.017976,   0.055910,   0.056006,   0.000000,   634.381958,   0.530986,   32.119831,   46.758888,   543.745605,   174.401520,   204.183594,   0.401027,   596.923706,   583.480957
-0.017245,   0.055260,   0.055229,   0.000000,   633.317627,   0.530986,   32.119831,   45.965305,   551.457642,   173.432266,   194.026337,   0.407567,   592.859497,   576.626099
-0.016562,   0.054694,   0.054554,   0.000000,   632.397644,   0.530985,   32.119831,   45.171719,   558.795532,   172.800323,   183.922089,   0.413965,   589.096191,   569.849548
-0.015928,   0.054204,   0.053982,   0.000000,   631.614014,   0.530985,   32.119831,   44.378132,   565.683472,   172.444138,   173.992310,   0.420106,   585.667114,   563.254150
-0.015342,   0.053774,   0.053484,   0.000000,   630.916809,   0.530986,   32.119831,   43.584549,   572.201477,   172.290695,   164.098740,   0.426037,   582.493591,   556.758118
-0.014814,   0.053393,   0.053049,   0.000000,   630.280396,   0.530985,   32.119831,   42.790962,   578.238098,   172.290298,   154.385406,   0.431644,   579.588623,   550.463501
-0.014319,   0.053068,   0.052686,   0.000000,   629.786926,   0.530987,   32.119831,   41.997375,   584.008911,   172.590668,   144.670395,   0.437141,   576.929810,   544.230469
-0.013871,   0.052795,   0.052386,   0.000000,   629.377441,   0.530985,   32.119831,   41.203789,   589.400269,   173.020203,   135.069916,   0.442346,   574.527832,   538.206604
-0.013461,   0.052592,   0.052167,   0.000000,   629.127075,   0.530986,   32.119831,   40.410202,   594.560669,   173.668671,   125.473404,   0.447376,   572.396179,   532.337585
-0.013085,   0.052441,   0.052010,   0.000000,   628.998901,   0.530985,   32.119831,   39.616615,   599.431458,   174.502670,   115.923615,   0.452188,   570.510071,   526.646484
-0.012745,   0.052311,   0.051882,   0.000000,   628.903381,   0.530985,   32.119831,   38.823032,   603.881470,   175.404419,   106.524170,   0.456667,   568.821838,   521.209778
-0.012440,   0.052226,   0.051802,   0.000000,   628.884766,   0.530986,   32.119831,   38.029446,   608.041687,   176.362274,   97.118217,   0.460864,   567.343445,   516.022949
-0.012166,   0.052180,   0.051769,   0.000000,   628.954834,   0.530985,   32.119831,   37.235859,   611.861877,   177.388153,   87.855682,   0.464736,   566.092163,   511.171112
-0.011924,   0.052164,   0.051768,   0.000000,   629.078979,   0.530987,   32.119831,   36.442272,   615.338318,   178.431732,   78.690430,   0.468275,   565.030823,   506.661072
-0.011708,   0.052167,   0.051790,   0.000000,   629.237915,   0.530985,   32.119831,   35.648685,   618.459900,   179.460938,   69.625481,   0.471468,   564.138855,   502.522461
-0.011523,   0.052187,   0.051829,   0.000000,   629.408997,   0.530986,   32.119831,   34.855103,   621.204224,   180.411453,   60.695396,   0.474271,   563.402527,   498.826569
-0.011365,   0.052219,   0.051879,   0.000000,   629.597717,   0.530985,   32.119831,   34.061516,   623.603088,   181.309692,   51.839306,   0.476726,   562.806091,   495.546722
-0.011233,   0.052255,   0.051933,   0.000000,   629.775696,   0.530985,   32.119831,   33.267929,   625.627441,   182.094971,   43.094063,   0.478794,   562.330811,   492.744202
-0.011123,   0.052288,   0.051983,   0.000000,   629.943481,   0.530986,   32.119831,   32.474346,   627.295654,   182.800095,   34.408783,   0.480519,   561.958984,   490.382935
-0.011039,   0.052317,   0.052024,   0.000000,   630.089172,   0.530985,   32.119831,   31.680758,   628.600891,   183.407837,   25.783464,   0.481895,   561.677490,   488.481110
-0.010979,   0.052338,   0.052055,   0.000000,   630.126282,   0.530985,   32.119831,   30.887173,   629.462036,   183.847794,   17.217226,   0.482893,   561.414795,   487.033722
-0.010943,   0.052350,   0.052073,   0.000000,   630.203369,   0.530985,   32.119831,   30.093586,   630.036377,   184.076370,   8.631379,   0.483452,   561.318665,   486.260132
-0.010931,   0.052354,   0.052079,   0.000000,   630.234619,   0.530986,   32.119831,   29.299999,   630.234619,   184.143829,   0.000009,   0.483632,   561.293884,   486.016632
-0.010943,   0.052350,   0.052073,   0.000000,   630.203369,   0.530985,   32.119831,   28.506414,   630.036377,   184.076370,   -8.631363,   0.483452,   561.318665,   486.260132
-0.010979,   0.052338,   0.052055,   0.000000,   630.126282,   0.530985,   32.119831,   27.712828,   629.462036,   183.847794,   -17.217209,   0.482893,   561.414795,   487.033722
-0.011039,   0.052317,   0.052024,   0.000000,   630.089172,   0.530986,   32.119831,   26.919241,   628.600891,   183.407867,   -25.783455,   0.481895,   561.677429,   488.481079
-0.011123,   0.052288,   0.051983,   0.000000,   629.943420,   0.530985,   32.119831,   26.125656,   627.295593,   182.800018,   -34.408768,   0.480519,   561.958923,   490.383026
-0.011233,   0.052255,   0.051933,   0.000000,   629.775696,   0.530985,   32.119831,   25.332071,   625.627441,   182.094986,   -43.094048,   0.478794,   562.330811,   492.744202
-0.011365,   0.052219,   0.051879,   0.000000,   629.597717,   0.530986,   32.119831,   24.538485,   623.603088,   181.309677,   -51.839310,   0.476726,   562.806091,   495.546722
-0.011523,   0.052187,   0.051829,   0.000000,   629.408936,   0.530985,   32.119831,   23.744898,   621.204163,   180.411407,   -60.695400,   0.474271,   563.402466,   498.826508
-0.011708,   0.052167,   0.051790,   0.000000,   629.237915,   0.530985,   32.119831,   22.951313,   618.459900,   179.460953,   -69.625496,   0.471468,   564.138855,   502.522491
-0.011924,   0.052164,   0.051768,   0.000000,   629.078979,   0.530985,   32.119831,   22.157726,   615.338318,   178.431747,   -78.690445,   0.468275,   565.030823,   506.660980
-0.012166,   0.052180,   0.051769,   0.000000,   628.954773,   0.530986,   32.119831,   21.364141,   611.861816,   177.388138,   -87.855682,   0.464736,   566.092102,   511.171051
-0.012440,   0.052226,   0.051802,   0.000000,   628.884705,   0.530985,   32.119831,   20.570555,   608.041687,   176.362198,   -97.118217,   0.460864,   567.343445,   516.023071
-0.012745,   0.052311,   0.051882,   0.000000,   628.903381,   0.530985,   32.119831,   19.776970,   603.881470,   175.404434,   -106.524170,   0.456667,   568.821838,   521.209778
-0.013085,   0.052441,   0.052010,   0.000000,   628.998840,   0.530986,   32.119831,   18.983383,   599.431396,   174.502670,   -115.923637,   0.452188,   570.510010,   526.646545
-0.013461,   0.052592,   0.052167,   0.000000,   629.127075,   0.530985,   32.119831,   18.189796,   594.560608,   173.668640,   -125.473434,   0.447376,   572.396118,   532.337585
-0.013871,   0.052795,   0.052386,   0.000000,   629.377502,   0.530985,   32.119831,   17.396212,   589.400269,   173.020233,   -135.069931,   0.442346,   574.527771,   538.206482
-0.014319,   0.053068,   0.052686,   0.000000,   629.786865,   0.530985,   32.119831,   16.602625,   584.008850,   172.590714,   -144.670410,   0.437141,   576.929810,   544.230530
-0.014814,   0.053393,   0.053049,   0.000000,   630.280396,   0.530985,   32.119831,   15.809039,   578.238098,   172.290314,   -154.385406,   0.431644,   579.588623,   550.463440
-0.015342,   0.053774,   0.053484,   0.000000,   630.916748,   0.530986,   32.119831,   15.015453,   572.201416,   172.290665,   -164.098740,   0.426037,   582.493591,   556.758118
-0.015928,   0.054204,   0.053982,   0.000000,   631.614014,   0.530985,   32.119831,   14.221868,   565.683472,   172.444183,   -173.992325,   0.420106,   585.667114,   563.254150
-0.016562,   0.054694,   0.054554,   0.000000,   632.397644,   0.530985,   32.119831,   13.428282,   558.795471,   172.800400,   -183.922104,   0.413965,   589.096191,   569.849487
-0.017245,   0.055260,   0.055229,   0.000000,   633.317627,   0.530986,   32.119831,   12.634696,   551.457581,   173.432281,   -194.026382,   0.407567,   592.859497,   576.626038
-0.017976,   0.055910,   0.056006,   0.000000,   634.381958,   0.530985,   32.119831,   11.841109,   543.745544,   174.401703,   -204.183624,   0.401027,   596.923706,   583.480957
-0.018793,   0.056563,   0.056811,   0.000000,   635.231628,   0.530985,   32.119831,   11.047523,   534.825012,   175.292923,   -214.897400,   0.393660,   601.296143,   590.668091
-0.019658,   0.057247,   0.057673,   0.000000,   636.011719,   0.530986,   32.119831,   10.253938,   525.179626,   176.375320,   -225.704391,   0.385954,   605.904785,   597.851135
-0.020612,   0.058014,   0.058646,   0.000000,   636.769043,   0.530985,   32.119831,   9.460352,   514.526123,   177.717361,   -236.887802,   0.377703,   610.923767,   605.218384
-0.021638,   0.058858,   0.059729,   0.000000,   637.475403,   0.530985,   32.119831,   8.666766,   502.773285,   179.394058,   -248.403946,   0.368931,   616.345886,   612.684387
-0.022824,   0.059714,   0.060861,   0.000000,   637.700073,   0.530986,   32.119831,   7.873180,   489.006531,   180.989151,   -260.595398,   0.358950,   622.181213,   620.291138
-0.024068,   0.060564,   0.062051,   0.000000,   637.742432,   0.530986,   32.119831,   7.079594,   473.276428,   183.508133,   -273.324188,   0.348369,   628.437805,   627.788208
-0.025350,   0.061468,   0.063359,   0.000000,   637.786682,   0.530985,   32.119831,   6.286008,   455.461700,   187.499802,   -286.528442,   0.337398,   635.215088,   635.167664
-0.020991,   0.051313,   0.052935,   0.000000,   623.184448,   0.527611,   32.943504,   52.883896,   420.243408,   207.832367,   290.330811,   0.337265,   620.753235,   620.709839
-0.019979,   0.050939,   0.052219,   0.000000,   623.904785,   0.527612,   32.943504,   52.070660,   441.587921,   201.466217,   277.520569,   0.348792,   614.553894,   613.882080
-0.019039,   0.050472,   0.051452,   0.000000,   624.123230,   0.527612,   32.943504,   51.257420,   459.915314,   196.590027,   264.961029,   0.359584,   608.578674,   606.635742
-0.018111,   0.049978,   0.050704,   0.000000,   624.186523,   0.527611,   32.943504,   50.444183,   475.972839,   193.197708,   252.741852,   0.369940,   602.954346,   599.161560
-0.017278,   0.049479,   0.049986,   0.000000,   623.735779,   0.527613,   32.943504,   49.630943,   489.804474,   189.925201,   241.041092,   0.379075,   597.709106,   591.765198
-0.016551,   0.049012,   0.049322,   0.000000,   623.110107,   0.527611,   32.943504,   48.817707,   502.169159,   187.101852,   229.632874,   0.387576,   592.805176,   584.412354
-0.015847,   0.048581,   0.048731,   0.000000,   622.506409,   0.527612,   32.943504,   48.004471,   513.264160,   184.970566,   218.626190,   0.395617,   588.309143,   577.190918
-0.015238,   0.048187,   0.048193,   0.000000,   621.635193,   0.527612,   32.943504,   47.191231,   523.076782,   182.642014,   208.005951,   0.402704,   584.149841,   570.296326
-0.014665,   0.047863,   0.047749,   0.000000,   620.942017,   0.527612,   32.943504,   46.377995,   532.133545,   180.932404,   197.677979,   0.409533,   580.389709,   563.587585
-0.014130,   0.047568,   0.047353,   0.000000,   620.264038,   0.527612,   32.943504,   45.564754,   540.546204,   179.521744,   187.443420,   0.416075,   576.873962,   556.951233
-0.013622,   0.047249,   0.046950,   0.000000,   619.467590,   0.527611,   32.943504,   44.751518,   548.038025,   178.300522,   177.517273,   0.422131,   573.549011,   550.474976
-0.013159,   0.046970,   0.046598,   0.000000,   618.714600,   0.527612,   32.943504,   43.938282,   555.024353,   177.282715,   167.674957,   0.427901,   570.464417,   544.139587
-0.012718,   0.046738,   0.046312,   0.000000,   618.135193,   0.527612,   32.943504,   43.125042,   561.635986,   176.702927,   157.925888,   0.433557,   567.660034,   537.895996
-0.012300,   0.046530,   0.046064,   0.000000,   617.642273,   0.527612,   32.943504,   42.311806,   567.842773,   176.443481,   148.227768,   0.439055,   565.066345,   531.710083
-0.011915,   0.046340,   0.045843,   0.000000,   617.191467,   0.527612,   32.943504,   41.498566,   573.593628,   176.393723,   138.628357,   0.444301,   562.671814,   525.650452
-0.011553,   0.046183,   0.045666,   0.000000,   616.867371,   0.527612,   32.943504,   40.685329,   579.066528,   176.673035,   128.994980,   0.449455,   560.486450,   519.620483
-0.011219,   0.046052,   0.045525,   0.000000,   616.627869,   0.527611,   32.943504,   39.872089,   584.154053,   177.174438,   119.460197,   0.454375,   558.517517,   513.744324
-0.010907,   0.045967,   0.045439,   0.000000,   616.541443,   0.527612,   32.943504,   39.058853,   588.981750,   177.946793,   109.943321,   0.459133,   556.794189,   508.002930
-0.010622,   0.045912,   0.045389,   0.000000,   616.535034,   0.527612,   32.943504,   38.245617,   593.505920,   178.870911,   100.394264,   0.463668,   555.265808,   502.417786
-0.010360,   0.045860,   0.045348,   0.000000,   616.549194,   0.527612,   32.943504,   37.432377,   597.609375,   179.898071,   90.940094,   0.467901,   553.896912,   497.052612
-0.010122,   0.045828,   0.045330,   0.000000,   616.613892,   0.527612,   32.943504,   36.619141,   601.343689,   180.996414,   81.559624,   0.471820,   552.710388,   491.973450
-0.009908,   0.045814,   0.045333,   0.000000,   616.728516,   0.527611,   32.943504,   35.805901,   604.716553,   182.138214,   72.251602,   0.475410,   551.702209,   487.225739
-0.009724,   0.045815,   0.045353,   0.000000,   616.867004,   0.527613,   32.943504,   34.992664,   607.697205,   183.235535,   63.057941,   0.478604,   550.861450,   482.912140
-0.009564,   0.045828,   0.045384,   0.000000,   617.022583,   0.527611,   32.943504,   34.179428,   610.302979,   184.278549,   53.924625,   0.481416,   550.169189,   479.040100
-0.009427,   0.045845,   0.045419,   0.000000,   617.186279,   0.527612,   32.943504,   33.366188,   612.527283,   185.266006,   44.858906,   0.483855,   549.608643,   475.626251
-0.009314,   0.045861,   0.045451,   0.000000,   617.272461,   0.527612,   32.943504,   32.552952,   614.288147,   186.127548,   35.870388,   0.485890,   549.106079,   472.680817
-0.009227,   0.045874,   0.045478,   0.000000,   617.398987,   0.527611,   32.943504,   31.739714,   615.716064,   186.760345,   26.920790,   0.487423,   548.788208,   470.472137
-0.009165,   0.045887,   0.045500,   0.000000,   617.479248,   0.527611,   32.943504,   30.926476,   616.729919,   187.242569,   17.955441,   0.488546,   548.547791,   468.824707
-0.009128,   0.045897,   0.045518,   0.000000,   617.305054,   0.527612,   32.943504,   30.113239,   617.117004,   187.581329,   8.989143,   0.489314,   548.181519,   467.514191
-0.009116,   0.045901,   0.045524,   0.000000,   617.364197,   0.527612,   32.943504,   29.299999,   617.364197,   187.702469,   0.000007,   0.489548,   548.169678,   467.197479
-0.009128,   0.045897,   0.045518,   0.000000,   617.305054,   0.527612,   32.943504,   28.486761,   617.117004,   187.581329,   -8.989129,   0.489314,   548.181519,   467.514191
-0.009165,   0.045887,   0.045500,   0.000000,   617.479248,   0.527612,   32.943504,   27.673523,   616.729919,   187.242584,   -17.955433,   0.488546,   548.547791,   468.824615
-0.009227,   0.045874,   0.045478,   0.000000,   617.398987,   0.527611,   32.943504,   26.860287,   615.716064,   186.760284,   -26.920784,   0.487423,   548.788269,   470.472351
-0.009314,   0.045861,   0.045451,   0.000000,   617.272522,   0.527611,   32.943504,   26.047049,   614.288208,   186.127625,   -35.870388,   0.485890,   549.106140,   472.680817
-0.009427,   0.045845,   0.045419,   0.000000,   617.186218,   0.527612,   32.943504,   25.233810,   612.527222,   185.265945,   -44.858898,   0.483855,   549.608582,   475.626190
-0.009564,   0.045828,   0.045384,   0.000000,   617.022583,   0.527612,   32.943504,   24.420572,   610.302979,   184.278519,   -53.924629,   0.481416,   550.169189,   479.040100
-0.009724,   0.045815,   0.045353,   0.000000,   616.867004,   0.527612,   32.943504,   23.607334,   607.697205,   183.235519,   -63.057949,   0.478604,   550.861450,   482.912140
-0.009908,   0.045814,   0.045333,   0.000000,   616.728455,   0.527611,   32.943504,   22.794098,   604.716492,   182.138168,   -72.251602,   0.475410,   551.702148,   487.225708
-0.010122,   0.045828,   0.045330,   0.000000,   616.613892,   0.527612,   32.943504,   21.980860,   601.343689,   180.996445,   -81.559647,   0.471820,   552.710388,   491.973389
-0.010360,   0.045860,   0.045348,   0.000000,   616.549194,   0.527612,   32.943504,   21.167622,   597.609375,   179.897995,   -90.940094,   0.467901,   553.896912,   497.052673
-0.010622,   0.045912,   0.045389,   0.000000,   616.535034,   0.527611,   32.943504,   20.354383,   593.505920,   178.870972,   -100.394279,   0.463668,   555.265808,   502.417847
-0.010907,   0.045967,   0.045439,   0.000000,   616.541382,   0.527611,   32.943504,   19.541147,   588.981689,   177.946701,   -109.943314,   0.459133,   556.794128,   508.002777
-0.011219,   0.046052,   0.045525,   0.000000,   616.627869,   0.527612,   32.943504,   18.727909,   584.154053,   177.174423,   -119.460197,   0.454375,   558.517517,   513.744324
-0.011553,   0.046183,   0.045666,   0.000000,   616.867310,   0.527612,   32.943504,   17.914671,   579.066467,   176.673080,   -128.994995,   0.449455,   560.486389,   519.620422
-0.011915,   0.046340,   0.045843,   0.000000,   617.191406,   0.527612,   32.943504,   17.101433,   573.593567,   176.393661,   -138.628357,   0.444301,   562.671753,   525.650513
-0.012300,   0.046530,   0.046064,   0.000000,   617.642212,   0.527612,   32.943504,   16.288195,   567.842712,   176.443512,   -148.227798,   0.439055,   565.066284,   531.710022
-0.012718,   0.046738,   0.046312,   0.000000,   618.135132,   0.527612,   32.943504,   15.474957,   561.635925,   176.702881,   -157.925873,   0.433557,   567.660034,   537.895996
-0.013159,   0.046970,   0.046598,   0.000000,   618.714539,   0.527612,   32.943504,   14.661719,   555.024353,   177.282761,   -167.674942,   0.427901,   570.464417,   544.139587
-0.013622,   0.047249,   0.046950,   0.000000,   619.467590,   0.527612,   32.943504,   13.848482,   548.038025,   178.300537,   -177.517273,   0.422131,   573.548950,   550.474976
-0.014130,   0.047568,   0.047353,   0.000000,   620.264038,   0.527612,   32.943504,   13.035244,   540.546143,   179.521713,   -187.443420,   0.416075,   576.873901,   556.951172
-0.014665,   0.047862,   0.047749,   0.000000,   620.942017,   0.527612,   32.943504,   12.222006,   532.133545,   180.932495,   -197.677963,   0.409533,   580.389709,   563.587585
-0.015238,   0.048187,   0.048193,   0.000000,   621.635132,   0.527612,   32.943504,   11.408768,   523.076721,   182.642029,   -208.005936,   0.402704,   584.149780,   570.296326
-0.015846,   0.048581,   0.048731,   0.000000,   622.506409,   0.527611,   32.943504,   10.595531,   513.264160,   184.970734,   -218.626129,   0.395617,   588.309082,   577.190857
-0.016551,   0.049012,   0.049322,   0.000000,   623.110107,   0.527612,   32.943504,   9.782292,   502.169189,   187.101974,   -229.632782,   0.387576,   592.805054,   584.412109
-0.017278,   0.049479,   0.049986,   0.000000,   623.735718,   0.527612,   32.943504,   8.969054,   489.804504,   189.925339,   -241.041000,   0.379075,   597.709045,   591.765076
-0.018111,   0.049978,   0.050704,   0.000000,   624.186523,   0.527611,   32.943504,   8.155817,   475.972870,   193.197830,   -252.741760,   0.369940,   602.954224,   599.161438
-0.019039,   0.050472,   0.051452,   0.000000,   624.123108,   0.527612,   32.943504,   7.342579,   459.915222,   196.590057,   -264.960968,   0.359584,   608.578552,   606.635681
-0.019979,   0.050939,   0.052219,   0.000000,   623.904663,   0.527612,   32.943504,   6.529341,   441.587738,   201.466324,   -277.520538,   0.348792,   614.553772,   613.881897
-0.020991,   0.051313,   0.052935,   0.000000,   623.184143,   0.527612,   32.943504,   5.716104,   420.242767,   207.832413,   -290.330902,   0.337265,   620.753052,   620.709656
-0.017132,   0.042292,   0.043535,   0.000000,   607.342407,   0.523154,   33.740997,   53.488712,   385.030487,   227.471161,   290.602631,   0.337590,   604.779236,   604.729736
-0.016427,   0.042392,   0.043381,   0.000000,   609.185242,   0.523154,   33.740997,   52.654621,   409.579773,   219.154770,   279.020081,   0.349501,   599.649597,   598.932007
-0.015729,   0.042369,   0.043125,   0.000000,   610.204468,   0.523154,   33.740997,   51.820526,   430.685608,   212.249115,   267.283539,   0.360481,   594.515442,   592.483276
-0.015085,   0.042260,   0.042804,   0.000000,   610.660217,   0.523154,   33.740997,   50.986435,   448.881744,   206.612854,   255.668076,   0.370636,   589.523071,   585.668884
-0.014530,   0.042182,   0.042534,   0.000000,   610.779114,   0.523155,   33.740997,   50.152340,   465.078613,   201.530319,   244.187973,   0.379921,   584.866150,   578.825500
-0.013980,   0.042102,   0.042287,   0.000000,   610.832764,   0.523154,   33.740997,   49.318245,   479.654846,   197.558365,   232.835724,   0.388870,   580.496094,   571.863770
-0.013455,   0.041926,   0.041965,   0.000000,   610.416626,   0.523154,   33.740997,   48.484154,   492.208435,   194.025925,   221.857574,   0.396947,   576.260620,   564.875916
-0.012976,   0.041756,   0.041662,   0.000000,   609.833313,   0.523155,   33.740997,   47.650059,   503.476837,   190.845398,   211.097351,   0.404415,   572.285706,   557.995117
-0.012524,   0.041603,   0.041397,   0.000000,   609.274780,   0.523154,   33.740997,   46.815964,   513.629028,   188.290359,   200.662338,   0.411460,   568.641113,   551.277161
-0.012112,   0.041461,   0.041158,   0.000000,   608.604553,   0.523155,   33.740997,   45.981869,   522.694641,   185.892426,   190.565369,   0.417835,   565.284180,   544.855835
-0.011715,   0.041357,   0.040975,   0.000000,   608.107605,   0.523152,   33.740997,   45.147778,   531.179932,   184.131622,   180.597610,   0.424096,   562.224182,   538.503845
-0.011334,   0.041251,   0.040804,   0.000000,   607.601257,   0.523154,   33.740997,   44.313686,   538.983826,   182.703995,   170.749374,   0.430073,   559.353027,   532.223389
-0.010962,   0.041119,   0.040619,   0.000000,   607.062134,   0.523155,   33.740997,   43.479591,   546.094055,   181.650757,   161.048141,   0.435811,   556.620911,   525.963074
-0.010613,   0.040994,   0.040451,   0.000000,   606.561951,   0.523154,   33.740997,   42.645496,   552.629028,   180.914291,   151.513763,   0.441287,   554.093445,   519.821899
-0.010276,   0.040891,   0.040319,   0.000000,   606.198486,   0.523155,   33.740997,   41.811405,   558.838074,   180.623367,   141.969788,   0.446720,   551.771545,   513.657776
-0.009949,   0.040790,   0.040200,   0.000000,   605.907593,   0.523154,   33.740997,   40.977310,   564.680786,   180.716614,   132.398117,   0.452082,   549.603027,   507.433105
-0.009630,   0.040677,   0.040078,   0.000000,   605.640198,   0.523154,   33.740997,   40.143215,   570.067627,   181.125229,   122.886482,   0.457289,   547.570129,   501.201202
-0.009331,   0.040572,   0.039969,   0.000000,   605.426147,   0.523154,   33.740997,   39.309124,   575.106995,   181.797516,   113.331604,   0.462353,   545.689941,   494.971893
-0.009055,   0.040481,   0.039881,   0.000000,   605.281006,   0.523154,   33.740997,   38.475029,   579.782959,   182.695114,   103.803314,   0.467211,   543.992310,   488.840057
-0.008792,   0.040409,   0.039821,   0.000000,   605.237610,   0.523155,   33.740997,   37.640938,   584.148193,   183.852753,   94.269661,   0.471900,   542.488708,   482.792999
-0.008549,   0.040348,   0.039774,   0.000000,   605.239197,   0.523154,   33.740997,   36.806843,   588.142090,   185.146469,   84.748894,   0.476323,   541.151611,   476.920227
-0.008327,   0.040295,   0.039739,   0.000000,   605.265137,   0.523154,   33.740997,   35.972748,   591.747925,   186.491882,   75.237183,   0.480419,   539.972717,   471.311310
-0.008130,   0.040255,   0.039718,   0.000000,   605.326416,   0.523155,   33.740997,   35.138653,   594.967834,   187.865829,   65.759468,   0.484162,   538.961121,   466.044708
-0.007957,   0.040224,   0.039707,   0.000000,   605.366272,   0.523154,   33.740997,   34.304562,   597.743835,   189.208313,   56.321789,   0.487518,   538.066711,   461.161835
-0.007808,   0.040198,   0.039699,   0.000000,   605.451904,   0.523154,   33.740997,   33.470467,   600.139893,   190.421219,   46.953808,   0.490392,   537.366455,   456.900665
-0.007687,   0.040181,   0.039698,   0.000000,   605.528015,   0.523154,   33.740997,   32.636375,   602.116028,   191.514389,   37.584682,   0.492823,   536.791748,   453.207764
-0.007592,   0.040173,   0.039705,   0.000000,   605.363770,   0.523154,   33.740997,   31.802280,   603.437988,   192.456039,   28.198620,   0.494846,   536.122131,   449.898926
-0.007525,   0.040171,   0.039713,   0.000000,   605.326660,   0.523154,   33.740997,   30.968187,   604.468750,   193.128357,   18.804878,   0.496272,   535.725525,   447.588165
-0.007484,   0.040168,   0.039718,   0.000000,   605.224731,   0.523154,   33.740997,   30.134094,   605.009827,   193.469650,   9.406987,   0.497098,   535.426758,   446.175476
-0.007471,   0.040167,   0.039719,   0.000000,   605.176697,   0.523154,   33.740997,   29.300001,   605.176697,   193.581268,   0.000006,   0.497376,   535.314575,   445.688232
-0.007484,   0.040168,   0.039718,   0.000000,   605.224731,   0.523154,   33.740997,   28.465906,   605.009827,   193.469650,   -9.406974,   0.497098,   535.426758,   446.175476
-0.007525,   0.040171,   0.039713,   0.000000,   605.326660,   0.523154,   33.740997,   27.631813,   604.468750,   193.128326,   -18.804871,   0.496272,   535.725525,   447.588165
-0.007592,   0.040173,   0.039705,   0.000000,   605.363770,   0.523154,   33.740997,   26.797718,   603.437988,   192.456055,   -28.198618,   0.494846,   536.122131,   449.898926
-0.007687,   0.040181,   0.039698,   0.000000,   605.528015,   0.523154,   33.740997,   25.963625,   602.116028,   191.514328,   -37.584675,   0.492823,   536.791809,   453.207916
-0.007808,   0.040198,   0.039699,   0.000000,   605.451965,   0.523154,   33.740997,   25.129532,   600.139954,   190.421295,   -46.953812,   0.490392,   537.366516,   456.900574
-0.007957,   0.040224,   0.039707,   0.000000,   605.366211,   0.523154,   33.740997,   24.295439,   597.743774,   189.208267,   -56.321796,   0.487518,   538.066711,   461.161774
-0.008130,   0.040255,   0.039718,   0.000000,   605.326416,   0.523154,   33.740997,   23.461344,   594.967834,   187.865845,   -65.759483,   0.484162,   538.961121,   466.044739
-0.008327,   0.040295,   0.039739,   0.000000,   605.265076,   0.523153,   33.740997,   22.627251,   591.747925,   186.491837,   -75.237183,   0.480419,   539.972717,   471.311432
-0.008549,   0.040348,   0.039774,   0.000000,   605.239197,   0.523154,   33.740997,   21.793158,   588.142090,   185.146423,   -84.748901,   0.476323,   541.151611,   476.920227
-0.008792,   0.040409,   0.039821,   0.000000,   605.237549,   0.523154,   33.740997,   20.959064,   584.148132,   183.852753,   -94.269669,   0.471900,   542.488647,   482.793152
-0.009055,   0.040481,   0.039881,   0.000000,   605.280945,   0.523154,   33.740997,   20.124969,   579.782898,   182.695053,   -103.803314,   0.467211,   543.992310,   488.840118
-0.009331,   0.040572,   0.039969,   0.000000,   605.426147,   0.523154,   33.740997,   19.290876,   575.106995,   181.797592,   -113.331612,   0.462353,   545.689941,   494.971924
-0.009630,   0.040677,   0.040078,   0.000000,   605.640137,   0.523154,   33.740997,   18.456783,   570.067566,   181.125198,   -122.886482,   0.457289,   547.570129,   501.201263
-0.009949,   0.040790,   0.040200,   0.000000,   605.907532,   0.523154,   33.740997,   17.622690,   564.680725,   180.716583,   -132.398132,   0.452082,   549.602966,   507.433136
-0.010276,   0.040891,   0.040319,   0.000000,   606.198486,   0.523154,   33.740997,   16.788595,   558.838074,   180.623367,   -141.969788,   0.446720,   551.771545,   513.657776
-0.010613,   0.040994,   0.040451,   0.000000,   606.561890,   0.523154,   33.740997,   15.954503,   552.628967,   180.914276,   -151.513763,   0.441287,   554.093445,   519.821960
-0.010962,   0.041119,   0.040619,   0.000000,   607.062134,   0.523154,   33.740997,   15.120409,   546.094055,   181.650772,   -161.048126,   0.435811,   556.620911,   525.963074
-0.011334,   0.041251,   0.040804,   0.000000,   607.601196,   0.523154,   33.740997,   14.286316,   538.983826,   182.703995,   -170.749359,   0.430073,   559.353027,   532.223328
-0.011715,   0.041357,   0.040975,   0.000000,   608.107605,   0.523154,   33.740997,   13.452222,   531.179871,   184.131653,   -180.597610,   0.424096,   562.224121,   538.503723
-0.012112,   0.041461,   0.041158,   0.000000,   608.604492,   0.523154,   33.740997,   12.618128,   522.694580,   185.892471,   -190.565353,   0.417835,   565.284119,   544.855774
-0.012524,   0.041603,   0.041397,   0.000000,   609.274780,   0.523154,   33.740997,   11.784035,   513.629028,   188.290375,   -200.662308,   0.411460,   568.641113,   551.277100
-0.012976,   0.041756,   0.041662,   0.000000,   609.833313,   0.523154,   33.740997,   10.949941,   503.476868,   190.845490,   -211.097275,   0.404415,   572.285645,   557.994995
-0.013455,   0.041926,   0.041965,   0.000000,   610.416565,   0.523154,   33.740997,   10.115848,   492.208466,   194.025955,   -221.857498,   0.396947,   576.260559,   564.875854
-0.013980,   0.042102,   0.042287,   0.000000,   610.832703,   0.523154,   33.740997,   9.281754,   479.654877,   197.558380,   -232.835648,   0.388870,   580.495972,   571.863708
-0.014530,   0.042182,   0.042534,   0.000000,   610.779114,   0.523154,   33.740997,   8.447660,   465.078613,   201.530350,   -244.187927,   0.379921,   584.866089,   578.825500
-0.015085,   0.042260,   0.042804,   0.000000,   610.660156,   0.523154,   33.740997,   7.613567,   448.881683,   206.612793,   -255.668060,   0.370635,   589.523010,   585.668823
-0.015729,   0.042369,   0.043125,   0.000000,   610.204407,   0.523154,   33.740997,   6.779473,   430.685486,   212.249130,   -267.283569,   0.360481,   594.515442,   592.483215
-0.016427,   0.042392,   0.043381,   0.000000,   609.185059,   0.523154,   33.740997,   5.945380,   409.579498,   219.154648,   -279.020142,   0.349501,   599.649536,   598.931946
-0.017132,   0.042292,   0.043535,   0.000000,   607.342224,   0.523154,   33.740997,   5.111286,   385.030304,   227.471268,   -290.602570,   0.337590,   604.779053,   604.729553
-0.013890,   0.034530,   0.035341,   0.000000,   590.357483,   0.517472,   34.510784,   54.127285,   350.287567,   245.284912,   287.822052,   0.337760,   587.767334,   587.715210
-0.013426,   0.035052,   0.035699,   0.000000,   593.622742,   0.517472,   34.510784,   53.271168,   377.793243,   235.239456,   278.118134,   0.349809,   584.159668,   583.433472
-0.012995,   0.035399,   0.035880,   0.000000,   595.619385,   0.517471,   34.510784,   52.415058,   401.460968,   226.439606,   267.730042,   0.360767,   580.152771,   578.126953
-0.012591,   0.035704,   0.036026,   0.000000,   597.060364,   0.517472,   34.510784,   51.558945,   422.252258,   219.058762,   257.055939,   0.370993,   576.210815,   572.369263
-0.012204,   0.035944,   0.036114,   0.000000,   597.934326,   0.517472,   34.510784,   50.702831,   440.919647,   212.488251,   246.009552,   0.380629,   572.217834,   566.120789
-0.011815,   0.036051,   0.036083,   0.000000,   598.187439,   0.517472,   34.510784,   49.846718,   456.773743,   206.946793,   235.216446,   0.389328,   568.261963,   559.665955
-0.011456,   0.036183,   0.036089,   0.000000,   598.383362,   0.517472,   34.510784,   48.990604,   471.257690,   202.275986,   224.400146,   0.397666,   564.572021,   553.151367
-0.011115,   0.036310,   0.036105,   0.000000,   598.503784,   0.517472,   34.510784,   48.134491,   484.314972,   198.438309,   213.735825,   0.405573,   561.142700,   546.641479
-0.010777,   0.036352,   0.036048,   0.000000,   598.265991,   0.517472,   34.510784,   47.278378,   495.661987,   195.077133,   203.393188,   0.412770,   557.808167,   540.157898
-0.010452,   0.036381,   0.035991,   0.000000,   597.965637,   0.517472,   34.510784,   46.422264,   505.893097,   192.272232,   193.269821,   0.419549,   554.695312,   533.761597
-0.010138,   0.036403,   0.035940,   0.000000,   597.674927,   0.517471,   34.510784,   45.566151,   515.198242,   190.052567,   183.355789,   0.426024,   551.808350,   527.436279
-0.009828,   0.036404,   0.035881,   0.000000,   597.334045,   0.517472,   34.510784,   44.710037,   523.595520,   188.253174,   173.680786,   0.432125,   549.106567,   521.214905
-0.009517,   0.036395,   0.035824,   0.000000,   597.033875,   0.517472,   34.510784,   43.853924,   531.364136,   186.982758,   164.097382,   0.438094,   546.569580,   514.955017
-0.009207,   0.036361,   0.035755,   0.000000,   596.753296,   0.517472,   34.510784,   42.997814,   538.508972,   186.223373,   154.631989,   0.443937,   544.170288,   508.630005
-0.008896,   0.036299,   0.035666,   0.000000,   596.457520,   0.517472,   34.510784,   42.141701,   545.122864,   185.882217,   145.178299,   0.449688,   541.860474,   502.171387
-0.008587,   0.036208,   0.035559,   0.000000,   596.138550,   0.517472,   34.510784,   41.285587,   551.184814,   185.905426,   135.799561,   0.455289,   539.649780,   495.633881
-0.008283,   0.036105,   0.035448,   0.000000,   595.860840,   0.517472,   34.510784,   40.429474,   556.829529,   186.334808,   126.429161,   0.460821,   537.564941,   488.975708
-0.007991,   0.036002,   0.035345,   0.000000,   595.633423,   0.517471,   34.510784,   39.573360,   562.163574,   187.101532,   116.933723,   0.466304,   535.605896,   482.169830
-0.007705,   0.035888,   0.035237,   0.000000,   595.436157,   0.517472,   34.510784,   38.717247,   567.095032,   188.210663,   107.430138,   0.471680,   533.770020,   475.256775
-0.007430,   0.035758,   0.035118,   0.000000,   595.231995,   0.517472,   34.510784,   37.861134,   571.628967,   189.572784,   97.850784,   0.476916,   532.030579,   468.244263
-0.007171,   0.035630,   0.035006,   0.000000,   595.053223,   0.517472,   34.510784,   37.005020,   575.785278,   191.108704,   88.222275,   0.481926,   530.436768,   461.276001
-0.006933,   0.035513,   0.034907,   0.000000,   594.889160,   0.517473,   34.510784,   36.148907,   579.551392,   192.766769,   78.534454,   0.486668,   528.983521,   454.417175
-0.006716,   0.035407,   0.034821,   0.000000,   594.788696,   0.517472,   34.510784,   35.292793,   582.959595,   194.493591,   68.812347,   0.491073,   527.724487,   447.831085
-0.006526,   0.035314,   0.034749,   0.000000,   594.687317,   0.517472,   34.510784,   34.436680,   585.920593,   196.180069,   59.106709,   0.495048,   526.616028,   441.648743
-0.006365,   0.035239,   0.034692,   0.000000,   594.545227,   0.517471,   34.510784,   33.580566,   588.401672,   197.746384,   49.373566,   0.498550,   525.622620,   435.967621
-0.006230,   0.035180,   0.034651,   0.000000,   594.315796,   0.517472,   34.510784,   32.724453,   590.355835,   199.110626,   39.560150,   0.501532,   524.703674,   430.898285
-0.006125,   0.035134,   0.034621,   0.000000,   594.116821,   0.517471,   34.510784,   31.868340,   591.872131,   200.185806,   29.736448,   0.503873,   523.980286,   426.798920
-0.006049,   0.035103,   0.034601,   0.000000,   593.905151,   0.517472,   34.510784,   31.012226,   592.903259,   200.997025,   19.840559,   0.505609,   523.395874,   423.650360
-0.006003,   0.035085,   0.034591,   0.000000,   593.655762,   0.517473,   34.510784,   30.156113,   593.403931,   201.545273,   9.937316,   0.506736,   522.921814,   421.497284
-0.005988,   0.035079,   0.034587,   0.000000,   593.592590,   0.517471,   34.510784,   29.299999,   593.592590,   201.749390,   -0.000000,   0.507124,   522.779114,   420.765503
-0.006003,   0.035085,   0.034591,   0.000000,   593.655762,   0.517472,   34.510784,   28.443888,   593.403931,   201.545242,   -9.937313,   0.506736,   522.921814,   421.497284
-0.006049,   0.035103,   0.034601,   0.000000,   593.905151,   0.517472,   34.510784,   27.587774,   592.903259,   200.997025,   -19.840551,   0.505609,   523.395874,   423.650360
-0.006125,   0.035134,   0.034621,   0.000000,   594.116821,   0.517472,   34.510784,   26.731661,   591.872131,   200.185822,   -29.736452,   0.503873,   523.980286,   426.798920
-0.006230,   0.035180,   0.034651,   0.000000,   594.315796,   0.517471,   34.510784,   25.875547,   590.355835,   199.110641,   -39.560150,   0.501532,   524.703674,   430.898346
-0.006365,   0.035239,   0.034692,   0.000000,   594.545227,   0.517472,   34.510784,   25.019434,   588.401672,   197.746323,   -49.373569,   0.498550,   525.622620,   435.967621
-0.006526,   0.035314,   0.034749,   0.000000,   594.687317,   0.517472,   34.510784,   24.163321,   585.920593,   196.180054,   -59.106728,   0.495048,   526.616028,   441.648743
-0.006716,   0.035407,   0.034821,   0.000000,   594.788696,   0.517472,   34.510784,   23.307207,   582.959595,   194.493561,   -68.812363,   0.491073,   527.724487,   447.831238
-0.006933,   0.035513,   0.034907,   0.000000,   594.889160,   0.517471,   34.510784,   22.451094,   579.551392,   192.766724,   -78.534454,   0.486668,   528.983521,   454.417297
-0.007171,   0.035630,   0.035006,   0.000000,   595.053162,   0.517472,   34.510784,   21.594982,   575.785278,   191.108688,   -88.222260,   0.481926,   530.436768,   461.275940
-0.007430,   0.035758,   0.035118,   0.000000,   595.231995,   0.517472,   34.510784,   20.738867,   571.628967,   189.572769,   -97.850769,   0.476916,   532.030579,   468.244415
-0.007705,   0.035888,   0.035237,   0.000000,   595.436157,   0.517471,   34.510784,   19.882755,   567.095032,   188.210678,   -107.430122,   0.471680,   533.770020,   475.256744
-0.007991,   0.036002,   0.035345,   0.000000,   595.633423,   0.517472,   34.510784,   19.026642,   562.163574,   187.101471,   -116.933708,   0.466304,   535.605957,   482.169983
-0.008283,   0.036105,   0.035448,   0.000000,   595.860779,   0.517473,   34.510784,   18.170528,   556.829468,   186.334808,   -126.429161,   0.460821,   537.564880,   488.975616
-0.008587,   0.036208,   0.035559,   0.000000,   596.138489,   0.517472,   34.510784,   17.314415,   551.184753,   185.905411,   -135.799561,   0.455289,   539.649719,   495.633759
-0.008896,   0.036299,   0.035666,   0.000000,   596.457458,   0.517471,   34.510784,   16.458302,   545.122803,   185.882217,   -145.178299,   0.449688,   541.860352,   502.171234
-0.009207,   0.036361,   0.035755,   0.000000,   596.753296,   0.517472,   34.510784,   15.602188,   538.508972,   186.223389,   -154.631973,   0.443937,   544.170227,   508.630005
-0.009517,   0.036395,   0.035824,   0.000000,   597.033875,   0.517472,   34.510784,   14.746075,   531.364136,   186.982773,   -164.097366,   0.438094,   546.569580,   514.955017
-0.009828,   0.036404,   0.035881,   0.000000,   597.334045,   0.517472,   34.510784,   13.889962,   523.595520,   188.253189,   -173.680756,   0.432125,   549.106567,   521.214844
-0.010138,   0.036403,   0.035940,   0.000000,   597.674866,   0.517472,   34.510784,   13.033849,   515.198181,   190.052536,   -183.355759,   0.426024,   551.808350,   527.436279
-0.010452,   0.036381,   0.035991,   0.000000,   597.965637,   0.517472,   34.510784,   12.177735,   505.893097,   192.272263,   -193.269791,   0.419549,   554.695312,   533.761536
-0.010777,   0.036352,   0.036048,   0.000000,   598.265991,   0.517472,   34.510784,   11.321622,   495.662018,   195.077179,   -203.393143,   0.412770,   557.808167,   540.157898
-0.011115,   0.036310,   0.036105,   0.000000,   598.503784,   0.517472,   34.510784,   10.465509,   484.315002,   198.438324,   -213.735779,   0.405573,   561.142639,   546.641541
-0.011456,   0.036183,   0.036089,   0.000000,   598.383362,   0.517472,   34.510784,   9.609395,   471.257721,   202.276016,   -224.400116,   0.397666,   564.572021,   553.151306
-0.011815,   0.036051,   0.036083,   0.000000,   598.187378,   0.517472,   34.510784,   8.753282,   456.773743,   206.946777,   -235.216431,   0.389328,   568.261963,   559.665955
-0.012204,   0.035944,   0.036114,   0.000000,   597.934326,   0.517472,   34.510784,   7.897169,   440.919586,   212.488205,   -246.009583,   0.380629,   572.217834,   566.120850
-0.012591,   0.035704,   0.036026,   0.000000,   597.060303,   0.517472,   34.510784,   7.041056,   422.252197,   219.058716,   -257.055939,   0.370993,   576.210815,   572.369263
-0.012995,   0.035399,   0.035880,   0.000000,   595.619263,   0.517472,   34.510784,   6.184943,   401.460785,   226.439484,   -267.730072,   0.360767,   580.152710,   578.126892
-0.013426,   0.035052,   0.035699,   0.000000,   593.622681,   0.517472,   34.510784,   5.328829,   377.793152,   235.239471,   -278.118134,   0.349809,   584.159668,   583.433472
-0.013890,   0.034530,   0.035341,   0.000000,   590.357422,   0.517472,   34.510784,   4.472716,   350.287567,   245.284897,   -287.822021,   0.337760,   587.767273,   587.715210
-0.010680,   0.026527,   0.026746,   0.000000,   566.543457,   0.522564,   35.259705,   54.819710,   311.264893,   258.403503,   280.466644,   0.336095,   564.987488,   564.968079
-0.010685,   0.027953,   0.028149,   0.000000,   573.683960,   0.522564,   35.259705,   53.939720,   344.092529,   246.955399,   273.886993,   0.348576,   565.202087,   564.601501
-0.010565,   0.028983,   0.029110,   0.000000,   578.558533,   0.522564,   35.259705,   53.059731,   371.866516,   237.427628,   265.535370,   0.360218,   563.819397,   561.929932
-0.010387,   0.029696,   0.029736,   0.000000,   581.506958,   0.522564,   35.259705,   52.179741,   395.275726,   228.751114,   256.308716,   0.370481,   561.455872,   557.816162
-0.010184,   0.030245,   0.030182,   0.000000,   583.413330,   0.522564,   35.259705,   51.299751,   415.830536,   221.026108,   246.434296,   0.380023,   558.612366,   552.816833
-0.009994,   0.030768,   0.030611,   0.000000,   584.988464,   0.522565,   35.259705,   50.419762,   434.101318,   214.556686,   236.417831,   0.388957,   555.895081,   547.601685
-0.009804,   0.031224,   0.030973,   0.000000,   586.165039,   0.522564,   35.259705,   49.539768,   450.529572,   209.040009,   226.167038,   0.397479,   553.127930,   542.007324
-0.009586,   0.031551,   0.031214,   0.000000,   586.835266,   0.522564,   35.259705,   48.659779,   464.692932,   204.459412,   216.111694,   0.405316,   550.313660,   536.199707
-0.009352,   0.031847,   0.031432,   0.000000,   587.456055,   0.522564,   35.259705,   47.779793,   477.669800,   200.914993,   206.002151,   0.413060,   547.608337,   530.145203
-0.009111,   0.032083,   0.031600,   0.000000,   587.866272,   0.522564,   35.259705,   46.899803,   489.275726,   198.048569,   196.041687,   0.420392,   544.986816,   523.981873
-0.008856,   0.032241,   0.031699,   0.000000,   588.054565,   0.522564,   35.259705,   46.019814,   499.548706,   195.814758,   186.321045,   0.427321,   542.420410,   517.724243
-0.008593,   0.032356,   0.031765,   0.000000,   588.155640,   0.522565,   35.259705,   45.139820,   508.854004,   194.185699,   176.755402,   0.434008,   539.958984,   511.365051
-0.008321,   0.032430,   0.031799,   0.000000,   588.188843,   0.522564,   35.259705,   44.259830,   517.332581,   193.103577,   167.314850,   0.440505,   537.592773,   504.878815
-0.008031,   0.032448,   0.031789,   0.000000,   588.141785,   0.522564,   35.259705,   43.379841,   525.030945,   192.574173,   158.001892,   0.446869,   535.283752,   498.198486
-0.007735,   0.032419,   0.031740,   0.000000,   587.985535,   0.522564,   35.259705,   42.499851,   532.070007,   192.404678,   148.724991,   0.453069,   533.012817,   491.334106
-0.007432,   0.032347,   0.031658,   0.000000,   587.775452,   0.522564,   35.259705,   41.619862,   538.527588,   192.688629,   139.489029,   0.459195,   530.795898,   484.230194
-0.007128,   0.032242,   0.031550,   0.000000,   587.527466,   0.522565,   35.259705,   40.739872,   544.508179,   193.379242,   130.215073,   0.465278,   528.636047,   476.849945
-0.006823,   0.032101,   0.031411,   0.000000,   587.204651,   0.522564,   35.259705,   39.859882,   550.045349,   194.388504,   120.817101,   0.471308,   526.502258,   469.156403
-0.006521,   0.031923,   0.031242,   0.000000,   586.818787,   0.522564,   35.259705,   38.979893,   555.086609,   195.735794,   111.399841,   0.477243,   524.416931,   461.195496
-0.006229,   0.031734,   0.031066,   0.000000,   586.421875,   0.522564,   35.259705,   38.099903,   559.766174,   197.366409,   101.835831,   0.483092,   522.421509,   452.979034
-0.005951,   0.031540,   0.030889,   0.000000,   586.031555,   0.522564,   35.259705,   37.219910,   564.088440,   199.208145,   92.130913,   0.488775,   520.550598,   444.614868
-0.005693,   0.031348,   0.030717,   0.000000,   585.612183,   0.522565,   35.259705,   36.339920,   567.992188,   201.175446,   82.302933,   0.494207,   518.788879,   436.199890
-0.005457,   0.031166,   0.030555,   0.000000,   585.223083,   0.522565,   35.259705,   35.459930,   571.508911,   203.233887,   72.378548,   0.499322,   517.196716,   427.897125
-0.005247,   0.031002,   0.030412,   0.000000,   584.828308,   0.522564,   35.259705,   34.579941,   574.586975,   205.266876,   62.347466,   0.504021,   515.754395,   419.875397
-0.005070,   0.030861,   0.030291,   0.000000,   584.300903,   0.522564,   35.259705,   33.699951,   577.081421,   207.070435,   52.186344,   0.508165,   514.368408,   412.354401
-0.004920,   0.030744,   0.030192,   0.000000,   583.908936,   0.522564,   35.259705,   32.819962,   579.226501,   208.744965,   41.912834,   0.511741,   513.261414,   405.641388
-0.004801,   0.030650,   0.030115,   0.000000,   583.299744,   0.522564,   35.259705,   31.939970,   580.635071,   210.148468,   31.532791,   0.514716,   512.116089,   399.657990
-0.004715,   0.030581,   0.030059,   0.000000,   582.867065,   0.522564,   35.259705,   31.059980,   581.670959,   211.203232,   21.084545,   0.516898,   511.303009,   395.155273
-0.004663,   0.030540,   0.030025,   0.000000,   582.602600,   0.522564,   35.259705,   30.179991,   582.301147,   211.849686,   10.572277,   0.518227,   510.812988,   392.356567
-0.004646,   0.030527,   0.030015,   0.000000,   582.287903,   0.522564,   35.259705,   29.299999,   582.287903,   212.037445,   -0.000000,   0.518716,   510.443176,   391.168915
-0.004663,   0.030540,   0.030025,   0.000000,   582.602661,   0.522564,   35.259705,   28.420010,   582.301208,   211.849701,   -10.572275,   0.518227,   510.813049,   392.356720
-0.004715,   0.030581,   0.030059,   0.000000,   582.867065,   0.522564,   35.259705,   27.540020,   581.670959,   211.203232,   -21.084539,   0.516898,   511.303009,   395.155273
-0.004801,   0.030650,   0.030115,   0.000000,   583.299744,   0.522564,   35.259705,   26.660030,   580.635071,   210.148438,   -31.532793,   0.514716,   512.116089,   399.657990
-0.004920,   0.030744,   0.030192,   0.000000,   583.908936,   0.522564,   35.259705,   25.780041,   579.226501,   208.744965,   -41.912838,   0.511741,   513.261414,   405.641388
-0.005070,   0.030861,   0.030291,   0.000000,   584.300903,   0.522564,   35.259705,   24.900049,   577.081421,   207.070435,   -52.186359,   0.508165,   514.368408,   412.354401
-0.005247,   0.031002,   0.030412,   0.000000,   584.828247,   0.522564,   35.259705,   24.020060,   574.586914,   205.266861,   -62.347488,   0.504021,   515.754395,   419.875397
-0.005457,   0.031166,   0.030555,   0.000000,   585.223022,   0.522564,   35.259705,   23.140070,   571.508911,   203.233841,   -72.378540,   0.499322,   517.196716,   427.897125
-0.005693,   0.031348,   0.030717,   0.000000,   585.612183,   0.522564,   35.259705,   22.260080,   567.992188,   201.175507,   -82.302948,   0.494207,   518.788879,   436.199646
-0.005951,   0.031540,   0.030889,   0.000000,   586.031555,   0.522564,   35.259705,   21.380089,   564.088440,   199.208145,   -92.130905,   0.488775,   520.550598,   444.614868
-0.006229,   0.031734,   0.031066,   0.000000,   586.421814,   0.522564,   35.259705,   20.500099,   559.766113,   197.366394,   -101.835815,   0.483092,   522.421448,   452.978882
-0.006521,   0.031923,   0.031242,   0.000000,   586.818787,   0.522564,   35.259705,   19.620110,   555.086548,   195.735809,   -111.399849,   0.477243,   524.416870,   461.195404
-0.006823,   0.032101,   0.031411,   0.000000,   587.204651,   0.522564,   35.259705,   18.740120,   550.045349,   194.388489,   -120.817085,   0.471308,   526.502197,   469.156372
-0.007128,   0.032242,   0.031550,   0.000000,   587.527405,   0.522564,   35.259705,   17.860130,   544.508179,   193.379181,   -130.215042,   0.465278,   528.635986,   476.849945
-0.007432,   0.032347,   0.031658,   0.000000,   587.775391,   0.522564,   35.259705,   16.980139,   538.527527,   192.688644,   -139.489014,   0.459195,   530.795837,   484.230072
-0.007735,   0.032419,   0.031740,   0.000000,   587.985535,   0.522563,   35.259705,   16.100149,   532.070007,   192.404678,   -148.724976,   0.453069,   533.012756,   491.334076
-0.008031,   0.032448,   0.031789,   0.000000,   588.141785,   0.522564,   35.259705,   15.220160,   525.030945,   192.574158,   -158.001877,   0.446869,   535.283752,   498.198486
-0.008321,   0.032430,   0.031799,   0.000000,   588.188782,   0.522564,   35.259705,   14.340169,   517.332520,   193.103577,   -167.314835,   0.440505,   537.592712,   504.878845
-0.008593,   0.032356,   0.031765,   0.000000,   588.155579,   0.522564,   35.259705,   13.460179,   508.853973,   194.185669,   -176.755356,   0.434008,   539.958923,   511.364899
-0.008856,   0.032241,   0.031699,   0.000000,   588.054565,   0.522564,   35.259705,   12.580190,   499.548737,   195.814774,   -186.320984,   0.427321,   542.420349,   517.724182
-0.009111,   0.032083,   0.031600,   0.000000,   587.866272,   0.522564,   35.259705,   11.700199,   489.275757,   198.048599,   -196.041626,   0.420392,   544.986755,   523.981873
-0.009352,   0.031847,   0.031432,   0.000000,   587.455994,   0.522564,   35.259705,   10.820210,   477.669830,   200.914993,   -206.002106,   0.413060,   547.608337,   530.145142
-0.009586,   0.031551,   0.031214,   0.000000,   586.835205,   0.522564,   35.259705,   9.940220,   464.692932,   204.459396,   -216.111664,   0.405316,   550.313599,   536.199646
-0.009804,   0.031224,   0.030973,   0.000000,   586.164978,   0.522564,   35.259705,   9.060229,   450.529541,   209.039963,   -226.167038,   0.397479,   553.127930,   542.007263
-0.009994,   0.030768,   0.030611,   0.000000,   584.988403,   0.522564,   35.259705,   8.180239,   434.101227,   214.556580,   -236.417847,   0.388957,   555.895081,   547.601685
-0.010184,   0.030245,   0.030182,   0.000000,   583.413269,   0.522564,   35.259705,   7.300249,   415.830444,   221.026031,   -246.434296,   0.380023,   558.612305,   552.816772
-0.010387,   0.029696,   0.029736,   0.000000,   581.506897,   0.522564,   35.259705,   6.420259,   395.275604,   228.751022,   -256.308746,   0.370481,   561.455872,   557.816223
-0.010565,   0.028983,   0.029110,   0.000000,   578.558411,   0.522564,   35.259705,   5.540269,   371.866394,   237.427582,   -265.535339,   0.360218,   563.819275,   561.929810
-0.010685,   0.027953,   0.028149,   0.000000,   573.683838,   0.522564,   35.259705,   4.660279,   344.092438,   246.955368,   -273.886932,   0.348576,   565.201965,   564.601379
-0.010680,   0.026527,   0.026746,   0.000000,   566.543213,   0.522564,   35.259705,   3.780289,   311.264709,   258.403381,   -280.466553,   0.336095,   564.987305,   564.967834
-0.008132,   0.020146,   0.019802,   0.000000,   541.853882,   0.537509,   36.001991,   55.549416,   280.023102,   263.440125,   269.994965,   0.334819,   541.050964,   541.045593
-0.008563,   0.022065,   0.021803,   0.000000,   551.196167,   0.537508,   36.001991,   54.644264,   312.214630,   250.564209,   268.040070,   0.343894,   545.497070,   545.220276
-0.008681,   0.023477,   0.023233,   0.000000,   558.639709,   0.537508,   36.001991,   53.739113,   341.483856,   241.459976,   262.445099,   0.355307,   546.892822,   545.675720
-0.008692,   0.024623,   0.024356,   0.000000,   564.205688,   0.537509,   36.001991,   52.833961,   368.220734,   232.930252,   254.803879,   0.366553,   546.670227,   543.850708
-0.008666,   0.025581,   0.025276,   0.000000,   568.351135,   0.537508,   36.001991,   51.928806,   391.392181,   225.473816,   246.323395,   0.376795,   545.713501,   540.829773
-0.008596,   0.026331,   0.025966,   0.000000,   571.202942,   0.537509,   36.001991,   51.023655,   411.576263,   218.818817,   237.170654,   0.386252,   544.027405,   536.710938
-0.008507,   0.026997,   0.026573,   0.000000,   573.437805,   0.537509,   36.001991,   50.118504,   429.488892,   213.057968,   227.763657,   0.395027,   542.196655,   532.152344
-0.008375,   0.027579,   0.027099,   0.000000,   575.443726,   0.537508,   36.001991,   49.213352,   445.628357,   208.869415,   218.144424,   0.403808,   540.272095,   527.023865
-0.008225,   0.028056,   0.027523,   0.000000,   576.990112,   0.537508,   36.001991,   48.308201,   459.871307,   205.549728,   208.572922,   0.412089,   538.250732,   521.530640
-0.008046,   0.028441,   0.027859,   0.000000,   578.211914,   0.537509,   36.001991,   47.403046,   472.597015,   203.084152,   199.045456,   0.420071,   536.163635,   515.663025
-0.007831,   0.028750,   0.028129,   0.000000,   579.278198,   0.537508,   36.001991,   46.497894,   484.108917,   201.592972,   189.589127,   0.427965,   534.078979,   509.396484
-0.007590,   0.028965,   0.028311,   0.000000,   580.035767,   0.537509,   36.001991,   45.592743,   494.424103,   200.665451,   180.218018,   0.435582,   531.924438,   502.772095
-0.007324,   0.029088,   0.028409,   0.000000,   580.522400,   0.537508,   36.001991,   44.687592,   503.667786,   200.273453,   170.949921,   0.442974,   529.708435,   495.786224
-0.007035,   0.029134,   0.028437,   0.000000,   580.801208,   0.537509,   36.001991,   43.782436,   512.001526,   200.397125,   161.776657,   0.450206,   527.461792,   488.435394
-0.006734,   0.029113,   0.028406,   0.000000,   580.867859,   0.537508,   36.001991,   42.877285,   519.568298,   200.854706,   152.625839,   0.457250,   525.185730,   480.744720
-0.006420,   0.029031,   0.028321,   0.000000,   580.769958,   0.537508,   36.001991,   41.972134,   526.454651,   201.705643,   143.488663,   0.464186,   522.893677,   472.660858
-0.006097,   0.028890,   0.028183,   0.000000,   580.493347,   0.537510,   36.001991,   41.066982,   532.736389,   202.868591,   134.291534,   0.471027,   520.567871,   464.143494
-0.005773,   0.028696,   0.027996,   0.000000,   580.042480,   0.537508,   36.001991,   40.161827,   538.453125,   204.288895,   125.009422,   0.477756,   518.215942,   455.198822
-0.005450,   0.028464,   0.027777,   0.000000,   579.476929,   0.537508,   36.001991,   39.256676,   543.677917,   206.000229,   115.629166,   0.484399,   515.882080,   445.815643
-0.005139,   0.028208,   0.027537,   0.000000,   578.815796,   0.537509,   36.001991,   38.351524,   548.479614,   207.911011,   106.074631,   0.490915,   513.592651,   436.036224
-0.004843,   0.027938,   0.027285,   0.000000,   578.075012,   0.537508,   36.001991,   37.446369,   552.858215,   210.004608,   96.340805,   0.497270,   511.366791,   425.893311
-0.004566,   0.027665,   0.027032,   0.000000,   577.293091,   0.537508,   36.001991,   36.541222,   556.842712,   212.253113,   86.401360,   0.503424,   509.243713,   415.457855
-0.004311,   0.027400,   0.026788,   0.000000,   576.497437,   0.537511,   36.001991,   35.636066,   560.418640,   214.579147,   76.283821,   0.509267,   507.263977,   404.917755
-0.004084,   0.027154,   0.026562,   0.000000,   575.585449,   0.537508,   36.001991,   34.730915,   563.468567,   216.860901,   65.928925,   0.514720,   505.342529,   394.365814
-0.003886,   0.026936,   0.026364,   0.000000,   574.699829,   0.537508,   36.001991,   33.825764,   566.080627,   219.060684,   55.365376,   0.519674,   503.611786,   384.169281
-0.003722,   0.026750,   0.026197,   0.000000,   573.740051,   0.537509,   36.001991,   32.920609,   568.103149,   221.037476,   44.588566,   0.524011,   501.987152,   374.606934
-0.003591,   0.026600,   0.026063,   0.000000,   572.840027,   0.537509,   36.001991,   32.015457,   569.609680,   222.701202,   33.631386,   0.527584,   500.591125,   366.254730
-0.003497,   0.026492,   0.025967,   0.000000,   572.045654,   0.537509,   36.001991,   31.110304,   570.584656,   223.975082,   22.550663,   0.530279,   499.460266,   359.609070
-0.003440,   0.026426,   0.025910,   0.000000,   571.437500,   0.537508,   36.001991,   30.205153,   571.069641,   224.787430,   11.291964,   0.531996,   498.661377,   355.180603
-0.003421,   0.026403,   0.025890,   0.000000,   571.232239,   0.537509,   36.001991,   29.300001,   571.232239,   225.068665,   0.000002,   0.532579,   498.393097,   353.652466
-0.003440,   0.026426,   0.025910,   0.000000,   571.437500,   0.537509,   36.001991,   28.394848,   571.069641,   224.787445,   -11.291966,   0.531996,   498.661377,   355.180603
-0.003497,   0.026492,   0.025967,   0.000000,   572.045654,   0.537508,   36.001991,   27.489697,   570.584656,   223.975052,   -22.550663,   0.530279,   499.460266,   359.609070
-0.003591,   0.026600,   0.026063,   0.000000,   572.839966,   0.537509,   36.001991,   26.584543,   569.609619,   222.701202,   -33.631390,   0.527584,   500.591064,   366.254669
-0.003722,   0.026750,   0.026197,   0.000000,   573.740051,   0.537508,   36.001991,   25.679390,   568.103149,   221.037430,   -44.588558,   0.524011,   501.987152,   374.607147
-0.003886,   0.026936,   0.026364,   0.000000,   574.699829,   0.537509,   36.001991,   24.774239,   566.080627,   219.060669,   -55.365364,   0.519674,   503.611755,   384.169281
-0.004084,   0.027154,   0.026562,   0.000000,   575.585449,   0.537509,   36.001991,   23.869085,   563.468567,   216.860916,   -65.928947,   0.514720,   505.342529,   394.365845
-0.004311,   0.027400,   0.026788,   0.000000,   576.497437,   0.537508,   36.001991,   22.963934,   560.418640,   214.579147,   -76.283806,   0.509267,   507.263977,   404.917755
-0.004566,   0.027665,   0.027032,   0.000000,   577.293030,   0.537509,   36.001991,   22.058783,   556.842651,   212.253113,   -86.401360,   0.503424,   509.243683,   415.457672
-0.004843,   0.027938,   0.027285,   0.000000,   578.074951,   0.537509,   36.001991,   21.153629,   552.858154,   210.004623,   -96.340797,   0.497270,   511.366760,   425.893158
-0.005139,   0.028208,   0.027537,   0.000000,   578.815796,   0.537508,   36.001991,   20.248476,   548.479614,   207.910965,   -106.074623,   0.490915,   513.592651,   436.036224
-0.005450,   0.028464,   0.027777,   0.000000,   579.476929,   0.537509,   36.001991,   19.343325,   543.677917,   206.000229,   -115.629158,   0.484399,   515.882080,   445.815643
-0.005773,   0.028696,   0.027996,   0.000000,   580.042480,   0.537509,   36.001991,   18.438171,   538.453125,   204.288895,   -125.009438,   0.477756,   518.215942,   455.198853
-0.006097,   0.028890,   0.028183,   0.000000,   580.493286,   0.537508,   36.001991,   17.533020,   532.736328,   202.868591,   -134.291519,   0.471027,   520.567810,   464.143341
-0.006420,   0.029031,   0.028321,   0.000000,   580.769958,   0.537509,   36.001991,   16.627869,   526.454651,   201.705643,   -143.488647,   0.464186,   522.893677,   472.660828
-0.006734,   0.029113,   0.028406,   0.000000,   580.867859,   0.537508,   36.001991,   15.722715,   519.568298,   200.854721,   -152.625824,   0.457250,   525.185730,   480.744690
-0.007035,   0.029134,   0.028437,   0.000000,   580.801208,   0.537509,   36.001991,   14.817563,   512.001526,   200.397095,   -161.776627,   0.450205,   527.461853,   488.435547
-0.007324,   0.029088,   0.028409,   0.000000,   580.522339,   0.537509,   36.001991,   13.912411,   503.667786,   200.273468,   -170.949905,   0.442974,   529.708435,   495.786194
-0.007590,   0.028965,   0.028311,   0.000000,   580.035767,   0.537508,   36.001991,   13.007258,   494.424103,   200.665497,   -180.217987,   0.435582,   531.924377,   502.772034
-0.007831,   0.028750,   0.028129,   0.000000,   579.278198,   0.537509,   36.001991,   12.102106,   484.108917,   201.592972,   -189.589096,   0.427965,   534.078918,   509.396454
-0.008046,   0.028441,   0.027859,   0.000000,   578.211914,   0.537509,   36.001991,   11.196954,   472.597015,   203.084122,   -199.045425,   0.420072,   536.163574,   515.662964
-0.008225,   0.028056,   0.027523,   0.000000,   576.990112,   0.537509,   36.001991,   10.291800,   459.871307,   205.549683,   -208.572906,   0.412089,   538.250732,   521.530579
-0.008375,   0.027579,   0.027099,   0.000000,   575.443726,   0.537508,   36.001991,   9.386649,   445.628326,   208.869370,   -218.144440,   0.403807,   540.272095,   527.023987
-0.008507,   0.026997,   0.026573,   0.000000,   573.437744,   0.537509,   36.001991,   8.481497,   429.488800,   213.057877,   -227.763687,   0.395027,   542.196655,   532.152344
-0.008596,   0.026331,   0.025966,   0.000000,   571.202942,   0.537509,   36.001991,   7.576344,   411.576233,   218.818756,   -237.170670,   0.386252,   544.027405,   536.710999
-0.008666,   0.025581,   0.025276,   0.000000,   568.351074,   0.537509,   36.001991,   6.671192,   391.392090,   225.473694,   -246.323410,   0.376795,   545.713501,   540.829712
-0.008692,   0.024623,   0.024356,   0.000000,   564.205627,   0.537509,   36.001991,   5.766040,   368.220673,   232.930145,   -254.803879,   0.366553,   546.670166,   543.850708
-0.008681,   0.023477,   0.023233,   0.000000,   558.639587,   0.537509,   36.001991,   4.860888,   341.483795,   241.459839,   -262.445099,   0.355306,   546.892761,   545.675781
-0.008563,   0.022065,   0.021803,   0.000000,   551.196045,   0.537509,   36.001991,   3.955735,   312.214569,   250.563995,   -268.040070,   0.343893,   545.496948,   545.220215
-0.008132,   0.020146,   0.019802,   0.000000,   541.853882,   0.537509,   36.001991,   3.050583,   280.023254,   263.440002,   -269.994934,   0.334820,   541.050964,   541.045593
-0.006517,   0.016161,   0.015427,   0.000000,   522.076904,   0.552449,   36.744282,   56.279121,   265.146179,   257.309509,   260.819611,   0.333696,   521.887573,   521.887268
-0.007082,   0.017723,   0.017088,   0.000000,   529.213013,   0.552447,   36.744282,   55.348808,   286.356262,   246.017029,   262.251892,   0.336324,   527.639954,   527.618652
-0.007369,   0.019259,   0.018689,   0.000000,   538.257507,   0.552447,   36.744282,   54.418495,   314.203796,   238.156876,   259.304199,   0.346516,   531.346313,   530.924988
-0.007520,   0.020590,   0.020039,   0.000000,   545.785522,   0.552449,   36.744282,   53.488178,   342.059570,   230.335831,   253.506012,   0.357985,   532.979065,   531.481384
-0.007588,   0.021754,   0.021201,   0.000000,   551.953796,   0.552447,   36.744282,   52.557865,   367.391968,   223.674286,   246.146057,   0.369319,   533.474060,   530.233765
-0.007613,   0.022797,   0.022231,   0.000000,   557.152710,   0.552448,   36.744282,   51.627552,   389.818085,   218.524567,   238.042480,   0.380164,   533.403198,   527.834473
-0.007585,   0.023642,   0.023049,   0.000000,   561.077942,   0.552448,   36.744282,   50.697235,   409.444977,   214.115326,   229.370819,   0.390267,   532.592712,   524.251831
-0.007532,   0.024401,   0.023778,   0.000000,   564.469788,   0.552448,   36.744282,   49.766922,   426.901459,   210.895508,   220.546173,   0.399913,   531.612671,   520.052368
-0.007424,   0.025057,   0.024409,   0.000000,   567.473389,   0.552447,   36.744282,   48.836605,   442.630157,   208.972809,   211.557007,   0.409476,   530.436157,   515.104553
-0.007265,   0.025582,   0.024912,   0.000000,   570.007263,   0.552449,   36.744282,   47.906292,   456.720245,   208.115234,   202.478836,   0.418921,   529.006531,   509.355286
-0.007049,   0.025951,   0.025262,   0.000000,   571.947449,   0.552447,   36.744282,   46.975975,   469.151703,   208.005295,   193.421036,   0.428086,   527.274658,   502.838562
-0.006795,   0.026202,   0.025499,   0.000000,   573.421509,   0.552448,   36.744282,   46.045662,   480.337097,   208.426620,   184.323975,   0.437032,   525.334473,   495.629272
-0.006508,   0.026349,   0.025637,   0.000000,   574.504700,   0.552447,   36.744282,   45.115349,   490.405853,   209.343384,   175.241714,   0.445773,   523.247864,   487.782501
-0.006196,   0.026399,   0.025684,   0.000000,   575.209656,   0.552450,   36.744282,   44.185036,   499.462006,   210.632721,   166.180130,   0.454289,   521.030640,   479.330780
-0.005862,   0.026354,   0.025642,   0.000000,   575.535889,   0.552447,   36.744282,   43.254719,   507.607788,   212.197556,   157.101501,   0.462593,   518.674255,   470.257263
-0.005514,   0.026218,   0.025513,   0.000000,   575.475342,   0.552448,   36.744282,   42.324406,   514.891846,   213.933060,   147.998322,   0.470655,   516.177368,   460.589111
-0.005160,   0.026013,   0.025319,   0.000000,   575.103882,   0.552448,   36.744282,   41.394089,   521.474976,   215.815079,   138.810211,   0.478520,   513.590210,   450.326965
-0.004807,   0.025752,   0.025072,   0.000000,   574.459656,   0.552447,   36.744282,   40.463776,   527.420410,   217.814514,   129.523438,   0.486181,   510.944824,   439.491913
-0.004461,   0.025448,   0.024785,   0.000000,   573.596436,   0.552448,   36.744282,   39.533463,   532.805359,   219.956375,   120.105598,   0.493670,   508.275970,   428.052216
-0.004128,   0.025114,   0.024469,   0.000000,   572.541870,   0.552448,   36.744282,   38.603146,   537.683472,   222.177353,   110.513092,   0.500950,   505.613129,   416.043915
-0.003812,   0.024762,   0.024137,   0.000000,   571.327332,   0.552448,   36.744282,   37.672832,   542.088318,   224.499695,   100.702065,   0.508036,   502.975067,   403.420959
-0.003518,   0.024404,   0.023799,   0.000000,   570.039062,   0.552447,   36.744282,   36.742519,   546.086060,   226.912994,   90.658142,   0.514878,   500.441956,   390.272064
-0.003249,   0.024053,   0.023468,   0.000000,   568.659546,   0.552450,   36.744282,   35.812202,   549.639587,   229.386642,   80.330345,   0.521440,   497.996765,   376.595276
-0.003009,   0.023723,   0.023157,   0.000000,   567.119385,   0.552447,   36.744282,   34.881889,   552.636719,   231.842850,   69.682877,   0.527650,   495.581146,   362.451111
-0.002797,   0.023423,   0.022877,   0.000000,   565.594727,   0.552448,   36.744282,   33.951572,   555.185547,   234.279190,   58.725765,   0.533403,   493.351257,   348.179535
-0.002623,   0.023165,   0.022636,   0.000000,   564.026367,   0.552448,   36.744282,   33.021259,   557.142212,   236.434158,   47.488796,   0.538452,   491.270477,   334.442047
-0.002485,   0.022958,   0.022443,   0.000000,   562.522156,   0.552448,   36.744282,   32.090942,   558.534485,   238.328888,   35.955307,   0.542734,   489.412781,   321.729797
-0.002385,   0.022806,   0.022303,   0.000000,   561.306580,   0.552448,   36.744282,   31.160629,   559.491943,   239.774063,   24.154980,   0.545972,   487.976990,   311.369965
-0.002325,   0.022713,   0.022219,   0.000000,   560.262634,   0.552448,   36.744282,   30.230314,   559.800659,   240.691360,   12.150701,   0.548087,   486.839661,   304.083923
-0.002304,   0.022682,   0.022190,   0.000000,   559.999207,   0.552448,   36.744282,   29.299999,   559.999207,   241.011917,   0.000000,   0.548783,   486.538147,   301.658966
-0.002325,   0.022713,   0.022219,   0.000000,   560.262634,   0.552448,   36.744282,   28.369686,   559.800659,   240.691345,   -12.150702,   0.548087,   486.839661,   304.083923
-0.002385,   0.022806,   0.022303,   0.000000,   561.306580,   0.552448,   36.744282,   27.439371,   559.491943,   239.774063,   -24.154987,   0.545972,   487.976990,   311.369965
-0.002485,   0.022958,   0.022443,   0.000000,   562.522156,   0.552448,   36.744282,   26.509056,   558.534485,   238.328873,   -35.955307,   0.542734,   489.412781,   321.729797
-0.002623,   0.023165,   0.022636,   0.000000,   564.026367,   0.552448,   36.744282,   25.578741,   557.142212,   236.434219,   -47.488808,   0.538452,   491.270477,   334.441803
-0.002797,   0.023423,   0.022877,   0.000000,   565.594666,   0.552448,   36.744282,   24.648426,   555.185486,   234.279144,   -58.725750,   0.533403,   493.351196,   348.179504
-0.003009,   0.023723,   0.023157,   0.000000,   567.119324,   0.552448,   36.744282,   23.718113,   552.636658,   231.842850,   -69.682892,   0.527650,   495.581085,   362.451111
-0.003249,   0.024053,   0.023468,   0.000000,   568.659546,   0.552448,   36.744282,   22.787798,   549.639526,   229.386658,   -80.330360,   0.521440,   497.996765,   376.595306
-0.003518,   0.024404,   0.023799,   0.000000,   570.039001,   0.552448,   36.744282,   21.857483,   546.085999,   226.912979,   -90.658142,   0.514878,   500.441925,   390.272034
-0.003812,   0.024762,   0.024137,   0.000000,   571.327332,   0.552448,   36.744282,   20.927168,   542.088318,   224.499634,   -100.702049,   0.508036,   502.975067,   403.421112
-0.004128,   0.025114,   0.024469,   0.000000,   572.541870,   0.552448,   36.744282,   19.996855,   537.683472,   222.177399,   -110.513092,   0.500950,   505.613129,   416.043915
-0.004461,   0.025448,   0.024785,   0.000000,   573.596436,   0.552448,   36.744282,   19.066540,   532.805359,   219.956345,   -120.105576,   0.493670,   508.275970,   428.052185
-0.004807,   0.025752,   0.025072,   0.000000,   574.459656,   0.552448,   36.744282,   18.136225,   527.420410,   217.814514,   -129.523422,   0.486181,   510.944824,   439.491882
-0.005160,   0.026013,   0.025319,   0.000000,   575.103882,   0.552448,   36.744282,   17.205910,   521.474915,   215.815140,   -138.810226,   0.478520,   513.590210,   450.326904
-0.005514,   0.026218,   0.025513,   0.000000,   575.475281,   0.552448,   36.744282,   16.275597,   514.891785,   213.933029,   -147.998306,   0.470655,   516.177368,   460.589111
-0.005862,   0.026354,   0.025642,   0.000000,   575.535889,   0.552448,   36.744282,   15.345281,   507.607788,   212.197571,   -157.101486,   0.462593,   518.674255,   470.257233
-0.006196,   0.026399,   0.025684,   0.000000,   575.209595,   0.552448,   36.744282,   14.414967,   499.462006,   210.632751,   -166.180099,   0.454289,   521.030579,   479.330750
-0.006508,   0.026349,   0.025637,   0.000000,   574.504700,   0.552448,   36.744282,   13.484652,   490.405884,   209.343399,   -175.241669,   0.445773,   523.247803,   487.782501
-0.006795,   0.026202,   0.025499,   0.000000,   573.421509,   0.552448,   36.744282,   12.554337,   480.337097,   208.426605,   -184.323959,   0.437032,   525.334473,   495.629303
-0.007049,   0.025951,   0.025262,   0.000000,   571.947388,   0.552448,   36.744282,   11.624022,   469.151703,   208.005280,   -193.421021,   0.428086,   527.274658,   502.838531
-0.007265,   0.025582,   0.024912,   0.000000,   570.007263,   0.552448,   36.744282,   10.693707,   456.720215,   208.115204,   -202.478836,   0.418921,   529.006531,   509.355225
-0.007424,   0.025057,   0.024409,   0.000000,   567.473389,   0.552448,   36.744282,   9.763393,   442.630157,   208.972763,   -211.557007,   0.409476,   530.436157,   515.104614
-0.007532,   0.024401,   0.023778,   0.000000,   564.469727,   0.552448,   36.744282,   8.833078,   426.901398,   210.895462,   -220.546204,   0.399913,   531.612671,   520.052429
-0.007585,   0.023642,   0.023049,   0.000000,   561.077942,   0.552448,   36.744282,   7.902764,   409.444946,   214.115295,   -229.370834,   0.390267,   532.592773,   524.251831
-0.007613,   0.022797,   0.022231,   0.000000,   557.152710,   0.552448,   36.744282,   6.972449,   389.817993,   218.524490,   -238.042526,   0.380164,   533.403198,   527.834534
-0.007588,   0.021754,   0.021201,   0.000000,   551.953796,   0.552448,   36.744282,   6.042135,   367.391876,   223.674240,   -246.146088,   0.369319,   533.474060,   530.233826
-0.007520,   0.020590,   0.020039,   0.000000,   545.785522,   0.552448,   36.744282,   5.111820,   342.059540,   230.335770,   -253.506058,   0.357985,   532.979126,   531.481445
-0.007369,   0.019259,   0.018689,   0.000000,   538.257507,   0.552448,   36.744282,   4.181505,   314.203796,   238.156784,   -259.304230,   0.346516,   531.346375,   530.924988
-0.007082,   0.017723,   0.017088,   0.000000,   529.213074,   0.552448,   36.744282,   3.251191,   286.356384,   246.016983,   -262.251923,   0.336324,   527.640015,   527.618774
-0.006517,   0.016161,   0.015427,   0.000000,   522.077087,   0.552448,   36.744282,   2.320876,   265.146484,   257.309418,   -260.819702,   0.333696,   521.887756,   521.887451
-0.005166,   0.012727,   0.011652,   -4.498719,   499.469696,   0.567390,   37.486568,   57.008831,   257.116547,   237.854416,   251.800079,   0.328840,   501.734161,   501.688812
-0.005729,   0.014113,   0.013147,   -3.698556,   507.118774,   0.567390,   37.486568,   56.053352,   269.653503,   233.766708,   254.777588,   0.329693,   508.978149,   508.947845
-0.006260,   0.015603,   0.014719,   0.000000,   515.075989,   0.567390,   37.486568,   55.097878,   291.479553,   224.419800,   254.930756,   0.334133,   514.664795,   514.663330
-0.006651,   0.017191,   0.016371,   0.000000,   524.646545,   0.567390,   37.486568,   54.142399,   317.654510,   217.984253,   251.945755,   0.343862,   519.237732,   518.975830
-0.006914,   0.018682,   0.017895,   0.000000,   533.663940,   0.567390,   37.486568,   53.186924,   344.347046,   213.107224,   246.346893,   0.355854,   522.175354,   520.953857
-0.007066,   0.020018,   0.019257,   0.000000,   541.901733,   0.567390,   37.486568,   52.231445,   368.175812,   211.184845,   239.695847,   0.368426,   524.177063,   521.152954
-0.007125,   0.021201,   0.020451,   0.000000,   549.012573,   0.567390,   37.486568,   51.275970,   390.056030,   210.240616,   232.056076,   0.380958,   525.251648,   519.574158
-0.007101,   0.022161,   0.021417,   0.000000,   554.843994,   0.567391,   37.486568,   50.320492,   409.115173,   210.368362,   224.053604,   0.392938,   525.514282,   516.456787
-0.006991,   0.022930,   0.022188,   0.000000,   559.706421,   0.567389,   37.486568,   49.365013,   426.046661,   211.460236,   215.746368,   0.404653,   525.146423,   511.939392
-0.006794,   0.023504,   0.022766,   0.000000,   563.686707,   0.567391,   37.486568,   48.409538,   441.096985,   213.392166,   207.225769,   0.416169,   524.217224,   506.068542
-0.006534,   0.023920,   0.023188,   0.000000,   566.920532,   0.567390,   37.486568,   47.454060,   454.690613,   215.885681,   198.485809,   0.427508,   522.856445,   498.947327
-0.006227,   0.024180,   0.023457,   0.000000,   569.375732,   0.567390,   37.486568,   46.498585,   466.852844,   218.662567,   189.621002,   0.438501,   521.104614,   490.701508
-0.005875,   0.024281,   0.023569,   0.000000,   571.043396,   0.567390,   37.486568,   45.543106,   477.654816,   221.580322,   180.653946,   0.449125,   518.961121,   481.366516
-0.005496,   0.024255,   0.023555,   0.000000,   572.041443,   0.567390,   37.486568,   44.587631,   487.326660,   224.551224,   171.573761,   0.459406,   516.520447,   471.030304
-0.005100,   0.024121,   0.023438,   0.000000,   572.459290,   0.567390,   37.486568,   43.632153,   495.962646,   227.551041,   162.432556,   0.469330,   513.862427,   459.787415
-0.004698,   0.023902,   0.023237,   0.000000,   572.365173,   0.567391,   37.486568,   42.676678,   503.698883,   230.507416,   153.212585,   0.478897,   511.040314,   447.692169
-0.004299,   0.023610,   0.022966,   0.000000,   571.800110,   0.567389,   37.486568,   41.721199,   510.621490,   233.345444,   143.896423,   0.488084,   508.086334,   434.795105
-0.003909,   0.023262,   0.022640,   0.000000,   570.837646,   0.567390,   37.486568,   40.765724,   516.817871,   236.102417,   134.470505,   0.496933,   505.044617,   421.078125
-0.003533,   0.022871,   0.022271,   0.000000,   569.532349,   0.567390,   37.486568,   39.810246,   522.367676,   238.761017,   124.902840,   0.505446,   501.952118,   406.536438
-0.003177,   0.022451,   0.021873,   0.000000,   567.937195,   0.567390,   37.486568,   38.854771,   527.342041,   241.327667,   115.146690,   0.513637,   498.841370,   391.119598
-0.002844,   0.022013,   0.021455,   0.000000,   566.112671,   0.567391,   37.486568,   37.899292,   531.783508,   243.834091,   105.183464,   0.521506,   495.754486,   374.774109
-0.002537,   0.021571,   0.021032,   0.000000,   564.126099,   0.567389,   37.486568,   36.943813,   535.744507,   246.302811,   94.975410,   0.529046,   492.740143,   357.430206
-0.002259,   0.021137,   0.020617,   0.000000,   561.955994,   0.567391,   37.486568,   35.988338,   539.191833,   248.729431,   84.441338,   0.536255,   489.767578,   338.895325
-0.002013,   0.020726,   0.020222,   0.000000,   559.653992,   0.567389,   37.486568,   35.032864,   542.118408,   251.134323,   73.553253,   0.543092,   486.874237,   319.058472
-0.001800,   0.020350,   0.019861,   0.000000,   557.206116,   0.567391,   37.486568,   34.077385,   544.455688,   253.449371,   62.233734,   0.549475,   484.041077,   297.853302
-0.001622,   0.020023,   0.019547,   0.000000,   554.816589,   0.567390,   37.486568,   33.121906,   546.291687,   255.585785,   50.506550,   0.555191,   481.442688,   275.851349
-0.001483,   0.019756,   0.019292,   0.000000,   552.529358,   0.567390,   37.486568,   32.166431,   547.533386,   257.409363,   38.398033,   0.560040,   479.098511,   253.911118
-0.001381,   0.019558,   0.019103,   0.000000,   550.548828,   0.567390,   37.486568,   31.210953,   548.257141,   258.842499,   25.855223,   0.563826,   477.156738,   233.693542
-0.001320,   0.019436,   0.018988,   0.000000,   549.115234,   0.567390,   37.486568,   30.255476,   548.530823,   259.708038,   13.005422,   0.566234,   475.798157,   218.748550
-0.001300,   0.019396,   0.018950,   0.000000,   548.550720,   0.567390,   37.486568,   29.299999,   548.550720,   259.998352,   0.000000,   0.567077,   475.273346,   212.997284
-0.001320,   0.019436,   0.018988,   0.000000,   549.115234,   0.567390,   37.486568,   28.344522,   548.530823,   259.708038,   -13.005422,   0.566234,   475.798157,   218.748550
-0.001381,   0.019558,   0.019103,   0.000000,   550.548828,   0.567391,   37.486568,   27.389046,   548.257141,   258.842529,   -25.855230,   0.563826,   477.156738,   233.693207
-0.001483,   0.019756,   0.019292,   0.000000,   552.529358,   0.567390,   37.486568,   26.433569,   547.533386,   257.409363,   -38.398041,   0.560040,   479.098511,   253.911118
-0.001622,   0.020023,   0.019547,   0.000000,   554.816589,   0.567390,   37.486568,   25.478092,   546.291687,   255.585739,   -50.506542,   0.555191,   481.442688,   275.851349
-0.001800,   0.020350,   0.019861,   0.000000,   557.206116,   0.567390,   37.486568,   24.522615,   544.455688,   253.449371,   -62.233734,   0.549475,   484.041077,   297.853302
-0.002013,   0.020726,   0.020222,   0.000000,   559.653992,   0.567391,   37.486568,   23.567139,   542.118347,   251.134338,   -73.553261,   0.543092,   486.874176,   319.058228
-0.002259,   0.021137,   0.020617,   0.000000,   561.955994,   0.567390,   37.486568,   22.611660,   539.191833,   248.729431,   -84.441360,   0.536255,   489.767609,   338.895386
-0.002537,   0.021571,   0.021032,   0.000000,   564.126099,   0.567390,   37.486568,   21.656183,   535.744507,   246.302780,   -94.975410,   0.529046,   492.740143,   357.430206
-0.002844,   0.022013,   0.021455,   0.000000,   566.112671,   0.567390,   37.486568,   20.700708,   531.783508,   243.834106,   -105.183472,   0.521507,   495.754486,   374.774139
-0.003177,   0.022451,   0.021873,   0.000000,   567.937195,   0.567390,   37.486568,   19.745232,   527.342041,   241.327637,   -115.146667,   0.513637,   498.841370,   391.119568
-0.003533,   0.022871,   0.022271,   0.000000,   569.532349,   0.567391,   37.486568,   18.789755,   522.367676,   238.761063,   -124.902840,   0.505446,   501.952118,   406.536224
-0.003909,   0.023262,   0.022640,   0.000000,   570.837646,   0.567390,   37.486568,   17.834278,   516.817871,   236.102371,   -134.470490,   0.496933,   505.044617,   421.078278
-0.004299,   0.023610,   0.022966,   0.000000,   571.800049,   0.567390,   37.486568,   16.878801,   510.621460,   233.345444,   -143.896439,   0.488084,   508.086365,   434.795135
-0.004698,   0.023902,   0.023237,   0.000000,   572.365173,   0.567390,   37.486568,   15.923324,   503.698883,   230.507431,   -153.212570,   0.478897,   511.040283,   447.692139
-0.005100,   0.024121,   0.023438,   0.000000,   572.459290,   0.567390,   37.486568,   14.967846,   495.962646,   227.551025,   -162.432526,   0.469330,   513.862427,   459.787354
-0.005496,   0.024255,   0.023555,   0.000000,   572.041443,   0.567390,   37.486568,   14.012369,   487.326660,   224.551254,   -171.573730,   0.459406,   516.520447,   471.030182
-0.005875,   0.024281,   0.023569,   0.000000,   571.043335,   0.567390,   37.486568,   13.056892,   477.654816,   221.580292,   -180.653931,   0.449125,   518.961060,   481.366455
-0.006227,   0.024180,   0.023457,   0.000000,   569.375732,   0.567390,   37.486568,   12.101416,   466.852844,   218.662582,   -189.620987,   0.438501,   521.104614,   490.701447
-0.006534,   0.023920,   0.023188,   0.000000,   566.920532,   0.567390,   37.486568,   11.145939,   454.690613,   215.885651,   -198.485825,   0.427508,   522.856445,   498.947327
-0.006794,   0.023504,   0.022766,   0.000000,   563.686707,   0.567390,   37.486568,   10.190462,   441.096985,   213.392151,   -207.225769,   0.416169,   524.217224,   506.068542
-0.006991,   0.022930,   0.022188,   0.000000,   559.706421,   0.567390,   37.486568,   9.234985,   426.046631,   211.460205,   -215.746384,   0.404653,   525.146423,   511.939453
-0.007101,   0.022161,   0.021417,   0.000000,   554.843933,   0.567390,   37.486568,   8.279508,   409.115112,   210.368347,   -224.053619,   0.392938,   525.514282,   516.456787
-0.007125,   0.021201,   0.020451,   0.000000,   549.012573,   0.567390,   37.486568,   7.324031,   390.055969,   210.240585,   -232.056107,   0.380958,   525.251648,   519.574158
-0.007066,   0.020018,   0.019257,   0.000000,   541.901733,   0.567390,   37.486568,   6.368554,   368.175781,   211.184830,   -239.695862,   0.368425,   524.177124,   521.153015
-0.006914,   0.018682,   0.017895,   0.000000,   533.663940,   0.567390,   37.486568,   5.413077,   344.346985,   213.107239,   -246.346924,   0.355854,   522.175415,   520.953979
-0.006651,   0.017191,   0.016371,   0.000000,   524.646545,   0.567390,   37.486568,   4.457601,   317.654510,   217.984238,   -251.945740,   0.343862,   519.237732,   518.975830
-0.006260,   0.015603,   0.014719,   0.000000,   515.076050,   0.567390,   37.486568,   3.502124,   291.479645,   224.419937,   -254.930710,   0.334133,   514.664795,   514.663269
-0.005729,   0.014113,   0.013147,   -3.698334,   507.118896,   0.567390,   37.486568,   2.546647,   269.653656,   233.766907,   -254.777542,   0.329694,   508.978149,   508.947906
-0.005166,   0.012727,   0.011652,   -4.498718,   499.469696,   0.567390,   37.486568,   1.591170,   257.116516,   237.854477,   -251.800095,   0.328840,   501.734192,   501.688782
-0.003189,   0.007639,   0.006104,   -17.635519,   453.864990,   0.582331,   38.228855,   57.738537,   249.906464,   186.322998,   233.596802,   0.314104,   462.934753,   462.178040
-0.004298,   0.009909,   0.008550,   -23.382074,   468.372498,   0.582333,   38.228855,   56.757896,   259.600739,   185.389694,   243.061356,   0.308706,   480.490417,   479.207886
-0.005457,   0.012313,   0.011126,   -25.327900,   482.127930,   0.582333,   38.228855,   55.777256,   276.082031,   180.718002,   249.207306,   0.307437,   495.277832,   493.817596
-0.006366,   0.014607,   0.013558,   -17.991653,   497.200226,   0.582332,   38.228855,   54.796619,   297.743439,   181.465118,   250.949203,   0.315413,   506.435791,   505.715973
-0.006970,   0.016718,   0.015760,   -4.026824,   512.283020,   0.582332,   38.228855,   53.815979,   322.960175,   185.296005,   248.809372,   0.329411,   514.308228,   514.272827
-0.007260,   0.018521,   0.017628,   0.000000,   526.311096,   0.582332,   38.228855,   52.835342,   347.923828,   192.261139,   244.111191,   0.346597,   519.513184,   519.096130
-0.007366,   0.020009,   0.019164,   0.000000,   538.079956,   0.582333,   38.228855,   51.854702,   371.073639,   199.249664,   237.879822,   0.363700,   522.704712,   520.460144
-0.007265,   0.021154,   0.020347,   0.000000,   547.787109,   0.582333,   38.228855,   50.874062,   391.960815,   206.644897,   230.562195,   0.380626,   524.228455,   518.643372
-0.007048,   0.021975,   0.021198,   0.000000,   555.339417,   0.582331,   38.228855,   49.893421,   410.212219,   213.585480,   222.705612,   0.396461,   524.471924,   514.276001
-0.006731,   0.022530,   0.021783,   0.000000,   561.239441,   0.582333,   38.228855,   48.912785,   426.381897,   220.291000,   214.428223,   0.411546,   523.774719,   507.742920
-0.006344,   0.022858,   0.022138,   0.000000,   565.696960,   0.582333,   38.228855,   47.932144,   440.817932,   226.620209,   205.775528,   0.425951,   522.311829,   499.282013
-0.005901,   0.022989,   0.022298,   0.000000,   568.909607,   0.582332,   38.228855,   46.951504,   453.703857,   232.604156,   196.835800,   0.439737,   520.241760,   489.088226
-0.005429,   0.022965,   0.022305,   0.000000,   571.077515,   0.582332,   38.228855,   45.970867,   465.240173,   238.238495,   187.688019,   0.452922,   517.733765,   477.363770
-0.004944,   0.022807,   0.022178,   0.000000,   572.279724,   0.582332,   38.228855,   44.990227,   475.508118,   243.425034,   178.392227,   0.465452,   514.863586,   464.269287
-0.004458,   0.022541,   0.021943,   0.000000,   572.658936,   0.582333,   38.228855,   44.009590,   484.652344,   248.220703,   168.975418,   0.477391,   511.721375,   449.876007
-0.003979,   0.022192,   0.021625,   0.000000,   572.330933,   0.582333,   38.228855,   43.028946,   492.822540,   252.632706,   159.432404,   0.488778,   508.380066,   434.216064
-0.003516,   0.021775,   0.021240,   0.000000,   571.374268,   0.582331,   38.228855,   42.048309,   500.086761,   256.649567,   149.786346,   0.499602,   504.892639,   417.330902
-0.003076,   0.021309,   0.020803,   0.000000,   569.875122,   0.582333,   38.228855,   41.067673,   506.544220,   260.299988,   140.020248,   0.509899,   501.304993,   399.161163
-0.002661,   0.020808,   0.020330,   0.000000,   567.910400,   0.582332,   38.228855,   40.087032,   512.276672,   263.602661,   130.114487,   0.519685,   497.660126,   379.608643
-0.002278,   0.020284,   0.019831,   0.000000,   565.551636,   0.582333,   38.228855,   39.106392,   517.355957,   266.589905,   120.036079,   0.528983,   493.995392,   358.475983
-0.001926,   0.019751,   0.019318,   0.000000,   562.866821,   0.582332,   38.228855,   38.125751,   521.837280,   269.276733,   109.753639,   0.537789,   490.349915,   335.496948
-0.001610,   0.019218,   0.018802,   0.000000,   559.917725,   0.582332,   38.228855,   37.145115,   525.757690,   271.686401,   99.226974,   0.546094,   486.755981,   310.222443
-0.001330,   0.018698,   0.018295,   0.000000,   556.758667,   0.582333,   38.228855,   36.164474,   529.137085,   273.837372,   88.400970,   0.553884,   483.238708,   281.889069
-0.001086,   0.018204,   0.017812,   0.000000,   553.310669,   0.582332,   38.228855,   35.183834,   531.854797,   275.741516,   77.171776,   0.561178,   479.702942,   248.783569
-0.000880,   0.017751,   0.017365,   0.000000,   549.756348,   0.582332,   38.228855,   34.203197,   534.013916,   277.392456,   65.480354,   0.567870,   476.286743,   207.955734
-0.000710,   0.017352,   0.016972,   0.000000,   546.192627,   0.582333,   38.228855,   33.222557,   535.573914,   278.781586,   53.287544,   0.573842,   473.042419,   149.052094
-0.000579,   0.017025,   0.016648,   0.000000,   542.932861,   0.582332,   38.228855,   32.241917,   536.667603,   279.892029,   40.595829,   0.578876,   470.198639,   -112.736931
-0.000485,   0.016781,   0.016409,   0.000000,   539.862366,   0.582332,   38.228855,   31.261278,   536.972534,   280.654510,   27.369175,   0.582853,   467.600159,   -172.539322
-0.000429,   0.016631,   0.016261,   0.000000,   537.900818,   0.582332,   38.228855,   30.280640,   537.163574,   281.090851,   13.759974,   0.585335,   465.975342,   -195.063019
-0.000411,   0.016580,   0.016212,   0.000000,   537.078674,   0.582332,   38.228855,   29.300001,   537.078674,   281.231018,   0.000001,   0.586228,   465.296906,   -201.940353
-0.000429,   0.016631,   0.016261,   0.000000,   537.900818,   0.582333,   38.228855,   28.319361,   537.163574,   281.090851,   -13.759973,   0.585335,   465.975342,   -195.063034
-0.000485,   0.016781,   0.016409,   0.000000,   539.862305,   0.582332,   38.228855,   27.338722,   536.972473,   280.654480,   -27.369177,   0.582853,   467.600128,   -172.539215
-0.000579,   0.017025,   0.016648,   0.000000,   542.932861,   0.582332,   38.228855,   26.358082,   536.667603,   279.892029,   -40.595837,   0.578876,   470.198639,   -112.736900
-0.000710,   0.017352,   0.016972,   0.000000,   546.192627,   0.582332,   38.228855,   25.377443,   535.573914,   278.781586,   -53.287529,   0.573842,   473.042419,   149.052032
-0.000880,   0.017751,   0.017365,   0.000000,   549.756409,   0.582332,   38.228855,   24.396805,   534.013916,   277.392487,   -65.480370,   0.567870,   476.286743,   207.955780
-0.001086,   0.018204,   0.017812,   0.000000,   553.310669,   0.582332,   38.228855,   23.416164,   531.854797,   275.741455,   -77.171768,   0.561178,   479.702942,   248.783493
-0.001330,   0.018698,   0.018295,   0.000000,   556.758667,   0.582333,   38.228855,   22.435526,   529.137085,   273.837372,   -88.400978,   0.553884,   483.238708,   281.889069
-0.001610,   0.019218,   0.018802,   0.000000,   559.917664,   0.582332,   38.228855,   21.454885,   525.757629,   271.686371,   -99.226952,   0.546094,   486.755920,   310.222351
-0.001926,   0.019750,   0.019318,   0.000000,   562.866760,   0.582332,   38.228855,   20.474247,   521.837219,   269.276794,   -109.753662,   0.537789,   490.349884,   335.496826
-0.002278,   0.020284,   0.019831,   0.000000,   565.551636,   0.582332,   38.228855,   19.493608,   517.355957,   266.589935,   -120.036064,   0.528983,   493.995392,   358.475800
-0.002661,   0.020808,   0.020330,   0.000000,   567.910400,   0.582333,   38.228855,   18.512968,   512.276672,   263.602631,   -130.114471,   0.519685,   497.660126,   379.608612
-0.003076,   0.021309,   0.020803,   0.000000,   569.875122,   0.582332,   38.228855,   17.532330,   506.544220,   260.299957,   -140.020233,   0.509899,   501.304962,   399.161194
-0.003516,   0.021775,   0.021240,   0.000000,   571.374329,   0.582333,   38.228855,   16.551691,   500.086761,   256.649597,   -149.786346,   0.499602,   504.892639,   417.330902
-0.003979,   0.022192,   0.021625,   0.000000,   572.330933,   0.582333,   38.228855,   15.571051,   492.822510,   252.632706,   -159.432404,   0.488778,   508.380066,   434.216125
-0.004458,   0.022541,   0.021943,   0.000000,   572.658936,   0.582332,   38.228855,   14.590412,   484.652374,   248.220718,   -168.975388,   0.477391,   511.721344,   449.875977
-0.004944,   0.022807,   0.022178,   0.000000,   572.279724,   0.582332,   38.228855,   13.609773,   475.508148,   243.425018,   -178.392212,   0.465452,   514.863586,   464.269318
-0.005429,   0.022965,   0.022305,   0.000000,   571.077515,   0.582332,   38.228855,   12.629134,   465.240173,   238.238525,   -187.688004,   0.452922,   517.733765,   477.363678
-0.005901,   0.022989,   0.022298,   0.000000,   568.909607,   0.582332,   38.228855,   11.648495,   453.703827,   232.604111,   -196.835815,   0.439737,   520.241760,   489.088287
-0.006344,   0.022858,   0.022138,   0.000000,   565.696960,   0.582332,   38.228855,   10.667855,   440.817902,   226.620193,   -205.775543,   0.425951,   522.311829,   499.281982
-0.006731,   0.022530,   0.021783,   0.000000,   561.239441,   0.582332,   38.228855,   9.687216,   426.381897,   220.290970,   -214.428238,   0.411546,   523.774719,   507.742981
-0.007048,   0.021975,   0.021198,   0.000000,   555.339355,   0.582332,   38.228855,   8.706576,   410.212158,   213.585449,   -222.705627,   0.396461,   524.471924,   514.276001
-0.007265,   0.021154,   0.020347,   0.000000,   547.787048,   0.582332,   38.228855,   7.725937,   391.960724,   206.644852,   -230.562225,   0.380626,   524.228455,   518.643311
-0.007366,   0.020009,   0.019164,   0.000000,   538.079956,   0.582332,   38.228855,   6.745298,   371.073578,   199.249664,   -237.879837,   0.363700,   522.704712,   520.460205
-0.007260,   0.018521,   0.017628,   0.000000,   526.311096,   0.582332,   38.228855,   5.764659,   347.923767,   192.261139,   -244.111191,   0.346597,   519.513123,   519.096069
-0.006970,   0.016718,   0.015760,   -4.026793,   512.282959,   0.582332,   38.228855,   4.784020,   322.960205,   185.295990,   -248.809341,   0.329411,   514.308228,   514.272766
-0.006366,   0.014607,   0.013558,   -17.991516,   497.200226,   0.582332,   38.228855,   3.803381,   297.743500,   181.465210,   -250.949142,   0.315413,   506.435730,   505.715942
-0.005457,   0.012313,   0.011126,   -25.327688,   482.127960,   0.582332,   38.228855,   2.822742,   276.082153,   180.718124,   -249.207214,   0.307437,   495.277771,   493.817474
-0.004298,   0.009909,   0.008550,   -23.382013,   468.372498,   0.582332,   38.228855,   1.842103,   259.600708,   185.389771,   -243.061325,   0.308706,   480.490387,   479.207855
-0.003189,   0.007639,   0.006104,   -17.635511,   453.864868,   0.582332,   38.228855,   0.861463,   249.906250,   186.323120,   -233.596771,   0.314104,   462.934662,   462.177948
