MinPrincipalStrain,MaxPrincipalStrain,EqPlasticStrain,MinPrincipalStress,MaxPrincipalStress,ElemVolume,IntegrationPoint_CoordX,IntegrationPoint_CoordY,Stress_xx,Stress_yy,Stress_xy,StressTriaxility,MisesStress,ThirdInvStress
-0.073813,   0.044096,   0.077135,   -631.632751,   43.114712,   0.582331,   0.371144,   57.738537,   41.201752,   -629.719788,   35.876244,   -0.299841,   654.256470,   -651.048706
-0.082512,   0.049551,   0.086575,   -649.628052,   37.390133,   0.582334,   0.371144,   56.757896,   33.347759,   -645.585693,   52.543728,   -0.305002,   669.107117,   -666.750610
-0.091668,   0.051934,   0.096436,   -693.389954,   0.000000,   0.582334,   0.371144,   55.777256,   -24.709948,   -681.201904,   90.276749,   -0.342402,   687.214539,   -686.957764
-0.099857,   0.050440,   0.105687,   -743.246887,   0.000000,   0.582333,   0.371144,   54.796619,   -112.414803,   -715.100891,   133.249451,   -0.391316,   704.900513,   -693.432312
-0.105685,   0.045936,   0.113165,   -781.358948,   0.000000,   0.582333,   0.371144,   53.815979,   -199.375137,   -731.972046,   169.535721,   -0.432255,   718.208618,   -681.622009
-0.107826,   0.039858,   0.117122,   -802.920715,   0.000000,   0.582333,   0.371144,   52.835342,   -267.712341,   -731.818848,   195.075195,   -0.459620,   724.896362,   -660.802124
-0.104851,   0.033425,   0.115255,   -807.966248,   0.000000,   0.582334,   0.371144,   51.854702,   -306.913696,   -721.807434,   207.774109,   -0.474079,   723.311584,   -640.677917
-0.095554,   0.027608,   0.105458,   -792.550415,   0.000000,   0.582334,   0.371144,   50.874062,   -287.328979,   -715.105164,   197.805450,   -0.469814,   711.227051,   -635.747070
-0.080869,   0.023326,   0.088957,   -721.252319,   0.000000,   0.582331,   0.371144,   49.893421,   -104.828644,   -705.786316,   97.640129,   -0.396787,   680.982727,   -667.600159
-0.065811,   0.021871,   0.073979,   -506.168091,   211.691452,   0.582334,   0.371144,   48.912785,   201.718201,   -496.194824,   -84.023376,   -0.153642,   638.882507,   -551.266663
-0.055594,   0.024274,   0.064603,   -395.740448,   313.040436,   0.582334,   0.371144,   47.932144,   298.960968,   -381.660980,   -98.899040,   -0.044808,   615.213440,   -360.032257
-0.050305,   0.029012,   0.058941,   -373.954865,   321.542542,   0.582333,   0.371144,   46.951504,   310.610718,   -363.023041,   -86.507507,   -0.028978,   602.888245,   -305.469391
-0.048329,   0.035108,   0.056396,   -352.459045,   336.104431,   0.582333,   0.371144,   45.970867,   325.656372,   -342.010986,   -84.172394,   -0.009141,   596.369568,   -205.850174
-0.048532,   0.041385,   0.056231,   -342.752441,   344.381622,   0.582333,   0.371144,   44.990227,   334.352997,   -332.723816,   -82.404129,   0.000913,   595.076111,   95.294815
-0.049976,   0.047125,   0.057883,   -337.460388,   352.404449,   0.582334,   0.371144,   44.009590,   342.417664,   -327.473602,   -82.400276,   0.008337,   597.487244,   200.005676
-0.051968,   0.052011,   0.060726,   -335.035004,   360.131165,   0.582334,   0.371144,   43.028946,   349.992371,   -324.896210,   -83.338799,   0.013892,   602.162292,   238.941376
-0.054075,   0.056083,   0.063970,   -333.825134,   367.344666,   0.582331,   0.371144,   42.048309,   356.952148,   -323.432617,   -84.728500,   0.018393,   607.462158,   264.643982
-0.056096,   0.059485,   0.067049,   -333.122284,   373.583893,   0.582334,   0.371144,   41.067673,   362.923462,   -322.461853,   -86.140282,   0.022025,   612.359802,   283.251068
-0.057924,   0.062292,   0.069753,   -332.636017,   378.783051,   0.582333,   0.371144,   40.087032,   367.882996,   -321.735962,   -87.382492,   0.024950,   616.538879,   297.245026
-0.059483,   0.064552,   0.072008,   -332.156708,   383.063934,   0.582334,   0.371144,   39.106392,   371.979462,   -321.072235,   -88.345764,   0.027373,   619.922058,   308.216309
-0.060730,   0.066315,   0.073792,   -331.582947,   386.537262,   0.582333,   0.371144,   38.125751,   375.342316,   -320.388000,   -88.960587,   0.029426,   622.517029,   317.021301
-0.061643,   0.067623,   0.075112,   -330.843903,   389.314880,   0.582333,   0.371144,   37.145115,   378.093140,   -319.622162,   -89.193604,   0.031216,   624.360596,   324.247742
-0.062220,   0.068511,   0.075980,   -329.874878,   391.506622,   0.582334,   0.371144,   36.164474,   380.343872,   -318.712128,   -89.039238,   0.032844,   625.494202,   330.352966
-0.062465,   0.069004,   0.076415,   -328.634033,   393.195312,   0.582333,   0.371144,   35.183834,   382.177307,   -317.616028,   -88.497055,   0.034380,   625.955444,   335.636597
-0.062387,   0.069123,   0.076433,   -327.119629,   394.418457,   0.582333,   0.371144,   34.203197,   383.633240,   -316.334412,   -87.553566,   0.035848,   625.775635,   340.214508
-0.061997,   0.068885,   0.076051,   -325.360748,   395.176849,   0.582334,   0.371144,   33.222557,   384.717163,   -314.901062,   -86.181114,   0.037236,   624.979492,   344.077332
-0.061306,   0.068307,   0.075284,   -323.396088,   395.453613,   0.582333,   0.371144,   32.241917,   385.416992,   -313.359467,   -84.345024,   0.038518,   623.583801,   347.169098
-0.060323,   0.067401,   0.074146,   -321.247406,   395.238495,   0.582333,   0.371144,   31.261278,   385.723816,   -311.732727,   -82.015846,   0.039678,   621.596924,   349.470642
-0.059056,   0.066179,   0.072649,   -318.888885,   394.554016,   0.582333,   0.371144,   30.280640,   385.654419,   -309.989288,   -79.184319,   0.040745,   619.016907,   351.081421
-0.057511,   0.064651,   0.070804,   -316.164825,   393.527985,   0.582333,   0.371144,   29.300001,   385.313690,   -307.950531,   -75.908890,   0.041875,   615.828064,   352.439514
-0.055687,   0.062829,   0.068617,   -312.048279,   393.042389,   0.582333,   0.371144,   28.319361,   385.454315,   -304.460205,   -72.750977,   0.044117,   611.967834,   356.303009
-0.053530,   0.060753,   0.066098,   -299.310333,   399.332031,   0.582333,   0.371144,   27.338722,   391.430817,   -291.409119,   -73.876198,   0.054917,   607.105408,   379.829498
-0.050864,   0.058605,   0.063331,   -254.576355,   431.537415,   0.582333,   0.371144,   26.358082,   418.896729,   -241.935669,   -92.266823,   0.098190,   600.743591,   453.106354
-0.047614,   0.056872,   0.060808,   -164.294052,   496.035461,   0.582333,   0.371144,   25.377443,   468.632782,   -136.891388,   -131.696182,   0.185715,   595.432129,   540.804260
-0.044100,   0.056119,   0.059341,   -70.170212,   556.330078,   0.582333,   0.371144,   24.396805,   509.301147,   -23.141287,   -165.081543,   0.272574,   594.529053,   585.103882
-0.040726,   0.056524,   0.059184,   -10.867218,   590.177368,   0.582333,   0.371144,   23.416164,   531.403564,   47.906563,   -178.525360,   0.324170,   595.685303,   595.462158
-0.037731,   0.057926,   0.060057,   0.000000,   606.518494,   0.582333,   0.371144,   22.435526,   543.761719,   81.253555,   -181.559753,   0.348692,   597.484863,   596.840149
-0.035205,   0.060062,   0.061606,   0.000000,   615.287476,   0.582333,   0.371144,   21.454885,   551.975708,   95.370705,   -181.429977,   0.359696,   599.900757,   597.968811
-0.033158,   0.062673,   0.063564,   0.000000,   620.805847,   0.582333,   0.371144,   20.474247,   558.220642,   100.415871,   -180.468048,   0.364221,   602.781494,   600.101807
-0.031559,   0.065535,   0.065763,   0.000000,   624.722168,   0.582333,   0.371144,   19.493608,   563.363647,   100.878906,   -179.282547,   0.365413,   605.929321,   603.019409
-0.030364,   0.068462,   0.068112,   0.000000,   627.788208,   0.582334,   0.371144,   18.512968,   567.839172,   98.955109,   -178.053482,   0.364834,   609.222412,   606.403381
-0.029525,   0.071292,   0.070578,   0.000000,   630.432495,   0.582333,   0.371144,   17.532330,   571.916199,   95.847466,   -176.866989,   0.363337,   612.620544,   610.053589
-0.028976,   0.073894,   0.073151,   0.000000,   632.879272,   0.582333,   0.371144,   16.551691,   575.739014,   92.159470,   -175.775040,   0.361349,   616.116516,   613.871399
-0.028645,   0.076204,   0.075722,   0.000000,   635.066101,   0.582333,   0.371144,   15.571051,   579.207031,   88.176086,   -174.782104,   0.359074,   619.540100,   617.639404
-0.028528,   0.078200,   0.078063,   0.000000,   636.781006,   0.582333,   0.371144,   14.590412,   582.068909,   84.132156,   -173.886658,   0.356681,   622.592529,   621.025696
-0.028623,   0.079763,   0.079872,   0.000000,   637.722107,   0.582333,   0.371144,   13.609773,   584.049927,   80.225395,   -172.979919,   0.354355,   624.868774,   623.597473
-0.028908,   0.080661,   0.080830,   0.000000,   637.383911,   0.582333,   0.371144,   12.629134,   584.754578,   76.182243,   -171.859436,   0.351970,   625.939880,   624.941711
-0.029312,   0.080663,   0.080696,   0.000000,   635.141602,   0.582333,   0.371144,   11.648495,   583.776428,   71.206444,   -170.195877,   0.349069,   625.457031,   624.748352
-0.029730,   0.079603,   0.079345,   0.000000,   630.391174,   0.582333,   0.371144,   10.667855,   580.813904,   64.296875,   -167.527374,   0.345074,   623.161804,   622.770447
-0.030036,   0.077402,   0.076758,   0.000000,   622.688660,   0.582333,   0.371144,   9.687216,   575.698181,   54.656059,   -163.377243,   0.339507,   618.891479,   618.784607
-0.030100,   0.074066,   0.073007,   -1.506955,   611.819092,   0.582333,   0.371144,   8.706576,   568.365906,   41.946236,   -157.361984,   0.332103,   612.573975,   612.569824
-0.029800,   0.069673,   0.068229,   -12.617066,   597.806641,   0.582333,   0.371144,   7.725937,   558.817139,   26.372444,   -149.264664,   0.322838,   604.213989,   603.917542
-0.029023,   0.064347,   0.062594,   -25.114323,   580.896606,   0.582333,   0.371144,   6.745298,   547.122681,   8.659586,   -139.020432,   0.311964,   593.852173,   592.655640
-0.027669,   0.058253,   0.056287,   -37.995281,   561.599365,   0.582333,   0.371144,   5.764659,   533.510742,   -9.906655,   -126.699722,   0.300131,   581.528748,   578.726196
-0.025652,   0.051590,   0.049506,   -49.673466,   540.784973,   0.582333,   0.371144,   4.784020,   518.501587,   -27.390079,   -112.520508,   0.288589,   567.255249,   562.330750
-0.022932,   0.044589,   0.042451,   -57.932289,   519.736633,   0.582333,   0.371144,   3.803381,   502.991058,   -41.186699,   -96.917458,   0.279378,   550.991699,   544.076538
-0.019556,   0.037496,   0.035326,   -59.996704,   500.107056,   0.582333,   0.371144,   2.822742,   488.247986,   -48.137619,   -80.632996,   0.275424,   532.645752,   524.963013
-0.015722,   0.030560,   0.028358,   -52.487747,   483.866455,   0.582333,   0.371144,   1.842103,   475.894501,   -44.515800,   -64.901733,   0.280773,   512.131592,   506.027252
-0.011811,   0.023954,   0.021742,   -33.723225,   471.640625,   0.582333,   0.371144,   0.861463,   466.368622,   -28.451229,   -51.346676,   0.298284,   489.374481,   486.749969
-0.085845,   0.048778,   0.089927,   -660.491211,   25.570522,   0.567391,   1.113431,   57.008831,   24.958284,   -659.878967,   20.485556,   -0.314174,   673.640564,   -672.547424
-0.096077,   0.053749,   0.101091,   -685.688293,   10.700472,   0.567391,   1.113431,   56.053352,   2.213645,   -677.201477,   76.407494,   -0.325562,   691.100647,   -690.914185
-0.106719,   0.055613,   0.113062,   -728.485718,   0.000000,   0.567391,   1.113431,   55.097878,   -63.091793,   -699.228027,   139.527374,   -0.356805,   712.171692,   -710.360046
-0.115922,   0.054129,   0.124098,   -769.642639,   0.000000,   0.567391,   1.113431,   54.142399,   -141.787994,   -712.915100,   188.723740,   -0.389830,   730.834412,   -719.571472
-0.121543,   0.050257,   0.131631,   -797.565735,   0.000000,   0.567391,   1.113431,   53.186924,   -208.041534,   -715.758545,   219.607162,   -0.414703,   742.540222,   -717.801575
-0.121526,   0.045028,   0.132835,   -809.335205,   0.000000,   0.567391,   1.113431,   52.231445,   -249.391968,   -711.414978,   234.157562,   -0.429755,   745.235352,   -709.349976
-0.114455,   0.039262,   0.125590,   -802.476807,   0.000000,   0.567391,   1.113431,   51.275970,   -250.301056,   -707.375916,   229.155884,   -0.433005,   737.232422,   -699.045166
-0.100776,   0.033900,   0.110310,   -759.652039,   0.000000,   0.567392,   1.113431,   50.320492,   -148.183578,   -714.459778,   166.233749,   -0.402868,   713.751282,   -696.739319
-0.084273,   0.030268,   0.093253,   -619.890015,   96.967346,   0.567390,   1.113431,   49.365013,   95.411301,   -618.333984,   -33.362236,   -0.258759,   673.628540,   -657.651611
-0.071141,   0.030516,   0.082223,   -473.933411,   270.901001,   0.567392,   1.113431,   48.409538,   240.286911,   -443.319305,   -147.868896,   -0.103643,   652.984863,   -500.893768
-0.063615,   0.034106,   0.075103,   -441.325470,   292.000793,   0.567391,   1.113431,   47.454060,   263.906891,   -413.231567,   -140.757675,   -0.077840,   639.452881,   -448.013367
-0.059844,   0.039273,   0.070327,   -413.398956,   310.440277,   0.567391,   1.113431,   46.498585,   285.559357,   -388.518036,   -131.873886,   -0.054564,   628.973450,   -392.681885
-0.058675,   0.045147,   0.068075,   -393.084045,   324.994263,   0.567391,   1.113431,   45.543106,   303.128418,   -371.218201,   -123.382591,   -0.036443,   622.805237,   -340.445801
-0.058972,   0.050814,   0.067814,   -378.170227,   337.708130,   0.567391,   1.113431,   44.587631,   318.318451,   -358.780548,   -116.209648,   -0.021743,   620.298828,   -285.698730
-0.060003,   0.055809,   0.069064,   -367.813416,   348.812073,   0.567391,   1.113431,   43.632153,   331.327911,   -350.329254,   -110.561790,   -0.010204,   620.688599,   -222.243759
-0.061253,   0.059909,   0.071179,   -360.441925,   358.672028,   0.567392,   1.113431,   42.676678,   342.582489,   -344.352386,   -106.354767,   -0.000947,   622.771545,   -100.979210
-0.062532,   0.063257,   0.073509,   -354.696014,   367.370758,   0.567390,   1.113431,   41.721199,   352.306213,   -339.631470,   -103.202072,   0.006756,   625.360291,   195.168961
-0.063769,   0.066025,   0.075708,   -349.901733,   374.920654,   0.567391,   1.113431,   40.765724,   360.656555,   -335.637634,   -100.675056,   0.013283,   627.839233,   245.438461
-0.064874,   0.068287,   0.077618,   -345.778625,   381.337860,   0.567391,   1.113431,   39.810246,   367.740326,   -332.181091,   -98.499176,   0.018816,   629.952332,   276.523621
-0.065786,   0.070112,   0.079192,   -342.079346,   386.789581,   0.567391,   1.113431,   38.854771,   373.790497,   -329.080261,   -96.465813,   0.023596,   631.614746,   298.922699
-0.066479,   0.071561,   0.080428,   -338.631866,   391.449646,   0.567392,   1.113431,   37.899292,   379.020813,   -326.203033,   -94.443573,   0.027821,   632.820435,   316.330414
-0.066944,   0.072675,   0.081339,   -335.299774,   395.472290,   0.567390,   1.113431,   36.943813,   383.609039,   -323.436523,   -92.350403,   0.031657,   633.581909,   330.569305
-0.067181,   0.073485,   0.081938,   -331.984344,   398.976776,   0.567392,   1.113431,   35.988338,   387.687042,   -320.694611,   -90.138245,   0.035227,   633.916504,   342.652374
-0.067195,   0.074009,   0.082239,   -328.630798,   402.036255,   0.567390,   1.113431,   35.032864,   391.337189,   -317.931732,   -87.766663,   0.038604,   633.839783,   353.137939
-0.066991,   0.074264,   0.082251,   -325.224335,   404.682495,   0.567392,   1.113431,   34.077385,   394.601044,   -315.142883,   -85.187370,   0.041818,   633.365112,   362.313538
-0.066575,   0.074261,   0.081987,   -321.773376,   406.923523,   0.567391,   1.113431,   33.121906,   397.496460,   -312.346313,   -82.344444,   0.044875,   632.504517,   370.331543
-0.065954,   0.074014,   0.081456,   -318.295166,   408.758362,   0.567391,   1.113431,   32.166431,   400.030151,   -309.566956,   -79.181374,   0.047768,   631.269348,   377.285309
-0.065139,   0.073535,   0.080672,   -314.800110,   410.191742,   0.567391,   1.113431,   31.210953,   402.209503,   -306.817871,   -75.652718,   0.050498,   629.670349,   383.263580
-0.064135,   0.072836,   0.079646,   -311.271027,   411.251801,   0.567391,   1.113431,   30.255476,   404.056946,   -304.076172,   -71.740334,   0.053092,   627.716858,   388.402710
-0.062952,   0.071929,   0.078391,   -307.614899,   412.031128,   0.567391,   1.113431,   29.299999,   405.644379,   -301.228149,   -67.493774,   0.055652,   625.414673,   392.988953
-0.061586,   0.070821,   0.076910,   -303.329865,   412.961578,   0.567391,   1.113431,   28.344522,   407.319305,   -297.687592,   -63.322086,   0.058682,   622.743835,   398.148773
-0.059957,   0.069469,   0.075140,   -294.902649,   416.941498,   0.567391,   1.113431,   27.389046,   411.469543,   -289.430695,   -62.170990,   0.065667,   619.487610,   410.834137
-0.057762,   0.067742,   0.072875,   -267.877960,   435.617096,   0.567391,   1.113431,   26.433569,   427.432800,   -259.693665,   -75.436287,   0.090917,   614.990295,   452.743561
-0.054710,   0.065759,   0.070195,   -204.127762,   482.135773,   0.567391,   1.113431,   25.478092,   462.411224,   -184.403214,   -114.661156,   0.151827,   610.360840,   524.887878
-0.051070,   0.064158,   0.067940,   -120.726921,   539.917053,   0.567391,   1.113431,   24.522615,   498.261078,   -79.070930,   -160.575714,   0.229322,   609.317627,   581.488098
-0.047329,   0.063455,   0.066771,   -53.530128,   581.802551,   0.567391,   1.113431,   23.567139,   521.601135,   6.671271,   -186.074463,   0.288517,   610.330750,   605.015442
-0.043830,   0.063741,   0.066664,   -11.972373,   604.919861,   0.567391,   1.113431,   22.611660,   536.962097,   55.985374,   -193.143341,   0.323488,   610.994019,   610.729980
-0.040748,   0.064902,   0.067357,   0.000000,   617.646790,   0.567391,   1.113431,   21.656183,   548.584656,   81.299103,   -192.461243,   0.343287,   611.620178,   611.344604
-0.038152,   0.066763,   0.068619,   0.000000,   625.537964,   0.567390,   1.113431,   20.700708,   558.068054,   94.057617,   -189.364563,   0.354796,   612.676941,   611.376892
-0.036048,   0.069134,   0.070285,   0.000000,   631.047974,   0.567391,   1.113431,   19.745232,   566.130493,   100.087227,   -185.657303,   0.361553,   614.218750,   611.947144
-0.034400,   0.071834,   0.072249,   0.000000,   635.289001,   0.567391,   1.113431,   18.789755,   573.221313,   102.270378,   -181.887955,   0.365424,   616.172119,   613.210876
-0.033167,   0.074699,   0.074471,   0.000000,   638.855408,   0.567391,   1.113431,   17.834278,   579.659790,   102.168045,   -178.240143,   0.367469,   618.489868,   615.117676
-0.032286,   0.077565,   0.076948,   0.000000,   642.115112,   0.567391,   1.113431,   16.878801,   585.661865,   100.705589,   -174.826584,   0.368318,   621.172302,   617.610962
-0.031688,   0.080263,   0.079680,   0.000000,   645.294800,   0.567391,   1.113431,   15.923324,   591.320190,   98.495758,   -171.794296,   0.368358,   624.226135,   620.638977
-0.031353,   0.082695,   0.082453,   0.000000,   648.252686,   0.567391,   1.113431,   14.967846,   596.387512,   95.955154,   -169.248413,   0.367854,   627.370789,   623.870850
-0.031284,   0.084786,   0.084904,   0.000000,   650.556641,   0.567391,   1.113431,   14.012369,   600.517151,   93.198265,   -167.002747,   0.366995,   630.086792,   626.748291
-0.031433,   0.086363,   0.086684,   0.000000,   651.714966,   0.567391,   1.113431,   13.056892,   603.366760,   90.006790,   -164.795578,   0.365752,   631.916382,   628.815796
-0.031711,   0.087200,   0.087519,   0.000000,   651.275024,   0.567391,   1.113431,   12.101416,   604.664856,   86.015839,   -162.317093,   0.363999,   632.493591,   629.722961
-0.032013,   0.087101,   0.087221,   0.000000,   648.833313,   0.567391,   1.113431,   11.145939,   604.282776,   80.727867,   -159.089279,   0.361566,   631.522339,   629.184631
-0.032234,   0.085936,   0.085704,   0.000000,   644.051086,   0.567391,   1.113431,   10.190462,   602.188477,   73.601639,   -154.533218,   0.358253,   628.782654,   626.976562
-0.032280,   0.083664,   0.082985,   0.000000,   636.717346,   0.567391,   1.113431,   9.234985,   598.417847,   64.234634,   -148.073639,   0.353894,   624.154053,   622.939941
-0.032073,   0.080333,   0.079174,   0.000000,   626.782288,   0.567391,   1.113431,   8.279508,   592.995972,   52.497639,   -139.294571,   0.348366,   617.639221,   617.001038
-0.031552,   0.076060,   0.074445,   0.000000,   614.367676,   0.567391,   1.113431,   7.324031,   585.936768,   38.603443,   -127.943283,   0.341646,   609.345093,   609.153992
-0.030661,   0.071008,   0.069009,   0.000000,   599.814453,   0.567391,   1.113431,   6.368554,   577.315186,   23.223869,   -113.898544,   0.333938,   599.452515,   599.451538
-0.029350,   0.065365,   0.063083,   -8.758354,   583.756775,   0.567391,   1.113431,   5.413077,   567.373230,   7.625165,   -97.154839,   0.325860,   588.184814,   588.038086
-0.027566,   0.059348,   0.056895,   -16.780331,   567.247864,   0.567391,   1.113431,   4.457601,   556.646240,   -6.178684,   -77.969650,   0.318656,   575.821411,   575.270935
-0.025283,   0.053202,   0.050673,   -21.338961,   551.727905,   0.567391,   1.113431,   3.502124,   545.983093,   -15.594167,   -57.088951,   0.314192,   562.700928,   561.789490
-0.022540,   0.047171,   0.044627,   -20.369398,   538.712585,   0.567391,   1.113431,   2.546647,   536.390381,   -18.047195,   -35.957043,   0.314616,   549.180664,   548.329773
-0.019540,   0.041484,   0.038958,   -11.898868,   529.572327,   0.567391,   1.113431,   1.591170,   529.024353,   -11.350892,   -17.216640,   0.322164,   535.620911,   535.323486
-0.105187,   0.058917,   0.110845,   -687.940491,   24.677906,   0.552450,   1.855719,   56.279121,   22.423225,   -685.685791,   40.020531,   -0.315566,   700.605469,   -699.626587
-0.117722,   0.063282,   0.124790,   -724.234680,   0.000000,   0.552448,   1.855719,   55.348808,   -24.587318,   -704.177429,   118.460983,   -0.336466,   721.980347,   -721.948364
-0.128815,   0.063364,   0.137840,   -766.534912,   0.000000,   0.552448,   1.855719,   54.418495,   -99.669403,   -715.883789,   183.786530,   -0.365765,   743.239075,   -739.589111
-0.136009,   0.060310,   0.147090,   -797.265686,   0.000000,   0.552450,   1.855719,   53.488178,   -167.106247,   -716.972839,   224.938431,   -0.388983,   757.598755,   -746.285156
-0.136925,   0.055204,   0.149328,   -812.607544,   0.000000,   0.552448,   1.855719,   52.557865,   -213.422668,   -712.812012,   244.532135,   -0.405085,   762.173096,   -742.758240
-0.130017,   0.048766,   0.142360,   -811.237122,   0.000000,   0.552449,   1.855719,   51.627552,   -229.719559,   -709.004883,   243.823380,   -0.414117,   755.603210,   -730.816650
-0.115722,   0.041883,   0.126526,   -785.037292,   0.000000,   0.552449,   1.855719,   50.697235,   -181.338562,   -715.225220,   205.293549,   -0.406250,   735.642029,   -716.251160
-0.097648,   0.036167,   0.106941,   -692.923584,   8.514640,   0.552449,   1.855719,   49.766922,   5.030173,   -689.439087,   49.315277,   -0.327209,   697.219910,   -697.102905
-0.082323,   0.034423,   0.093245,   -531.794800,   219.865402,   0.552448,   1.855719,   48.836605,   200.194901,   -512.124268,   -119.994186,   -0.155332,   669.380127,   -579.366943
-0.073656,   0.038007,   0.086638,   -464.977997,   288.712097,   0.552450,   1.855719,   47.906292,   255.594437,   -431.860321,   -154.478729,   -0.089207,   658.638000,   -481.969666
-0.069782,   0.043968,   0.082636,   -441.340454,   306.987122,   0.552448,   1.855719,   46.975975,   272.964325,   -407.317657,   -155.893082,   -0.068736,   651.543030,   -438.539490
-0.068606,   0.050566,   0.080384,   -422.574646,   321.227997,   0.552449,   1.855719,   46.045662,   289.582214,   -390.928864,   -150.122513,   -0.052283,   646.142090,   -397.795715
-0.068940,   0.056928,   0.079824,   -407.302643,   334.205170,   0.552448,   1.855719,   45.115349,   305.280640,   -378.378113,   -143.565811,   -0.037882,   643.203857,   -356.127838
-0.069914,   0.062488,   0.080562,   -395.255859,   345.800232,   0.552450,   1.855719,   44.185036,   319.789978,   -369.245605,   -136.376404,   -0.025668,   642.249634,   -312.573425
-0.070994,   0.067023,   0.082162,   -385.567596,   356.404968,   0.552448,   1.855719,   43.254719,   333.015503,   -362.178131,   -129.642853,   -0.015124,   642.732483,   -262.357300
-0.071915,   0.070534,   0.084005,   -377.515717,   365.817169,   0.552449,   1.855719,   42.324406,   344.634796,   -356.333344,   -123.680519,   -0.006057,   643.771790,   -193.737564
-0.072716,   0.073291,   0.085756,   -370.469849,   374.141235,   0.552449,   1.855719,   41.394089,   354.788330,   -351.116943,   -118.473045,   0.001898,   644.854736,   131.810059
-0.073403,   0.075479,   0.087274,   -364.130524,   381.458801,   0.552448,   1.855719,   40.463776,   363.651764,   -346.323486,   -113.840424,   0.008945,   645.757446,   221.289291
-0.073928,   0.077201,   0.088491,   -358.316406,   387.849792,   0.552449,   1.855719,   39.533463,   371.381348,   -341.847961,   -109.621994,   0.015230,   646.367554,   264.456329
-0.074273,   0.078549,   0.089414,   -352.868622,   393.476379,   0.552449,   1.855719,   38.603146,   378.202759,   -337.595001,   -105.669853,   0.020932,   646.672607,   294.102966
-0.074446,   0.079601,   0.090077,   -347.676910,   398.492493,   0.552449,   1.855719,   37.672832,   384.310669,   -333.495087,   -101.886757,   0.026192,   646.700928,   316.859375
-0.074456,   0.080403,   0.090508,   -342.660034,   403.013397,   0.552448,   1.855719,   36.742519,   389.848724,   -329.495361,   -98.200020,   0.031119,   646.476807,   335.385925
-0.074313,   0.080985,   0.090726,   -337.765259,   407.115540,   0.552450,   1.855719,   35.812202,   394.912231,   -325.561951,   -94.557373,   0.035784,   646.017029,   351.009277
-0.074022,   0.081363,   0.090743,   -332.969299,   410.835815,   0.552448,   1.855719,   34.881889,   399.553864,   -321.687347,   -90.908157,   0.040221,   645.329651,   364.444000
-0.073586,   0.081549,   0.090565,   -328.272614,   414.183228,   0.552449,   1.855719,   33.951572,   403.797455,   -317.886841,   -87.195824,   0.044438,   644.418884,   376.095428
-0.073009,   0.081550,   0.090199,   -323.687927,   417.153046,   0.552449,   1.855719,   33.021259,   407.651764,   -314.186646,   -83.358620,   0.048431,   643.286804,   386.213898
-0.072295,   0.081373,   0.089650,   -319.232269,   419.736816,   0.552448,   1.855719,   32.090942,   411.118896,   -310.614349,   -79.335403,   0.052188,   641.935913,   394.971436
-0.071446,   0.081024,   0.088923,   -314.915802,   421.932495,   0.552449,   1.855719,   31.160629,   414.202484,   -307.185791,   -75.073883,   0.055706,   640.368774,   402.513367
-0.070468,   0.080511,   0.088023,   -310.724884,   423.758850,   0.552448,   1.855719,   30.230314,   416.919434,   -303.885468,   -70.545433,   0.059002,   638.587402,   409.003693
-0.069363,   0.079837,   0.086957,   -306.587128,   425.283691,   0.552449,   1.855719,   29.299999,   419.323975,   -300.627411,   -65.774033,   0.062152,   636.591248,   414.695618
-0.068122,   0.079002,   0.085717,   -302.168121,   426.782440,   0.552449,   1.855719,   28.369686,   421.641083,   -297.026764,   -61.003010,   0.065481,   634.357056,   420.308258
-0.066664,   0.077936,   0.084222,   -295.373566,   429.892548,   0.552448,   1.855719,   27.439371,   425.239868,   -290.720886,   -57.903210,   0.070984,   631.689819,   429.624634
-0.064659,   0.076395,   0.082158,   -276.689545,   441.971710,   0.552449,   1.855719,   26.509056,   436.239166,   -270.957001,   -63.928890,   0.087752,   627.841553,   457.041565
-0.061696,   0.074252,   0.079326,   -228.123032,   476.416138,   0.552448,   1.855719,   25.578741,   464.125946,   -215.832825,   -92.238167,   0.132923,   622.650757,   515.186157
-0.057939,   0.072099,   0.076447,   -151.931473,   529.593750,   0.552449,   1.855719,   24.648426,   499.958832,   -122.296562,   -138.991776,   0.203146,   619.689148,   575.503296
-0.053945,   0.070712,   0.074534,   -81.060524,   576.051575,   0.552449,   1.855719,   23.718113,   524.464905,   -29.473854,   -176.740036,   0.265882,   620.565308,   608.483337
-0.050105,   0.070361,   0.073839,   -33.590324,   604.528503,   0.552448,   1.855719,   22.787798,   538.969055,   31.969097,   -193.743805,   0.305967,   622.004272,   619.958618
-0.046628,   0.070972,   0.074098,   -4.516292,   620.613953,   0.552449,   1.855719,   21.857483,   550.029663,   66.068001,   -197.843964,   0.329701,   622.884399,   622.847534
-0.043614,   0.072390,   0.075025,   0.000000,   630.600525,   0.552448,   1.855719,   20.927168,   559.905273,   84.798225,   -196.432220,   0.344576,   623.668579,   623.309631
-0.041099,   0.074458,   0.076434,   0.000000,   637.575928,   0.552448,   1.855719,   19.996855,   568.992188,   95.227135,   -192.863419,   0.354431,   624.680481,   623.400208
-0.039076,   0.077018,   0.078218,   0.000000,   642.923889,   0.552449,   1.855719,   19.066540,   577.387024,   100.805023,   -188.490784,   0.361104,   626.035339,   623.794312
-0.037509,   0.079919,   0.080329,   0.000000,   647.360779,   0.552449,   1.855719,   18.136225,   585.198669,   103.359528,   -183.891953,   0.365607,   627.776672,   624.724426
-0.036352,   0.083010,   0.082778,   0.000000,   651.354431,   0.552448,   1.855719,   17.205910,   592.577942,   104.007492,   -179.363083,   0.368588,   629.957947,   626.289001
-0.035557,   0.086092,   0.085590,   0.000000,   655.207642,   0.552449,   1.855719,   16.275597,   599.598938,   103.456749,   -175.163177,   0.370434,   632.642151,   628.551880
-0.035047,   0.088973,   0.088654,   0.000000,   658.962341,   0.552449,   1.855719,   15.345281,   606.112061,   102.243317,   -171.530640,   0.371427,   635.706604,   631.367737
-0.034828,   0.091580,   0.091656,   0.000000,   662.264587,   0.552449,   1.855719,   14.414967,   611.820923,   100.482384,   -168.339981,   0.371737,   638.716980,   634.284546
-0.034872,   0.093821,   0.094230,   0.000000,   664.701538,   0.552449,   1.855719,   13.484652,   616.472900,   98.166924,   -165.297302,   0.371516,   641.192627,   636.795349
-0.035110,   0.095506,   0.096056,   0.000000,   665.859680,   0.552449,   1.855719,   12.554337,   619.820923,   95.135170,   -162.097031,   0.370797,   642.719421,   638.479919
-0.035437,   0.096422,   0.096897,   0.000000,   665.379395,   0.552449,   1.855719,   11.624022,   621.741638,   91.041901,   -158.312317,   0.369516,   642.989197,   639.039856
-0.035750,   0.096396,   0.096601,   0.000000,   662.945129,   0.552449,   1.855719,   10.693707,   622.169189,   85.473579,   -153.450134,   0.367550,   641.764771,   638.248596
-0.035952,   0.095319,   0.095107,   0.000000,   658.351318,   0.552449,   1.855719,   9.763393,   621.133911,   78.115150,   -146.951996,   0.364828,   638.884949,   635.929810
-0.035971,   0.093166,   0.092448,   0.000000,   651.505859,   0.552449,   1.855719,   8.833078,   618.660583,   68.790298,   -138.345444,   0.361266,   634.297729,   632.000183
-0.035761,   0.089996,   0.088745,   0.000000,   642.425415,   0.552449,   1.855719,   7.902764,   614.730896,   57.470055,   -127.279434,   0.356756,   628.067200,   626.476318
-0.035288,   0.085930,   0.084177,   0.000000,   631.243286,   0.552449,   1.855719,   6.972449,   609.286743,   44.332088,   -113.518913,   0.351205,   620.358276,   619.449402
-0.034519,   0.081120,   0.078946,   0.000000,   618.242065,   0.552449,   1.855719,   6.042135,   602.278625,   29.883705,   -96.913429,   0.344652,   611.400757,   611.044067
-0.033400,   0.075726,   0.073247,   0.000000,   603.959656,   0.552449,   1.855719,   5.111820,   593.762207,   15.220686,   -77.483215,   0.337500,   601.463806,   601.416565
-0.031848,   0.069917,   0.067264,   -2.937984,   589.371948,   0.552449,   1.855719,   4.181505,   584.093994,   2.339943,   -55.662483,   0.330844,   590.846436,   590.829956
-0.029737,   0.063888,   0.061177,   -7.717372,   575.947998,   0.552449,   1.855719,   3.251191,   574.121094,   -5.890480,   -32.603004,   0.326657,   579.845154,   579.729553
-0.027024,   0.057886,   0.055189,   -6.793031,   565.303894,   0.552449,   1.855719,   2.320876,   565.119873,   -6.608994,   -10.259289,   0.327343,   568.730835,   568.639526
-0.135454,   0.076355,   0.143841,   -719.367371,   33.693649,   0.537507,   2.598006,   55.549416,   23.912508,   -709.586243,   85.265030,   -0.310207,   736.792236,   -735.055847
-0.148380,   0.077124,   0.158672,   -769.014343,   0.000000,   0.537506,   2.598006,   54.644264,   -57.517502,   -731.186768,   164.055511,   -0.346214,   759.360840,   -758.786194
-0.155988,   0.073166,   0.168405,   -805.049805,   0.000000,   0.537506,   2.598006,   53.739113,   -133.926254,   -735.572937,   215.934128,   -0.374056,   774.838013,   -768.772827
-0.156193,   0.066673,   0.170038,   -823.129517,   0.000000,   0.537507,   2.598006,   52.833961,   -188.144608,   -730.123840,   243.016846,   -0.392461,   779.924255,   -766.706238
-0.147930,   0.058626,   0.161795,   -824.664612,   0.000000,   0.537506,   2.598006,   51.928806,   -216.081512,   -723.219727,   248.470566,   -0.404657,   773.741821,   -754.280457
-0.131841,   0.049840,   0.144186,   -807.087708,   0.000000,   0.537507,   2.598006,   51.023655,   -200.678696,   -723.615051,   224.985687,   -0.407895,   755.335876,   -734.458374
-0.111359,   0.041903,   0.121546,   -745.526306,   0.000000,   0.537507,   2.598006,   50.118504,   -72.429680,   -726.218994,   113.998650,   -0.369521,   720.435486,   -716.009216
-0.092930,   0.037608,   0.103482,   -598.600891,   148.248230,   0.537506,   2.598006,   49.213352,   139.992599,   -590.345276,   -78.086876,   -0.219192,   684.866516,   -647.272095
-0.081945,   0.039944,   0.095221,   -491.398804,   272.941833,   0.537506,   2.598006,   48.308201,   242.505814,   -460.962799,   -149.456116,   -0.108541,   670.889954,   -522.048462
-0.077795,   0.046763,   0.092147,   -458.940521,   305.150909,   0.537507,   2.598006,   47.403046,   267.856720,   -421.646332,   -164.636948,   -0.076952,   666.175354,   -465.018555
-0.077129,   0.054909,   0.091005,   -438.076874,   324.744263,   0.537506,   2.598006,   46.497894,   286.993683,   -400.326294,   -165.444321,   -0.056976,   663.048340,   -419.851379
-0.078091,   0.062723,   0.091124,   -423.876953,   338.141693,   0.537507,   2.598006,   45.592743,   302.511627,   -388.246887,   -160.876572,   -0.043214,   661.318298,   -382.422913
-0.079676,   0.069574,   0.092328,   -412.132050,   350.262726,   0.537506,   2.598006,   44.687592,   317.286163,   -379.155487,   -155.092590,   -0.031201,   660.977539,   -343.207458
-0.081237,   0.075149,   0.094214,   -402.697723,   360.806061,   0.537507,   2.598006,   43.782436,   330.762268,   -372.653931,   -148.444977,   -0.021108,   661.545288,   -301.707092
-0.082423,   0.079393,   0.096247,   -394.604767,   370.144775,   0.537506,   2.598006,   42.877285,   342.884216,   -367.344208,   -141.789841,   -0.012309,   662.405396,   -252.464127
-0.083223,   0.082542,   0.098010,   -387.278015,   378.340332,   0.537506,   2.598006,   41.972134,   353.578796,   -362.516479,   -135.442841,   -0.004493,   663.059998,   -180.633911
-0.083774,   0.084908,   0.099433,   -380.467407,   385.587402,   0.537508,   2.598006,   41.066982,   363.022278,   -357.902283,   -129.525833,   0.002572,   663.427856,   150.076782
-0.084100,   0.086670,   0.100484,   -374.019165,   392.014374,   0.537506,   2.598006,   40.161827,   371.379333,   -353.384125,   -124.021507,   0.009041,   663.465515,   228.170197
-0.084208,   0.087971,   0.101188,   -367.818756,   397.768402,   0.537506,   2.598006,   39.256676,   378.846588,   -348.896942,   -118.862366,   0.015053,   663.187012,   270.283722
-0.084126,   0.088928,   0.101605,   -361.788849,   402.998871,   0.537507,   2.598006,   38.351524,   385.621674,   -344.411652,   -113.964455,   0.020730,   662.645996,   300.399506
-0.083887,   0.089627,   0.101794,   -355.882843,   407.824677,   0.537506,   2.598006,   37.446369,   391.857605,   -339.915771,   -109.266731,   0.026158,   661.899841,   324.165741
-0.083517,   0.090123,   0.101800,   -350.083618,   412.313873,   0.537506,   2.598006,   36.541222,   397.650085,   -335.419830,   -104.712051,   0.031382,   660.988342,   343.873413
-0.083034,   0.090449,   0.101649,   -344.388519,   416.502563,   0.537508,   2.598006,   35.636066,   403.055573,   -330.941528,   -100.254105,   0.036425,   659.936768,   360.684723
-0.082447,   0.090623,   0.101356,   -338.809875,   420.396393,   0.537506,   2.598006,   34.730915,   408.097809,   -326.511292,   -95.843094,   0.041283,   658.756165,   375.241669
-0.081762,   0.090656,   0.100929,   -333.368835,   423.985718,   0.537506,   2.598006,   33.825764,   412.783356,   -322.166473,   -91.425758,   0.045944,   657.451355,   387.932556
-0.080982,   0.090553,   0.100373,   -328.091492,   427.253357,   0.537507,   2.598006,   32.920609,   417.109039,   -317.947174,   -86.945709,   0.050385,   656.024170,   399.011261
-0.080111,   0.090321,   0.099692,   -323.004456,   430.181274,   0.537507,   2.598006,   32.015457,   421.067780,   -313.890961,   -82.347420,   0.054587,   654.475525,   408.657715
-0.079149,   0.089964,   0.098890,   -318.128387,   432.756409,   0.537507,   2.598006,   31.110304,   424.653229,   -310.025208,   -77.581459,   0.058531,   652.806152,   417.017792
-0.078100,   0.089484,   0.097967,   -313.462463,   434.983398,   0.537506,   2.598006,   30.205153,   427.870209,   -306.349274,   -72.617027,   0.062221,   651.014771,   424.245026
-0.076961,   0.088881,   0.096923,   -308.957581,   436.905975,   0.537507,   2.598006,   29.300001,   430.752838,   -302.804443,   -67.465157,   0.065706,   649.097107,   430.554260
-0.075722,   0.088149,   0.095748,   -304.389343,   438.701660,   0.537507,   2.598006,   28.394848,   433.443573,   -299.131256,   -62.286358,   0.069194,   647.030212,   436.439728
-0.074306,   0.087212,   0.094354,   -298.485535,   441.320740,   0.537506,   2.598006,   27.489697,   436.726013,   -293.890808,   -58.121300,   0.073856,   644.659119,   444.092865
-0.072399,   0.085779,   0.092399,   -285.493408,   449.024048,   0.537507,   2.598006,   26.584543,   444.164978,   -280.634338,   -59.543808,   0.084994,   641.344299,   462.152954
-0.069508,   0.083511,   0.089457,   -251.217697,   472.292908,   0.537506,   2.598006,   25.679390,   464.057465,   -242.982254,   -76.750290,   0.115821,   636.254028,   505.069489
-0.065600,   0.080775,   0.085925,   -185.333374,   517.754089,   0.537507,   2.598006,   24.774239,   498.174103,   -165.753418,   -115.685135,   0.175558,   631.169434,   564.909302
-0.061244,   0.078548,   0.083017,   -109.032349,   568.320007,   0.537507,   2.598006,   23.869085,   528.327209,   -69.039566,   -159.655197,   0.243027,   629.953125,   608.178650
-0.056972,   0.077451,   0.081492,   -52.213112,   603.629517,   0.537506,   2.598006,   22.963934,   545.103088,   6.313321,   -186.972687,   0.291127,   631.357422,   626.472290
-0.053051,   0.077528,   0.081258,   -17.606770,   623.789856,   0.537507,   2.598006,   22.058783,   555.499329,   50.683769,   -197.832565,   0.319324,   632.776978,   632.225525
-0.049600,   0.078598,   0.081940,   0.000000,   635.878540,   0.537507,   2.598006,   21.153629,   564.433289,   75.325539,   -200.122116,   0.336389,   633.947327,   633.920654
-0.046673,   0.080473,   0.083249,   0.000000,   644.146912,   0.537506,   2.598006,   20.248476,   573.078369,   89.474968,   -198.544052,   0.347718,   635.143799,   634.543213
-0.044275,   0.082983,   0.085013,   0.000000,   650.446655,   0.537507,   2.598006,   19.343325,   581.520569,   97.730209,   -195.183472,   0.355703,   636.533569,   635.064758
-0.042381,   0.085970,   0.087155,   0.000000,   655.640137,   0.537507,   2.598006,   18.438171,   589.702515,   102.366028,   -191.001495,   0.361465,   638.206177,   635.860657
-0.040958,   0.089298,   0.089676,   0.000000,   660.257812,   0.537506,   2.598006,   17.533020,   597.642090,   104.682693,   -186.514740,   0.365645,   640.261658,   637.141235
-0.039974,   0.092806,   0.092625,   0.000000,   664.661560,   0.537507,   2.598006,   16.627869,   605.372498,   105.473602,   -182.081665,   0.368611,   642.814880,   639.066101
-0.039338,   0.096241,   0.095957,   0.000000,   669.003174,   0.537506,   2.598006,   15.722715,   612.789490,   105.335976,   -178.005066,   0.370639,   645.844604,   641.621399
-0.038996,   0.099437,   0.099450,   0.000000,   673.081726,   0.537507,   2.598006,   14.817563,   619.655762,   104.469566,   -174.294754,   0.371880,   649.066956,   644.528137
-0.038957,   0.102364,   0.102784,   0.000000,   676.576355,   0.537507,   2.598006,   13.912411,   625.761108,   102.964897,   -170.728409,   0.372521,   652.067383,   647.350586
-0.039194,   0.104923,   0.105631,   0.000000,   679.131836,   0.537506,   2.598006,   13.007258,   630.883606,   100.765793,   -167.048340,   0.372651,   654.455383,   649.689209
-0.039616,   0.106910,   0.107694,   0.000000,   680.396667,   0.537507,   2.598006,   12.102106,   634.864441,   97.683594,   -162.887192,   0.372299,   655.877869,   651.188538
-0.040122,   0.108109,   0.108747,   0.000000,   680.018555,   0.537507,   2.598006,   11.196954,   637.538208,   93.333603,   -157.868927,   0.371337,   656.071777,   651.615417
-0.040599,   0.108348,   0.108647,   0.000000,   677.738525,   0.537507,   2.598006,   10.291800,   638.852783,   87.366859,   -151.515869,   0.369665,   654.845337,   650.789246
-0.040957,   0.107517,   0.107336,   0.000000,   673.406799,   0.537506,   2.598006,   9.386649,   638.786865,   79.617516,   -143.376877,   0.367241,   652.073425,   648.566528
-0.041129,   0.105588,   0.104844,   0.000000,   666.991028,   0.537507,   2.598006,   8.481497,   637.319275,   70.036545,   -133.089020,   0.364005,   647.752563,   644.913818
-0.041075,   0.102607,   0.101282,   0.000000,   658.517395,   0.537507,   2.598006,   7.576344,   634.355896,   58.641136,   -120.390648,   0.359827,   641.972412,   639.884094
-0.040762,   0.098674,   0.096807,   0.000000,   648.060059,   0.537507,   2.598006,   6.671192,   629.732361,   45.520149,   -105.086487,   0.354519,   634.900757,   633.588562
-0.040148,   0.093907,   0.091593,   0.000000,   635.770508,   0.537507,   2.598006,   5.766040,   623.251648,   30.969036,   -87.013901,   0.347944,   626.749146,   626.137695
-0.039155,   0.088415,   0.085785,   0.000000,   621.986816,   0.537507,   2.598006,   4.860888,   614.778625,   15.806856,   -66.101898,   0.340269,   617.732361,   617.597656
-0.037652,   0.082308,   0.079513,   -1.000530,   607.559692,   0.537507,   2.598006,   3.955735,   604.556458,   2.002710,   -42.645435,   0.332510,   608.060547,   608.058716
-0.035359,   0.075753,   0.072925,   -6.866876,   594.449097,   0.537507,   2.598006,   3.050583,   593.916687,   -6.334456,   -17.884872,   0.327574,   597.912109,   597.823486
-0.179448,   0.100473,   0.192049,   -768.749878,   25.677588,   0.522564,   3.340294,   54.819710,   0.962133,   -744.034424,   137.926727,   -0.316779,   781.904968,   -780.955566
-0.186797,   0.093198,   0.201355,   -818.205688,   0.000000,   0.522564,   3.340294,   53.939720,   -97.597099,   -762.645691,   200.092514,   -0.359325,   798.017944,   -795.521179
-0.184457,   0.083060,   0.200395,   -841.147095,   0.000000,   0.522564,   3.340294,   53.059731,   -164.868469,   -760.807251,   233.092484,   -0.384626,   802.229736,   -792.117798
-0.172792,   0.071661,   0.188729,   -844.825745,   0.000000,   0.522564,   3.340294,   52.179741,   -203.950119,   -751.838135,   244.117828,   -0.400663,   795.172485,   -777.467712
-0.153198,   0.059927,   0.167573,   -831.161133,   0.000000,   0.522564,   3.340294,   51.299751,   -209.015060,   -745.340942,   231.068558,   -0.409459,   776.924011,   -754.478699
-0.128993,   0.049240,   0.140795,   -786.537781,   0.000000,   0.522565,   3.340294,   50.419762,   -129.177704,   -749.024963,   157.033218,   -0.392960,   744.947144,   -732.097839
-0.106205,   0.042027,   0.117014,   -664.859863,   73.206329,   0.522564,   3.340294,   49.539768,   71.896271,   -663.549805,   -31.067554,   -0.280011,   704.322205,   -695.685547
-0.091316,   0.041950,   0.104637,   -525.890808,   247.175705,   0.522564,   3.340294,   48.659779,   220.611053,   -499.326141,   -140.821014,   -0.135857,   683.845337,   -569.477051
-0.085563,   0.048625,   0.100892,   -478.831360,   297.302460,   0.522564,   3.340294,   47.779793,   260.133698,   -441.662598,   -165.729980,   -0.089214,   678.252136,   -496.334564
-0.085068,   0.058233,   0.100693,   -451.157349,   327.125610,   0.522564,   3.340294,   46.899803,   285.420990,   -409.452728,   -175.267593,   -0.061082,   676.859863,   -438.440948
-0.086832,   0.067956,   0.101958,   -435.416504,   344.208160,   0.522564,   3.340294,   46.019814,   303.226105,   -394.434448,   -173.985931,   -0.044927,   676.713196,   -396.368591
-0.089255,   0.076516,   0.104039,   -423.493744,   357.696930,   0.522565,   3.340294,   45.139820,   319.037964,   -384.834778,   -169.427002,   -0.032380,   677.330444,   -356.048828
-0.091616,   0.083569,   0.106674,   -414.078949,   369.042145,   0.522564,   3.340294,   44.259830,   333.212524,   -378.249329,   -163.631165,   -0.022123,   678.576477,   -314.344574
-0.093439,   0.088980,   0.109347,   -406.378601,   378.534485,   0.522564,   3.340294,   43.379841,   345.699554,   -373.543671,   -157.144592,   -0.013651,   679.897217,   -268.218842
-0.094625,   0.092939,   0.111574,   -399.469818,   386.607025,   0.522564,   3.340294,   42.499851,   356.626099,   -369.488892,   -150.560486,   -0.006298,   680.792908,   -207.555725
-0.095320,   0.095786,   0.113227,   -392.990387,   393.541412,   0.522564,   3.340294,   41.619862,   366.194733,   -365.643707,   -144.087433,   0.000270,   681.156555,   72.650864
-0.095663,   0.097819,   0.114364,   -386.759705,   399.624451,   0.522565,   3.340294,   40.739872,   374.646423,   -361.781677,   -137.907257,   0.006296,   681.058960,   207.620667
-0.095697,   0.099233,   0.115037,   -380.667633,   405.050598,   0.522564,   3.340294,   39.859882,   382.188141,   -357.805176,   -132.063416,   0.011943,   680.561157,   256.788422
-0.095472,   0.100189,   0.115328,   -374.625366,   410.000610,   0.522564,   3.340294,   38.979893,   389.038910,   -353.663666,   -126.521591,   0.017348,   679.736206,   290.419983
-0.095044,   0.100815,   0.115329,   -368.600555,   414.608887,   0.522564,   3.340294,   38.099903,   395.370728,   -349.362396,   -121.232841,   0.022597,   678.669250,   316.610809
-0.094468,   0.101207,   0.115123,   -362.580963,   418.975525,   0.522564,   3.340294,   37.219910,   401.313843,   -344.919281,   -116.153648,   0.027749,   677.434875,   338.339844
-0.093780,   0.101425,   0.114762,   -356.587921,   423.136353,   0.522565,   3.340294,   36.339920,   406.933258,   -340.384827,   -111.226807,   0.032811,   676.080322,   356.949799
-0.093005,   0.101503,   0.114280,   -350.647919,   427.100677,   0.522565,   3.340294,   35.459930,   412.260162,   -335.807404,   -106.404671,   0.037775,   674.633911,   373.180695
-0.092153,   0.101461,   0.113692,   -344.795807,   430.853363,   0.522564,   3.340294,   34.579941,   417.298798,   -331.241241,   -101.635902,   0.042617,   673.108582,   387.459137
-0.091232,   0.101311,   0.113008,   -339.065857,   434.373932,   0.522564,   3.340294,   33.699951,   422.044373,   -326.736298,   -96.871864,   0.047310,   671.511536,   400.068237
-0.090247,   0.101060,   0.112235,   -333.493317,   437.637604,   0.522564,   3.340294,   32.819962,   426.485382,   -322.341095,   -92.062271,   0.051825,   669.846069,   411.201294
-0.089200,   0.100713,   0.111376,   -328.112366,   440.620453,   0.522564,   3.340294,   31.939970,   430.608093,   -318.100006,   -87.158325,   0.056132,   668.114563,   421.002014
-0.088094,   0.100274,   0.110435,   -322.952820,   443.301300,   0.522564,   3.340294,   31.059980,   434.398102,   -314.049622,   -82.114868,   0.060206,   666.318237,   429.584808
-0.086928,   0.099744,   0.109411,   -318.027435,   445.672729,   0.522565,   3.340294,   30.179991,   437.848907,   -310.203613,   -76.901527,   0.064035,   664.455994,   437.069977
-0.085702,   0.099121,   0.108301,   -313.308807,   447.758698,   0.522565,   3.340294,   29.299999,   440.976990,   -306.527100,   -71.521652,   0.067645,   662.523193,   443.625946
-0.084402,   0.098396,   0.107094,   -308.642059,   449.678375,   0.522564,   3.340294,   28.420010,   443.874207,   -302.837891,   -66.088890,   0.071177,   660.499939,   449.612915
-0.082962,   0.097499,   0.105707,   -303.199554,   452.031860,   0.522564,   3.340294,   27.540020,   447.020721,   -298.188416,   -61.314468,   0.075365,   658.269409,   456.433167
-0.081104,   0.096147,   0.103821,   -293.537262,   457.265259,   0.522565,   3.340294,   26.660030,   452.421570,   -288.693573,   -60.109859,   0.083278,   655.347229,   469.182831
-0.078322,   0.093882,   0.100897,   -270.704041,   471.793671,   0.522564,   3.340294,   25.780041,   465.313263,   -264.223633,   -69.062927,   0.102991,   650.835144,   498.263977
-0.074369,   0.090724,   0.096924,   -221.109909,   505.268524,   0.522565,   3.340294,   24.900049,   492.240692,   -208.082077,   -96.402328,   0.146873,   644.907532,   549.368347
-0.069661,   0.087577,   0.092946,   -146.630203,   554.906067,   0.522564,   3.340294,   24.020060,   526.088257,   -117.812386,   -139.234604,   0.212336,   640.926758,   601.426270
-0.064857,   0.085445,   0.090210,   -77.734764,   598.495361,   0.522564,   3.340294,   23.140070,   549.175659,   -28.415083,   -175.838058,   0.270845,   640.908142,   630.171326
-0.060368,   0.084706,   0.089101,   -33.009098,   625.168152,   0.522565,   3.340294,   22.260080,   561.335815,   30.823265,   -194.777924,   0.307307,   642.309204,   640.396667
-0.056373,   0.085249,   0.089314,   -6.564990,   640.439636,   0.522564,   3.340294,   21.380089,   569.818604,   64.056023,   -201.754288,   0.328221,   643.747192,   643.671875
-0.052945,   0.086843,   0.090444,   0.000000,   650.316650,   0.522564,   3.340294,   20.500099,   577.720093,   82.882622,   -202.962463,   0.341272,   645.235107,   645.050537
-0.050107,   0.089278,   0.092215,   0.000000,   657.631958,   0.522565,   3.340294,   19.620110,   585.656860,   93.996506,   -201.414246,   0.350209,   646.902405,   646.058167
-0.047849,   0.092372,   0.094475,   0.000000,   663.590332,   0.522564,   3.340294,   18.740120,   593.628357,   100.590416,   -198.465607,   0.356658,   648.818542,   647.189026
-0.046131,   0.095953,   0.097160,   0.000000,   668.799805,   0.522565,   3.340294,   17.860130,   601.566406,   104.337654,   -194.809418,   0.361423,   651.041138,   648.655884
-0.044919,   0.099885,   0.100313,   0.000000,   673.686707,   0.522565,   3.340294,   16.980139,   609.475830,   106.224693,   -190.885345,   0.364952,   653.693176,   650.645081
-0.044169,   0.103972,   0.103959,   0.000000,   678.513550,   0.522564,   3.340294,   16.100149,   617.327759,   106.913406,   -187.012848,   0.367536,   656.844604,   653.249084
-0.043765,   0.107956,   0.107983,   0.000000,   683.268860,   0.522565,   3.340294,   15.220160,   624.982788,   106.779541,   -183.306549,   0.369376,   660.358887,   656.334900
-0.043678,   0.111723,   0.112122,   0.000000,   687.706665,   0.522565,   3.340294,   14.340169,   632.206970,   105.949097,   -179.686829,   0.370604,   663.921082,   659.587952
-0.043946,   0.115258,   0.116062,   0.000000,   691.492920,   0.522564,   3.340294,   13.460179,   638.752808,   104.388161,   -175.965775,   0.371290,   667.169922,   662.649658
-0.044508,   0.118427,   0.119474,   0.000000,   694.311890,   0.522565,   3.340294,   12.580190,   644.459595,   102.043144,   -171.831238,   0.371537,   669.743408,   665.145142
-0.045280,   0.121006,   0.122068,   0.000000,   695.802246,   0.522565,   3.340294,   11.700199,   649.093689,   98.619690,   -167.013565,   0.371247,   671.353577,   666.815735
-0.046143,   0.122768,   0.123617,   0.000000,   695.628906,   0.522565,   3.340294,   10.820210,   652.492981,   93.723534,   -161.132721,   0.370276,   671.765198,   667.459595
-0.046979,   0.123525,   0.123968,   0.000000,   693.564575,   0.522564,   3.340294,   9.940220,   654.571228,   87.088097,   -153.780869,   0.368538,   670.811523,   666.915955
-0.047691,   0.123154,   0.123053,   0.000000,   689.508240,   0.522565,   3.340294,   9.060229,   655.277954,   78.636734,   -144.604004,   0.365999,   668.412292,   665.081299
-0.048210,   0.121612,   0.120890,   0.000000,   683.439636,   0.522564,   3.340294,   8.180239,   654.527527,   68.387367,   -133.350906,   0.362591,   664.581909,   661.936462
-0.048488,   0.118930,   0.117572,   0.000000,   675.371765,   0.522565,   3.340294,   7.300249,   652.161987,   56.345226,   -119.864326,   0.358142,   659.428711,   657.551697
-0.048484,   0.115184,   0.113240,   0.000000,   665.320129,   0.522564,   3.340294,   6.420259,   647.960083,   42.537289,   -103.978485,   0.352423,   653.095581,   652.002380
-0.048132,   0.110464,   0.108044,   0.000000,   653.346436,   0.522565,   3.340294,   5.540269,   641.687317,   27.105154,   -85.448318,   0.345221,   645.761963,   645.346069
-0.047337,   0.104836,   0.102088,   0.000000,   639.561951,   0.522564,   3.340294,   4.660279,   633.065430,   10.483546,   -63.928165,   0.336455,   637.577820,   637.549805
-0.045994,   0.098306,   0.095399,   -8.872338,   624.153625,   0.522565,   3.340294,   3.780289,   621.734863,   -6.453605,   -39.054714,   0.326252,   628.636719,   628.495850
-0.229360,   0.124533,   0.247063,   -824.073914,   1.930495,   0.517473,   4.089216,   54.127285,   -41.065212,   -781.078186,   183.483002,   -0.332163,   825.040833,   -825.035767
-0.222295,   0.107696,   0.240905,   -856.531494,   0.000000,   0.517473,   4.089216,   53.271168,   -128.451904,   -788.868347,   221.955261,   -0.369375,   827.812744,   -822.768677
-0.205303,   0.090433,   0.223719,   -865.157593,   0.000000,   0.517472,   4.089216,   52.415058,   -183.348877,   -782.952393,   236.745102,   -0.393150,   819.281738,   -805.055786
-0.180704,   0.073951,   0.197489,   -855.828125,   0.000000,   0.517473,   4.089216,   51.558945,   -207.550598,   -773.569763,   230.924728,   -0.408509,   800.569336,   -778.051636
-0.151701,   0.059319,   0.165691,   -823.204407,   0.000000,   0.517473,   4.089216,   50.702831,   -171.524200,   -770.207886,   185.840714,   -0.407250,   770.805908,   -749.891357
-0.123572,   0.048483,   0.135328,   -729.951233,   0.000000,   0.517473,   4.089216,   49.846718,   -4.045492,   -728.993713,   26.363901,   -0.335451,   728.412170,   -728.397522
-0.103370,   0.044953,   0.116790,   -574.075989,   205.774338,   0.517473,   4.089216,   48.990604,   184.108292,   -552.409912,   -128.167313,   -0.175375,   700.026001,   -626.363953
-0.094483,   0.050354,   0.110650,   -503.675079,   284.085327,   0.517473,   4.089216,   48.134491,   247.784760,   -467.374512,   -165.161774,   -0.105929,   690.999084,   -533.657104
-0.093402,   0.060882,   0.110582,   -468.599243,   323.522339,   0.517473,   4.089216,   47.278378,   280.010406,   -425.087311,   -180.481171,   -0.070104,   689.821899,   -467.273193
-0.095891,   0.072700,   0.113051,   -447.986755,   347.914307,   0.517473,   4.089216,   46.422264,   302.824310,   -402.896759,   -183.994720,   -0.048268,   691.084290,   -414.451691
-0.099363,   0.083450,   0.116387,   -434.386322,   364.774628,   0.517472,   4.089216,   45.566151,   321.049347,   -390.661041,   -181.746078,   -0.033485,   692.968323,   -368.337433
-0.102688,   0.092362,   0.120031,   -424.308960,   377.770508,   0.517473,   4.089216,   44.710037,   336.672546,   -383.210999,   -176.846802,   -0.022320,   695.010864,   -322.908112
-0.105348,   0.099316,   0.123603,   -416.315247,   388.300537,   0.517473,   4.089216,   43.853924,   350.187408,   -378.202118,   -170.920456,   -0.013399,   696.958435,   -273.245300
-0.107118,   0.104405,   0.126551,   -409.495575,   396.804108,   0.517473,   4.089216,   42.997814,   361.723145,   -374.414612,   -164.484344,   -0.006058,   698.304871,   -210.159058
-0.108155,   0.108028,   0.128697,   -403.238251,   403.803986,   0.517473,   4.089216,   42.141701,   371.627777,   -371.062042,   -157.899475,   0.000270,   698.919128,   74.566124
-0.108633,   0.110522,   0.130086,   -397.273315,   409.690216,   0.517473,   4.089216,   41.285587,   380.213104,   -367.796204,   -151.387085,   0.005922,   698.878479,   208.746902
-0.108680,   0.112179,   0.130844,   -391.460785,   414.779388,   0.517473,   4.089216,   40.429474,   387.754883,   -364.436279,   -145.113480,   0.011131,   698.321838,   257.384064
-0.108376,   0.113223,   0.131093,   -385.694641,   419.323944,   0.517472,   4.089216,   39.573360,   394.507385,   -360.878082,   -139.147156,   0.016074,   697.369324,   290.490906
-0.107803,   0.113828,   0.130960,   -379.891205,   423.518829,   0.517473,   4.089216,   38.717247,   400.693451,   -357.065826,   -133.480850,   0.020891,   696.115417,   316.384674
-0.107036,   0.114126,   0.130555,   -374.027222,   427.500488,   0.517473,   4.089216,   37.861134,   406.483032,   -353.009766,   -128.079391,   0.025659,   694.658081,   338.041718
-0.106138,   0.114214,   0.129968,   -368.110992,   431.345947,   0.517473,   4.089216,   37.005020,   411.985474,   -348.750519,   -122.894417,   0.030413,   693.071533,   356.833862
-0.105152,   0.114155,   0.129256,   -362.183533,   435.069489,   0.517474,   4.089216,   36.148907,   417.245728,   -344.359772,   -117.865822,   0.035139,   691.402466,   373.417816
-0.104102,   0.113983,   0.128454,   -356.283691,   438.665894,   0.517473,   4.089216,   35.292793,   422.281982,   -339.899780,   -112.942261,   0.039817,   689.677734,   388.194183
-0.103001,   0.113717,   0.127577,   -350.453949,   442.110901,   0.517473,   4.089216,   34.436680,   427.090027,   -335.433075,   -108.071251,   0.044413,   687.909485,   401.403015
-0.101856,   0.113370,   0.126637,   -344.728790,   445.382843,   0.517472,   4.089216,   33.580566,   431.663422,   -331.009369,   -103.206787,   0.048901,   686.104980,   413.230316
-0.100672,   0.112950,   0.125639,   -339.144745,   448.454834,   0.517473,   4.089216,   32.724453,   435.988190,   -326.678101,   -98.302094,   0.053249,   684.267456,   423.803253
-0.099451,   0.112462,   0.124588,   -333.737488,   451.301361,   0.517472,   4.089216,   31.868340,   440.048492,   -322.484619,   -93.312988,   0.057427,   682.400024,   433.219910
-0.098195,   0.111909,   0.123486,   -328.541412,   453.896820,   0.517473,   4.089216,   31.012226,   443.825653,   -318.470245,   -88.196564,   0.061403,   680.503967,   441.555389
-0.096904,   0.111293,   0.122332,   -323.577240,   456.226318,   0.517473,   4.089216,   30.156113,   447.306641,   -314.657562,   -82.921822,   0.065160,   678.578735,   448.892975
-0.095575,   0.110610,   0.121122,   -318.833557,   458.299591,   0.517472,   4.089216,   29.299999,   450.495453,   -311.029419,   -77.485153,   0.068707,   676.619995,   455.356567
-0.094195,   0.109850,   0.119843,   -314.201019,   460.199310,   0.517473,   4.089216,   28.443888,   453.452087,   -307.453796,   -71.968948,   0.072139,   674.611572,   461.215820
-0.092707,   0.108951,   0.118425,   -309.088104,   462.350983,   0.517473,   4.089216,   27.587774,   456.505646,   -303.242767,   -66.896500,   0.075971,   672.466370,   467.478180
-0.090876,   0.107666,   0.116588,   -301.245605,   466.310913,   0.517473,   4.089216,   26.731661,   460.890503,   -295.825195,   -64.273560,   0.082143,   669.827515,   477.452942
-0.088223,   0.105505,   0.113776,   -285.506958,   475.587402,   0.517472,   4.089216,   25.875547,   469.435822,   -279.355377,   -68.147606,   0.095143,   665.943787,   497.334869
-0.084352,   0.102188,   0.109653,   -251.966705,   497.203827,   0.517473,   4.089216,   25.019434,   487.539429,   -242.302307,   -84.539223,   0.123803,   660.286072,   534.851013
-0.079413,   0.098268,   0.104815,   -190.213974,   538.192993,   0.517473,   4.089216,   24.163321,   518.261169,   -170.282166,   -118.832603,   0.177258,   654.373657,   587.173218
-0.074047,   0.094908,   0.100643,   -114.460190,   586.991577,   0.517473,   4.089216,   23.307207,   548.114685,   -75.583298,   -160.495651,   0.241653,   651.803223,   628.593384
-0.068857,   0.092959,   0.098163,   -55.458149,   622.858337,   0.517472,   4.089216,   22.451094,   565.219910,   2.180300,   -189.142593,   0.289923,   652.357788,   647.022339
-0.064155,   0.092591,   0.097447,   -20.112139,   643.385681,   0.517473,   4.089216,   21.594982,   574.595276,   48.678261,   -202.262604,   0.317831,   653.673828,   652.977112
-0.060070,   0.093606,   0.098083,   0.000000,   655.647583,   0.517473,   4.089216,   20.738867,   582.021667,   74.520912,   -206.847763,   0.334016,   655.200562,   655.199158
-0.056648,   0.095747,   0.099664,   0.000000,   664.198547,   0.517472,   4.089216,   19.882755,   589.340332,   89.493233,   -207.416031,   0.344409,   657.003296,   656.636475
-0.053893,   0.098783,   0.101930,   0.000000,   670.947632,   0.517473,   4.089216,   19.026642,   596.845032,   98.450691,   -205.969666,   0.351633,   659.110901,   658.097900
-0.051770,   0.102507,   0.104737,   0.000000,   676.727356,   0.517473,   4.089216,   18.170528,   604.493286,   103.752220,   -203.441162,   0.356872,   661.531616,   659.839050
-0.050244,   0.106749,   0.108058,   0.000000,   682.012207,   0.517473,   4.089216,   17.314415,   612.239075,   106.684631,   -200.355698,   0.360728,   664.325989,   662.012939
-0.049279,   0.111361,   0.111939,   0.000000,   687.147522,   0.517472,   4.089216,   16.458302,   620.108887,   108.054192,   -197.031998,   0.363581,   667.585327,   664.741699
-0.048792,   0.116107,   0.116361,   0.000000,   692.293030,   0.517473,   4.089216,   15.602188,   628.081787,   108.400658,   -193.629669,   0.365705,   671.290039,   668.005920
-0.048669,   0.120740,   0.121154,   0.000000,   697.339294,   0.517473,   4.089216,   14.746075,   635.955078,   107.979965,   -190.203461,   0.367240,   675.248230,   671.616882
-0.048933,   0.125218,   0.126055,   0.000000,   702.029602,   0.517473,   4.089216,   13.889962,   643.454346,   106.842941,   -186.716965,   0.368235,   679.183350,   675.308289
-0.049607,   0.129532,   0.130760,   0.000000,   706.084595,   0.517473,   4.089216,   13.033849,   650.432495,   104.975258,   -182.901627,   0.368801,   682.760498,   678.734741
-0.050641,   0.133510,   0.134934,   0.000000,   709.148621,   0.517473,   4.089216,   12.177735,   656.624451,   102.186676,   -178.550140,   0.368892,   685.667542,   681.603455
-0.051929,   0.136905,   0.138282,   0.000000,   710.837463,   0.517473,   4.089216,   11.321622,   661.781189,   98.080421,   -173.376938,   0.368344,   687.637268,   683.688843
-0.053338,   0.139468,   0.140566,   0.000000,   710.837769,   0.517473,   4.089216,   10.465509,   665.726807,   92.288612,   -167.042923,   0.367009,   688.462341,   684.811340
-0.054739,   0.140997,   0.141624,   0.000000,   708.967773,   0.517473,   4.089216,   9.609395,   668.364624,   84.642624,   -159.215500,   0.364826,   688.005981,   684.823914
-0.056028,   0.141357,   0.141378,   0.000000,   705.161987,   0.517473,   4.089216,   8.753282,   669.618286,   75.149635,   -149.642792,   0.361775,   686.216797,   683.638062
-0.057133,   0.140491,   0.139832,   0.000000,   699.401855,   0.517473,   4.089216,   7.897169,   669.346619,   63.842541,   -138.209595,   0.357757,   683.135193,   681.251465
-0.058003,   0.138412,   0.137066,   0.000000,   691.670105,   0.517473,   4.089216,   7.041056,   667.364136,   50.688255,   -124.818581,   0.352576,   678.863525,   677.708679
-0.058582,   0.135171,   0.133200,   0.000000,   681.946655,   0.517473,   4.089216,   6.184943,   663.468140,   35.633877,   -109.283539,   0.345988,   673.532837,   673.041016
-0.058778,   0.130837,   0.128364,   0.000000,   670.255371,   0.517473,   4.089216,   5.328829,   657.466553,   18.765203,   -91.278625,   0.337801,   667.287231,   667.227051
-0.058451,   0.125485,   0.122678,   -6.890599,   656.788086,   0.517473,   4.089216,   4.472716,   649.238464,   0.659018,   -70.381271,   0.328102,   660.260315,   660.179382
-0.271707,   0.143198,   0.294142,   -868.117310,   0.000000,   0.523154,   4.859001,   53.488712,   -81.819588,   -809.794861,   214.146698,   -0.346954,   856.610474,   -855.885071
-0.248785,   0.117342,   0.270613,   -886.348999,   0.000000,   0.523154,   4.859001,   52.654621,   -157.459915,   -813.080017,   231.095184,   -0.381773,   847.396118,   -837.909241
-0.217975,   0.094022,   0.237991,   -882.634827,   0.000000,   0.523154,   4.859001,   51.820526,   -199.125549,   -806.111145,   228.702042,   -0.404602,   828.168274,   -807.372131
-0.182814,   0.073930,   0.199829,   -858.433167,   0.000000,   0.523154,   4.859001,   50.986435,   -195.996078,   -797.466064,   200.964890,   -0.414193,   799.516724,   -773.236816
-0.147942,   0.058373,   0.161711,   -790.893005,   0.000000,   0.523155,   4.859001,   50.152340,   -80.461830,   -779.940735,   88.209114,   -0.378101,   758.530640,   -751.315125
-0.120406,   0.050118,   0.134206,   -641.592896,   139.079300,   0.523154,   4.859001,   49.318245,   125.879196,   -628.392761,   -100.651436,   -0.232239,   721.260559,   -690.117310
-0.105893,   0.052496,   0.122856,   -534.359558,   266.323669,   0.523154,   4.859001,   48.484154,   230.086990,   -498.122894,   -166.436188,   -0.126508,   706.244324,   -575.804565
-0.102551,   0.062797,   0.121253,   -491.154419,   314.450043,   0.523155,   4.859001,   47.650059,   269.269440,   -445.973816,   -185.354828,   -0.083757,   703.246033,   -504.396332
-0.104983,   0.076331,   0.124128,   -462.712616,   348.237518,   0.523154,   4.859001,   46.815964,   299.391815,   -413.866913,   -192.939148,   -0.054154,   704.631958,   -438.830170
-0.109434,   0.089577,   0.128718,   -445.221436,   370.587097,   0.523155,   4.859001,   45.981869,   321.919281,   -396.553619,   -193.222809,   -0.035164,   707.495728,   -382.197571
-0.113907,   0.100866,   0.133665,   -433.199066,   386.735474,   0.523152,   4.859001,   45.147778,   340.223663,   -386.687256,   -189.666245,   -0.021800,   710.464050,   -327.508911
-0.117606,   0.109801,   0.138390,   -424.320496,   398.979584,   0.523154,   4.859001,   44.313686,   355.458130,   -380.799042,   -184.220230,   -0.011845,   713.111328,   -268.337982
-0.120218,   0.116446,   0.142379,   -417.158234,   408.537384,   0.523155,   4.859001,   43.479591,   368.171143,   -376.791992,   -178.047150,   -0.004019,   715.086304,   -187.691422
-0.121832,   0.121192,   0.145328,   -410.976624,   415.981476,   0.523154,   4.859001,   42.645496,   378.738403,   -373.733551,   -171.497559,   0.002329,   716.171082,   156.736755
-0.122685,   0.124466,   0.147281,   -405.303436,   421.922638,   0.523155,   4.859001,   41.811405,   387.651703,   -371.032501,   -164.849335,   0.007732,   716.446899,   233.882416
-0.122914,   0.126592,   0.148347,   -399.888672,   426.773651,   0.523154,   4.859001,   40.977310,   395.253784,   -368.368805,   -158.312271,   0.012516,   716.036743,   274.424072
-0.122660,   0.127883,   0.148718,   -394.577209,   430.899292,   0.523154,   4.859001,   40.143215,   401.881561,   -365.559479,   -152.024460,   0.016931,   715.114258,   303.072388
-0.122033,   0.128569,   0.148559,   -389.251434,   434.574860,   0.523154,   4.859001,   39.309124,   407.814850,   -362.491425,   -146.046249,   0.021165,   713.814331,   325.836670
-0.121137,   0.128834,   0.148025,   -383.834106,   438.011536,   0.523154,   4.859001,   38.475029,   413.287262,   -359.109833,   -140.386032,   0.025355,   712.254456,   345.234253
-0.120059,   0.128816,   0.147240,   -378.306000,   441.341187,   0.523155,   4.859001,   37.640938,   418.462585,   -355.427399,   -135.014587,   0.029572,   710.534607,   362.438904
-0.118870,   0.128613,   0.146300,   -372.685730,   444.609741,   0.523154,   4.859001,   36.806843,   423.423035,   -351.499023,   -129.872696,   0.033829,   708.711609,   377.981262
-0.117614,   0.128286,   0.145262,   -367.024109,   447.824188,   0.523154,   4.859001,   35.972748,   428.208954,   -347.408875,   -124.894638,   0.038104,   706.834778,   392.115906
-0.116315,   0.127868,   0.144160,   -361.367126,   450.966614,   0.523155,   4.859001,   35.138653,   432.829193,   -343.229706,   -120.019455,   0.042368,   704.926636,   404.992126
-0.114984,   0.127378,   0.143007,   -355.757812,   454.008575,   0.523154,   4.859001,   34.304562,   437.276093,   -339.025330,   -115.192986,   0.046587,   702.996826,   416.708557
-0.113629,   0.126828,   0.141815,   -350.231293,   456.926514,   0.523154,   4.859001,   33.470467,   441.540344,   -334.845123,   -110.373627,   0.050731,   701.051941,   427.356415
-0.112253,   0.126225,   0.140590,   -344.824280,   459.692413,   0.523154,   4.859001,   32.636375,   445.606659,   -330.738525,   -105.516869,   0.054770,   699.095093,   436.997742
-0.110859,   0.125576,   0.139335,   -339.570435,   462.281525,   0.523154,   4.859001,   31.802280,   449.460114,   -326.749023,   -100.580719,   0.058674,   697.129456,   445.688171
-0.109449,   0.124884,   0.138053,   -334.505371,   464.666534,   0.523154,   4.859001,   30.968187,   453.080933,   -322.919769,   -95.523033,   0.062413,   695.156250,   453.465393
-0.108021,   0.124150,   0.136743,   -329.654907,   466.827545,   0.523154,   4.859001,   30.134094,   456.452362,   -319.279724,   -90.310593,   0.065963,   693.175537,   460.376221
-0.106573,   0.123371,   0.135401,   -325.019135,   468.764404,   0.523154,   4.859001,   29.300001,   459.570160,   -315.824890,   -84.933533,   0.069323,   691.183716,   466.503479
-0.105094,   0.122536,   0.134014,   -320.524414,   470.531830,   0.523154,   4.859001,   28.465906,   462.470428,   -312.463013,   -79.448364,   0.072555,   689.168396,   472.041779
-0.103534,   0.121594,   0.132522,   -315.746277,   472.435669,   0.523154,   4.859001,   27.631813,   465.379639,   -308.690247,   -74.240479,   0.076018,   687.066956,   477.724915
-0.101700,   0.120338,   0.130693,   -309.121979,   475.550751,   0.523154,   4.859001,   26.797718,   469.117676,   -302.688904,   -70.756432,   0.081032,   684.622620,   485.878021
-0.099166,   0.118311,   0.128016,   -297.471130,   481.929077,   0.523154,   4.859001,   25.963625,   475.279053,   -290.821106,   -71.685455,   0.090254,   681.252319,   500.364502
-0.095472,   0.115064,   0.123982,   -275.348267,   495.198334,   0.523154,   4.859001,   25.129532,   486.702301,   -266.852234,   -80.463745,   0.108358,   676.306213,   525.989319
-0.090513,   0.110720,   0.118698,   -231.962570,   523.138733,   0.523154,   4.859001,   24.295439,   508.835052,   -217.658875,   -102.937553,   0.144875,   669.947327,   568.453003
-0.084721,   0.106227,   0.113229,   -162.395325,   568.492615,   0.523154,   4.859001,   23.461344,   540.155212,   -134.057907,   -141.097351,   0.203638,   664.737976,   617.696594
-0.078792,   0.102788,   0.109023,   -90.402466,   613.507996,   0.523153,   4.859001,   22.627251,   564.730713,   -41.625191,   -178.761322,   0.262862,   663.345520,   649.269287
-0.073249,   0.101065,   0.106825,   -40.909702,   642.701538,   0.523154,   4.859001,   21.793158,   577.528320,   24.263538,   -200.762573,   0.302058,   664.102112,   661.258179
-0.068343,   0.101084,   0.106492,   -12.253230,   659.190308,   0.523154,   4.859001,   20.959064,   585.280579,   61.656483,   -210.151260,   0.324084,   665.401489,   665.147583
-0.064169,   0.102600,   0.107561,   0.000000,   669.694763,   0.523154,   4.859001,   20.124969,   592.144043,   82.739326,   -213.351364,   0.337215,   667.115540,   667.070190
-0.060761,   0.105339,   0.109641,   0.000000,   677.559265,   0.523154,   4.859001,   19.290876,   599.177917,   95.255661,   -213.639252,   0.345860,   669.281616,   668.802795
-0.058105,   0.109056,   0.112489,   0.000000,   684.114685,   0.523154,   4.859001,   18.456783,   606.489685,   102.818657,   -212.422028,   0.351906,   671.872253,   670.808289
-0.056163,   0.113527,   0.115976,   0.000000,   689.969116,   0.523154,   4.859001,   17.622690,   614.016357,   107.246170,   -210.379196,   0.356249,   674.866760,   673.231445
-0.054881,   0.118579,   0.120097,   0.000000,   695.529602,   0.523154,   4.859001,   16.788595,   621.781616,   109.621887,   -207.868973,   0.359427,   678.304504,   676.165222
-0.054215,   0.124039,   0.124884,   0.000000,   701.054810,   0.523154,   4.859001,   15.954503,   629.822388,   110.604645,   -205.083405,   0.361773,   682.221313,   679.658081
-0.054050,   0.129630,   0.130268,   0.000000,   706.600525,   0.523154,   4.859001,   15.120409,   638.062683,   110.611694,   -202.108398,   0.363506,   686.531250,   683.621643
-0.054289,   0.135124,   0.136033,   0.000000,   712.010681,   0.523154,   4.859001,   14.286316,   646.201782,   109.876030,   -199.062393,   0.364710,   691.031799,   687.859863
-0.055005,   0.140544,   0.141919,   0.000000,   717.040588,   0.523154,   4.859001,   13.452222,   654.062561,   108.399757,   -195.783005,   0.365456,   695.443054,   692.093933
-0.056217,   0.145848,   0.147599,   0.000000,   721.380066,   0.523154,   4.859001,   12.618128,   661.422180,   106.088287,   -192.071838,   0.365765,   699.456665,   696.021729
-0.057854,   0.150805,   0.152705,   0.000000,   724.633972,   0.523154,   4.859001,   11.784035,   667.986938,   102.652367,   -187.705673,   0.365529,   702.761597,   699.361633
-0.059782,   0.155133,   0.156921,   0.000000,   726.417419,   0.523154,   4.859001,   10.949941,   673.499207,   97.669189,   -182.406799,   0.364563,   705.107788,   701.902100
-0.061846,   0.158553,   0.159992,   0.000000,   726.437561,   0.523154,   4.859001,   10.115848,   677.781128,   90.812210,   -175.861450,   0.362730,   706.303833,   703.464905
-0.063898,   0.160845,   0.161742,   0.000000,   724.565125,   0.523154,   4.859001,   9.281754,   680.751831,   82.028999,   -167.784470,   0.360023,   706.233215,   703.901245
-0.065829,   0.161868,   0.162089,   0.000000,   720.767639,   0.523154,   4.859001,   8.447660,   682.295532,   71.398315,   -158.058823,   0.356416,   704.881531,   703.148193
-0.067562,   0.161559,   0.161037,   0.000000,   715.020752,   0.523154,   4.859001,   7.613567,   682.243347,   58.933243,   -146.645279,   0.351781,   702.308228,   701.211182
-0.069039,   0.159919,   0.158656,   0.000000,   707.262207,   0.523154,   4.859001,   6.779473,   680.391113,   44.516212,   -133.449356,   0.345882,   698.606812,   698.105103
-0.070185,   0.156978,   0.155051,   0.000000,   697.408936,   0.523154,   4.859001,   5.945380,   676.531921,   27.985687,   -118.218185,   0.338443,   693.881897,   693.799988
-0.070891,   0.152790,   0.150340,   -5.669023,   685.391235,   0.523154,   4.859001,   5.111286,   670.450134,   9.272062,   -100.508476,   0.329206,   688.243225,   688.190796
-0.306021,   0.155933,   0.332624,   -904.878723,   0.000000,   0.527610,   5.656495,   52.883896,   -121.654572,   -836.762390,   230.976944,   -0.363312,   879.332825,   -875.654541
-0.266634,   0.122297,   0.290868,   -908.835022,   0.000000,   0.527611,   5.656495,   52.070660,   -181.970551,   -836.896912,   228.668488,   -0.395314,   859.119873,   -843.048645
-0.223446,   0.094512,   0.244317,   -891.361938,   0.000000,   0.527611,   5.656495,   51.257420,   -202.282349,   -828.530090,   208.077271,   -0.413749,   830.464722,   -803.487793
-0.180402,   0.072709,   0.197282,   -843.146362,   0.000000,   0.527610,   5.656495,   50.444183,   -142.313629,   -815.786072,   138.473816,   -0.403265,   791.951782,   -772.847229
-0.143725,   0.058574,   0.158613,   -720.696838,   51.262886,   0.527612,   5.656495,   49.630943,   48.171978,   -717.605957,   -48.749386,   -0.298462,   747.647522,   -743.678101
-0.121037,   0.056077,   0.138738,   -574.167358,   239.694473,   0.527610,   5.656495,   48.817707,   204.850723,   -539.323608,   -164.754089,   -0.153909,   724.393738,   -625.358521
-0.113398,   0.064845,   0.133699,   -517.574341,   301.929016,   0.527611,   5.656495,   48.004471,   255.371750,   -471.017090,   -189.700409,   -0.100134,   717.854492,   -544.770142
-0.114690,   0.079421,   0.135924,   -480.363892,   345.441650,   0.527611,   5.656495,   47.191231,   292.782410,   -427.704651,   -201.775375,   -0.062608,   718.343323,   -469.065887
-0.119783,   0.095153,   0.141424,   -457.899506,   373.969788,   0.527611,   5.656495,   46.377995,   320.308594,   -404.238312,   -204.351608,   -0.038768,   721.641113,   -402.620422
-0.125550,   0.109274,   0.147889,   -442.529846,   394.790649,   0.527611,   5.656495,   45.564754,   342.569275,   -390.308472,   -202.481964,   -0.021933,   725.533569,   -335.133789
-0.130555,   0.120715,   0.154126,   -431.839447,   409.886261,   0.527610,   5.656495,   44.751518,   360.470245,   -382.423431,   -197.870667,   -0.010038,   729.038513,   -259.609131
-0.134254,   0.129354,   0.159467,   -423.832428,   421.101685,   0.527611,   5.656495,   43.938282,   374.957031,   -377.687775,   -191.989212,   -0.001244,   731.735718,   -129.925064
-0.136651,   0.135574,   0.163499,   -417.265167,   429.546509,   0.527611,   5.656495,   43.125042,   386.718201,   -374.436859,   -185.561996,   0.005582,   733.386108,   214.777039
-0.138044,   0.139904,   0.166253,   -411.614899,   435.906067,   0.527611,   5.656495,   42.311806,   396.310089,   -372.018921,   -178.859131,   0.011030,   734.075195,   269.745636
-0.138614,   0.142734,   0.167850,   -406.476471,   440.770905,   0.527611,   5.656495,   41.498566,   404.216217,   -369.921783,   -172.147064,   0.015576,   733.938049,   302.532745
-0.138516,   0.144415,   0.168481,   -401.601013,   444.592926,   0.527611,   5.656495,   40.685329,   410.836670,   -367.844757,   -165.604523,   0.019547,   733.140686,   325.925507
-0.137911,   0.145281,   0.168394,   -396.812469,   447.768311,   0.527610,   5.656495,   39.872089,   416.553497,   -365.597656,   -159.339432,   0.023208,   731.872009,   344.469543
-0.136935,   0.145570,   0.167787,   -391.971313,   450.595734,   0.527611,   5.656495,   39.058853,   421.671387,   -363.046967,   -153.408264,   0.026759,   730.273010,   360.359039
-0.135701,   0.145463,   0.166826,   -386.996216,   453.281464,   0.527611,   5.656495,   38.245617,   426.418793,   -360.133545,   -147.819138,   0.030331,   728.456116,   374.718170
-0.134304,   0.145100,   0.165641,   -381.872620,   455.937531,   0.527611,   5.656495,   37.432377,   430.940369,   -356.875458,   -142.541306,   0.033982,   726.509338,   388.054962
-0.132819,   0.144579,   0.164330,   -376.637726,   458.600403,   0.527611,   5.656495,   36.619141,   435.313324,   -353.350647,   -137.506241,   0.037710,   724.497437,   400.535889
-0.131290,   0.143960,   0.162951,   -371.343170,   461.269562,   0.527610,   5.656495,   35.805901,   439.572449,   -349.646057,   -132.644363,   0.041491,   722.464294,   412.212189
-0.129740,   0.143275,   0.161534,   -366.036102,   463.906097,   0.527612,   5.656495,   34.992664,   443.707367,   -345.837372,   -127.889793,   0.045284,   720.414978,   423.066681
-0.128179,   0.142541,   0.160094,   -360.762665,   466.483368,   0.527610,   5.656495,   34.179428,   447.713562,   -341.992859,   -123.186592,   0.049056,   718.363586,   433.109467
-0.126613,   0.141768,   0.158639,   -355.548584,   468.983643,   0.527611,   5.656495,   33.366188,   451.587189,   -338.152130,   -118.495964,   0.052786,   716.314758,   442.384949
-0.125044,   0.140964,   0.157174,   -350.431335,   471.375763,   0.527611,   5.656495,   32.552952,   455.311066,   -334.366638,   -113.771782,   0.056442,   714.270325,   450.896881
-0.123475,   0.140135,   0.155702,   -345.443817,   473.634888,   0.527610,   5.656495,   31.739714,   458.869873,   -330.678802,   -108.975731,   0.059995,   712.232849,   458.662018
-0.121907,   0.139283,   0.154226,   -340.621796,   475.732422,   0.527610,   5.656495,   30.926476,   462.243256,   -327.132629,   -104.067192,   0.063414,   710.203796,   465.684631
-0.120339,   0.138409,   0.152744,   -335.995544,   477.643738,   0.527611,   5.656495,   30.113239,   465.411560,   -323.763367,   -99.009888,   0.066672,   708.182617,   471.976959
-0.118767,   0.137510,   0.151252,   -331.572662,   479.361694,   0.527611,   5.656495,   29.299999,   468.365662,   -320.576630,   -93.787773,   0.069761,   706.166626,   477.588165
-0.117181,   0.136577,   0.149737,   -327.306244,   480.919952,   0.527611,   5.656495,   28.486761,   471.124725,   -317.511017,   -88.435349,   0.072719,   704.145935,   482.651825
-0.115540,   0.135566,   0.148150,   -322.894409,   482.537354,   0.527611,   5.656495,   27.673523,   473.842041,   -314.199097,   -83.233788,   0.075796,   702.076660,   487.700500
-0.113689,   0.134312,   0.146304,   -317.229858,   484.981659,   0.527610,   5.656495,   26.860287,   477.075043,   -309.323242,   -79.248108,   0.079907,   699.780457,   494.417816
-0.111264,   0.132415,   0.143756,   -308.176453,   489.597382,   0.527610,   5.656495,   26.047049,   481.813324,   -300.392395,   -78.417572,   0.086785,   696.821838,   505.474182
-0.107797,   0.129374,   0.139945,   -292.870087,   498.068085,   0.527611,   5.656495,   25.233810,   489.323792,   -284.125793,   -82.702728,   0.098755,   692.613892,   523.339600
-0.103011,   0.124980,   0.134629,   -265.176971,   514.689331,   0.527611,   5.656495,   24.420572,   502.860779,   -253.348434,   -95.314064,   0.121097,   686.809753,   552.635803
-0.097053,   0.119725,   0.128326,   -213.680588,   547.758362,   0.527611,   5.656495,   23.607334,   527.558838,   -193.481064,   -122.362900,   0.163703,   680.252808,   597.438965
-0.090498,   0.114778,   0.122375,   -140.358871,   594.793762,   0.527610,   5.656495,   22.794098,   557.312561,   -102.877647,   -161.708313,   0.224083,   675.991760,   641.966797
-0.084036,   0.111290,   0.118166,   -74.065201,   635.255554,   0.527611,   5.656495,   21.980860,   577.067444,   -15.877069,   -194.648895,   0.276991,   675.341064,   666.111816
-0.078134,   0.109773,   0.116213,   -32.174026,   659.493896,   0.527611,   5.656495,   21.167622,   586.991211,   40.328686,   -211.875336,   0.309258,   676.155273,   674.429810
-0.073006,   0.110163,   0.116231,   -8.051413,   673.461426,   0.527610,   5.656495,   20.354383,   593.755798,   71.654228,   -219.014679,   0.327374,   677.523010,   677.415344
-0.068739,   0.112194,   0.117745,   0.000000,   682.999329,   0.527610,   5.656495,   19.541147,   600.297241,   89.762207,   -221.499283,   0.338515,   679.496765,   679.414185
-0.065353,   0.115580,   0.120380,   0.000000,   690.595642,   0.527611,   5.656495,   18.727909,   607.198059,   100.772446,   -221.787827,   0.345989,   682.074219,   681.576050
-0.062816,   0.120056,   0.123899,   0.000000,   697.223572,   0.527611,   5.656495,   17.914671,   614.467590,   107.502991,   -220.913773,   0.351229,   685.185303,   684.178711
-0.061074,   0.125392,   0.128197,   0.000000,   703.371338,   0.527611,   5.656495,   17.101433,   622.078247,   111.446609,   -219.361313,   0.354982,   688.789734,   687.302368
-0.060076,   0.131395,   0.133262,   0.000000,   709.336975,   0.527610,   5.656495,   16.288195,   630.032898,   113.461601,   -217.382904,   0.357678,   692.889893,   690.991821
-0.059754,   0.137873,   0.139123,   0.000000,   715.341858,   0.527610,   5.656495,   15.474957,   638.386719,   114.148689,   -215.092773,   0.359640,   697.489197,   695.252747
-0.059967,   0.144504,   0.145665,   0.000000,   721.386963,   0.527610,   5.656495,   14.661719,   646.946228,   113.924744,   -212.649826,   0.361042,   702.477722,   699.974609
-0.060673,   0.151115,   0.152654,   0.000000,   727.265808,   0.527611,   5.656495,   13.848482,   655.442993,   112.895882,   -210.061340,   0.361934,   707.623840,   704.934448
-0.061973,   0.157737,   0.159782,   0.000000,   732.700989,   0.527611,   5.656495,   13.035244,   663.674622,   111.025833,   -207.152084,   0.362367,   712.630127,   709.837524
-0.063865,   0.164275,   0.166683,   0.000000,   737.359558,   0.527610,   5.656495,   12.222006,   671.392578,   108.182465,   -203.727554,   0.362331,   717.184265,   714.380737
-0.066253,   0.170448,   0.172963,   0.000000,   740.813538,   0.527611,   5.656495,   11.408768,   678.287231,   103.970184,   -199.548187,   0.361661,   720.985535,   718.298218
-0.068975,   0.175918,   0.178261,   0.000000,   742.661743,   0.527610,   5.656495,   10.595531,   684.081482,   97.945206,   -194.339035,   0.360157,   723.782593,   721.368164
-0.071840,   0.180373,   0.182298,   0.000000,   742.668579,   0.527611,   5.656495,   9.782292,   688.646973,   89.904160,   -187.785522,   0.357760,   725.393250,   723.392395
-0.074689,   0.183581,   0.184891,   0.000000,   740.770020,   0.527611,   5.656495,   8.969054,   691.891235,   79.934685,   -179.724319,   0.354500,   725.740601,   724.243347
-0.077409,   0.185395,   0.185960,   0.000000,   736.953308,   0.527610,   5.656495,   8.155817,   693.676331,   68.144707,   -170.129349,   0.350340,   724.839417,   723.878662
-0.079923,   0.185753,   0.185510,   0.000000,   731.168701,   0.527611,   5.656495,   7.342579,   693.802246,   54.478668,   -159.014191,   0.345101,   722.764587,   722.308594
-0.082167,   0.184650,   0.183613,   0.000000,   723.319946,   0.527611,   5.656495,   6.529341,   692.064026,   38.736149,   -146.278152,   0.338517,   719.609009,   719.521606
-0.084057,   0.182107,   0.180369,   -4.384182,   713.257263,   0.527611,   5.656495,   5.716104,   688.247620,   20.625454,   -131.614853,   0.330265,   715.459412,   715.429199
-0.329900,   0.162284,   0.359816,   -932.968750,   0.000000,   0.530988,   6.480167,   52.313992,   -156.055130,   -861.452515,   235.715744,   -0.379510,   893.703186,   -884.640259
-0.275439,   0.123059,   0.301186,   -921.747375,   0.000000,   0.530988,   6.480167,   51.520405,   -194.444397,   -858.175476,   215.025681,   -0.406207,   863.779175,   -841.039185
-0.222284,   0.092822,   0.243330,   -886.536987,   0.000000,   0.530986,   6.480167,   50.726818,   -178.010651,   -845.846375,   169.795059,   -0.412940,   826.477661,   -800.206055
-0.174814,   0.071412,   0.191919,   -797.938354,   0.000000,   0.530986,   6.480167,   49.933235,   -39.033886,   -796.885376,   28.268860,   -0.357394,   779.642029,   -777.556519
-0.141152,   0.061920,   0.159413,   -633.923157,   187.741852,   0.530988,   6.480167,   49.139648,   159.585434,   -605.766724,   -149.473587,   -0.199437,   745.734131,   -689.491089
-0.126320,   0.067183,   0.148153,   -546.478638,   287.034363,   0.530986,   6.480167,   48.346062,   239.720398,   -499.164673,   -192.868301,   -0.117917,   733.406921,   -585.383240
-0.124894,   0.081719,   0.148264,   -501.082581,   338.878723,   0.530988,   6.480167,   47.552475,   282.789581,   -444.993439,   -209.682419,   -0.073870,   731.934998,   -504.246582
-0.129942,   0.099642,   0.153991,   -472.206848,   374.626587,   0.530988,   6.480167,   46.758888,   315.990570,   -413.570831,   -214.980804,   -0.044254,   735.000427,   -428.373901
-0.136928,   0.116820,   0.161897,   -452.652374,   400.857422,   0.530988,   6.480167,   45.965305,   342.777954,   -394.572906,   -214.937576,   -0.023343,   739.614685,   -348.786499
-0.143530,   0.131341,   0.170018,   -439.277832,   419.900116,   0.530986,   6.480167,   45.171719,   364.236328,   -383.614044,   -211.486725,   -0.008680,   744.132996,   -252.463715
-0.148670,   0.142578,   0.177164,   -429.670624,   433.761230,   0.530986,   6.480167,   44.378132,   381.334595,   -377.243988,   -206.199570,   0.001824,   747.756714,   150.822510
-0.152170,   0.150751,   0.182699,   -422.308258,   443.806610,   0.530988,   6.480167,   43.584549,   394.847290,   -373.348938,   -200.018417,   0.009553,   750.154480,   262.760468
-0.154332,   0.156499,   0.186584,   -416.310181,   451.085999,   0.530986,   6.480167,   42.790962,   405.588776,   -370.812958,   -193.375610,   0.015427,   751.388367,   308.741821
-0.155458,   0.160331,   0.189005,   -411.223572,   456.321960,   0.530989,   6.480167,   41.997375,   414.152039,   -369.053650,   -186.563736,   0.020000,   751.654785,   336.709808
-0.155685,   0.162645,   0.190136,   -406.651337,   460.103912,   0.530986,   6.480167,   41.203789,   421.031677,   -367.579102,   -179.831650,   0.023722,   751.107666,   356.103912
-0.155215,   0.163828,   0.190263,   -402.347992,   462.915222,   0.530988,   6.480167,   40.410202,   426.680542,   -366.113312,   -173.319336,   0.026921,   749.951599,   370.808716
-0.154230,   0.164218,   0.189667,   -398.115173,   465.162842,   0.530986,   6.480167,   39.616615,   431.500793,   -364.453125,   -167.112427,   0.029864,   748.371948,   382.985443
-0.152882,   0.164060,   0.188570,   -393.802795,   467.152374,   0.530986,   6.480167,   38.823032,   435.802338,   -362.452759,   -161.270432,   0.032752,   746.510498,   393.900818
-0.151299,   0.163543,   0.187151,   -389.329254,   469.083649,   0.530988,   6.480167,   38.029446,   439.808411,   -360.054016,   -155.798584,   0.035709,   744.476135,   404.229065
-0.149578,   0.162803,   0.185544,   -384.679688,   471.058563,   0.530986,   6.480167,   37.235859,   443.656952,   -357.278076,   -150.657715,   0.038786,   742.348511,   414.237946
-0.147795,   0.161937,   0.183846,   -379.900208,   473.096710,   0.530989,   6.480167,   36.442272,   447.411987,   -354.215485,   -145.771332,   0.041970,   740.185242,   423.926239
-0.145992,   0.161002,   0.182111,   -375.043182,   475.183014,   0.530986,   6.480167,   35.648685,   451.095459,   -350.955627,   -141.066147,   0.045229,   738.017883,   433.230957
-0.144192,   0.160027,   0.180368,   -370.160736,   477.284119,   0.530988,   6.480167,   34.855103,   454.704254,   -347.580872,   -136.474686,   0.048525,   735.860718,   442.074982
-0.142401,   0.159026,   0.178628,   -365.299042,   479.369843,   0.530986,   6.480167,   34.061516,   458.230896,   -344.160095,   -131.941467,   0.051823,   733.724854,   450.408325
-0.140625,   0.158011,   0.176898,   -360.474792,   481.412903,   0.530986,   6.480167,   33.267929,   461.661255,   -340.723145,   -127.430504,   0.055102,   731.599426,   458.221680
-0.138864,   0.156987,   0.175182,   -355.727539,   483.387390,   0.530988,   6.480167,   32.474346,   464.984283,   -337.324432,   -122.896881,   0.058333,   729.492737,   465.490143
-0.137122,   0.155959,   0.173483,   -351.087128,   485.269501,   0.530987,   6.480167,   31.680758,   468.186493,   -334.004120,   -118.303200,   0.061489,   727.406677,   472.203400
-0.135397,   0.154929,   0.171802,   -346.586212,   487.031616,   0.530987,   6.480167,   30.887173,   471.249756,   -330.804352,   -113.608841,   0.064542,   725.341431,   478.344452
-0.133689,   0.153899,   0.170138,   -342.258972,   488.644501,   0.530987,   6.480167,   30.093586,   474.152344,   -327.766815,   -108.773033,   0.067462,   723.296387,   483.894409
-0.131993,   0.152865,   0.168485,   -338.120392,   490.094299,   0.530988,   6.480167,   29.299999,   476.880310,   -324.906403,   -103.775719,   0.070235,   721.268799,   488.869812
-0.130301,   0.151817,   0.166832,   -334.145233,   491.397064,   0.530987,   6.480167,   28.506414,   479.439148,   -322.187317,   -98.634590,   0.072878,   719.251099,   493.352753
-0.128579,   0.150721,   0.165139,   -330.124634,   492.705261,   0.530987,   6.480167,   27.712828,   481.928345,   -319.347717,   -93.549080,   0.075561,   717.213318,   497.719299
-0.126704,   0.149446,   0.163258,   -325.269379,   494.575684,   0.530988,   6.480167,   26.919241,   484.729492,   -315.423187,   -89.305130,   0.078927,   715.035400,   503.201813
-0.124376,   0.147662,   0.160821,   -318.052948,   497.975159,   0.530986,   6.480167,   26.125656,   488.509186,   -308.586975,   -87.377953,   0.084185,   712.403992,   511.797913
-0.121154,   0.144879,   0.157288,   -306.767578,   503.781921,   0.530987,   6.480167,   25.332071,   493.866547,   -296.852203,   -89.098701,   0.092647,   708.834595,   524.948181
-0.116672,   0.140714,   0.152233,   -288.758575,   513.582336,   0.530988,   6.480167,   24.538485,   501.981934,   -277.158203,   -95.775177,   0.106469,   703.881836,   544.463745
-0.110845,   0.135224,   0.145699,   -256.503021,   532.934692,   0.530987,   6.480167,   23.744898,   516.926270,   -240.494614,   -111.271591,   0.132105,   697.504456,   576.066833
-0.103974,   0.129159,   0.138496,   -198.965240,   569.789490,   0.530987,   6.480167,   22.951313,   542.802673,   -171.978424,   -141.484833,   0.178858,   691.097351,   621.593994
-0.096699,   0.123794,   0.132116,   -124.588676,   616.902771,   0.530987,   6.480167,   22.157726,   570.056885,   -77.742813,   -180.391998,   0.238623,   687.713928,   661.604919
-0.089702,   0.120230,   0.127875,   -63.916824,   653.299805,   0.530988,   6.480167,   21.364141,   585.969971,   3.412994,   -209.181168,   0.285765,   687.490234,   680.757385
-0.083423,   0.118877,   0.126113,   -27.612013,   674.121643,   0.530986,   6.480167,   20.570555,   593.945496,   52.564140,   -223.235504,   0.313075,   688.343140,   687.095398
-0.078065,   0.119623,   0.126468,   -6.511963,   686.582458,   0.530987,   6.480167,   19.776970,   600.061707,   80.008804,   -229.087799,   0.328602,   689.861511,   689.792297
-0.073702,   0.122186,   0.128454,   0.000000,   695.666077,   0.530988,   6.480167,   18.983383,   606.398071,   96.341827,   -231.301743,   0.338430,   692.156311,   692.074951
-0.070340,   0.126271,   0.131708,   0.000000,   703.302002,   0.530987,   6.480167,   18.189796,   613.276550,   106.546486,   -231.782669,   0.345145,   695.188721,   694.746826
-0.067944,   0.131604,   0.136008,   0.000000,   710.231323,   0.530987,   6.480167,   17.396212,   620.649231,   112.897507,   -231.323181,   0.349875,   698.865417,   697.989502
-0.066444,   0.137936,   0.141251,   0.000000,   716.826538,   0.530987,   6.480167,   16.602625,   628.464661,   116.626450,   -230.292892,   0.353231,   703.120483,   701.840515
-0.065776,   0.145071,   0.147439,   0.000000,   723.359009,   0.530987,   6.480167,   15.809039,   636.752502,   118.523201,   -228.872681,   0.355621,   707.940430,   706.319031
-0.065850,   0.152755,   0.154570,   0.000000,   729.975647,   0.530987,   6.480167,   15.015453,   645.482788,   119.119858,   -227.184830,   0.357311,   713.292786,   711.398010
-0.066523,   0.160634,   0.162486,   0.000000,   736.595032,   0.530987,   6.480167,   14.221868,   654.410950,   118.722145,   -225.342667,   0.358419,   719.022583,   716.929382
-0.067803,   0.168594,   0.170930,   0.000000,   743.010010,   0.530987,   6.480167,   13.428282,   663.287781,   117.441399,   -223.319809,   0.359012,   724.886841,   722.673889
-0.069810,   0.176679,   0.179568,   0.000000,   748.939758,   0.530987,   6.480167,   12.634696,   671.913940,   115.238228,   -220.932938,   0.359143,   730.583435,   728.329834
-0.072533,   0.184714,   0.187961,   0.000000,   753.963257,   0.530987,   6.480167,   11.841109,   680.003601,   111.818771,   -217.928421,   0.358730,   735.764648,   733.568298
-0.075833,   0.192345,   0.195662,   0.000000,   757.620850,   0.530987,   6.480167,   11.047523,   687.210388,   106.734734,   -214.077515,   0.357571,   740.127502,   738.117981
-0.079503,   0.199185,   0.202277,   0.000000,   759.533936,   0.530987,   6.480167,   10.253938,   693.303406,   99.575684,   -209.067871,   0.355509,   743.422424,   741.737061
-0.083331,   0.204891,   0.207502,   0.000000,   759.553772,   0.530987,   6.480167,   9.460352,   698.173523,   90.340157,   -202.673370,   0.352568,   745.495789,   744.228638
-0.087149,   0.209221,   0.211150,   0.000000,   757.676575,   0.530987,   6.480167,   8.666766,   701.729919,   79.233513,   -194.824570,   0.348813,   746.305664,   745.487610
-0.090847,   0.212029,   0.213146,   0.000000,   753.894287,   0.530987,   6.480167,   7.873180,   703.788330,   66.351578,   -185.607071,   0.344164,   745.904175,   745.506042
-0.094351,   0.213257,   0.213506,   0.000000,   748.132446,   0.530987,   6.480167,   7.079594,   704.129517,   51.561359,   -175.074799,   0.338397,   744.382019,   744.295715
-0.097592,   0.212889,   0.212300,   -3.126113,   740.254211,   0.530987,   6.480167,   6.286008,   702.558472,   34.569656,   -163.099121,   0.331224,   741.822266,   741.807495
-0.341431,   0.162393,   0.373537,   -950.168762,   0.000000,   0.533427,   7.328438,   51.780094,   -179.033600,   -881.672363,   229.825943,   -0.392852,   900.005615,   -884.540771
-0.274755,   0.120260,   0.301043,   -922.519958,   0.000000,   0.533425,   7.328438,   51.004917,   -187.481369,   -873.828979,   189.181808,   -0.410620,   861.550293,   -835.842712
-0.214893,   0.089699,   0.235680,   -861.436035,   0.000000,   0.533425,   7.328438,   50.229740,   -114.638802,   -847.120728,   103.395546,   -0.392917,   815.913330,   -801.860779
-0.167615,   0.071261,   0.186470,   -719.291016,   93.376625,   0.533425,   7.328438,   49.454567,   82.067535,   -707.981934,   -95.197868,   -0.270876,   770.236206,   -757.345093
-0.141649,   0.069894,   0.164484,   -578.833862,   267.820099,   0.533425,   7.328438,   48.679390,   220.824081,   -531.837830,   -193.857498,   -0.138314,   749.532898,   -627.472046
-0.135211,   0.082793,   0.160528,   -525.557129,   326.559204,   0.533425,   7.328438,   47.904217,   268.725159,   -467.723114,   -214.328140,   -0.089081,   744.631958,   -544.652832
-0.139069,   0.102167,   0.165415,   -487.335388,   372.383667,   0.533425,   7.328438,   47.129040,   309.136200,   -424.087921,   -224.443359,   -0.051312,   746.753784,   -456.919037
-0.146975,   0.122398,   0.174413,   -463.379272,   404.060638,   0.533426,   7.328438,   46.353867,   340.284241,   -399.602875,   -226.395126,   -0.026300,   751.810242,   -368.863220
-0.155330,   0.140426,   0.184603,   -446.670441,   427.829926,   0.533426,   7.328438,   45.578690,   365.861481,   -384.701996,   -224.391022,   -0.008292,   757.398132,   -253.073563
-0.162378,   0.154949,   0.194118,   -434.906464,   445.238342,   0.533425,   7.328438,   44.803513,   386.301544,   -375.969666,   -219.998550,   0.004518,   762.245239,   208.038605
-0.167441,   0.165761,   0.201775,   -426.159943,   457.805847,   0.533425,   7.328438,   44.028336,   402.342773,   -370.696869,   -214.362564,   0.013776,   765.700378,   302.988525
-0.170760,   0.173460,   0.207317,   -419.430511,   466.645660,   0.533425,   7.328438,   43.253162,   414.801788,   -367.586639,   -207.965973,   0.020500,   767.727539,   346.747314
-0.172712,   0.178703,   0.210960,   -414.040009,   472.774323,   0.533425,   7.328438,   42.477985,   424.504913,   -365.770599,   -201.186630,   0.025474,   768.565002,   373.106598
-0.173538,   0.181988,   0.212955,   -409.561218,   476.900024,   0.533426,   7.328438,   41.702808,   432.022430,   -364.683624,   -194.340546,   0.029210,   768.435913,   390.378937
-0.173410,   0.183755,   0.213578,   -405.603516,   479.637665,   0.533425,   7.328438,   40.927635,   437.896271,   -363.862122,   -187.640259,   0.032152,   767.534485,   402.522614
-0.172565,   0.184419,   0.213181,   -401.912933,   481.487823,   0.533426,   7.328438,   40.152458,   442.607544,   -363.032654,   -181.204803,   0.034624,   766.081421,   411.734772
-0.171208,   0.184313,   0.212067,   -398.277374,   482.853912,   0.533425,   7.328438,   39.377281,   446.560150,   -361.983612,   -175.106598,   0.036889,   764.252930,   419.449524
-0.169500,   0.183688,   0.210475,   -394.541260,   484.035950,   0.533425,   7.328438,   38.602108,   450.059753,   -360.565063,   -169.399933,   0.039140,   762.184875,   426.582245
-0.167577,   0.182737,   0.208592,   -390.625854,   485.224121,   0.533425,   7.328438,   37.826931,   453.321259,   -358.722992,   -164.086349,   0.041491,   759.981628,   433.621368
-0.165543,   0.181598,   0.206557,   -386.520569,   486.509399,   0.533425,   7.328438,   37.051758,   456.474152,   -356.485321,   -159.121185,   0.043987,   757.717285,   440.733673
-0.163472,   0.180367,   0.204466,   -382.269836,   487.905487,   0.533426,   7.328438,   36.276581,   459.579498,   -353.943848,   -154.422165,   0.046611,   755.442566,   447.873047
-0.161407,   0.179098,   0.202372,   -377.924713,   489.392883,   0.533425,   7.328438,   35.501404,   462.657654,   -351.189484,   -149.910538,   0.049332,   753.184021,   454.939728
-0.159366,   0.177817,   0.200300,   -373.533112,   490.938354,   0.533425,   7.328438,   34.726231,   465.706116,   -348.300873,   -145.519348,   0.052114,   750.952148,   461.831482
-0.157356,   0.176538,   0.198259,   -369.136627,   492.505737,   0.533426,   7.328438,   33.951054,   468.711090,   -345.341980,   -141.195908,   0.054922,   748.749390,   468.461761
-0.155380,   0.175268,   0.196253,   -364.763336,   494.071259,   0.533425,   7.328438,   33.175877,   471.663116,   -342.355194,   -136.904205,   0.057734,   746.577393,   474.788910
-0.153437,   0.174012,   0.194285,   -360.444000,   495.606720,   0.533425,   7.328438,   32.400703,   474.548035,   -339.385315,   -132.604095,   0.060521,   744.435608,   480.767029
-0.151530,   0.172773,   0.192357,   -356.210571,   497.093079,   0.533425,   7.328438,   31.625526,   477.358398,   -336.475891,   -128.258408,   0.063261,   742.332336,   486.369568
-0.149657,   0.171556,   0.190470,   -352.088928,   498.492126,   0.533425,   7.328438,   30.850351,   480.065826,   -333.662628,   -123.828674,   0.065925,   740.253052,   491.549835
-0.147818,   0.170359,   0.188622,   -348.121002,   499.775574,   0.533425,   7.328438,   30.075176,   482.652039,   -330.997467,   -119.271820,   0.068479,   738.204773,   496.267487
-0.146009,   0.169180,   0.186809,   -344.325897,   500.924957,   0.533426,   7.328438,   29.300001,   485.101318,   -328.502258,   -114.562439,   0.070906,   736.184448,   500.515839
-0.144219,   0.168009,   0.185017,   -340.692505,   501.944611,   0.533425,   7.328438,   28.524824,   487.411713,   -326.159607,   -109.703026,   0.073211,   734.185608,   504.339264
-0.142423,   0.166819,   0.183217,   -337.083771,   502.934174,   0.533425,   7.328438,   27.749649,   489.642426,   -323.792023,   -104.826683,   0.075504,   732.187927,   507.988251
-0.140527,   0.165508,   0.181292,   -332.943237,   504.294617,   0.533426,   7.328438,   26.974474,   492.049805,   -320.698425,   -100.508087,   0.078230,   730.113525,   512.354614
-0.138287,   0.163813,   0.178949,   -327.144836,   506.759796,   0.533425,   7.328438,   26.199297,   495.104523,   -315.489563,   -97.895584,   0.082270,   727.745239,   518.992554
-0.135311,   0.161295,   0.175703,   -318.486237,   510.921234,   0.533425,   7.328438,   25.424122,   499.160278,   -306.725281,   -98.062790,   0.088512,   724.703674,   529.000061
-0.131203,   0.157503,   0.171059,   -305.830475,   517.207092,   0.533425,   7.328438,   24.648947,   504.474426,   -293.097809,   -101.574287,   0.097783,   720.564453,   542.772827
-0.125731,   0.152223,   0.164775,   -286.101532,   527.686462,   0.533425,   7.328438,   23.873770,   512.590027,   -271.005127,   -109.806068,   0.112621,   715.037781,   562.760681
-0.118940,   0.145708,   0.157108,   -250.476669,   549.059998,   0.533425,   7.328438,   23.098595,   528.222778,   -229.639450,   -127.381035,   0.140510,   708.330505,   595.713562
-0.111212,   0.138870,   0.149057,   -188.929153,   588.426208,   0.533425,   7.328438,   22.323420,   554.178711,   -154.681641,   -159.529297,   0.189636,   702.218262,   641.194702
-0.103225,   0.133056,   0.142220,   -114.723946,   635.054993,   0.533425,   7.328438,   21.548244,   578.881897,   -58.550854,   -197.387909,   0.247951,   699.508728,   677.856812
-0.095671,   0.129341,   0.137867,   -58.563694,   668.406860,   0.533425,   7.328438,   20.773067,   591.883362,   17.959784,   -223.101929,   0.290597,   699.529663,   693.982117
-0.088991,   0.128089,   0.136235,   -26.128862,   687.017761,   0.533425,   7.328438,   19.997892,   598.459106,   62.429794,   -235.186462,   0.314508,   700.447815,   699.349976
-0.083380,   0.129158,   0.136904,   -6.978176,   698.653748,   0.533425,   7.328438,   19.222717,   604.095703,   87.579895,   -240.378799,   0.328352,   702.168823,   702.090820
-0.078912,   0.132263,   0.139391,   0.000000,   707.650940,   0.533425,   7.328438,   18.447540,   610.306763,   103.020920,   -242.605087,   0.337352,   704.829773,   704.778381
-0.075588,   0.137098,   0.143331,   0.000000,   715.556519,   0.533425,   7.328438,   17.672365,   617.229370,   112.949814,   -243.418549,   0.343602,   708.358337,   708.018677
-0.073346,   0.143375,   0.148508,   0.000000,   722.961670,   0.533425,   7.328438,   16.897190,   624.782410,   119.296432,   -243.449005,   0.348040,   712.637756,   711.933228
-0.072108,   0.150826,   0.154816,   0.000000,   730.159424,   0.533425,   7.328438,   16.122015,   632.876770,   123.137215,   -243.007690,   0.351186,   717.581604,   716.532532
-0.071810,   0.159246,   0.162284,   0.000000,   737.383301,   0.533425,   7.328438,   15.346839,   641.549683,   125.148232,   -242.224487,   0.353396,   723.171753,   721.833130
-0.072340,   0.168310,   0.170874,   0.000000,   744.706604,   0.533425,   7.328438,   14.571663,   650.693115,   125.799149,   -241.217010,   0.354887,   729.333435,   727.772583
-0.073548,   0.177658,   0.180400,   0.000000,   752.027100,   0.533425,   7.328438,   13.796487,   660.041199,   125.403908,   -240.084320,   0.355781,   735.887390,   734.177246
-0.075524,   0.187234,   0.190579,   0.000000,   759.117798,   0.533425,   7.328438,   13.021312,   669.339722,   124.045197,   -238.779419,   0.356140,   742.577515,   740.795471
-0.078396,   0.197067,   0.201019,   0.000000,   765.633789,   0.533425,   7.328438,   12.246136,   678.414551,   121.564812,   -237.013077,   0.355996,   749.051758,   747.277100
-0.082114,   0.206893,   0.211214,   0.000000,   771.104858,   0.533425,   7.328438,   11.470961,   686.918274,   117.599213,   -234.555725,   0.355217,   754.953247,   753.286987
-0.086503,   0.216272,   0.220641,   0.000000,   775.001221,   0.533425,   7.328438,   10.695785,   694.498413,   111.563507,   -231.103027,   0.353561,   759.947144,   758.516968
-0.091302,   0.224755,   0.228858,   0.000000,   777.026550,   0.533425,   7.328438,   9.920609,   700.956848,   103.250992,   -226.393234,   0.350968,   763.798706,   762.709412
-0.096278,   0.231975,   0.235544,   0.000000,   777.137268,   0.533425,   7.328438,   9.145433,   706.232910,   92.881683,   -220.265076,   0.347569,   766.385010,   765.675476
-0.101265,   0.237683,   0.240514,   0.000000,   775.382385,   0.533425,   7.328438,   8.370258,   710.184631,   80.762459,   -212.808945,   0.343419,   767.718323,   767.363220
-0.106169,   0.241747,   0.243710,   0.000000,   771.744507,   0.533425,   7.328438,   7.595082,   712.576111,   66.934387,   -204.211899,   0.338377,   767.890991,   767.802673
-0.110915,   0.244105,   0.245154,   -1.750870,   766.121155,   0.533425,   7.328438,   6.819907,   713.190308,   51.179970,   -194.531326,   0.332191,   766.998108,   766.993530
-0.338498,   0.156487,   0.371348,   -953.486145,   0.000000,   0.535065,   8.199678,   51.283226,   -184.354233,   -893.037537,   215.622192,   -0.399937,   897.967773,   -878.426270
-0.263863,   0.114239,   0.289679,   -907.280823,   0.000000,   0.535064,   8.199678,   50.525185,   -154.518570,   -876.995300,   150.989441,   -0.403573,   851.984863,   -831.240173
-0.201641,   0.085550,   0.222274,   -808.480103,   0.000000,   0.535065,   8.199678,   49.767139,   -16.911757,   -808.402161,   7.855746,   -0.343797,   800.196045,   -799.797424
-0.160238,   0.073668,   0.182673,   -633.096069,   218.289825,   0.535064,   8.199678,   49.009098,   179.736069,   -594.542297,   -177.024658,   -0.180522,   765.937012,   -690.580139
-0.144986,   0.082128,   0.171629,   -550.141296,   310.763977,   0.535064,   8.199678,   48.251057,   254.006485,   -493.383820,   -213.638504,   -0.105670,   755.111816,   -582.728821
-0.145900,   0.101525,   0.174062,   -502.937134,   365.875244,   0.535065,   8.199678,   47.493015,   299.607819,   -436.669708,   -230.613480,   -0.060471,   755.528076,   -487.797546
-0.154074,   0.124445,   0.183491,   -473.882690,   403.544525,   0.535064,   8.199678,   46.734970,   335.085663,   -405.423828,   -235.331772,   -0.030822,   760.687683,   -393.385773
-0.164165,   0.146154,   0.195688,   -453.308350,   432.733002,   0.535064,   8.199678,   45.976933,   364.967041,   -385.542389,   -235.480850,   -0.008937,   767.403320,   -262.901733
-0.173500,   0.164550,   0.208008,   -439.184326,   454.239532,   0.535066,   8.199678,   45.218887,   389.073181,   -374.017975,   -232.324188,   0.006486,   773.764404,   238.221146
-0.180766,   0.178819,   0.218585,   -428.800262,   470.090790,   0.535064,   8.199678,   44.460846,   408.237488,   -366.946960,   -227.538010,   0.017674,   778.736206,   334.789246
-0.185834,   0.189248,   0.226593,   -420.925232,   481.363068,   0.535064,   8.199678,   43.702801,   423.116119,   -362.678284,   -221.726929,   0.025762,   781.988647,   381.047119
-0.189118,   0.196534,   0.232144,   -414.903320,   489.072144,   0.535065,   8.199678,   42.944759,   434.525696,   -360.356873,   -215.251801,   0.031545,   783.743591,   408.433197
-0.190926,   0.201303,   0.235546,   -410.218079,   494.097504,   0.535064,   8.199678,   42.186718,   443.177368,   -359.297943,   -208.458649,   0.035650,   784.282471,   425.609070
-0.191498,   0.204084,   0.237143,   -406.405792,   497.202087,   0.535064,   8.199678,   41.428677,   449.691010,   -358.894714,   -201.678177,   0.038611,   783.863159,   436.748108
-0.191075,   0.205348,   0.237310,   -403.111603,   498.992950,   0.535065,   8.199678,   40.670635,   454.625000,   -358.743652,   -195.079529,   0.040833,   782.714966,   444.240692
-0.189914,   0.205524,   0.236441,   -400.063934,   499.978577,   0.535065,   8.199678,   39.912590,   458.467133,   -358.552490,   -188.782608,   0.042641,   781.058960,   449.680756
-0.188238,   0.204949,   0.234860,   -397.059265,   500.544067,   0.535064,   8.199678,   39.154549,   461.604156,   -358.119354,   -182.855911,   0.044277,   779.067444,   454.135376
-0.186222,   0.203877,   0.232816,   -393.944763,   500.975891,   0.535065,   8.199678,   38.396507,   464.332001,   -357.300873,   -177.343185,   0.045924,   776.869446,   458.332214
-0.184006,   0.202506,   0.230506,   -390.644165,   501.453522,   0.535064,   8.199678,   37.638466,   466.857605,   -356.048248,   -172.238373,   0.047687,   774.563416,   462.668030
-0.181698,   0.200975,   0.228072,   -387.145081,   502.064667,   0.535064,   8.199678,   36.880424,   469.309387,   -354.389801,   -167.491531,   0.049606,   772.218933,   467.286072
-0.179375,   0.199382,   0.225613,   -383.485504,   502.824615,   0.535065,   8.199678,   36.122379,   471.751038,   -352.411926,   -163.019226,   0.051670,   769.882935,   472.146790
-0.177079,   0.197782,   0.223181,   -379.714325,   503.712616,   0.535064,   8.199678,   35.364338,   474.203217,   -350.204926,   -158.740677,   0.053848,   767.578247,   477.147430
-0.174827,   0.196199,   0.220799,   -375.875458,   504.696655,   0.535064,   8.199678,   34.606297,   476.664520,   -347.843323,   -154.591476,   0.056108,   765.313110,   482.183014
-0.172625,   0.194643,   0.218475,   -372.007843,   505.741577,   0.535065,   8.199678,   33.848255,   479.122345,   -345.388611,   -150.520538,   0.058418,   763.088623,   487.159302
-0.170474,   0.193119,   0.216210,   -368.138336,   506.822510,   0.535065,   8.199678,   33.090210,   481.567291,   -342.883118,   -146.490616,   0.060754,   760.904480,   492.017883
-0.168374,   0.191632,   0.214005,   -364.296539,   507.911987,   0.535064,   8.199678,   32.332169,   483.984985,   -340.369537,   -142.466980,   0.063092,   758.760315,   496.700531
-0.166324,   0.190185,   0.211863,   -360.513367,   508.982758,   0.535064,   8.199678,   31.574127,   486.360199,   -337.890808,   -138.414047,   0.065406,   756.656067,   501.154694
-0.164324,   0.188779,   0.209783,   -356.820923,   510.006195,   0.535064,   8.199678,   30.816084,   488.675201,   -335.489929,   -134.295425,   0.067668,   754.591553,   505.329773
-0.162373,   0.187415,   0.207762,   -353.257629,   510.948090,   0.535064,   8.199678,   30.058043,   490.907288,   -333.216827,   -130.068192,   0.069846,   752.565735,   509.167816
-0.160467,   0.186090,   0.205798,   -349.851532,   511.789825,   0.535065,   8.199678,   29.300001,   493.043915,   -331.105621,   -125.701363,   0.071917,   750.583313,   512.643921
-0.158598,   0.184795,   0.203879,   -346.598663,   512.514221,   0.535064,   8.199678,   28.541958,   495.065125,   -329.149567,   -121.186958,   0.073876,   748.624207,   515.757568
-0.156744,   0.183509,   0.201979,   -343.422333,   513.183411,   0.535064,   8.199678,   27.783916,   497.004608,   -327.243561,   -116.606529,   0.075785,   746.682495,   518.662048
-0.154835,   0.182155,   0.200012,   -339.937531,   514.080444,   0.535065,   8.199678,   27.025873,   499.030029,   -324.887115,   -112.369064,   0.077947,   744.708984,   521.987854
-0.152681,   0.180527,   0.197748,   -335.306610,   515.772644,   0.535064,   8.199678,   26.267830,   501.479095,   -321.013092,   -109.364624,   0.081011,   742.559021,   526.951843
-0.149946,   0.178252,   0.194774,   -328.578613,   518.755920,   0.535064,   8.199678,   25.509789,   504.618011,   -314.440674,   -108.534233,   0.085671,   739.948486,   534.557495
-0.146237,   0.174879,   0.190595,   -319.122955,   523.128662,   0.535064,   8.199678,   24.751747,   508.432037,   -304.426300,   -110.282761,   0.092330,   736.508972,   544.853027
-0.141247,   0.170060,   0.184829,   -305.975586,   529.266785,   0.535065,   8.199678,   23.993704,   513.154297,   -289.863068,   -114.883591,   0.101694,   731.906494,   558.121643
-0.134851,   0.163713,   0.177378,   -285.444611,   539.865417,   0.535064,   8.199678,   23.235661,   520.768372,   -266.347595,   -124.081688,   0.116818,   725.971741,   577.798523
-0.127163,   0.156218,   0.168634,   -247.886093,   562.352600,   0.535064,   8.199678,   22.477619,   536.294739,   -221.828201,   -142.947876,   0.145771,   719.087891,   611.234070
-0.118610,   0.148584,   0.159719,   -184.088089,   603.157288,   0.535064,   8.199678,   21.719578,   561.582214,   -142.513016,   -176.071869,   0.195850,   713.246948,   656.530396
-0.109895,   0.142225,   0.152325,   -110.138000,   649.485229,   0.535065,   8.199678,   20.961535,   584.144104,   -44.796871,   -212.991028,   0.252865,   710.981323,   691.397217
-0.101743,   0.138242,   0.147741,   -56.916981,   680.982544,   0.535064,   8.199678,   20.203493,   594.981140,   29.084402,   -236.778671,   0.292514,   711.151306,   705.999573
-0.094621,   0.136994,   0.146152,   -26.980890,   698.278748,   0.535064,   8.199678,   19.445450,   600.448242,   70.849617,   -247.753326,   0.314211,   712.152649,   711.001343
-0.088732,   0.138331,   0.147104,   -8.990901,   709.565735,   0.535064,   8.199678,   18.687408,   605.686523,   94.888336,   -252.689972,   0.327018,   714.103638,   713.976318
-0.084143,   0.141958,   0.150093,   0.000000,   718.724121,   0.535065,   8.199678,   17.929365,   611.774963,   110.104103,   -255.130142,   0.335531,   717.151855,   717.136230
-0.080840,   0.147572,   0.154764,   0.000000,   727.102661,   0.535064,   8.199678,   17.171324,   618.791504,   120.257973,   -256.374817,   0.341582,   721.203430,   720.980713
-0.078753,   0.154849,   0.160877,   0.000000,   735.127930,   0.535065,   8.199678,   16.413282,   626.518372,   126.985458,   -257.002106,   0.345907,   726.114380,   725.590881
-0.077803,   0.163538,   0.168374,   0.000000,   743.084229,   0.535064,   8.199678,   15.655239,   634.948059,   131.249023,   -257.218842,   0.349000,   731.801636,   730.979675
-0.077919,   0.173390,   0.177281,   0.000000,   751.138916,   0.535064,   8.199678,   14.897197,   644.036743,   133.638657,   -257.168488,   0.351145,   738.228516,   737.154297
-0.078957,   0.184018,   0.187534,   0.000000,   759.325012,   0.535064,   8.199678,   14.139154,   653.645447,   134.610031,   -256.942780,   0.352554,   745.281006,   744.015991
-0.080801,   0.195060,   0.198924,   0.000000,   767.506836,   0.535064,   8.199678,   13.381112,   663.439331,   134.463089,   -256.669586,   0.353319,   752.769409,   751.386841
-0.083602,   0.206537,   0.211140,   0.000000,   775.426208,   0.535064,   8.199678,   12.623070,   673.251648,   133.204910,   -256.161469,   0.353529,   760.386108,   758.959595
-0.087494,   0.218412,   0.223698,   0.000000,   782.648987,   0.535064,   8.199678,   11.865027,   682.843811,   130.563843,   -255.110672,   0.353165,   767.731873,   766.343689
-0.092389,   0.230314,   0.235993,   0.000000,   788.594238,   0.535064,   8.199678,   11.106986,   691.825989,   125.974785,   -253.220337,   0.352013,   774.404175,   773.163574
-0.098036,   0.241723,   0.247448,   0.000000,   792.769958,   0.535065,   8.199678,   10.348944,   699.862366,   118.945717,   -250.206680,   0.349883,   780.076904,   779.098145
-0.104138,   0.252135,   0.257573,   0.000000,   794.983582,   0.535064,   8.199678,   9.590901,   706.831482,   109.504738,   -245.817810,   0.346849,   784.525208,   783.870972
-0.110459,   0.261164,   0.266038,   0.000000,   795.314270,   0.535064,   8.199678,   8.832859,   712.654236,   98.146523,   -240.058151,   0.343115,   787.685242,   787.342529
-0.116849,   0.268563,   0.272663,   0.000000,   793.829590,   0.535064,   8.199678,   8.074817,   717.096741,   85.201988,   -233.184479,   0.338682,   789.629028,   789.526917
-0.123225,   0.274203,   0.277402,   0.000000,   790.477722,   0.535064,   8.199678,   7.316774,   719.874329,   70.608719,   -225.444397,   0.333337,   790.475037,   790.474976
-0.318794,   0.144460,   0.350592,   -939.905518,   0.000000,   0.536039,   9.092217,   50.824341,   -168.730896,   -889.992981,   196.191986,   -0.398096,   886.488708,   -868.302856
-0.241963,   0.104851,   0.266288,   -871.664429,   0.000000,   0.536039,   9.092217,   50.082123,   -94.469276,   -858.579285,   100.845016,   -0.380935,   833.955994,   -824.950867
-0.183177,   0.080632,   0.204235,   -726.566406,   102.276382,   0.536040,   9.092217,   49.339905,   92.120667,   -716.410706,   -91.183090,   -0.265859,   782.732300,   -767.483032
-0.153216,   0.079056,   0.179360,   -570.765381,   294.567902,   0.536039,   9.092217,   48.597683,   240.270401,   -516.467896,   -209.850464,   -0.120818,   762.018738,   -612.724182
-0.148675,   0.096316,   0.177529,   -520.507812,   350.411774,   0.536039,   9.092217,   47.855469,   286.211853,   -456.307922,   -227.577103,   -0.074700,   759.018433,   -524.790649
-0.155916,   0.120849,   0.186294,   -481.715515,   399.184906,   0.536040,   9.092217,   47.113247,   328.393585,   -410.924194,   -239.475861,   -0.036008,   763.997375,   -415.973724
-0.167537,   0.146089,   0.200179,   -457.954590,   433.392090,   0.536039,   9.092217,   46.371029,   361.482117,   -386.044617,   -242.746078,   -0.010605,   772.026550,   -280.001709
-0.179438,   0.168696,   0.215569,   -441.620880,   459.373688,   0.536039,   9.092217,   45.628811,   389.102600,   -371.349792,   -241.610916,   0.007583,   780.334656,   253.093948
-0.189542,   0.187157,   0.229812,   -429.695740,   479.053406,   0.536040,   9.092217,   44.886593,   411.651611,   -362.293945,   -238.135086,   0.020895,   787.386658,   357.891266
-0.197162,   0.201254,   0.241320,   -420.678314,   493.448822,   0.536039,   9.092217,   44.144371,   429.445465,   -356.674957,   -233.261154,   0.030608,   792.493042,   408.888702
-0.202533,   0.211510,   0.249807,   -413.787109,   503.570038,   0.536039,   9.092217,   43.402153,   443.215302,   -353.432373,   -227.429428,   0.037611,   795.721863,   439.528320
-0.205966,   0.218541,   0.255493,   -408.590454,   510.264893,   0.536040,   9.092217,   42.659935,   453.608795,   -351.934357,   -221.017746,   0.042504,   797.374268,   458.587708
-0.207781,   0.222994,   0.258800,   -404.658539,   514.364990,   0.536039,   9.092217,   41.917717,   461.302917,   -351.596466,   -214.358841,   0.045838,   797.785767,   470.381256
-0.208255,   0.225430,   0.260175,   -401.555786,   516.627869,   0.536039,   9.092217,   41.175499,   466.928406,   -351.856293,   -207.757599,   0.048112,   797.249207,   477.611145
-0.207684,   0.226340,   0.260064,   -398.943451,   517.654541,   0.536040,   9.092217,   40.433281,   471.046112,   -352.335022,   -201.367462,   0.049711,   796.013184,   482.018524
-0.206342,   0.226150,   0.258880,   -396.554901,   517.931763,   0.536039,   9.092217,   39.691059,   474.123810,   -352.746979,   -195.301376,   0.050937,   794.290527,   484.838715
-0.204469,   0.225203,   0.256964,   -394.204254,   517.820312,   0.536039,   9.092217,   38.948841,   476.522827,   -352.906769,   -189.628159,   0.052010,   792.251099,   486.912567
-0.202250,   0.223764,   0.254583,   -391.748993,   517.593323,   0.536040,   9.092217,   38.206623,   478.528595,   -352.684265,   -184.383209,   0.053097,   790.023315,   488.845795
-0.199834,   0.222036,   0.251943,   -389.110931,   517.426941,   0.536039,   9.092217,   37.464405,   480.346344,   -352.030334,   -179.554993,   0.054300,   787.702026,   490.997284
-0.197335,   0.220169,   0.249194,   -386.271790,   517.411621,   0.536039,   9.092217,   36.722187,   482.108887,   -350.969055,   -175.089188,   0.055661,   785.354858,   493.515442
-0.194833,   0.218262,   0.246440,   -383.258362,   517.570740,   0.536040,   9.092217,   35.979969,   483.888214,   -349.575836,   -170.902527,   0.057177,   783.026001,   496.393982
-0.192371,   0.216370,   0.243735,   -380.113312,   517.887817,   0.536039,   9.092217,   35.237751,   485.710175,   -347.935669,   -166.913651,   0.058822,   780.736877,   499.550354
-0.189968,   0.214519,   0.241101,   -376.877411,   518.333130,   0.536039,   9.092217,   34.495529,   487.575592,   -346.119873,   -163.059616,   0.060568,   778.494629,   502.889130
-0.187628,   0.212717,   0.238545,   -373.587128,   518.873047,   0.536039,   9.092217,   33.753311,   489.472931,   -344.187012,   -159.292358,   0.062384,   776.299500,   506.319031
-0.185351,   0.210968,   0.236068,   -370.271484,   519.479858,   0.536040,   9.092217,   33.011093,   491.389832,   -342.181458,   -155.576599,   0.064246,   774.150391,   509.770447
-0.183137,   0.209274,   0.233669,   -366.957001,   520.128479,   0.536039,   9.092217,   32.268875,   493.313934,   -340.142487,   -151.880707,   0.066132,   772.046509,   513.184326
-0.180985,   0.207638,   0.231349,   -363.673157,   520.792175,   0.536040,   9.092217,   31.526657,   495.230896,   -338.111908,   -148.171082,   0.068018,   769.987488,   516.502563
-0.178895,   0.206062,   0.229109,   -360.451630,   521.442810,   0.536040,   9.092217,   30.784437,   497.124237,   -336.133057,   -144.412659,   0.069877,   767.973206,   519.667542
-0.176866,   0.204546,   0.226947,   -357.329681,   522.046814,   0.536039,   9.092217,   30.042219,   498.972198,   -334.255066,   -140.566132,   0.071678,   766.002747,   522.614624
-0.174895,   0.203087,   0.224860,   -354.341431,   522.572754,   0.536040,   9.092217,   29.299999,   500.752197,   -332.520844,   -136.596619,   0.073392,   764.074219,   525.288635
-0.172974,   0.201679,   0.222837,   -351.501953,   523.003784,   0.536040,   9.092217,   28.557781,   502.448792,   -330.946930,   -132.487610,   0.075005,   762.183350,   527.669800
-0.171089,   0.200305,   0.220859,   -348.769623,   523.367004,   0.536039,   9.092217,   27.815563,   504.071075,   -329.473694,   -128.282333,   0.076545,   760.320801,   529.834656
-0.169186,   0.198907,   0.218862,   -345.894714,   523.856201,   0.536040,   9.092217,   27.073343,   505.725677,   -327.764191,   -124.259094,   0.078211,   758.463928,   532.207703
-0.167121,   0.197331,   0.216672,   -342.258331,   524.891418,   0.536040,   9.092217,   26.331125,   507.637421,   -325.004364,   -121.095352,   0.080472,   756.505249,   535.703857
-0.164619,   0.195270,   0.213950,   -337.083588,   526.924927,   0.536039,   9.092217,   25.588907,   510.032623,   -320.191284,   -119.623344,   0.083899,   754.249939,   541.270569
-0.161312,   0.192309,   0.210238,   -329.852051,   530.051208,   0.536040,   9.092217,   24.846687,   512.882080,   -312.682922,   -120.287254,   0.088812,   751.395508,   549.073059
-0.156862,   0.188048,   0.205099,   -320.292999,   534.112793,   0.536040,   9.092217,   24.104469,   515.998352,   -302.178558,   -123.081032,   0.095333,   747.620605,   558.682922
-0.151044,   0.182234,   0.198255,   -307.355682,   539.652710,   0.536039,   9.092217,   23.362249,   519.743103,   -287.446106,   -128.324539,   0.104262,   742.669434,   570.745117
-0.143798,   0.174873,   0.189702,   -286.945251,   549.787109,   0.536040,   9.092217,   22.620031,   526.359253,   -263.517395,   -138.036133,   0.118968,   736.452454,   589.400818
-0.135272,   0.166407,   0.179902,   -249.068344,   572.298645,   0.536039,   9.092217,   21.877813,   540.932556,   -217.702271,   -157.414200,   0.147704,   729.453430,   622.396301
-0.125909,   0.157903,   0.170050,   -184.547928,   613.607361,   0.536040,   9.092217,   21.135595,   565.033936,   -135.974518,   -190.813385,   0.197610,   723.748474,   667.662781
-0.116438,   0.150853,   0.161945,   -110.258148,   660.230591,   0.536040,   9.092217,   20.393375,   586.028381,   -36.055950,   -227.301544,   0.254016,   721.704285,   702.380005
-0.107636,   0.146438,   0.156965,   -58.205975,   691.107544,   0.536039,   9.092217,   19.651157,   595.281189,   37.620365,   -250.242447,   0.292209,   721.972412,   716.665039
-0.100020,   0.145052,   0.155296,   -29.684874,   707.748535,   0.536040,   9.092217,   18.908939,   599.744812,   78.318840,   -260.731171,   0.312595,   723.048157,   721.675110
-0.093794,   0.146542,   0.156440,   -12.259064,   718.997314,   0.536040,   9.092217,   18.166719,   604.564087,   102.174164,   -265.678497,   0.324845,   725.204590,   724.971375
-0.089036,   0.150628,   0.159894,   -0.242948,   728.507874,   0.536039,   9.092217,   17.424501,   610.517822,   117.747093,   -268.446808,   0.333167,   728.629395,   728.629333
-0.085722,   0.156974,   0.165263,   0.000000,   737.469543,   0.536040,   9.092217,   16.682283,   617.539124,   128.550095,   -270.236908,   0.339194,   733.197754,   733.083740
-0.083778,   0.165284,   0.172355,   0.000000,   746.267944,   0.536040,   9.092217,   15.940063,   625.476196,   136.030472,   -271.498901,   0.343594,   738.766418,   738.412659
-0.083132,   0.175277,   0.181114,   0.000000,   755.116394,   0.536039,   9.092217,   15.197845,   634.228027,   141.042130,   -272.459930,   0.346764,   745.243896,   744.630432
-0.083696,   0.186683,   0.191595,   0.000000,   764.167542,   0.536039,   9.092217,   14.455626,   643.778076,   144.134323,   -273.213226,   0.348985,   752.576111,   751.732544
-0.085297,   0.199028,   0.203703,   0.000000,   773.403625,   0.536039,   9.092217,   13.713408,   653.871521,   145.768341,   -273.902466,   0.350431,   760.624939,   759.605835
-0.087867,   0.211998,   0.217231,   0.000000,   782.668640,   0.536040,   9.092217,   12.971189,   664.219849,   146.199036,   -274.570648,   0.351210,   769.169006,   768.041504
-0.091640,   0.225660,   0.231795,   0.000000,   791.604614,   0.536040,   9.092217,   12.228970,   674.652649,   145.280273,   -274.934387,   0.351377,   777.827454,   776.665588
-0.096720,   0.239894,   0.246812,   0.000000,   799.670959,   0.536039,   9.092217,   11.486752,   684.881287,   142.577255,   -274.640778,   0.350850,   786.145569,   785.039429
-0.102965,   0.254199,   0.261566,   0.000000,   806.189575,   0.536040,   9.092217,   10.744533,   694.468079,   137.368546,   -273.352661,   0.349360,   793.676880,   792.743713
-0.110044,   0.267945,   0.275384,   0.000000,   810.703186,   0.536039,   9.092217,   10.002314,   703.122253,   129.276001,   -270.755585,   0.346800,   800.076355,   799.414062
-0.117636,   0.280598,   0.287762,   0.000000,   813.227356,   0.536039,   9.092217,   9.260096,   710.792908,   118.791191,   -266.709900,   0.343439,   805.173584,   804.799561
-0.125517,   0.291770,   0.298371,   0.000000,   813.940125,   0.536039,   9.092217,   8.517877,   717.313904,   106.624161,   -261.429291,   0.339494,   808.987488,   808.848450
-0.133578,   0.301220,   0.307044,   0.000000,   812.868103,   0.536039,   9.092217,   7.775658,   722.299744,   93.005310,   -255.336594,   0.334833,   811.652344,   811.644165
-0.280801,   0.125927,   0.309437,   -906.802490,   0.000000,   0.536478,   10.004342,   50.404324,   -133.763184,   -867.515991,   174.269882,   -0.386542,   863.449341,   -851.704285
-0.208936,   0.091681,   0.230694,   -808.666565,   0.000000,   0.536478,   10.004342,   49.676586,   -8.132911,   -806.338257,   43.172630,   -0.336929,   805.779968,   -805.732971
-0.160344,   0.075167,   0.182037,   -625.855042,   223.737427,   0.536478,   10.004342,   48.948853,   193.051102,   -595.168701,   -158.522003,   -0.175733,   762.745117,   -682.852234
-0.145122,   0.085351,   0.172720,   -528.066895,   335.712769,   0.536478,   10.004342,   48.221115,   278.255737,   -470.609894,   -215.241501,   -0.085013,   754.212524,   -543.525818
-0.149648,   0.109227,   0.179124,   -486.028534,   388.118469,   0.536476,   10.004342,   47.493382,   319.256226,   -417.166290,   -235.486130,   -0.043021,   758.614746,   -438.040558
-0.162314,   0.137329,   0.194201,   -459.749329,   427.210785,   0.536478,   10.004342,   46.765648,   354.553223,   -387.091766,   -243.239059,   -0.014117,   768.302246,   -306.500336
-0.176925,   0.164128,   0.212701,   -440.782135,   459.029266,   0.536478,   10.004342,   46.037910,   385.736938,   -367.489807,   -246.125000,   0.007805,   779.312927,   255.197906
-0.190443,   0.187287,   0.231199,   -428.004028,   482.798584,   0.536478,   10.004342,   45.310177,   411.473358,   -356.678802,   -244.695557,   0.023142,   789.253906,   371.125793
-0.201475,   0.205911,   0.247248,   -418.273804,   500.833832,   0.536478,   10.004342,   44.582439,   432.452759,   -349.892731,   -241.192047,   0.034528,   797.040283,   427.978302
-0.209899,   0.220202,   0.259927,   -410.684875,   514.065857,   0.536478,   10.004342,   43.854706,   449.112061,   -345.731079,   -236.319855,   0.042940,   802.524048,   463.105225
-0.215928,   0.230603,   0.269186,   -404.878967,   523.281311,   0.536478,   10.004342,   43.126968,   461.946381,   -343.544067,   -230.578964,   0.048968,   805.987488,   485.650940
-0.219794,   0.237697,   0.275313,   -400.562805,   529.225220,   0.536476,   10.004342,   42.399235,   471.502045,   -342.839600,   -224.362152,   0.053093,   807.785767,   499.822418
-0.221881,   0.242149,   0.278858,   -397.402069,   532.681274,   0.536478,   10.004342,   41.671501,   478.438141,   -343.158936,   -217.964035,   0.055787,   808.310852,   508.317474
-0.222515,   0.244526,   0.280335,   -394.990631,   534.385559,   0.536478,   10.004342,   40.943764,   483.382874,   -343.987976,   -211.658646,   0.057515,   807.875427,   513.135254
-0.222037,   0.245339,   0.280249,   -393.038696,   534.903503,   0.536478,   10.004342,   40.216030,   486.865112,   -345.000336,   -205.594604,   0.058616,   806.745850,   515.600281
-0.220738,   0.245009,   0.279025,   -391.299561,   534.692383,   0.536478,   10.004342,   39.488293,   489.324493,   -345.931671,   -199.880081,   0.059366,   805.131165,   516.708008
-0.218866,   0.243883,   0.277016,   -389.607697,   534.085083,   0.536478,   10.004342,   38.760559,   491.098846,   -346.621460,   -194.571976,   0.059959,   803.196533,   517.140442
-0.216618,   0.242239,   0.274505,   -387.827637,   533.344238,   0.536478,   10.004342,   38.032822,   492.466888,   -346.950287,   -189.694763,   0.060551,   801.069275,   517.424377
-0.214153,   0.240292,   0.271710,   -385.876129,   532.649475,   0.536476,   10.004342,   37.305088,   493.637665,   -346.864319,   -185.233444,   0.061244,   798.844482,   517.904358
-0.211594,   0.238203,   0.268797,   -383.724792,   532.102417,   0.536478,   10.004342,   36.577354,   494.755219,   -346.377625,   -181.131851,   0.062089,   796.591858,   518.752014
-0.209028,   0.236081,   0.265880,   -381.388641,   531.738647,   0.536478,   10.004342,   35.849617,   495.903137,   -345.553131,   -177.308197,   0.063091,   794.356628,   519.999329
-0.206504,   0.233986,   0.263018,   -378.902344,   531.550598,   0.536478,   10.004342,   35.121883,   497.115784,   -344.467529,   -173.682220,   0.064233,   792.160828,   521.595215
-0.204042,   0.231945,   0.260238,   -376.302979,   531.512756,   0.536478,   10.004342,   34.394146,   498.398346,   -343.188568,   -170.191727,   0.065488,   790.012451,   523.461426
-0.201649,   0.229968,   0.257546,   -373.623962,   531.594971,   0.536478,   10.004342,   33.666412,   499.741852,   -341.770844,   -166.791580,   0.066831,   787.911621,   525.518860
-0.199324,   0.228055,   0.254942,   -370.893585,   531.769897,   0.536476,   10.004342,   32.938675,   501.133789,   -340.257477,   -163.448837,   0.068238,   785.857056,   527.699951
-0.197066,   0.226210,   0.252426,   -368.138184,   532.012817,   0.536479,   10.004342,   32.210941,   502.561432,   -338.686798,   -160.135254,   0.069688,   783.847900,   529.945129
-0.194876,   0.224434,   0.249999,   -365.385864,   532.298157,   0.536477,   10.004342,   31.483206,   504.010590,   -337.098328,   -156.821854,   0.071158,   781.883850,   532.196594
-0.192753,   0.222729,   0.247660,   -362.668213,   532.598206,   0.536479,   10.004342,   30.755470,   505.465271,   -335.535278,   -153.476440,   0.072623,   779.965088,   534.394104
-0.190698,   0.221097,   0.245411,   -360.020325,   532.881897,   0.536478,   10.004342,   30.027735,   506.906250,   -334.044708,   -150.063187,   0.074054,   778.091248,   536.474121
-0.188709,   0.219537,   0.243249,   -357.479126,   533.115906,   0.536477,   10.004342,   29.299999,   508.311401,   -332.674622,   -146.545242,   0.075420,   776.261353,   538.372131
-0.186781,   0.218043,   0.241167,   -355.070618,   533.274780,   0.536478,   10.004342,   28.572264,   509.660828,   -331.456696,   -142.897537,   0.076699,   774.472290,   540.044189
-0.184901,   0.216602,   0.239149,   -352.782043,   533.363281,   0.536478,   10.004342,   27.844528,   510.949738,   -330.368530,   -139.137589,   0.077899,   772.717651,   541.512939
-0.183032,   0.215174,   0.237148,   -350.462799,   533.493652,   0.536478,   10.004342,   27.116795,   512.228943,   -329.198059,   -135.443375,   0.079133,   770.979431,   543.027283
-0.181070,   0.213643,   0.235038,   -347.683167,   533.978333,   0.536477,   10.004342,   26.389059,   513.653259,   -327.358093,   -132.312973,   0.080731,   769.201965,   545.254639
-0.178795,   0.211771,   0.232552,   -343.805420,   535.215698,   0.536478,   10.004342,   25.661324,   515.406311,   -323.996063,   -130.462402,   0.083159,   767.247070,   549.044373
-0.175883,   0.209191,   0.229286,   -338.326385,   537.378906,   0.536478,   10.004342,   24.933588,   517.509155,   -318.456665,   -130.404083,   0.086746,   764.885803,   554.768555
-0.171989,   0.205501,   0.224800,   -331.095398,   540.247803,   0.536477,   10.004342,   24.205853,   519.713684,   -310.561279,   -132.176483,   0.091515,   761.817200,   561.998169
-0.166836,   0.200367,   0.218730,   -321.957214,   543.640625,   0.536478,   10.004342,   23.478117,   521.826782,   -300.143372,   -135.669342,   0.097514,   757.780090,   570.313721
-0.160261,   0.193608,   0.210873,   -309.768951,   548.250793,   0.536478,   10.004342,   22.750381,   524.311096,   -285.829254,   -141.306885,   0.105629,   752.573486,   580.701294
-0.152238,   0.185273,   0.201272,   -290.387421,   557.301697,   0.536477,   10.004342,   22.022648,   529.430237,   -262.515991,   -151.160507,   0.119240,   746.152405,   597.579407
-0.142922,   0.175817,   0.190407,   -253.868103,   578.631897,   0.536478,   10.004342,   21.294912,   542.187561,   -217.423798,   -170.328201,   0.146483,   739.026428,   629.062927
-0.132759,   0.166333,   0.179506,   -190.144119,   619.458679,   0.536478,   10.004342,   20.567177,   564.617126,   -135.302551,   -203.450943,   0.195163,   733.260010,   674.365784
-0.122494,   0.158396,   0.170479,   -114.730118,   667.076477,   0.536478,   10.004342,   19.839441,   584.601318,   -32.254967,   -240.161331,   0.251791,   731.223450,   710.549377
-0.112970,   0.153323,   0.164872,   -61.889885,   698.602539,   0.536477,   10.004342,   19.111706,   592.738159,   43.974483,   -263.252319,   0.290135,   731.513733,   725.588257
-0.104777,   0.151587,   0.162929,   -33.891926,   715.077026,   0.536478,   10.004342,   18.383970,   596.134705,   85.050385,   -273.745911,   0.309935,   732.611145,   730.844177
-0.098145,   0.153062,   0.164129,   -16.579212,   726.481018,   0.536478,   10.004342,   17.656237,   600.454285,   109.447502,   -278.859650,   0.321990,   734.910889,   734.489990
-0.093136,   0.157442,   0.167908,   -4.456280,   736.417175,   0.536477,   10.004342,   16.928501,   606.101074,   125.859818,   -282.073486,   0.330312,   738.655396,   738.625183
-0.089754,   0.164437,   0.173912,   0.000000,   746.077942,   0.536478,   10.004342,   16.200766,   613.111511,   137.712036,   -284.415619,   0.336519,   743.716492,   743.682373
-0.087931,   0.173729,   0.181942,   0.000000,   755.752441,   0.536477,   10.004342,   15.473030,   621.177673,   146.312485,   -286.383057,   0.341128,   749.952454,   749.745728
-0.087582,   0.185051,   0.191994,   0.000000,   765.657776,   0.536478,   10.004342,   14.745295,   630.274780,   152.459000,   -288.126160,   0.344545,   757.264160,   756.830811
-0.088606,   0.198068,   0.204134,   0.000000,   775.893738,   0.536477,   10.004342,   14.017559,   640.302368,   156.650864,   -289.765442,   0.346993,   765.581299,   764.929138
-0.090808,   0.212244,   0.218264,   0.000000,   786.406677,   0.536478,   10.004342,   13.289824,   650.961121,   159.340469,   -291.433258,   0.348636,   774.735718,   773.905945
-0.094205,   0.227342,   0.234176,   0.000000,   796.981201,   0.536478,   10.004342,   12.562089,   661.988342,   160.665131,   -293.083832,   0.349562,   784.460205,   783.514221
-0.099085,   0.243443,   0.251376,   0.000000,   807.142761,   0.536478,   10.004342,   11.834353,   673.197632,   160.344406,   -294.339050,   0.349814,   794.272217,   793.284180
-0.105510,   0.260300,   0.269147,   0.000000,   816.173218,   0.536478,   10.004342,   11.106618,   684.221680,   157.639191,   -294.778839,   0.349188,   803.637329,   802.712891
-0.113249,   0.277283,   0.286669,   0.000000,   823.320679,   0.536478,   10.004342,   10.378882,   694.596008,   151.699081,   -294.031067,   0.347379,   812.077209,   811.345581
-0.121900,   0.293678,   0.303207,   0.000000,   828.310303,   0.536478,   10.004342,   9.651148,   704.143127,   142.579102,   -291.796661,   0.344507,   819.259460,   818.793762
-0.131148,   0.308917,   0.318230,   0.000000,   831.363159,   0.536478,   10.004342,   8.923412,   712.809692,   131.264236,   -288.095764,   0.341006,   825.081238,   824.860901
-0.140836,   0.322619,   0.331418,   0.000000,   832.645020,   0.536478,   10.004342,   8.195677,   720.142273,   118.471962,   -283.454498,   0.336924,   829.676575,   829.628235
-0.225717,   0.100890,   0.248987,   -847.126648,   0.000000,   0.536501,   10.934303,   50.023975,   -75.385086,   -816.785950,   153.020264,   -0.360243,   825.526733,   -822.754944
-0.166486,   0.074550,   0.184378,   -713.963989,   94.367317,   0.536499,   10.934303,   49.309357,   94.147804,   -713.744446,   -13.318867,   -0.269792,   765.522461,   -752.269653
-0.133852,   0.068396,   0.155028,   -536.432068,   305.362976,   0.536501,   10.934303,   48.594734,   258.515778,   -489.584839,   -192.979492,   -0.104351,   738.114075,   -567.394714
-0.133125,   0.088608,   0.159217,   -491.369385,   360.958557,   0.536501,   10.934303,   47.880116,   301.848480,   -432.259308,   -216.534454,   -0.058663,   741.012085,   -473.713928
-0.145640,   0.117550,   0.174317,   -455.501343,   413.888885,   0.536499,   10.934303,   47.165497,   342.752930,   -384.365387,   -238.295166,   -0.018416,   753.201477,   -328.270233
-0.162974,   0.147989,   0.195686,   -437.338959,   449.336060,   0.536499,   10.934303,   46.450878,   375.429718,   -363.432617,   -245.089279,   0.005208,   767.906494,   219.744034
-0.180350,   0.175969,   0.218780,   -423.953339,   478.375885,   0.536501,   10.934303,   45.736256,   404.929016,   -350.506470,   -246.736328,   0.023201,   781.913696,   367.983887
-0.195553,   0.199704,   0.240195,   -413.751923,   501.097168,   0.536501,   10.934303,   45.021637,   429.797607,   -342.452362,   -245.244186,   0.036693,   793.485291,   434.727325
-0.207989,   0.218911,   0.258220,   -405.982697,   518.054626,   0.536501,   10.934303,   44.307014,   449.874939,   -337.803009,   -241.561798,   0.046569,   802.199341,   475.451355
-0.217674,   0.233819,   0.272419,   -399.830688,   530.507751,   0.536499,   10.934303,   43.592396,   465.837921,   -335.160889,   -236.606461,   0.053887,   808.341675,   502.605072
-0.224697,   0.244786,   0.282813,   -395.120026,   539.153809,   0.536501,   10.934303,   42.877777,   478.066956,   -334.033173,   -230.955063,   0.059105,   812.303589,   520.561829
-0.229339,   0.252377,   0.289812,   -391.633759,   544.728027,   0.536499,   10.934303,   42.163158,   487.131042,   -334.036743,   -224.976059,   0.062652,   814.518005,   531.988647
-0.232037,   0.257249,   0.294046,   -389.148102,   547.937134,   0.536501,   10.934303,   41.448536,   493.653656,   -334.864624,   -218.909882,   0.064911,   815.414001,   538.742310
-0.233167,   0.259962,   0.296072,   -387.323242,   549.461182,   0.536499,   10.934303,   40.733917,   498.231628,   -336.093689,   -212.994308,   0.066288,   815.319519,   542.362244
-0.233091,   0.261023,   0.296413,   -385.930481,   549.806580,   0.536501,   10.934303,   40.019299,   501.349731,   -337.473633,   -207.351913,   0.067066,   814.504028,   543.873291
-0.232111,   0.260854,   0.295503,   -384.763031,   549.387512,   0.536501,   10.934303,   39.304676,   503.411438,   -338.786957,   -202.076157,   0.067482,   813.174744,   544.076355
-0.230485,   0.259813,   0.293712,   -383.667664,   548.523438,   0.536499,   10.934303,   38.590057,   504.745087,   -339.889313,   -197.213669,   0.067717,   811.498352,   543.565063
-0.228424,   0.258191,   0.291340,   -382.512756,   547.473877,   0.536501,   10.934303,   37.875439,   505.628693,   -340.667572,   -192.780823,   0.067918,   809.604492,   542.819702
-0.226098,   0.256220,   0.288626,   -381.206635,   546.428833,   0.536499,   10.934303,   37.160820,   506.281219,   -341.058990,   -188.760529,   0.068195,   807.592285,   542.184998
-0.223645,   0.254079,   0.285755,   -379.710052,   545.504456,   0.536501,   10.934303,   36.446198,   506.860901,   -341.066498,   -185.095276,   0.068606,   805.536072,   541.857361
-0.221164,   0.251890,   0.282856,   -378.025940,   544.752014,   0.536499,   10.934303,   35.731579,   507.466400,   -340.740326,   -181.703384,   0.069168,   803.485352,   541.906250
-0.218711,   0.249724,   0.280001,   -376.179688,   544.176147,   0.536501,   10.934303,   35.016960,   508.144012,   -340.147552,   -178.505096,   0.069871,   801.465454,   542.314453
-0.216312,   0.247612,   0.277221,   -374.203674,   543.758301,   0.536501,   10.934303,   34.302338,   508.906006,   -339.351379,   -175.437759,   0.070693,   799.485962,   543.026062
-0.213977,   0.245565,   0.274527,   -372.127747,   543.473083,   0.536501,   10.934303,   33.587719,   509.747375,   -338.402069,   -172.458252,   0.071613,   797.548401,   543.977905
-0.211704,   0.243585,   0.271917,   -369.977783,   543.295837,   0.536498,   10.934303,   32.873100,   510.657135,   -337.339081,   -169.536987,   0.072611,   795.651550,   545.111877
-0.209495,   0.241675,   0.269394,   -367.778839,   543.203491,   0.536502,   10.934303,   32.158482,   511.622986,   -336.198303,   -166.649246,   0.073665,   793.794739,   546.374084
-0.207350,   0.239835,   0.266957,   -365.556641,   543.173218,   0.536500,   10.934303,   31.443859,   512.632141,   -335.015533,   -163.770721,   0.074757,   791.978149,   547.712646
-0.205270,   0.238070,   0.264608,   -363.341309,   543.179138,   0.536500,   10.934303,   30.729240,   513.669495,   -333.831635,   -160.873535,   0.075862,   790.202454,   549.071045
-0.203256,   0.236381,   0.262350,   -361.166779,   543.192261,   0.536501,   10.934303,   30.014620,   514.717468,   -332.692017,   -157.925934,   0.076953,   788.468262,   550.388184
-0.201308,   0.234769,   0.260181,   -359.071075,   543.179321,   0.536499,   10.934303,   29.299999,   515.754517,   -331.646240,   -154.893341,   0.078001,   786.775635,   551.597229
-0.199424,   0.233233,   0.258099,   -357.088104,   543.109619,   0.536501,   10.934303,   28.585381,   516.758545,   -330.737061,   -151.745773,   0.078978,   785.122864,   552.639465
-0.197597,   0.231761,   0.256092,   -355.226807,   542.971375,   0.536500,   10.934303,   27.870760,   517.715820,   -329.971252,   -148.481186,   0.079874,   783.506226,   553.499146
-0.195800,   0.230327,   0.254129,   -353.406769,   542.823425,   0.536501,   10.934303,   27.156141,   518.645996,   -329.229340,   -145.203308,   0.080749,   781.915039,   554.306091
-0.193959,   0.228849,   0.252118,   -351.344727,   542.875732,   0.536499,   10.934303,   26.441521,   519.640564,   -328.109558,   -142.258499,   0.081818,   780.316345,   555.503967
-0.191908,   0.227144,   0.249857,   -348.540802,   543.461975,   0.536501,   10.934303,   25.726900,   520.840820,   -325.919678,   -140.236923,   0.083447,   778.620728,   557.799072
-0.189374,   0.224906,   0.247008,   -344.509277,   544.806580,   0.536500,   10.934303,   25.012281,   522.297607,   -322.000336,   -139.681488,   0.085966,   776.654236,   561.687866
-0.186027,   0.221757,   0.243154,   -339.048584,   546.807434,   0.536500,   10.934303,   24.297661,   523.843933,   -316.085083,   -140.765839,   0.089454,   774.174744,   567.011597
-0.181563,   0.217332,   0.237898,   -332.194092,   549.145020,   0.536500,   10.934303,   23.583042,   525.175415,   -308.224487,   -143.355515,   0.093805,   770.931824,   573.176880
-0.175760,   0.211358,   0.230941,   -323.801086,   551.662476,   0.536501,   10.934303,   22.868422,   526.112671,   -298.251282,   -147.360504,   0.099068,   766.686035,   579.881653
-0.168495,   0.203696,   0.222127,   -312.740112,   555.101318,   0.536499,   10.934303,   22.153801,   527.136475,   -284.775238,   -153.254791,   0.106120,   761.279419,   588.263916
-0.159755,   0.194408,   0.211515,   -295.162811,   562.490906,   0.536501,   10.934303,   21.439182,   530.319824,   -262.991699,   -162.962219,   0.118076,   754.681030,   602.609253
-0.149693,   0.183929,   0.199563,   -261.578705,   581.418457,   0.536500,   10.934303,   20.724562,   540.437988,   -220.598221,   -181.292648,   0.142652,   747.367065,   631.313293
-0.138740,   0.173335,   0.187481,   -200.392929,   620.511108,   0.536501,   10.934303,   20.009941,   560.554321,   -140.436172,   -213.597595,   0.188909,   741.307922,   676.229675
-0.127645,   0.164277,   0.177274,   -123.394844,   669.569092,   0.536499,   10.934303,   19.295322,   579.879272,   -33.705002,   -251.150436,   0.246346,   739.033508,   715.304260
-0.117309,   0.158251,   0.170730,   -67.632133,   703.107605,   0.536501,   10.934303,   18.580702,   587.311951,   48.163548,   -275.390076,   0.286542,   739.247620,   732.238647
-0.108431,   0.155881,   0.168242,   -39.261227,   719.848145,   0.536500,   10.934303,   17.866083,   589.487183,   91.099724,   -286.293976,   0.306463,   740.260010,   737.912048
-0.101261,   0.157052,   0.169234,   -21.826452,   731.414612,   0.536500,   10.934303,   17.151463,   593.008240,   116.579941,   -291.713989,   0.318529,   742.568481,   741.846130
-0.095910,   0.161507,   0.173147,   -9.374427,   741.801086,   0.536500,   10.934303,   16.436844,   598.220642,   134.206009,   -295.362091,   0.327035,   746.532410,   746.400024
-0.092380,   0.168952,   0.179605,   0.000000,   752.157715,   0.536500,   10.934303,   15.722223,   605.022888,   147.399765,   -298.296722,   0.333510,   752.025208,   752.025146
-0.090614,   0.179091,   0.188442,   0.000000,   762.781006,   0.536501,   10.934303,   15.007604,   613.148499,   157.451630,   -300.960022,   0.338472,   758.901611,   758.811035
-0.090539,   0.191660,   0.199725,   0.000000,   773.864014,   0.536500,   10.934303,   14.292984,   622.560547,   165.064606,   -303.502014,   0.342263,   767.076050,   766.798279
-0.092017,   0.206247,   0.213520,   0.000000,   785.466248,   0.536501,   10.934303,   13.578364,   633.089905,   170.745071,   -306.053894,   0.345092,   776.444885,   775.955811
-0.094846,   0.222306,   0.229793,   0.000000,   797.522705,   0.536500,   10.934303,   12.863744,   644.435059,   174.919983,   -308.727692,   0.347111,   786.833740,   786.151794
-0.099158,   0.239695,   0.248308,   0.000000,   809.721313,   0.536500,   10.934303,   12.149125,   656.346802,   177.589554,   -311.372620,   0.348393,   797.889465,   797.062073
-0.105269,   0.258463,   0.268410,   0.000000,   821.362061,   0.536500,   10.934303,   11.434505,   668.591003,   178.131165,   -313.475769,   0.348885,   808.980164,   808.085083
-0.113172,   0.278181,   0.289208,   0.000000,   831.496277,   0.536500,   10.934303,   10.719885,   680.663940,   175.424957,   -314.573975,   0.348226,   819.476807,   818.645935
-0.122500,   0.298077,   0.309781,   0.000000,   839.380310,   0.536500,   10.934303,   10.005265,   692.154175,   168.667465,   -314.239532,   0.346184,   828.867676,   828.243347
-0.132812,   0.317392,   0.329370,   0.000000,   845.079712,   0.536500,   10.934303,   9.290645,   703.074951,   158.687454,   -312.203369,   0.343251,   836.863037,   836.488831
-0.143890,   0.335578,   0.347468,   0.000000,   848.934021,   0.536500,   10.934303,   8.576026,   713.001648,   146.829071,   -308.931671,   0.339771,   843.538391,   843.380066
-0.163326,   0.072911,   0.180149,   -723.500488,   28.260715,   0.536220,   11.880316,   49.684025,   9.518487,   -704.758240,   117.210960,   -0.314004,   738.036743,   -736.817871
-0.121145,   0.055364,   0.134312,   -614.872742,   172.130035,   0.536219,   11.880316,   48.981129,   166.513794,   -609.256531,   -66.245384,   -0.205942,   716.613831,   -667.682312
-0.106419,   0.060456,   0.125631,   -472.191589,   343.265259,   0.536220,   11.880316,   48.278233,   286.540405,   -415.466736,   -207.458313,   -0.060602,   709.142334,   -458.173004
-0.117753,   0.087829,   0.140816,   -452.422760,   382.176544,   0.536220,   11.880316,   47.575333,   318.089935,   -388.336151,   -222.215088,   -0.032358,   723.637085,   -380.303131
-0.137234,   0.120577,   0.164476,   -429.431488,   429.432343,   0.536220,   11.880316,   46.872437,   357.449310,   -357.448456,   -237.995926,   0.000000,   743.797913,   9.156013
-0.158391,   0.152570,   0.191664,   -415.558960,   465.702179,   0.536219,   11.880316,   46.169540,   391.164703,   -341.021484,   -245.216507,   0.021889,   763.606262,   352.483704
-0.178144,   0.181331,   0.218624,   -407.136841,   492.709991,   0.536220,   11.880316,   45.466640,   419.459991,   -333.886841,   -246.065475,   0.036548,   780.463928,   427.035095
-0.195206,   0.205820,   0.242624,   -399.998688,   514.073181,   0.536220,   11.880316,   44.763744,   443.407074,   -329.332581,   -244.131546,   0.047911,   793.661621,   474.806244
-0.209338,   0.225907,   0.262682,   -394.181000,   530.276367,   0.536220,   11.880316,   44.060844,   462.956787,   -326.861450,   -240.212677,   0.056460,   803.490234,   507.271912
-0.220470,   0.241734,   0.278538,   -389.556732,   542.144409,   0.536219,   11.880316,   43.357948,   478.450745,   -325.863068,   -235.130951,   0.062756,   810.475769,   529.634705
-0.228713,   0.253627,   0.290350,   -385.933685,   550.505798,   0.536220,   11.880316,   42.655052,   490.379181,   -325.807037,   -229.542465,   0.067298,   815.144287,   544.910339
-0.234407,   0.262101,   0.298598,   -383.198212,   556.046936,   0.536219,   11.880316,   41.952156,   499.303680,   -326.454956,   -223.776733,   0.070436,   817.988586,   554.940491
-0.238013,   0.267772,   0.303921,   -381.227966,   559.385986,   0.536220,   11.880316,   41.249256,   505.790894,   -327.632904,   -218.036331,   0.072470,   819.451660,   561.067871
-0.239928,   0.271177,   0.306884,   -379.823822,   561.080383,   0.536219,   11.880316,   40.546360,   510.351044,   -329.094482,   -212.504074,   0.073693,   819.871338,   564.392029
-0.240529,   0.272815,   0.308017,   -378.828186,   561.572937,   0.536220,   11.880316,   39.843464,   513.419250,   -330.674469,   -207.280045,   0.074330,   819.520996,   565.717102
-0.240119,   0.273103,   0.307753,   -378.079285,   561.233582,   0.536220,   11.880316,   39.140564,   515.365662,   -332.211334,   -202.436356,   0.074580,   818.607300,   565.697021
-0.238964,   0.272406,   0.306475,   -377.434387,   560.372620,   0.536219,   11.880316,   38.437668,   516.513367,   -333.575134,   -198.009827,   0.074611,   817.299316,   564.869324
-0.237289,   0.271034,   0.304503,   -376.764282,   559.251099,   0.536220,   11.880316,   37.734772,   517.142578,   -334.655731,   -194.013184,   0.074570,   815.732178,   563.686157
-0.235278,   0.269238,   0.302097,   -375.971649,   558.070679,   0.536220,   11.880316,   37.031872,   517.482849,   -335.383850,   -190.429398,   0.074568,   814.012451,   562.494568
-0.233086,   0.267218,   0.299467,   -375.007507,   556.963989,   0.536220,   11.880316,   36.328976,   517.708191,   -335.751709,   -187.201157,   0.074674,   812.222412,   561.514099
-0.230828,   0.265116,   0.296764,   -373.864655,   555.998718,   0.536219,   11.880316,   35.626076,   517.933594,   -335.799561,   -184.245453,   0.074914,   810.418152,   560.844238
-0.228572,   0.263016,   0.294075,   -372.560181,   555.192932,   0.536220,   11.880316,   34.923180,   518.219421,   -335.586670,   -181.480713,   0.075285,   808.630371,   560.497925
-0.226351,   0.260958,   0.291442,   -371.120209,   554.537476,   0.536220,   11.880316,   34.220284,   518.588196,   -335.170929,   -178.841797,   0.075773,   806.871826,   560.443115
-0.224180,   0.258956,   0.288879,   -369.570129,   554.013123,   0.536220,   11.880316,   33.517384,   519.041077,   -334.598083,   -176.285431,   0.076360,   805.145508,   560.633972
-0.222059,   0.257015,   0.286389,   -367.931580,   553.600037,   0.536219,   11.880316,   32.814487,   519.570618,   -333.902191,   -173.784821,   0.077030,   803.450989,   561.025574
-0.219990,   0.255135,   0.283972,   -366.226593,   553.278198,   0.536220,   11.880316,   32.111591,   520.166138,   -333.114532,   -171.319290,   0.077764,   801.787964,   561.573853
-0.217973,   0.253319,   0.281630,   -364.477997,   553.027893,   0.536220,   11.880316,   31.408693,   520.816284,   -332.266388,   -168.869034,   0.078547,   800.156555,   562.235046
-0.216011,   0.251571,   0.279365,   -362.712646,   552.826721,   0.536220,   11.880316,   30.705795,   521.507996,   -331.393890,   -166.411194,   0.079357,   798.558167,   562.961121
-0.214107,   0.249893,   0.277181,   -360.962189,   552.648865,   0.536220,   11.880316,   30.002897,   522.225769,   -330.539124,   -163.918549,   0.080171,   796.994263,   563.697205
-0.212261,   0.248290,   0.275080,   -359.262939,   552.463745,   0.536220,   11.880316,   29.299999,   522.950439,   -329.749664,   -161.359894,   0.080959,   795.465759,   564.381470
-0.210476,   0.246761,   0.273063,   -357.652679,   552.238770,   0.536220,   11.880316,   28.597103,   523.659912,   -329.073822,   -158.703812,   0.081693,   793.972778,   564.950439
-0.208747,   0.245302,   0.271123,   -356.155914,   551.950867,   0.536220,   11.880316,   27.894205,   524.334839,   -328.539886,   -155.934814,   0.082352,   792.513367,   565.361572
-0.207058,   0.243894,   0.269239,   -354.742401,   551.620178,   0.536220,   11.880316,   27.191309,   524.973755,   -328.096008,   -153.105423,   0.082957,   791.081543,   565.661682
-0.205358,   0.242480,   0.267349,   -353.240234,   551.375061,   0.536220,   11.880316,   26.488411,   525.622620,   -327.487823,   -150.442154,   0.083637,   789.658752,   566.117676
-0.203526,   0.240927,   0.265305,   -351.283478,   551.470825,   0.536220,   11.880316,   25.785513,   526.377991,   -326.190643,   -148.401550,   0.084661,   788.189514,   567.260986
-0.201343,   0.238990,   0.262835,   -348.429871,   552.152649,   0.536220,   11.880316,   25.082615,   527.307556,   -323.584747,   -147.505234,   0.086336,   786.550964,   569.623230
-0.198511,   0.236330,   0.259568,   -344.404388,   553.439331,   0.536220,   11.880316,   24.379717,   528.324097,   -319.289154,   -148.049881,   0.088813,   784.548462,   573.301575
-0.194721,   0.232580,   0.255101,   -339.202911,   555.072449,   0.536220,   11.880316,   23.676821,   529.158203,   -313.288635,   -150.009827,   0.092022,   781.950317,   577.859009
-0.189711,   0.227423,   0.249086,   -332.926300,   556.718018,   0.536220,   11.880316,   22.973923,   529.498535,   -305.706787,   -153.214798,   0.095817,   778.537720,   582.713379
-0.183300,   0.220629,   0.241273,   -325.419891,   558.268677,   0.536220,   11.880316,   22.271025,   529.194885,   -296.346100,   -157.628967,   0.100266,   774.101929,   587.697510
-0.175392,   0.212086,   0.231537,   -315.677704,   560.395020,   0.536220,   11.880316,   21.568127,   528.657349,   -283.940033,   -163.698624,   0.106144,   768.504517,   593.888977
-0.165979,   0.201849,   0.219929,   -300.405457,   565.700623,   0.536220,   11.880316,   20.865231,   529.618347,   -264.323181,   -173.058182,   0.116097,   761.708679,   605.095886
-0.155203,   0.190308,   0.206861,   -271.012329,   581.152344,   0.536220,   11.880316,   20.162333,   536.420044,   -226.280029,   -190.048187,   0.137088,   754.112183,   629.659973
-0.143461,   0.178470,   0.193461,   -214.371017,   616.905273,   0.536219,   11.880316,   19.459436,   553.348755,   -150.814529,   -220.892685,   0.179500,   747.511597,   672.966797
-0.131489,   0.168031,   0.181784,   -136.158905,   667.225098,   0.536220,   11.880316,   18.756538,   571.989136,   -40.922913,   -259.694397,   0.237709,   744.699402,   715.886475
-0.120246,   0.160714,   0.173930,   -75.248222,   704.216736,   0.536220,   11.880316,   18.053640,   579.116211,   49.852325,   -286.114227,   0.281532,   744.697632,   736.071533
-0.110530,   0.157329,   0.170515,   -45.371449,   721.742004,   0.536220,   11.880316,   17.350744,   579.810181,   96.560379,   -297.881134,   0.302438,   745.463989,   742.347961
-0.102696,   0.157858,   0.170986,   -27.747700,   733.336121,   0.536220,   11.880316,   16.647846,   582.164062,   123.424355,   -303.647186,   0.314603,   747.596252,   746.436279
-0.096860,   0.162056,   0.174726,   -14.880395,   744.070984,   0.536220,   11.880316,   15.944948,   586.641113,   142.549454,   -307.729492,   0.323385,   751.621643,   751.290100
-0.093073,   0.169668,   0.181368,   -4.774261,   755.043152,   0.536220,   11.880316,   15.242051,   592.996521,   157.272369,   -311.234222,   0.330177,   757.441528,   757.407654
-0.091297,   0.180435,   0.190807,   0.000000,   766.626770,   0.536220,   11.880316,   14.539153,   601.050598,   168.997177,   -314.568298,   0.335567,   764.921997,   764.904785
-0.091448,   0.194068,   0.203149,   0.000000,   778.964172,   0.536220,   11.880316,   13.836256,   610.692078,   178.353516,   -317.908844,   0.339825,   773.972717,   773.825012
-0.093348,   0.210097,   0.218521,   0.000000,   792.125732,   0.536220,   11.880316,   13.133358,   621.748901,   185.907364,   -321.380707,   0.343183,   784.475769,   784.129761
-0.096829,   0.228013,   0.237002,   0.000000,   806.031189,   0.536220,   11.880316,   12.430461,   633.917053,   192.025879,   -325.083069,   0.345758,   796.262085,   795.701660
-0.102153,   0.247783,   0.258259,   0.000000,   820.158142,   0.536220,   11.880316,   11.727564,   646.988281,   196.393982,   -328.659637,   0.347587,   808.796204,   808.045471
-0.109607,   0.269350,   0.281428,   0.000000,   833.514709,   0.536220,   11.880316,   11.024666,   660.586609,   197.980606,   -331.514282,   0.348469,   821.275085,   820.414734
-0.119050,   0.292078,   0.305448,   0.000000,   844.865784,   0.536220,   11.880316,   10.321769,   674.078796,   195.117157,   -333.119476,   0.347831,   832.967163,   832.167175
-0.129967,   0.315068,   0.329321,   0.000000,   853.747253,   0.536220,   11.880316,   9.618871,   687.391235,   187.624802,   -332.886566,   0.345864,   843.314026,   842.710205
-0.141992,   0.337584,   0.352340,   0.000000,   860.614136,   0.536220,   11.880316,   8.915974,   700.246582,   177.364349,   -331.015259,   0.343255,   852.242859,   851.861389
-0.107751,   0.048102,   0.119290,   -507.032623,   80.077393,   0.535738,   12.840565,   49.385132,   78.646309,   -505.601532,   28.950949,   -0.258081,   551.449280,   -538.135193
-0.081551,   0.038641,   0.090798,   -519.004944,   228.411804,   0.535738,   12.840565,   48.692539,   214.988159,   -505.581268,   -99.261589,   -0.146014,   663.388977,   -564.160095
-0.082821,   0.054225,   0.099515,   -418.613861,   362.927887,   0.535738,   12.840565,   47.999950,   305.016113,   -360.702087,   -204.711273,   -0.027402,   677.407471,   -336.914307
-0.102697,   0.085791,   0.123081,   -407.457977,   406.086365,   0.535738,   12.840565,   47.307358,   338.115875,   -339.487488,   -225.115555,   -0.000649,   704.550354,   -100.702324
-0.126976,   0.120237,   0.153245,   -401.955414,   443.726837,   0.535738,   12.840565,   46.614769,   371.350311,   -329.578888,   -236.578079,   0.019004,   732.680054,   322.683197
-0.150781,   0.152830,   0.184795,   -395.118561,   477.790833,   0.535738,   12.840565,   45.922176,   403.524292,   -320.852020,   -243.541443,   0.036399,   757.091003,   413.687561
-0.172378,   0.181949,   0.214356,   -390.326080,   503.758759,   0.535738,   12.840565,   45.229588,   430.853668,   -317.420990,   -244.679779,   0.048702,   776.374573,   466.971436
-0.191167,   0.207106,   0.240353,   -386.554291,   523.458069,   0.535738,   12.840565,   44.536995,   453.664215,   -316.760468,   -242.161240,   0.057688,   791.060974,   502.947876
-0.206867,   0.228100,   0.262151,   -383.009064,   538.685364,   0.535738,   12.840565,   43.844406,   472.555603,   -316.879272,   -237.861954,   0.064704,   801.997070,   529.326111
-0.219406,   0.244970,   0.279608,   -379.945404,   550.076294,   0.535738,   12.840565,   43.151814,   487.704437,   -317.573547,   -232.630447,   0.070021,   809.902100,   548.404907
-0.228949,   0.257984,   0.292957,   -377.402008,   558.326172,   0.535739,   12.840565,   42.459225,   499.528320,   -318.604156,   -227.071808,   0.073962,   815.397949,   561.970642
-0.235840,   0.267579,   0.302661,   -375.374634,   564.033752,   0.535737,   12.840565,   41.766632,   508.528015,   -319.868896,   -221.498703,   0.076784,   819.001892,   571.298157
-0.240536,   0.274301,   0.309324,   -373.882843,   567.686279,   0.535738,   12.840565,   41.074043,   515.177673,   -321.374237,   -216.063263,   0.078671,   821.160278,   577.284363
-0.243431,   0.278650,   0.313486,   -372.846863,   569.729675,   0.535738,   12.840565,   40.381451,   519.908875,   -323.026093,   -210.897568,   0.079819,   822.209595,   580.712280
-0.244894,   0.281100,   0.315658,   -372.183868,   570.536316,   0.535738,   12.840565,   39.688862,   523.106628,   -324.754150,   -206.066406,   0.080394,   822.421387,   582.198914
-0.245224,   0.282063,   0.316271,   -371.769165,   570.442261,   0.535738,   12.840565,   38.996269,   525.116638,   -326.443542,   -201.623199,   0.080565,   822.003357,   582.298706
-0.244694,   0.281909,   0.315714,   -371.475342,   569.746887,   0.535738,   12.840565,   38.303680,   526.254883,   -327.983368,   -197.595703,   0.080487,   821.128723,   581.500610
-0.243538,   0.280960,   0.314324,   -371.178802,   568.712524,   0.535738,   12.840565,   37.611088,   526.802063,   -329.268341,   -193.996918,   0.080304,   819.940063,   580.235291
-0.241961,   0.279489,   0.312385,   -370.782074,   567.550293,   0.535738,   12.840565,   36.918499,   526.995056,   -330.226837,   -190.812897,   0.080128,   818.553711,   578.848022
-0.240134,   0.277721,   0.310136,   -370.230927,   566.408142,   0.535738,   12.840565,   36.225906,   527.021606,   -330.844391,   -187.988510,   0.080034,   817.062439,   577.574402
-0.238190,   0.275820,   0.307751,   -369.511810,   565.369263,   0.535738,   12.840565,   35.533318,   527.012268,   -331.154816,   -185.439926,   0.080053,   815.531738,   576.537292
-0.236214,   0.273888,   0.305340,   -368.636414,   564.464539,   0.535738,   12.840565,   34.840725,   527.041809,   -331.213654,   -183.081238,   0.080192,   813.999512,   575.773132
-0.234250,   0.271978,   0.302956,   -367.626373,   563.693970,   0.535738,   12.840565,   34.148136,   527.143799,   -331.076202,   -180.842514,   0.080440,   812.483154,   575.268860
-0.232316,   0.270110,   0.300622,   -366.502838,   563.044861,   0.535738,   12.840565,   33.455544,   527.326843,   -330.784790,   -178.678055,   0.080783,   810.987915,   574.993530
-0.230416,   0.268290,   0.298343,   -365.282898,   562.502502,   0.535738,   12.840565,   32.762955,   527.587769,   -330.368195,   -176.562515,   0.081209,   809.514160,   574.915283
-0.228552,   0.266519,   0.296118,   -363.983887,   562.051331,   0.535738,   12.840565,   32.070362,   527.918640,   -329.851196,   -174.479294,   0.081705,   808.061646,   575.001648
-0.226725,   0.264799,   0.293951,   -362.624847,   561.675110,   0.535738,   12.840565,   31.377773,   528.309692,   -329.259430,   -172.413437,   0.082256,   806.630676,   575.217957
-0.224938,   0.263133,   0.291844,   -361.228973,   561.355347,   0.535738,   12.840565,   30.685183,   528.749756,   -328.623413,   -170.347458,   0.082845,   805.222900,   575.525024
-0.223195,   0.261527,   0.289801,   -359.824432,   561.069580,   0.535739,   12.840565,   29.992590,   529.225220,   -327.980042,   -168.259415,   0.083452,   803.840332,   575.875916
-0.221499,   0.259984,   0.287828,   -358.444855,   560.791016,   0.535738,   12.840565,   29.299999,   529.719360,   -327.373199,   -166.122650,   0.084050,   802.484863,   576.216370
-0.219852,   0.258508,   0.285928,   -357.128021,   560.488403,   0.535737,   12.840565,   28.607409,   530.211853,   -326.851471,   -163.907303,   0.084611,   801.157837,   576.485229
-0.218256,   0.257098,   0.284098,   -355.907654,   560.132629,   0.535738,   12.840565,   27.914818,   530.681030,   -326.456055,   -161.590378,   0.085109,   799.858948,   576.627319
-0.216699,   0.255742,   0.282326,   -354.785950,   559.718872,   0.535738,   12.840565,   27.222227,   531.113708,   -326.180817,   -159.189453,   0.085540,   798.585388,   576.636353
-0.215152,   0.254405,   0.280573,   -353.672577,   559.313965,   0.535738,   12.840565,   26.529636,   531.524536,   -325.883118,   -156.841156,   0.085971,   797.327087,   576.649963
-0.213528,   0.252990,   0.278733,   -352.320557,   559.094421,   0.535738,   12.840565,   25.837046,   531.969177,   -325.195282,   -154.876053,   0.086583,   796.050720,   577.027649
-0.211659,   0.251310,   0.276597,   -350.364075,   559.284119,   0.535738,   12.840565,   25.144455,   532.507568,   -323.587494,   -153.753937,   0.087633,   794.674011,   578.241089
-0.209290,   0.249074,   0.273849,   -347.491089,   559.985840,   0.535738,   12.840565,   24.451864,   533.109924,   -320.615143,   -153.840775,   0.089316,   793.047485,   580.549561
-0.206124,   0.245937,   0.270106,   -343.600555,   561.063049,   0.535738,   12.840565,   23.759274,   533.589355,   -316.126862,   -155.240616,   0.091644,   790.970764,   583.764954
-0.201879,   0.241559,   0.264999,   -338.782013,   562.199524,   0.535738,   12.840565,   23.066683,   533.640381,   -310.222870,   -157.846832,   0.094481,   788.228821,   587.364929
-0.196333,   0.235660,   0.258220,   -333.134613,   563.089600,   0.535738,   12.840565,   22.374092,   532.968079,   -303.013123,   -161.518753,   0.097692,   784.622925,   590.853882
-0.189335,   0.228046,   0.249557,   -326.513275,   563.669556,   0.535739,   12.840565,   21.681501,   531.449707,   -294.293457,   -166.263107,   0.101351,   779.987061,   594.158447
-0.180807,   0.218621,   0.238904,   -318.088104,   564.456116,   0.535738,   12.840565,   20.988911,   529.365967,   -282.997955,   -172.445007,   0.106078,   774.168884,   598.151184
-0.170745,   0.207428,   0.226302,   -305.258301,   567.498413,   0.535738,   12.840565,   20.296320,   528.038269,   -265.798157,   -181.333984,   0.113950,   767.118469,   605.926331
-0.159265,   0.194787,   0.212086,   -280.752991,   578.758301,   0.535737,   12.840565,   19.603729,   531.135559,   -233.130264,   -196.632523,   0.130855,   759.125488,   625.191772
-0.146721,   0.181593,   0.197253,   -230.654114,   609.388367,   0.535738,   12.840565,   18.911140,   543.895508,   -165.161270,   -225.227570,   0.167937,   751.740234,   664.848694
-0.133831,   0.169544,   0.183842,   -152.749054,   659.873108,   0.535738,   12.840565,   18.218550,   561.391174,   -54.267132,   -265.197845,   0.225980,   748.037292,   711.668030
-0.121559,   0.160563,   0.174248,   -84.714668,   701.656433,   0.535738,   12.840565,   17.525959,   568.494873,   48.446865,   -294.927765,   0.275068,   747.622192,   736.708008
-0.110857,   0.155776,   0.169501,   -51.559719,   720.833130,   0.535738,   12.840565,   16.833368,   567.636780,   101.636627,   -307.991302,   0.298271,   747.947021,   743.932922
-0.102194,   0.155273,   0.169075,   -33.813622,   732.201965,   0.535738,   12.840565,   16.140778,   568.248291,   130.140045,   -314.181885,   0.310527,   749.680908,   747.962341
-0.095728,   0.158851,   0.172297,   -20.482870,   743.113892,   0.535738,   12.840565,   15.448186,   571.663757,   150.967270,   -318.627716,   0.319650,   753.564148,   752.937439
-0.091573,   0.166319,   0.178825,   -10.010110,   754.546326,   0.535738,   12.840565,   14.755594,   577.250427,   167.285767,   -322.674561,   0.326723,   759.600830,   759.452454
-0.089711,   0.177440,   0.188597,   -1.211658,   767.038879,   0.535738,   12.840565,   14.063004,   584.991760,   180.835434,   -326.675110,   0.332544,   767.645386,   767.643188
-0.090034,   0.191904,   0.201783,   0.000000,   780.690247,   0.535738,   12.840565,   13.370413,   594.702820,   192.176010,   -330.841705,   0.337305,   777.614380,   777.559021
-0.092335,   0.209199,   0.218630,   0.000000,   795.613953,   0.535738,   12.840565,   12.677823,   606.228699,   201.963684,   -335.303772,   0.341269,   789.399963,   789.174377
-0.096527,   0.228922,   0.239376,   0.000000,   811.680481,   0.535738,   12.840565,   11.985232,   619.372742,   210.374344,   -340.052643,   0.344522,   802.799622,   802.341980
-0.102967,   0.251113,   0.263457,   0.000000,   828.055298,   0.535738,   12.840565,   11.292642,   633.883911,   216.772598,   -344.519409,   0.347070,   816.989197,   816.285400
-0.111865,   0.275524,   0.289763,   0.000000,   843.247925,   0.535738,   12.840565,   10.600051,   649.118042,   219.268570,   -348.041748,   0.348345,   830.963867,   830.107666
-0.122812,   0.301302,   0.317102,   0.000000,   855.929138,   0.535738,   12.840565,   9.907460,   664.763733,   215.915009,   -349.783569,   0.347891,   843.826538,   843.009399
-0.135232,   0.327499,   0.344515,   0.000000,   866.384155,   0.535738,   12.840565,   9.214869,   680.796875,   208.430893,   -349.439178,   0.346600,   855.191162,   854.504272
-0.062199,   0.028085,   0.069814,   -237.400681,   171.020691,   0.535148,   13.813208,   49.127861,   158.441238,   -224.821228,   -70.565376,   -0.062284,   355.257050,   -231.584793
-0.049675,   0.025191,   0.055700,   -421.318970,   270.148285,   0.535147,   13.813208,   48.444141,   245.947144,   -397.117828,   -127.077118,   -0.083486,   603.579590,   -432.464325
-0.063836,   0.049232,   0.077238,   -368.975830,   376.081146,   0.535148,   13.813208,   47.760422,   317.375153,   -310.269836,   -200.730957,   0.003671,   645.248047,   164.324814
-0.088854,   0.082388,   0.107213,   -371.709961,   420.571838,   0.535148,   13.813208,   47.076702,   348.096436,   -299.234558,   -228.403732,   0.023723,   686.570984,   325.511261
-0.115671,   0.116737,   0.141525,   -376.941284,   455.136993,   0.535148,   13.813208,   46.392986,   379.469269,   -301.273560,   -239.240173,   0.036118,   721.660828,   393.319672
-0.141136,   0.149200,   0.175553,   -377.557587,   485.411865,   0.535148,   13.813208,   45.709267,   410.098816,   -302.244537,   -243.558640,   0.047980,   749.296570,   448.479126
-0.164147,   0.178527,   0.206737,   -375.818298,   510.301514,   0.535148,   13.813208,   45.025547,   437.386322,   -302.903107,   -243.505585,   0.058192,   770.342590,   491.169006
-0.184304,   0.204256,   0.234161,   -374.136566,   529.330505,   0.535147,   13.813208,   44.341827,   460.230103,   -305.036133,   -240.114746,   0.065794,   786.263855,   521.765381
-0.201338,   0.226139,   0.257412,   -372.513550,   543.877930,   0.535148,   13.813208,   43.658108,   478.978516,   -307.614136,   -235.077316,   0.071560,   798.230225,   544.312317
-0.215212,   0.244144,   0.276424,   -370.784821,   555.075928,   0.535148,   13.813208,   42.974388,   494.196716,   -309.905579,   -229.476395,   0.076113,   807.096313,   561.406372
-0.226089,   0.258427,   0.291392,   -369.131317,   563.496277,   0.535150,   13.813208,   42.290668,   506.271912,   -311.906952,   -223.817780,   0.079641,   813.504822,   574.154358
-0.234287,   0.269325,   0.302715,   -367.718781,   569.575989,   0.535148,   13.813208,   41.606945,   515.608459,   -313.751221,   -218.336899,   0.082259,   817.971741,   583.313232
-0.240215,   0.277302,   0.310914,   -366.669586,   573.688782,   0.535147,   13.813208,   40.923229,   522.614746,   -315.595551,   -213.118103,   0.084059,   820.926025,   589.478882
-0.244240,   0.282803,   0.316483,   -365.987030,   576.197144,   0.535148,   13.813208,   40.239510,   527.672852,   -317.462769,   -208.240723,   0.085171,   822.696960,   593.229797
-0.246710,   0.286270,   0.319900,   -365.627869,   577.432007,   0.535148,   13.813208,   39.555790,   531.143799,   -319.339661,   -203.739914,   0.085728,   823.551270,   595.079285
-0.247917,   0.288100,   0.321583,   -365.505615,   577.696045,   0.535148,   13.813208,   38.872070,   533.352783,   -321.162323,   -199.645523,   0.085869,   823.697876,   595.496826
-0.248137,   0.288663,   0.321924,   -365.510437,   577.277039,   0.535148,   13.813208,   38.188351,   534.608459,   -322.841827,   -195.976578,   0.085737,   823.314941,   594.929443
-0.247613,   0.288293,   0.321273,   -365.528412,   576.436096,   0.535147,   13.813208,   37.504631,   535.190430,   -324.282745,   -192.745331,   0.085469,   822.552979,   593.785278
-0.246563,   0.287282,   0.319938,   -365.463196,   575.393433,   0.535148,   13.813208,   36.820915,   535.343689,   -325.413452,   -189.939682,   0.085178,   821.538818,   592.409180
-0.245181,   0.285879,   0.318184,   -365.257080,   574.311707,   0.535148,   13.813208,   36.137192,   535.269592,   -326.214935,   -187.505966,   0.084943,   820.376770,   591.050720
-0.243619,   0.284276,   0.316215,   -364.892120,   573.289673,   0.535148,   13.813208,   35.453476,   535.114563,   -326.717010,   -185.358704,   0.084803,   819.143555,   589.853088
-0.241982,   0.282598,   0.314166,   -364.377228,   572.371094,   0.535148,   13.813208,   34.769756,   534.969360,   -326.975494,   -183.404251,   0.084769,   817.886536,   588.872192
-0.240327,   0.280913,   0.312109,   -363.731689,   571.564880,   0.535148,   13.813208,   34.086037,   534.880127,   -327.046906,   -181.563705,   0.084834,   816.629333,   588.110535
-0.238681,   0.279250,   0.310076,   -362.973267,   570.865051,   0.535147,   13.813208,   33.402317,   534.864441,   -326.972626,   -179.785217,   0.084988,   815.380432,   587.550293
-0.237050,   0.277620,   0.308077,   -362.114319,   570.262451,   0.535148,   13.813208,   32.718597,   534.925049,   -326.776917,   -178.042282,   0.085222,   814.141418,   587.172119
-0.235438,   0.276023,   0.306112,   -361.166504,   569.746887,   0.535148,   13.813208,   32.034878,   535.057678,   -326.477264,   -176.321655,   0.085528,   812.912231,   586.955444
-0.233847,   0.274460,   0.304183,   -360.143646,   569.306763,   0.535148,   13.813208,   31.351158,   535.255127,   -326.091980,   -174.613342,   0.085896,   811.693237,   586.876221
-0.232277,   0.272936,   0.302294,   -359.064301,   568.927673,   0.535147,   13.813208,   30.667439,   535.507996,   -325.644653,   -172.905441,   0.086312,   810.485962,   586.904663
-0.230734,   0.271454,   0.300448,   -357.952240,   568.591309,   0.535149,   13.813208,   29.983719,   535.804810,   -325.165710,   -171.181747,   0.086759,   809.292603,   587.003418
-0.229222,   0.270020,   0.298653,   -356.837341,   568.275085,   0.535147,   13.813208,   29.299999,   536.131165,   -324.693420,   -169.421066,   0.087214,   808.115784,   587.126953
-0.227746,   0.268639,   0.296912,   -355.755310,   567.950684,   0.535148,   13.813208,   28.616280,   536.468811,   -324.273407,   -167.597443,   0.087652,   806.958069,   587.219666
-0.226308,   0.267313,   0.295230,   -354.743347,   567.587769,   0.535148,   13.813208,   27.932560,   536.796326,   -323.951935,   -165.685760,   0.088045,   805.820496,   587.223877
-0.224905,   0.266039,   0.293600,   -353.823914,   567.166565,   0.535147,   13.813208,   27.248842,   537.094238,   -323.751617,   -163.682495,   0.088373,   804.702637,   587.103271
-0.223518,   0.264793,   0.291997,   -352.962372,   566.711304,   0.535148,   13.813208,   26.565123,   537.357605,   -323.608643,   -161.660767,   0.088663,   803.599304,   586.907715
-0.222090,   0.263510,   0.290352,   -352.008392,   566.330444,   0.535148,   13.813208,   25.881403,   537.610291,   -323.288269,   -159.843567,   0.089024,   802.491821,   586.853455
-0.220498,   0.262051,   0.288509,   -350.685822,   566.202209,   0.535147,   13.813208,   25.197683,   537.893066,   -322.376678,   -158.602982,   0.089650,   801.326782,   587.304993
-0.218533,   0.260179,   0.286210,   -348.693542,   566.464600,   0.535148,   13.813208,   24.513964,   538.203308,   -320.432251,   -158.318787,   0.090739,   799.994934,   588.574219
-0.215924,   0.257581,   0.283111,   -345.856964,   567.084534,   0.535147,   13.813208,   23.830246,   538.423462,   -317.195892,   -159.199356,   0.092371,   798.330811,   590.670044
-0.212387,   0.253918,   0.278839,   -342.185059,   567.836975,   0.535148,   13.813208,   23.146526,   538.310303,   -312.658417,   -161.239197,   0.094478,   796.137390,   593.252258
-0.207670,   0.248878,   0.273055,   -337.791626,   568.408508,   0.535148,   13.813208,   22.462807,   537.561646,   -306.944763,   -164.322556,   0.096912,   793.218140,   595.824707
-0.201582,   0.242216,   0.265491,   -332.752563,   568.538879,   0.535148,   13.813208,   21.779087,   535.910828,   -300.124542,   -168.353134,   0.099564,   789.394409,   597.992126
-0.193998,   0.233766,   0.255964,   -326.922272,   568.182800,   0.535148,   13.813208,   21.095367,   533.243408,   -291.982880,   -173.359940,   0.102510,   784.513550,   599.729919
-0.184853,   0.223446,   0.244384,   -319.676361,   567.690613,   0.535148,   13.813208,   20.411648,   529.714661,   -281.700439,   -179.600708,   0.106204,   778.423340,   601.658203
-0.174141,   0.211279,   0.230773,   -309.106110,   568.528992,   0.535147,   13.813208,   19.727928,   526.226135,   -266.803253,   -187.981216,   0.112152,   771.043152,   606.062256
-0.161949,   0.197510,   0.215382,   -289.521027,   575.378784,   0.535148,   13.813208,   19.044209,   525.603271,   -239.745529,   -201.427979,   0.124959,   762.540161,   619.408142
-0.148590,   0.182904,   0.199055,   -247.484100,   599.327026,   0.535147,   13.813208,   18.360491,   533.387207,   -181.544281,   -226.915207,   0.155511,   754.165222,   652.961670
-0.134713,   0.169056,   0.183687,   -172.546814,   647.814941,   0.535148,   13.813208,   17.676771,   548.766846,   -73.498695,   -267.291534,   0.211472,   749.142883,   702.315247
-0.121317,   0.158109,   0.171982,   -96.186386,   695.329651,   0.535148,   13.813208,   16.993052,   556.116394,   43.026848,   -301.345612,   0.266971,   748.075073,   733.969421
-0.109457,   0.151539,   0.165477,   -57.087612,   717.570984,   0.535147,   13.813208,   16.309332,   553.825806,   106.657585,   -316.281738,   0.294431,   747.750977,   742.824341
-0.099799,   0.149647,   0.163798,   -39.125908,   728.497986,   0.535149,   13.813208,   15.625613,   552.152954,   137.219101,   -322.907227,   0.306867,   748.827881,   746.522888
-0.092566,   0.152285,   0.166199,   -25.298384,   739.392090,   0.535148,   13.813208,   14.941894,   554.175781,   159.917953,   -327.609650,   0.316379,   752.360352,   751.402466
-0.087936,   0.159332,   0.172337,   -14.567519,   751.129272,   0.535148,   13.813208,   14.258174,   558.603882,   177.957886,   -332.189789,   0.323685,   758.517944,   758.203186
-0.085925,   0.170576,   0.182205,   -5.258044,   764.485901,   0.535148,   13.813208,   13.574455,   565.726196,   193.501648,   -336.880768,   0.329900,   767.128418,   767.087952
-0.086404,   0.185672,   0.196060,   0.000000,   779.514221,   0.535148,   13.813208,   12.890736,   575.216064,   207.058380,   -341.981995,   0.335105,   778.137817,   778.126770
-0.089143,   0.204103,   0.214377,   0.000000,   796.447021,   0.535148,   13.813208,   12.207016,   587.114258,   219.386688,   -347.559570,   0.339665,   791.467957,   791.324280
-0.094167,   0.225627,   0.237492,   0.000000,   815.025269,   0.535148,   13.813208,   11.523296,   601.317688,   230.436722,   -353.455811,   0.343647,   806.790833,   806.400391
-0.101906,   0.250279,   0.264461,   0.000000,   833.881897,   0.535148,   13.813208,   10.839578,   617.370544,   239.002579,   -358.884583,   0.346906,   822.866882,   822.174866
-0.112292,   0.277512,   0.293906,   0.000000,   850.768616,   0.535148,   13.813208,   10.155858,   634.702454,   241.480331,   -362.831360,   0.348376,   838.350525,   837.483093
-0.124562,   0.306259,   0.324613,   0.000000,   865.227173,   0.535148,   13.813208,   9.472138,   653.654358,   237.979446,   -364.291901,   0.348704,   852.330750,   851.409607
-0.028567,   0.013294,   0.033602,   -84.851410,   329.649292,   0.534530,   14.796378,   48.912712,   206.373398,   38.424496,   -189.475601,   0.215153,   379.261963,   356.956268
-0.026798,   0.015825,   0.030682,   -285.946075,   329.472687,   0.534527,   14.796378,   48.236412,   278.455444,   -234.928833,   -169.688538,   0.027200,   533.412415,   264.648285
-0.049234,   0.044189,   0.059445,   -339.788818,   373.736664,   0.534530,   14.796378,   47.560112,   305.455414,   -271.507568,   -209.900177,   0.018306,   618.164246,   268.879822
-0.076993,   0.077765,   0.094343,   -346.994812,   427.795532,   0.534529,   14.796378,   46.883808,   347.175232,   -266.374512,   -236.567520,   0.040068,   672.203247,   379.143677
-0.104798,   0.111264,   0.130552,   -355.330872,   463.803925,   0.534529,   14.796378,   46.207512,   383.147308,   -274.674255,   -244.055618,   0.050822,   711.461792,   433.956329
-0.131009,   0.143156,   0.165334,   -360.117676,   491.825531,   0.534530,   14.796378,   45.531208,   414.564087,   -282.856232,   -244.648773,   0.059269,   740.737549,   475.127533
-0.154842,   0.172466,   0.197231,   -361.996674,   514.596130,   0.534529,   14.796378,   44.854908,   441.555908,   -288.956421,   -242.263641,   0.066669,   762.976318,   508.485870
-0.175889,   0.198620,   0.225539,   -362.474609,   532.789124,   0.534527,   14.796378,   44.178608,   464.316772,   -294.002289,   -237.933456,   0.072785,   779.983704,   534.792664
-0.193950,   0.221296,   0.249933,   -362.468262,   546.972290,   0.534530,   14.796378,   43.502308,   483.080933,   -298.576904,   -232.429077,   0.077557,   792.982971,   554.930725
-0.209001,   0.240385,   0.270343,   -362.070435,   558.060242,   0.534529,   14.796378,   42.826008,   498.397339,   -302.407501,   -226.578964,   0.081372,   802.859497,   570.553955
-0.221157,   0.255942,   0.286882,   -361.405975,   566.651184,   0.534529,   14.796378,   42.149708,   510.721344,   -305.476135,   -220.857285,   0.084437,   810.246277,   582.643311
-0.230666,   0.268196,   0.299840,   -360.717804,   573.083496,   0.534530,   14.796378,   41.473408,   520.410339,   -308.044647,   -215.433990,   0.086789,   815.636841,   591.671875
-0.237867,   0.277514,   0.309640,   -360.192322,   577.648743,   0.534527,   14.796378,   40.797108,   527.820007,   -310.363617,   -210.353302,   0.088457,   819.439575,   598.035522
-0.243083,   0.284279,   0.316710,   -359.898041,   580.641479,   0.534530,   14.796378,   40.120808,   533.289795,   -312.546326,   -205.654984,   0.089518,   821.974976,   602.156616
-0.246631,   0.288889,   0.321482,   -359.835327,   582.350159,   0.534529,   14.796378,   39.444504,   537.146301,   -314.631439,   -201.362991,   0.090068,   823.506775,   604.451538
-0.248793,   0.291715,   0.324353,   -359.956757,   583.045349,   0.534529,   14.796378,   38.768208,   539.689819,   -316.601257,   -197.495911,   0.090219,   824.246277,   605.315796
-0.249837,   0.293122,   0.325708,   -360.186127,   582.989685,   0.534530,   14.796378,   38.091904,   541.207825,   -318.404236,   -194.066849,   0.090090,   824.376038,   605.135986
-0.250011,   0.293444,   0.325902,   -360.427979,   582.436096,   0.534527,   14.796378,   37.415604,   541.970581,   -319.962463,   -191.091644,   0.089803,   824.054871,   604.289795
-0.249547,   0.292993,   0.325262,   -360.594513,   581.608704,   0.534529,   14.796378,   36.739307,   542.224976,   -321.210785,   -188.564011,   0.089470,   823.420898,   603.114197
-0.248657,   0.292041,   0.324081,   -360.628418,   580.682983,   0.534530,   14.796378,   36.063004,   542.182739,   -322.128204,   -186.436111,   0.089171,   822.591248,   601.868286
-0.247516,   0.290807,   0.322593,   -360.510895,   579.771729,   0.534529,   14.796378,   35.386703,   542.004578,   -322.743744,   -184.622391,   0.088951,   821.655212,   600.711792
-0.246251,   0.289443,   0.320961,   -360.251648,   578.930298,   0.534530,   14.796378,   34.710403,   541.796875,   -323.118225,   -183.019562,   0.088821,   820.671753,   599.714844
-0.244935,   0.288038,   0.319281,   -359.871552,   578.174744,   0.534529,   14.796378,   34.034103,   541.618713,   -323.315521,   -181.534866,   0.088777,   819.672058,   598.889404
-0.243604,   0.286635,   0.317598,   -359.387482,   577.504517,   0.534527,   14.796378,   33.357803,   541.498047,   -323.381012,   -180.104675,   0.088810,   818.668823,   598.226868
-0.242273,   0.285247,   0.315927,   -358.808228,   576.915344,   0.534530,   14.796378,   32.681503,   541.444580,   -323.337433,   -178.697159,   0.088915,   817.665344,   597.717407
-0.240945,   0.283877,   0.314272,   -358.138947,   576.403076,   0.534529,   14.796378,   32.005203,   541.459473,   -323.195343,   -177.299789,   0.089088,   816.661804,   597.352722
-0.239619,   0.282525,   0.312632,   -357.386536,   575.961670,   0.534530,   14.796378,   31.328901,   541.539246,   -322.964111,   -175.906784,   0.089325,   815.657959,   597.120667
-0.238299,   0.281194,   0.311011,   -356.563019,   575.581787,   0.534528,   14.796378,   30.652601,   541.677490,   -322.658722,   -174.511368,   0.089616,   814.654968,   597.002441
-0.236989,   0.279888,   0.309412,   -355.686462,   575.250183,   0.534530,   14.796378,   29.976301,   541.865417,   -322.301666,   -173.102783,   0.089950,   813.654968,   596.971497
-0.235692,   0.278611,   0.307841,   -354.781342,   574.948792,   0.534529,   14.796378,   29.300001,   542.091309,   -321.923859,   -171.665268,   0.090307,   812.660461,   596.991638
-0.234414,   0.277370,   0.306305,   -353.878845,   574.653931,   0.534530,   14.796378,   28.623699,   542.339905,   -321.564789,   -170.177719,   0.090667,   811.674377,   597.017212
-0.233159,   0.276170,   0.304809,   -353.015289,   574.337341,   0.534529,   14.796378,   27.947399,   542.591919,   -321.269836,   -168.616272,   0.091001,   810.699097,   596.994019
-0.231929,   0.275011,   0.303353,   -352.222839,   573.972717,   0.534529,   14.796378,   27.271099,   542.826050,   -321.076172,   -166.966415,   0.091285,   809.735718,   596.873291
-0.230714,   0.273881,   0.301924,   -351.502502,   573.557434,   0.534530,   14.796378,   26.594799,   543.026611,   -320.971680,   -165.259537,   0.091518,   808.782471,   596.651978
-0.229479,   0.272738,   0.300477,   -350.776306,   573.147034,   0.534530,   14.796378,   25.918497,   543.195068,   -320.824371,   -163.634277,   0.091756,   807.829102,   596.438782
-0.228135,   0.271482,   0.298902,   -349.855713,   572.866394,   0.534528,   14.796378,   25.242197,   543.350403,   -320.339722,   -162.369492,   0.092133,   806.842896,   596.482117
-0.226522,   0.269927,   0.296996,   -348.483948,   572.850891,   0.534530,   14.796378,   24.565897,   543.496338,   -319.129364,   -161.813812,   0.092819,   805.747253,   597.069702
-0.224403,   0.267803,   0.294462,   -346.453217,   573.134949,   0.534529,   14.796378,   23.889597,   543.562073,   -316.880371,   -162.235306,   0.093933,   804.411560,   598.325928
-0.221505,   0.264787,   0.290947,   -343.697235,   573.585449,   0.534530,   14.796378,   23.213297,   543.366150,   -313.477905,   -163.726746,   0.095469,   802.662964,   600.083069
-0.217563,   0.260553,   0.286095,   -340.279297,   573.942810,   0.534529,   14.796378,   22.536997,   542.643433,   -308.979919,   -166.237549,   0.097322,   800.313171,   601.950806
-0.212354,   0.254820,   0.279599,   -336.301514,   573.923767,   0.534529,   14.796378,   21.860695,   541.112244,   -303.490021,   -169.673981,   0.099359,   797.181702,   603.502075
-0.205713,   0.247371,   0.271222,   -331.802185,   573.318054,   0.534530,   14.796378,   21.184395,   538.539246,   -297.023376,   -173.981110,   0.101507,   793.104309,   604.440857
-0.197533,   0.238063,   0.260809,   -326.648621,   572.079163,   0.534530,   14.796378,   20.508095,   534.807495,   -289.376953,   -179.186798,   0.103828,   787.935730,   604.748230
-0.187757,   0.226820,   0.248275,   -320.380646,   570.413940,   0.534528,   14.796378,   19.831795,   529.967163,   -279.933868,   -185.455750,   0.106645,   781.514832,   604.824097
-0.176371,   0.213650,   0.233623,   -311.688477,   569.266907,   0.534530,   14.796378,   19.155495,   524.556458,   -266.977997,   -193.362106,   0.110969,   773.723755,   606.189331
-0.163448,   0.198739,   0.217041,   -296.494507,   571.961487,   0.534529,   14.796378,   18.479193,   520.526123,   -245.059143,   -204.996948,   0.120090,   764.612549,   613.684448
-0.149230,   0.182684,   0.199179,   -263.153320,   588.298157,   0.534530,   14.796378,   17.802893,   522.889282,   -197.744431,   -226.746918,   0.143535,   755.087402,   638.976562
-0.134317,   0.166944,   0.181741,   -194.599197,   631.793457,   0.534529,   14.796378,   17.126593,   534.815002,   -97.620750,   -265.965149,   0.194746,   748.317017,   687.849182
-0.119695,   0.153788,   0.167602,   -110.230560,   684.998718,   0.534529,   14.796378,   16.450293,   542.383179,   32.384960,   -305.078430,   0.256738,   746.245117,   727.590271
-0.106520,   0.145117,   0.158953,   -61.688168,   712.312134,   0.534530,   14.796378,   15.773993,   539.025330,   111.598656,   -322.638702,   0.291078,   745.074036,   739.295776
-0.095699,   0.141547,   0.155716,   -42.861538,   722.837097,   0.534529,   14.796378,   15.097692,   534.746521,   145.229019,   -329.609802,   0.304161,   745.192932,   742.411987
-0.087567,   0.143002,   0.157051,   -28.527710,   733.490356,   0.534529,   14.796378,   14.421391,   535.000305,   169.962311,   -334.446838,   0.314086,   748.162231,   746.937012
-0.082396,   0.149442,   0.162607,   -17.536402,   745.445007,   0.534530,   14.796378,   13.745091,   537.950439,   189.958160,   -339.500366,   0.321643,   754.366089,   753.907349
-0.080231,   0.160687,   0.172435,   -7.798037,   759.699951,   0.534529,   14.796378,   13.068790,   544.108032,   207.793884,   -344.944183,   0.328214,   763.628845,   763.539246
-0.080926,   0.176351,   0.186933,   0.000000,   776.292236,   0.534529,   14.796378,   12.392490,   553.099609,   223.921005,   -351.119904,   0.333803,   775.928284,   775.927551
-0.084247,   0.195937,   0.206946,   0.000000,   795.641296,   0.534529,   14.796378,   11.716190,   565.284790,   239.171219,   -358.031403,   0.338888,   791.270752,   791.160217
-0.090337,   0.219355,   0.232620,   0.000000,   817.209290,   0.534530,   14.796378,   11.039889,   580.525269,   253.496323,   -365.269592,   0.343671,   808.934204,   808.541016
-0.099616,   0.246503,   0.262483,   0.000000,   838.267883,   0.534529,   14.796378,   10.363589,   598.192322,   263.049316,   -371.612610,   0.347126,   827.020386,   826.302002
-0.111304,   0.276316,   0.294911,   0.000000,   856.773315,   0.534529,   14.796378,   9.687288,   619.036011,   264.420441,   -375.265747,   0.349021,   843.748230,   842.798157
-0.005054,   0.003664,   0.015776,   -51.098568,   499.179169,   0.533953,   15.788191,   48.740093,   236.843567,   211.237045,   -274.840820,   0.283636,   526.591187,   520.969543
-0.014360,   0.012875,   0.019648,   -162.263474,   434.062225,   0.533950,   15.788191,   48.069744,   264.937927,   6.860827,   -268.793854,   0.169657,   534.014893,   473.596283
-0.040096,   0.041064,   0.049280,   -292.407990,   400.329376,   0.533951,   15.788191,   47.399399,   309.404114,   -201.482727,   -233.922897,   0.059722,   602.350037,   387.324371
-0.068382,   0.073705,   0.085660,   -318.969116,   440.116913,   0.533950,   15.788191,   46.729050,   356.227478,   -235.079697,   -237.995499,   0.061170,   660.172607,   427.831757
-0.095903,   0.105931,   0.121650,   -330.367706,   475.427643,   0.533950,   15.788191,   46.058701,   392.741852,   -247.681915,   -244.521744,   0.068919,   701.598328,   472.636993
-0.121879,   0.136786,   0.155846,   -339.690155,   500.189880,   0.533951,   15.788191,   45.388355,   422.419312,   -261.919586,   -243.453644,   0.073110,   731.771057,   502.456512
-0.145790,   0.165636,   0.187565,   -345.491333,   520.254822,   0.533950,   15.788191,   44.718006,   447.878052,   -273.114532,   -239.627899,   0.077175,   754.833008,   527.397278
-0.167239,   0.191881,   0.216204,   -348.767883,   536.920837,   0.533950,   15.788191,   44.047657,   469.637177,   -281.484253,   -234.659897,   0.081159,   772.776611,   548.715759
-0.186014,   0.215109,   0.241392,   -350.588470,   550.549377,   0.533951,   15.788191,   43.377312,   487.991638,   -288.030731,   -229.040771,   0.084716,   786.786621,   566.368652
-0.202030,   0.235097,   0.262952,   -351.670624,   561.417847,   0.533950,   15.788191,   42.706963,   503.129395,   -293.382172,   -223.215057,   0.087649,   797.681885,   580.461670
-0.215330,   0.251803,   0.280895,   -352.296967,   569.953613,   0.533950,   15.788191,   42.036613,   515.396790,   -297.740112,   -217.574432,   0.090007,   806.072693,   591.528198
-0.226067,   0.265346,   0.295388,   -352.675934,   576.485962,   0.533951,   15.788191,   41.366264,   525.145996,   -301.335999,   -212.290665,   0.091828,   812.421753,   599.978027
-0.234497,   0.275986,   0.306743,   -353.000061,   581.270569,   0.533950,   15.788191,   40.695919,   532.706726,   -304.436218,   -207.396545,   0.093121,   817.112610,   606.111389
-0.240890,   0.284033,   0.315308,   -353.374969,   584.553772,   0.533953,   15.788191,   40.025570,   538.383057,   -307.204254,   -202.911545,   0.093923,   820.453308,   610.238464
-0.245524,   0.289830,   0.321460,   -353.844269,   586.578064,   0.533950,   15.788191,   39.355221,   542.464722,   -309.730927,   -198.844620,   0.094297,   822.700989,   612.675842
-0.248658,   0.293714,   0.325563,   -354.397247,   587.581848,   0.533950,   15.788191,   38.684872,   545.223328,   -312.038757,   -195.209045,   0.094323,   824.067505,   613.746826
-0.250550,   0.296029,   0.327981,   -354.989899,   587.802002,   0.533951,   15.788191,   38.014526,   546.922546,   -314.110443,   -192.014816,   0.094095,   824.737976,   613.779541
-0.251444,   0.297108,   0.329067,   -355.552429,   587.474854,   0.533950,   15.788191,   37.344177,   547.815552,   -315.893097,   -189.280106,   0.093720,   824.877136,   613.110046
-0.251582,   0.297269,   0.329162,   -356.011353,   586.822998,   0.533950,   15.788191,   36.673828,   548.144043,   -317.332397,   -187.007416,   0.093299,   824.633789,   612.058716
-0.251192,   0.296808,   0.328579,   -356.315674,   586.030029,   0.533951,   15.788191,   36.003483,   548.123108,   -318.408783,   -185.160645,   0.092911,   824.138184,   610.887695
-0.250471,   0.295970,   0.327584,   -356.450348,   585.221069,   0.533950,   15.788191,   35.333134,   547.923401,   -319.152710,   -183.660049,   0.092602,   823.494263,   609.768188
-0.249569,   0.294940,   0.326375,   -356.432159,   584.460510,   0.533951,   15.788191,   34.662785,   547.663330,   -319.634979,   -182.395630,   0.092382,   822.774841,   608.778442
-0.248583,   0.293830,   0.325073,   -356.290100,   583.768616,   0.533950,   15.788191,   33.992435,   547.413025,   -319.934509,   -181.258560,   0.092244,   822.021545,   607.933411
-0.247561,   0.292699,   0.323742,   -356.047180,   583.146179,   0.533950,   15.788191,   33.322090,   547.208679,   -320.109650,   -180.168747,   0.092176,   821.253052,   607.224243
-0.246525,   0.291570,   0.322407,   -355.712891,   582.591492,   0.533951,   15.788191,   32.651741,   547.066528,   -320.187927,   -179.084335,   0.092174,   820.475342,   606.644714
-0.245479,   0.290447,   0.321073,   -355.288177,   582.104431,   0.533951,   15.788191,   31.981392,   546.992493,   -320.176239,   -177.991104,   0.092237,   819.689026,   606.194275
-0.244425,   0.289331,   0.319740,   -354.773712,   581.684326,   0.533951,   15.788191,   31.311045,   546.986633,   -320.075989,   -176.887024,   0.092365,   818.893982,   605.871582
-0.243364,   0.288222,   0.318408,   -354.174530,   581.327332,   0.533950,   15.788191,   30.640696,   547.045593,   -319.892792,   -175.770813,   0.092554,   818.090698,   605.668823
-0.242296,   0.287122,   0.317080,   -353.502197,   581.024780,   0.533951,   15.788191,   29.970348,   547.162781,   -319.640228,   -174.637634,   0.092797,   817.280273,   605.569031
-0.241228,   0.286035,   0.315762,   -352.775238,   580.763550,   0.533951,   15.788191,   29.299999,   547.329163,   -319.340851,   -173.477509,   0.093079,   816.465393,   605.546387
-0.240163,   0.284968,   0.314458,   -352.019104,   580.525085,   0.533951,   15.788191,   28.629652,   547.532349,   -319.026398,   -172.274902,   0.093384,   815.648621,   605.564819
-0.239107,   0.283925,   0.313177,   -351.266144,   580.284973,   0.533950,   15.788191,   27.959303,   547.755920,   -318.737122,   -171.009705,   0.093687,   814.833069,   605.578186
-0.238063,   0.282911,   0.311920,   -350.551147,   580.015869,   0.533951,   15.788191,   27.288956,   547.979431,   -318.514679,   -169.663589,   0.093964,   814.020691,   605.535950
-0.237029,   0.281921,   0.310684,   -349.894806,   579.700867,   0.533951,   15.788191,   26.618608,   548.182739,   -318.376709,   -168.242981,   0.094197,   813.211975,   605.407288
-0.235983,   0.280929,   0.309442,   -349.269226,   579.358337,   0.533951,   15.788191,   25.948259,   548.353333,   -318.264221,   -166.825623,   0.094407,   812.402039,   605.228943
-0.234867,   0.279868,   0.308118,   -348.560333,   579.064026,   0.533951,   15.788191,   25.277912,   548.491577,   -317.987854,   -165.605255,   0.094674,   811.571472,   605.148132
-0.233559,   0.278596,   0.306560,   -347.573090,   578.927856,   0.533951,   15.788191,   24.607563,   548.595276,   -317.240509,   -164.872955,   0.095129,   810.669006,   605.388916
-0.231864,   0.276889,   0.304522,   -346.104492,   579.014404,   0.533951,   15.788191,   23.937216,   548.618347,   -315.708435,   -164.912201,   0.095896,   809.595825,   606.115540
-0.229533,   0.274453,   0.301682,   -344.038208,   579.264038,   0.533951,   15.788191,   23.266867,   548.429077,   -313.203247,   -165.889069,   0.097016,   808.206665,   607.287048
-0.226299,   0.270963,   0.297687,   -341.379486,   579.483459,   0.533950,   15.788191,   22.596519,   547.807007,   -309.703003,   -167.828171,   0.098431,   806.328003,   608.635071
-0.221917,   0.266115,   0.292204,   -338.208710,   579.411926,   0.533951,   15.788191,   21.926172,   546.486023,   -305.282806,   -170.673325,   0.100028,   803.782043,   609.777893
-0.216188,   0.259653,   0.284954,   -334.600464,   578.805298,   0.533951,   15.788191,   21.255823,   544.211487,   -300.006653,   -174.360168,   0.101701,   800.400879,   610.366150
-0.208971,   0.251384,   0.275729,   -330.558197,   577.493652,   0.533951,   15.788191,   20.585474,   540.778381,   -293.842926,   -178.861252,   0.103403,   796.029480,   610.179993
-0.200169,   0.241179,   0.264387,   -325.955597,   575.424683,   0.533950,   15.788191,   19.915127,   536.064148,   -286.595062,   -184.199783,   0.105192,   790.520996,   609.196960
-0.189725,   0.228967,   0.250849,   -320.451111,   572.693542,   0.533951,   15.788191,   19.244780,   530.040894,   -277.798462,   -190.461929,   0.107287,   783.700928,   607.644287
-0.177624,   0.214751,   0.235107,   -313.194794,   569.831543,   0.533951,   15.788191,   18.574430,   522.967896,   -266.331116,   -197.953674,   0.110322,   775.414307,   606.421387
-0.163911,   0.198655,   0.217284,   -301.503021,   568.939392,   0.533951,   15.788191,   17.904083,   516.010742,   -248.574387,   -208.014175,   0.116440,   765.593262,   608.729858
-0.148788,   0.181144,   0.197874,   -276.419159,   577.632385,   0.533951,   15.788191,   17.233734,   513.054932,   -211.841675,   -225.792480,   0.133020,   754.808228,   624.669373
-0.132775,   0.163468,   0.178313,   -217.616638,   612.883362,   0.533951,   15.788191,   16.563387,   519.960876,   -124.694160,   -261.796722,   0.176641,   745.893188,   668.678284
-0.116837,   0.147941,   0.161511,   -127.657867,   670.191956,   0.533951,   15.788191,   15.893039,   527.296509,   15.237588,   -305.924835,   0.243628,   742.299866,   716.976868
-0.102208,   0.136904,   0.150365,   -65.924294,   704.910461,   0.533950,   15.788191,   15.222691,   523.254639,   115.731552,   -327.151031,   0.287801,   740.078064,   733.428406
-0.090061,   0.131413,   0.145298,   -44.612892,   715.543823,   0.533950,   15.788191,   14.552342,   516.370911,   154.560013,   -334.264526,   0.302687,   738.861145,   735.821655
-0.080918,   0.131525,   0.145389,   -29.786980,   725.700867,   0.533951,   15.788191,   13.881994,   514.425964,   181.487946,   -339.084869,   0.313033,   741.043518,   739.694763
-0.075173,   0.137293,   0.150258,   -18.321293,   737.914001,   0.533950,   15.788191,   13.211646,   515.672791,   203.919891,   -344.493073,   0.320999,   747.243103,   746.737549
-0.072947,   0.148564,   0.160040,   -8.227375,   753.210876,   0.533951,   15.788191,   12.541299,   520.500244,   224.483276,   -350.771362,   0.327887,   757.358154,   757.257568
-0.074063,   0.164901,   0.175385,   0.000000,   771.791138,   0.533951,   15.788191,   11.870951,   528.797180,   243.744003,   -358.207031,   0.333819,   771.416443,   771.415588
-0.078209,   0.185813,   0.197578,   0.000000,   794.342163,   0.533951,   15.788191,   11.200602,   541.242676,   262.873596,   -366.762085,   0.339504,   789.500488,   789.364319
-0.085860,   0.211325,   0.225980,   0.000000,   818.867554,   0.533950,   15.788191,   10.530254,   557.278320,   279.883148,   -375.489685,   0.344564,   809.875549,   809.410461
-0.096677,   0.240679,   0.258403,   0.000000,   841.218750,   0.533951,   15.788191,   9.859906,   578.338257,   286.963348,   -381.710541,   0.347745,   829.439575,   828.652405
-0.011485,   0.027484,   0.028285,   0.000000,   578.267883,   0.533467,   16.786739,   48.610340,   293.855927,   295.744507,   -283.466064,   0.343179,   572.685669,   572.433228
-0.014650,   0.024299,   0.028550,   -19.657938,   561.649780,   0.533467,   16.786739,   47.944466,   306.649902,   235.341949,   -288.458771,   0.315994,   571.732300,   570.971191
-0.035020,   0.041662,   0.047432,   -136.793076,   532.998413,   0.533465,   16.786739,   47.278591,   346.192627,   50.012745,   -300.373993,   0.215463,   612.952026,   577.089722
-0.061062,   0.069263,   0.078253,   -270.033234,   473.237152,   0.533467,   16.786739,   46.612720,   372.082703,   -168.878799,   -254.858551,   0.103942,   651.660278,   500.324951
-0.087396,   0.099547,   0.112353,   -304.830048,   485.325623,   0.533465,   16.786739,   45.946846,   402.652313,   -222.156738,   -241.846878,   0.087168,   690.220337,   501.386963
-0.112599,   0.129210,   0.145456,   -318.181641,   507.567841,   0.533467,   16.786739,   45.280972,   430.092468,   -240.706253,   -240.775452,   0.087513,   721.362244,   524.667236
-0.136166,   0.157365,   0.176595,   -327.630737,   525.417419,   0.533467,   16.786739,   44.615097,   453.702667,   -255.915985,   -236.713165,   0.088453,   745.351074,   543.957458
-0.157741,   0.183473,   0.205270,   -333.607330,   540.745789,   0.533465,   16.786739,   43.949223,   474.509308,   -267.370819,   -231.358643,   0.090344,   764.262146,   561.509033
-0.177037,   0.207062,   0.231031,   -337.458099,   553.705200,   0.533467,   16.786739,   43.283348,   492.387604,   -276.140472,   -225.575180,   0.092495,   779.307190,   576.840271
-0.193881,   0.227810,   0.253584,   -340.055756,   564.361023,   0.533465,   16.786739,   42.617477,   507.413361,   -283.108124,   -219.684692,   0.094496,   791.236633,   589.635498
-0.208228,   0.245573,   0.272825,   -341.935913,   572.900879,   0.533467,   16.786739,   41.951603,   519.765930,   -288.800995,   -213.977722,   0.096158,   800.644043,   599.928833
-0.220139,   0.260362,   0.288800,   -343.375916,   579.564758,   0.533465,   16.786739,   41.285728,   529.701477,   -293.512634,   -208.649246,   0.097442,   807.967163,   607.942566
-0.229785,   0.272332,   0.301709,   -344.581726,   584.575684,   0.533467,   16.786739,   40.619858,   537.508057,   -297.514099,   -203.759323,   0.098329,   813.571960,   613.903442
-0.237373,   0.281710,   0.311814,   -345.688141,   588.140442,   0.533468,   16.786739,   39.953979,   543.451965,   -300.999634,   -199.334747,   0.098828,   817.754700,   618.039246
-0.243136,   0.288774,   0.319424,   -346.770447,   590.465576,   0.533465,   16.786739,   39.288105,   547.793518,   -304.098358,   -195.378876,   0.098971,   820.765137,   620.593994
-0.247303,   0.293818,   0.324858,   -347.850220,   591.756836,   0.533467,   16.786739,   38.622231,   550.779175,   -306.872589,   -191.895050,   0.098810,   822.811401,   621.825134
-0.250110,   0.297152,   0.328451,   -348.906769,   592.228516,   0.533465,   16.786739,   37.956360,   552.654785,   -309.333069,   -188.886581,   0.098422,   824.077148,   622.013733
-0.251792,   0.299095,   0.330539,   -349.887726,   592.103394,   0.533467,   16.786739,   37.290485,   553.662964,   -311.447296,   -186.367584,   0.097897,   824.728821,   621.463135
-0.252591,   0.299968,   0.331465,   -350.730072,   591.601562,   0.533465,   16.786739,   36.624611,   554.042297,   -313.170837,   -184.343613,   0.097331,   824.922058,   620.478821
-0.252748,   0.300080,   0.331562,   -351.385162,   590.916321,   0.533467,   16.786739,   35.958740,   554.013367,   -314.482208,   -182.789200,   0.096804,   824.798706,   619.329346
-0.252480,   0.299704,   0.331122,   -351.839600,   590.187256,   0.533465,   16.786739,   35.292866,   553.757996,   -315.410339,   -181.632156,   0.096363,   824.477600,   618.201294
-0.251964,   0.299056,   0.330380,   -352.116791,   589.489624,   0.533467,   16.786739,   34.626991,   553.407654,   -316.034851,   -180.756973,   0.096019,   824.046997,   617.184387
-0.251321,   0.298278,   0.329490,   -352.258057,   588.847229,   0.533467,   16.786739,   33.961117,   553.044067,   -316.454865,   -180.035278,   0.095759,   823.561157,   616.293823
-0.250619,   0.297452,   0.328540,   -352.297668,   588.260132,   0.533465,   16.786739,   33.295242,   552.712585,   -316.750153,   -179.362427,   0.095565,   823.046936,   615.516296
-0.249888,   0.296612,   0.327567,   -352.250519,   587.726074,   0.533467,   16.786739,   32.629368,   552.436707,   -316.961121,   -178.678101,   0.095429,   822.513916,   614.843445
-0.249138,   0.295768,   0.326582,   -352.115753,   587.248108,   0.533467,   16.786739,   31.963495,   552.228271,   -317.095947,   -177.960571,   0.095354,   821.964233,   614.279724
-0.248370,   0.294922,   0.325586,   -351.887421,   586.830994,   0.533466,   16.786739,   31.297621,   552.092529,   -317.148926,   -177.208603,   0.095343,   821.397461,   613.834290
-0.247583,   0.294071,   0.324578,   -351.562683,   586.476990,   0.533466,   16.786739,   30.631748,   552.030029,   -317.115723,   -176.425720,   0.095399,   820.813660,   613.511108
-0.246779,   0.293216,   0.323559,   -351.145569,   586.183350,   0.533467,   16.786739,   29.965874,   552.037598,   -316.999786,   -175.612885,   0.095519,   820.213318,   613.304932
-0.245961,   0.292360,   0.322531,   -350.647095,   585.942505,   0.533466,   16.786739,   29.299999,   552.109314,   -316.813904,   -174.765915,   0.095695,   819.598083,   613.200928
-0.245132,   0.291508,   0.321501,   -350.085968,   585.741150,   0.533466,   16.786739,   28.634127,   552.235901,   -316.580688,   -173.875076,   0.095915,   818.970520,   613.173584
-0.244298,   0.290665,   0.320474,   -349.488281,   585.560425,   0.533466,   16.786739,   27.968252,   552.404480,   -316.332306,   -172.925186,   0.096160,   818.333435,   613.187073
-0.243463,   0.289836,   0.319456,   -348.885925,   585.376160,   0.533467,   16.786739,   27.302378,   552.597778,   -316.107574,   -171.898697,   0.096406,   817.689514,   613.196960
-0.242627,   0.289022,   0.318447,   -348.308014,   585.165527,   0.533466,   16.786739,   26.636505,   552.795288,   -315.937775,   -170.789108,   0.096632,   817.040405,   613.161926
-0.241782,   0.288209,   0.317433,   -347.756805,   584.925049,   0.533466,   16.786739,   25.970631,   552.978333,   -315.810089,   -169.633545,   0.096837,   816.384644,   613.076782
-0.240888,   0.287352,   0.316366,   -347.174896,   584.691711,   0.533467,   16.786739,   25.304758,   553.134521,   -315.617737,   -168.556259,   0.097059,   815.711426,   613.012512
-0.239859,   0.286350,   0.315135,   -346.429199,   584.541870,   0.533466,   16.786739,   24.638884,   553.252625,   -315.139954,   -167.780716,   0.097389,   814.987610,   613.121338
-0.238539,   0.285022,   0.313544,   -345.347229,   584.543579,   0.533466,   16.786739,   23.973009,   553.296570,   -314.100220,   -167.570648,   0.097934,   814.141479,   613.557739
-0.236711,   0.283112,   0.311312,   -343.793121,   584.684082,   0.533466,   16.786739,   23.307137,   553.168396,   -312.277435,   -168.131989,   0.098760,   813.055725,   614.353516
-0.234117,   0.280310,   0.308103,   -341.724213,   584.832520,   0.533466,   16.786739,   22.641262,   552.689941,   -309.581665,   -169.554565,   0.099850,   811.576172,   615.347534
-0.230504,   0.276301,   0.303572,   -339.184174,   584.768066,   0.533467,   16.786739,   21.975388,   551.622620,   -306.038757,   -171.831818,   0.101122,   809.533020,   616.230042
-0.225647,   0.270797,   0.297410,   -336.248627,   584.246155,   0.533467,   16.786739,   21.309513,   549.711426,   -301.713867,   -174.918304,   0.102467,   806.758179,   616.654480
-0.219370,   0.263566,   0.289362,   -332.962433,   583.058472,   0.533466,   16.786739,   20.643641,   546.725830,   -296.629791,   -178.777542,   0.103805,   803.092651,   616.338562
-0.211541,   0.254430,   0.279237,   -329.300079,   581.061340,   0.533466,   16.786739,   19.977766,   542.477905,   -290.716644,   -183.401749,   0.105113,   798.382324,   615.112122
-0.202069,   0.243270,   0.266903,   -325.137970,   578.192932,   0.533466,   16.786739,   19.311893,   536.838684,   -283.783722,   -188.802551,   0.106441,   792.473511,   612.941772
-0.190894,   0.230017,   0.252280,   -320.213501,   574.461792,   0.533466,   16.786739,   18.646019,   529.718018,   -275.469727,   -195.010635,   0.107938,   785.170959,   609.923889
-0.177992,   0.214664,   0.235347,   -313.975525,   570.113098,   0.533466,   16.786739,   17.980146,   521.180603,   -265.043030,   -202.154114,   0.109985,   776.280334,   606.525940
-0.163401,   0.197312,   0.216197,   -304.791321,   566.297668,   0.533467,   16.786739,   17.314272,   511.803986,   -250.297653,   -210.948502,   0.113852,   765.632629,   604.592773
-0.147286,   0.178311,   0.195196,   -286.571991,   568.149536,   0.533466,   16.786739,   16.648397,   504.106445,   -222.528900,   -225.027756,   0.124567,   753.480713,   611.472534
-0.130095,   0.158690,   0.173499,   -239.786255,   592.552124,   0.533466,   16.786739,   15.982523,   504.658295,   -151.892426,   -255.796967,   0.158455,   742.092529,   645.893799
-0.112741,   0.140681,   0.153876,   -148.788422,   650.458496,   0.533466,   16.786739,   15.316649,   510.641083,   -8.971024,   -303.644073,   0.227139,   736.216614,   701.182129
-0.096517,   0.127048,   0.139895,   -70.857765,   694.672852,   0.533466,   16.786739,   14.650777,   506.034241,   117.780830,   -329.884979,   0.283807,   732.676025,   724.907227
-0.082860,   0.119404,   0.132713,   -44.182735,   706.506958,   0.533466,   16.786739,   13.984902,   496.823608,   165.500626,   -336.808594,   0.302596,   729.602356,   726.583374
-0.072624,   0.118061,   0.131416,   -28.956390,   715.820740,   0.533466,   16.786739,   13.319029,   492.058136,   194.806213,   -341.443359,   0.313324,   730.729370,   729.436768
-0.066367,   0.123209,   0.135576,   -16.614878,   728.484192,   0.533466,   16.786739,   12.653154,   491.356384,   220.512939,   -347.065002,   0.321997,   736.932129,   736.510559
-0.064334,   0.134765,   0.145495,   -6.262330,   745.195862,   0.533466,   16.786739,   11.987281,   494.377716,   244.555786,   -354.358002,   0.329140,   748.346619,   748.287720
-0.066258,   0.152071,   0.162293,   0.000000,   766.447876,   0.533466,   16.786739,   11.321407,   501.824982,   267.367340,   -363.411774,   0.335125,   765.079346,   765.068298
-0.071947,   0.174620,   0.187235,   0.000000,   792.864380,   0.533466,   16.786739,   10.655534,   514.106445,   290.996155,   -374.031769,   0.341080,   786.816650,   786.602539
-0.081591,   0.202006,   0.217866,   0.000000,   818.640442,   0.533466,   16.786739,   9.989659,   533.023376,   304.922150,   -383.049255,   0.345191,   809.160706,   808.642273
-0.024878,   0.056783,   0.060525,   0.000000,   654.710388,   0.533122,   17.790113,   48.523701,   333.905853,   325.094330,   -325.180481,   0.336615,   652.576111,   652.544373
-0.023002,   0.045495,   0.050760,   -12.795519,   623.734253,   0.533123,   17.790113,   47.860813,   340.864777,   270.073944,   -316.290527,   0.323130,   630.229431,   629.937073
-0.033565,   0.048632,   0.056122,   -34.054668,   619.818909,   0.533122,   17.790113,   47.197926,   366.587250,   219.176987,   -318.520355,   0.306268,   637.528748,   635.477539
-0.054036,   0.065833,   0.073859,   -124.605766,   589.651306,   0.533121,   17.790113,   46.535042,   393.093292,   71.952217,   -318.995117,   0.234578,   660.824646,   633.579590
-0.077819,   0.090911,   0.101314,   -252.239807,   519.989990,   0.533122,   17.790113,   45.872154,   411.031738,   -143.281540,   -268.828796,   0.130858,   682.038635,   561.709534
-0.101901,   0.118812,   0.132402,   -296.485443,   512.402710,   0.533123,   17.790113,   45.209270,   432.562622,   -216.645355,   -241.261810,   0.101543,   708.787781,   540.241943
-0.125022,   0.146304,   0.162908,   -309.725342,   527.971497,   0.533122,   17.790113,   44.546383,   455.970734,   -237.724594,   -234.799255,   0.099163,   733.627808,   555.045166
-0.146584,   0.172224,   0.191505,   -318.449768,   542.245483,   0.533121,   17.790113,   43.883495,   476.219330,   -252.423630,   -229.060989,   0.098972,   753.736267,   569.914185
-0.166256,   0.196087,   0.217697,   -324.434174,   554.635010,   0.533123,   17.790113,   43.220608,   493.891602,   -263.690796,   -222.952637,   0.099661,   769.948059,   583.437744
-0.183804,   0.217516,   0.241123,   -328.742310,   565.079895,   0.533121,   17.790113,   42.557724,   508.946320,   -272.608734,   -216.846619,   0.100607,   783.040527,   595.114075
-0.199099,   0.236280,   0.261571,   -331.960205,   573.661377,   0.533122,   17.790113,   41.894836,   521.528381,   -279.827209,   -210.938171,   0.101528,   793.547546,   604.817993
-0.212123,   0.252291,   0.278981,   -334.469788,   580.534912,   0.533121,   17.790113,   41.231953,   531.838562,   -285.773407,   -205.392487,   0.102283,   801.911621,   612.606750
-0.222963,   0.265605,   0.293444,   -336.532440,   585.859680,   0.533123,   17.790113,   40.569065,   540.092896,   -290.765656,   -200.300598,   0.102796,   808.484070,   618.592224
-0.231760,   0.276368,   0.305133,   -338.324799,   589.801941,   0.533121,   17.790113,   39.906178,   546.514038,   -295.036896,   -195.711075,   0.103036,   813.556824,   622.925537
-0.238698,   0.284787,   0.314287,   -339.964325,   592.528809,   0.533122,   17.790113,   39.243294,   551.322327,   -298.757843,   -191.642334,   0.102998,   817.376770,   625.778320
-0.243967,   0.291104,   0.321169,   -341.510345,   594.211792,   0.533123,   17.790113,   38.580406,   554.733154,   -302.031738,   -188.102249,   0.102705,   820.150208,   627.345520
-0.247775,   0.295590,   0.326072,   -342.973633,   595.036682,   0.533120,   17.790113,   37.917519,   556.968323,   -304.905273,   -185.092728,   0.102208,   822.059265,   627.855103
-0.250338,   0.298537,   0.329307,   -344.321350,   595.209229,   0.533123,   17.790113,   37.254635,   558.256592,   -307.368713,   -182.627045,   0.101582,   823.270569,   627.576111
-0.251891,   0.300257,   0.331207,   -345.499420,   594.945679,   0.533121,   17.790113,   36.591747,   558.833191,   -309.386932,   -180.714447,   0.100916,   823.943970,   626.800598
-0.252678,   0.301065,   0.332112,   -346.459137,   594.449036,   0.533123,   17.790113,   35.928864,   558.924500,   -310.934601,   -179.341400,   0.100291,   824.230530,   625.804443
-0.252934,   0.301256,   0.332339,   -347.184357,   593.876160,   0.533120,   17.790113,   35.265976,   558.725098,   -312.033264,   -178.448044,   0.099763,   824.263550,   624.795471
-0.252861,   0.301077,   0.332157,   -347.703186,   593.316895,   0.533123,   17.790113,   34.603092,   558.380859,   -312.767181,   -177.918411,   0.099340,   824.148438,   623.879944
-0.252609,   0.300706,   0.331758,   -348.071442,   592.799255,   0.533123,   17.790113,   33.940201,   557.985413,   -313.257599,   -177.604431,   0.099005,   823.954590,   623.073975
-0.252268,   0.300252,   0.331258,   -348.341949,   592.319275,   0.533120,   17.790113,   33.277317,   557.592712,   -313.615387,   -177.369629,   0.098730,   823.719543,   622.352905
-0.251883,   0.299764,   0.330715,   -348.541901,   591.870056,   0.533123,   17.790113,   32.614429,   557.233337,   -313.905182,   -177.124451,   0.098499,   823.458008,   621.698059
-0.251469,   0.299263,   0.330147,   -348.672729,   591.454712,   0.533122,   17.790113,   31.951544,   556.926147,   -314.144165,   -176.830505,   0.098311,   823.174011,   621.113159
-0.251030,   0.298751,   0.329558,   -348.722870,   591.082947,   0.533121,   17.790113,   31.288658,   556.682983,   -314.322937,   -176.482040,   0.098177,   822.867432,   620.615906
-0.250565,   0.298225,   0.328946,   -348.680481,   590.763794,   0.533122,   17.790113,   30.625772,   556.510376,   -314.427063,   -176.084885,   0.098104,   822.537415,   620.222900
-0.250074,   0.297686,   0.328311,   -348.539856,   590.501770,   0.533122,   17.790113,   29.962887,   556.410400,   -314.448486,   -175.644547,   0.098097,   822.183533,   619.942200
-0.249556,   0.297132,   0.327652,   -348.303070,   590.295715,   0.533122,   17.790113,   29.300001,   556.381470,   -314.388824,   -175.161942,   0.098155,   821.806519,   619.771606
-0.249015,   0.296567,   0.326973,   -347.980011,   590.138916,   0.533122,   17.790113,   28.637114,   556.418762,   -314.259857,   -174.632401,   0.098270,   821.407654,   619.698608
-0.248454,   0.295996,   0.326279,   -347.588501,   590.018860,   0.533122,   17.790113,   27.974228,   556.513916,   -314.083557,   -174.045670,   0.098430,   820.989502,   619.699524
-0.247879,   0.295423,   0.325576,   -347.153778,   589.916931,   0.533123,   17.790113,   27.311340,   556.654236,   -313.891083,   -173.387100,   0.098618,   820.554443,   619.740295
-0.247291,   0.294853,   0.324867,   -346.704346,   589.811584,   0.533122,   17.790113,   26.648455,   556.822815,   -313.715576,   -172.644836,   0.098811,   820.104736,   619.782043
-0.246688,   0.294279,   0.324148,   -346.257446,   589.688660,   0.533121,   17.790113,   25.985569,   557.000366,   -313.569153,   -171.831146,   0.098999,   819.640747,   619.799561
-0.246047,   0.293675,   0.323388,   -345.793121,   589.559143,   0.533122,   17.790113,   25.322683,   557.168823,   -313.402771,   -171.018250,   0.099194,   819.157104,   619.815002
-0.245307,   0.292970,   0.322511,   -345.230927,   589.468262,   0.533121,   17.790113,   24.659798,   557.309998,   -313.072693,   -170.364685,   0.099449,   818.632935,   619.917053
-0.244350,   0.292024,   0.321366,   -344.439362,   589.472046,   0.533122,   17.790113,   23.996910,   557.391174,   -312.358490,   -170.092636,   0.099848,   818.017822,   620.227661
-0.242992,   0.290620,   0.319717,   -343.287201,   589.581665,   0.533121,   17.790113,   23.334024,   557.335876,   -311.041412,   -170.415054,   0.100460,   817.219971,   620.807861
-0.240997,   0.288476,   0.317256,   -341.702057,   589.715210,   0.533122,   17.790113,   22.671139,   557.000977,   -308.987793,   -171.465469,   0.101299,   816.107361,   621.575195
-0.238111,   0.285278,   0.313642,   -339.690277,   589.697144,   0.533123,   17.790113,   22.008251,   556.179626,   -306.172760,   -173.283951,   0.102312,   814.522278,   622.296448
-0.234094,   0.280721,   0.308544,   -337.308319,   589.302063,   0.533122,   17.790113,   21.345366,   554.631775,   -302.638031,   -175.851730,   0.103408,   812.299377,   622.660034
-0.228740,   0.274534,   0.301671,   -334.613312,   588.309143,   0.533122,   17.790113,   20.682480,   552.119446,   -298.423615,   -179.138428,   0.104495,   809.277283,   622.364624
-0.221886,   0.266497,   0.292785,   -331.620331,   586.537903,   0.533122,   17.790113,   20.019594,   548.430542,   -293.513000,   -183.129440,   0.105517,   805.299072,   621.179626
-0.213404,   0.256444,   0.281706,   -328.282684,   583.856750,   0.533121,   17.790113,   19.356709,   543.385254,   -287.811188,   -187.823639,   0.106462,   800.205200,   618.959595
-0.203197,   0.244252,   0.268296,   -324.479584,   580.183716,   0.533122,   17.790113,   18.693821,   536.835083,   -281.130920,   -193.227402,   0.107372,   793.824890,   615.645386
-0.191198,   0.229853,   0.252471,   -319.992981,   575.462708,   0.533121,   17.790113,   18.030935,   528.639404,   -273.169678,   -199.338348,   0.108350,   785.936951,   611.239685
-0.177380,   0.213243,   0.234210,   -314.444946,   569.754639,   0.533123,   17.790113,   17.368050,   518.734741,   -263.425079,   -206.176437,   0.109626,   776.306885,   605.935181
-0.161786,   0.194520,   0.213599,   -306.872375,   563.576355,   0.533122,   17.790113,   16.705162,   507.311584,   -250.607590,   -214.032455,   0.111900,   764.679688,   600.645325
-0.144561,   0.173965,   0.190923,   -293.609528,   559.864685,   0.533122,   17.790113,   16.042276,   495.692047,   -229.436859,   -225.059052,   0.118174,   751.023682,   599.841431
-0.126095,   0.152397,   0.167086,   -259.203094,   572.276917,   0.533122,   17.790113,   15.379390,   489.228851,   -176.155014,   -249.310715,   0.141617,   736.901001,   621.158508
-0.107216,   0.131846,   0.144554,   -173.241776,   625.529053,   0.533122,   17.790113,   14.716504,   491.879730,   -39.592449,   -298.149353,   0.207153,   727.782288,   679.025208
-0.089276,   0.115430,   0.127445,   -78.040955,   680.253235,   0.533122,   17.790113,   14.053617,   486.307037,   115.905243,   -330.837036,   0.277860,   722.442017,   712.866272
-0.073940,   0.105418,   0.117865,   -42.046871,   694.872620,   0.533122,   17.790113,   13.390732,   474.933929,   177.891846,   -337.200378,   0.303574,   716.821594,   714.039062
-0.062577,   0.102583,   0.115064,   -26.550917,   702.866699,   0.533122,   17.790113,   12.727845,   466.465668,   209.850143,   -341.393677,   0.314634,   716.511230,   715.403198
-0.056074,   0.107346,   0.118598,   -12.939521,   716.307068,   0.533122,   17.790113,   12.064960,   463.281372,   240.086182,   -347.125519,   0.324343,   722.863708,   722.603027
-0.054930,   0.119702,   0.129090,   -3.271409,   734.804321,   0.533122,   17.790113,   11.402073,   463.685364,   267.847565,   -355.810120,   0.331110,   736.445496,   736.429138
-0.058428,   0.138608,   0.148795,   0.000000,   760.971497,   0.533122,   17.790113,   10.739187,   470.486694,   296.717773,   -367.231049,   0.337437,   757.874207,   757.816528
-0.066644,   0.163211,   0.176542,   0.000000,   789.894409,   0.533122,   17.790113,   10.076301,   484.863342,   318.790039,   -379.079742,   0.342080,   783.105530,   782.833496
-0.038443,   0.089829,   0.096880,   0.000000,   709.151123,   0.532940,   18.796381,   48.480339,   382.358612,   328.398834,   -352.742096,   0.334467,   708.349304,   708.345215
-0.033674,   0.072887,   0.078967,   -4.271714,   678.014099,   0.532942,   18.796381,   47.818947,   382.770203,   290.972198,   -338.041077,   0.330188,   680.160034,   680.129822
-0.037041,   0.065602,   0.074672,   -18.961615,   660.402222,   0.532942,   18.796381,   47.157555,   394.648926,   246.791702,   -331.539398,   0.319085,   670.084290,   669.480286
-0.049688,   0.070399,   0.080135,   -36.013638,   656.194275,   0.532939,   18.796381,   46.496166,   413.916748,   206.263901,   -330.163635,   0.306297,   674.922119,   672.755188
-0.068606,   0.085421,   0.095085,   -105.006737,   630.644958,   0.532942,   18.796381,   45.834774,   431.979584,   93.658661,   -326.619965,   0.254236,   689.174500,   670.821838
-0.090299,   0.107648,   0.118998,   -227.271667,   560.132507,   0.532942,   18.796381,   45.173382,   443.316284,   -110.455452,   -279.884888,   0.158070,   701.928101,   610.520447
-0.112519,   0.133185,   0.147282,   -286.764954,   533.562439,   0.532939,   18.796381,   44.511990,   455.142487,   -208.345016,   -241.206024,   0.114090,   721.061768,   569.760864
-0.133910,   0.158662,   0.175474,   -303.285919,   541.882324,   0.532942,   18.796381,   43.850601,   474.100952,   -235.504532,   -229.548187,   0.107245,   741.595642,   574.927795
-0.153808,   0.182625,   0.201883,   -312.166199,   553.161011,   0.532940,   18.796381,   43.189209,   491.606201,   -250.611389,   -222.432114,   0.105836,   759.021057,   586.031067
-0.171904,   0.204564,   0.225967,   -318.389404,   563.296326,   0.532942,   18.796381,   42.527821,   506.861786,   -261.954895,   -215.806992,   0.105565,   773.318909,   596.596497
-0.188004,   0.224169,   0.247427,   -323.145782,   571.840027,   0.532940,   18.796381,   41.866428,   519.761597,   -271.067352,   -209.516830,   0.105604,   784.991638,   605.670166
-0.202021,   0.241273,   0.266112,   -326.924622,   578.828430,   0.532940,   18.796381,   41.205036,   530.461121,   -278.557312,   -203.640503,   0.105693,   794.452881,   613.130371
-0.213967,   0.255840,   0.282011,   -330.015442,   584.376587,   0.532942,   18.796381,   40.543648,   539.159180,   -284.798065,   -198.246811,   0.105715,   802.034546,   619.021790
-0.223920,   0.267936,   0.295214,   -332.640625,   588.625732,   0.532940,   18.796381,   39.882256,   546.067627,   -290.082550,   -193.380798,   0.105599,   808.041382,   623.445618
-0.232011,   0.277700,   0.305885,   -334.943298,   591.709595,   0.532940,   18.796381,   39.220863,   551.378662,   -294.612366,   -189.066620,   0.105313,   812.709290,   626.519470
-0.238389,   0.285315,   0.314228,   -337.019104,   593.768066,   0.532942,   18.796381,   38.559475,   555.281128,   -298.532196,   -185.315628,   0.104850,   816.243530,   628.383728
-0.243228,   0.291007,   0.320488,   -338.913300,   594.956665,   0.532939,   18.796381,   37.898083,   557.970398,   -301.927032,   -182.132828,   0.104232,   818.825012,   629.214539
-0.246718,   0.295031,   0.324939,   -340.621216,   595.457153,   0.532942,   18.796381,   37.236691,   559.653992,   -304.818054,   -179.534668,   0.103514,   820.620117,   629.238770
-0.249078,   0.297679,   0.327892,   -342.104004,   595.475891,   0.532942,   18.796381,   36.575302,   560.556274,   -307.184387,   -177.540253,   0.102772,   821.791565,   628.728333
-0.250547,   0.299262,   0.329682,   -343.315399,   595.221619,   0.532940,   18.796381,   35.913910,   560.903931,   -308.997711,   -176.155411,   0.102090,   822.498047,   627.963806
-0.251373,   0.300089,   0.330644,   -344.235931,   594.869385,   0.532940,   18.796381,   35.252518,   560.901611,   -310.268127,   -175.344009,   0.101526,   822.887207,   627.176575
-0.251779,   0.300437,   0.331077,   -344.895874,   594.527039,   0.532942,   18.796381,   34.591129,   560.708374,   -311.077209,   -175.003815,   0.101096,   823.082886,   626.494995
-0.251945,   0.300519,   0.331213,   -345.368164,   594.228760,   0.532940,   18.796381,   33.929737,   560.427734,   -311.567169,   -174.976593,   0.100773,   823.173523,   625.937744
-0.251988,   0.300475,   0.331203,   -345.733063,   593.962585,   0.532940,   18.796381,   33.268345,   560.118591,   -311.889038,   -175.093292,   0.100513,   823.210449,   625.460632
-0.251972,   0.300380,   0.331129,   -346.043091,   593.709351,   0.532940,   18.796381,   32.606956,   559.814148,   -312.147858,   -175.226242,   0.100284,   823.216675,   625.020081
-0.251923,   0.300264,   0.331023,   -346.312439,   593.464783,   0.532942,   18.796381,   31.945564,   559.536804,   -312.384460,   -175.310120,   0.100078,   823.199280,   624.605103
-0.251847,   0.300135,   0.330893,   -346.529541,   593.239197,   0.532940,   18.796381,   31.284174,   559.303589,   -312.593933,   -175.328262,   0.099904,   823.158752,   624.234070
-0.251743,   0.299990,   0.330738,   -346.675354,   593.047119,   0.532941,   18.796381,   30.622782,   559.126709,   -312.754913,   -175.286026,   0.099775,   823.093872,   623.932678
-0.251609,   0.299826,   0.330553,   -346.734558,   592.900024,   0.532941,   18.796381,   29.961391,   559.013672,   -312.848236,   -175.192703,   0.099702,   823.003174,   623.721863
-0.251442,   0.299643,   0.330337,   -346.699554,   592.803406,   0.532940,   18.796381,   29.300001,   558.967712,   -312.863861,   -175.053909,   0.099691,   822.885864,   623.612061
-0.251245,   0.299438,   0.330091,   -346.570770,   592.757080,   0.532941,   18.796381,   28.638609,   558.988525,   -312.802185,   -174.869797,   0.099742,   822.742126,   623.602539
-0.251018,   0.299216,   0.329816,   -346.356750,   592.755127,   0.532941,   18.796381,   27.977219,   559.072388,   -312.673981,   -174.634903,   0.099849,   822.572998,   623.682312
-0.250764,   0.298981,   0.329518,   -346.074127,   592.785583,   0.532941,   18.796381,   27.315826,   559.211731,   -312.500275,   -174.338593,   0.099999,   822.380554,   623.829773
-0.250489,   0.298736,   0.329201,   -345.745819,   592.831238,   0.532940,   18.796381,   26.654436,   559.394348,   -312.308929,   -173.968628,   0.100177,   822.166626,   624.013611
-0.250190,   0.298481,   0.328864,   -345.393311,   592.875488,   0.532940,   18.796381,   25.993046,   559.603943,   -312.121796,   -173.524170,   0.100366,   821.932556,   624.204468
-0.249856,   0.298201,   0.328492,   -345.018280,   592.914246,   0.532942,   18.796381,   25.331656,   559.821472,   -311.925507,   -173.042389,   0.100565,   821.675842,   624.396423
-0.249447,   0.297848,   0.328033,   -344.580017,   592.968323,   0.532940,   18.796381,   24.670263,   560.025330,   -311.637054,   -172.627884,   0.100801,   821.384094,   624.631042
-0.248874,   0.297319,   0.327374,   -343.989197,   593.075073,   0.532941,   18.796381,   24.008873,   560.182739,   -311.096863,   -172.453873,   0.101128,   821.022583,   624.989136
-0.247987,   0.296437,   0.326324,   -343.135681,   593.251892,   0.532941,   18.796381,   23.347481,   560.229553,   -310.113312,   -172.717255,   0.101609,   820.521667,   625.532288
-0.246580,   0.294952,   0.324611,   -341.937897,   593.448730,   0.532940,   18.796381,   22.686090,   560.047485,   -308.536652,   -173.572601,   0.102269,   819.771667,   626.223816
-0.244407,   0.292564,   0.321910,   -340.375305,   593.529724,   0.532941,   18.796381,   22.024700,   559.458191,   -306.303772,   -175.096283,   0.103080,   818.630432,   626.894470
-0.241221,   0.288960,   0.317883,   -338.481323,   593.296326,   0.532940,   18.796381,   21.363308,   558.241699,   -303.426727,   -177.297119,   0.103971,   816.939331,   627.277039
-0.236795,   0.283845,   0.312209,   -336.307007,   592.531921,   0.532942,   18.796381,   20.701918,   556.166077,   -299.941193,   -180.154144,   0.104855,   814.536133,   627.079102
-0.230935,   0.276957,   0.304611,   -333.882446,   591.039368,   0.532940,   18.796381,   20.040525,   553.011536,   -295.854614,   -183.648209,   0.105662,   811.260010,   626.044006
-0.223481,   0.268085,   0.294858,   -331.193420,   588.656921,   0.532940,   18.796381,   19.379135,   548.580994,   -291.117462,   -187.770599,   0.106353,   806.948181,   623.976990
-0.214297,   0.257053,   0.282761,   -328.170593,   585.252991,   0.532941,   18.796381,   18.717745,   542.690979,   -285.608612,   -192.524277,   0.106927,   801.423584,   620.740295
-0.203275,   0.243738,   0.268175,   -324.690704,   580.720764,   0.532941,   18.796381,   18.056355,   535.171509,   -279.141449,   -197.904221,   0.107419,   794.490601,   616.244690
-0.190338,   0.228067,   0.251008,   -320.554993,   574.949646,   0.532941,   18.796381,   17.394962,   525.834045,   -271.439362,   -203.889481,   0.107901,   785.891602,   610.419189
-0.175466,   0.210052,   0.231251,   -315.467834,   567.890564,   0.532940,   18.796381,   16.733572,   514.529602,   -262.106873,   -210.450592,   0.108520,   775.352051,   603.298523
-0.158713,   0.189809,   0.209007,   -308.816406,   559.692139,   0.532941,   18.796381,   16.072182,   501.219482,   -250.343750,   -217.634872,   0.109667,   762.538513,   595.257324
-0.140240,   0.167614,   0.184546,   -298.579559,   551.714600,   0.532941,   18.796381,   15.410790,   486.422333,   -233.287308,   -226.394653,   0.112930,   747.174316,   588.547852
-0.120387,   0.144100,   0.158557,   -274.800049,   552.780823,   0.532941,   18.796381,   14.749399,   473.199371,   -195.218613,   -243.981262,   0.126922,   730.058777,   595.803589
-0.099891,   0.121023,   0.133126,   -199.961975,   595.370667,   0.532941,   18.796381,   14.088008,   469.919159,   -74.510468,   -289.892395,   0.183930,   716.590942,   649.233337
-0.080118,   0.101713,   0.112671,   -88.974655,   659.786865,   0.532940,   18.796381,   13.426618,   462.394531,   108.417664,   -329.903076,   0.268563,   708.476868,   695.740662
-0.062984,   0.089192,   0.100464,   -38.953815,   679.068237,   0.532940,   18.796381,   12.765226,   448.451080,   191.663361,   -335.266968,   0.305096,   699.359253,   696.912170
-0.050691,   0.085045,   0.096193,   -23.434635,   685.116089,   0.532941,   18.796381,   12.103836,   435.108795,   226.572647,   -338.584106,   0.316384,   697.128845,   696.241760
-0.044783,   0.090221,   0.099579,   -8.149361,   700.277283,   0.532940,   18.796381,   11.442445,   428.383545,   263.744354,   -344.514954,   0.327532,   704.387329,   704.281189
-0.045626,   0.104315,   0.112091,   -0.092310,   722.453064,   0.532941,   18.796381,   10.781054,   425.926849,   296.433929,   -355.423492,   0.333269,   722.499268,   722.499207
-0.052221,   0.125455,   0.135779,   0.000000,   753.831665,   0.532941,   18.796381,   10.119662,   434.369934,   326.923187,   -369.297882,   0.338294,   750.128784,   750.045349
-0.052221,   0.125455,   0.135779,   0.000000,   753.831482,   0.532941,   19.803617,   48.480339,   434.370056,   326.922607,   -369.297852,   0.338294,   750.128723,   750.045227
-0.045626,   0.104315,   0.112091,   -0.092487,   722.452942,   0.532943,   19.803617,   47.818947,   425.926666,   296.433807,   -355.423523,   0.333269,   722.499207,   722.499207
-0.044783,   0.090221,   0.099579,   -8.149128,   700.277405,   0.532943,   19.803617,   47.157555,   428.383514,   263.744751,   -344.514954,   0.327532,   704.387329,   704.281250
-0.050691,   0.085045,   0.096193,   -23.434841,   685.115906,   0.532940,   19.803617,   46.496166,   435.108917,   226.572174,   -338.584045,   0.316384,   697.128845,   696.241760
-0.062984,   0.089192,   0.100464,   -38.953629,   679.068359,   0.532943,   19.803617,   45.834774,   448.450928,   191.663834,   -335.267059,   0.305096,   699.359314,   696.912231
-0.080118,   0.101713,   0.112671,   -88.974945,   659.786621,   0.532943,   19.803617,   45.173382,   462.394623,   108.417053,   -329.902924,   0.268563,   708.476807,   695.740601
-0.099891,   0.121023,   0.133126,   -199.961945,   595.370728,   0.532940,   19.803617,   44.511990,   469.919189,   -74.510429,   -289.892395,   0.183930,   716.590942,   649.233337
-0.120387,   0.144100,   0.158557,   -274.800140,   552.780701,   0.532943,   19.803617,   43.850601,   473.199310,   -195.218719,   -243.981247,   0.126922,   730.058777,   595.803528
-0.140240,   0.167614,   0.184546,   -298.579590,   551.714478,   0.532941,   19.803617,   43.189209,   486.422241,   -233.287354,   -226.394638,   0.112930,   747.174194,   588.547668
-0.158713,   0.189809,   0.209007,   -308.816345,   559.692139,   0.532943,   19.803617,   42.527821,   501.219543,   -250.343735,   -217.634827,   0.109667,   762.538452,   595.257385
-0.175466,   0.210052,   0.231251,   -315.467590,   567.890747,   0.532941,   19.803617,   41.866428,   514.529785,   -262.106598,   -210.450653,   0.108520,   775.352112,   603.298828
-0.190338,   0.228067,   0.251008,   -320.555206,   574.949463,   0.532941,   19.803617,   41.205036,   525.833923,   -271.439636,   -203.889374,   0.107900,   785.891602,   610.418823
-0.203275,   0.243738,   0.268175,   -324.690735,   580.720703,   0.532943,   19.803617,   40.543648,   535.171448,   -279.141510,   -197.904190,   0.107419,   794.490540,   616.244568
-0.214297,   0.257053,   0.282761,   -328.170441,   585.253052,   0.532941,   19.803617,   39.882256,   542.691040,   -285.608398,   -192.524368,   0.106928,   801.423523,   620.740479
-0.223481,   0.268085,   0.294858,   -331.193481,   588.656860,   0.532941,   19.803617,   39.220863,   548.580933,   -291.117554,   -187.770554,   0.106353,   806.948181,   623.976807
-0.230935,   0.276957,   0.304611,   -333.882416,   591.039368,   0.532943,   19.803617,   38.559475,   553.011536,   -295.854584,   -183.648193,   0.105662,   811.259888,   626.043945
-0.236795,   0.283845,   0.312209,   -336.306946,   592.531982,   0.532940,   19.803617,   37.898083,   556.166138,   -299.941132,   -180.154160,   0.104855,   814.536133,   627.079285
-0.241221,   0.288960,   0.317883,   -338.481293,   593.296326,   0.532943,   19.803617,   37.236691,   558.241760,   -303.426697,   -177.297073,   0.103971,   816.939270,   627.277100
-0.244407,   0.292564,   0.321910,   -340.375275,   593.529785,   0.532943,   19.803617,   36.575302,   559.458252,   -306.303772,   -175.096207,   0.103080,   818.630432,   626.894470
-0.246580,   0.294951,   0.324611,   -341.937897,   593.448730,   0.532941,   19.803617,   35.913910,   560.047485,   -308.536652,   -173.572601,   0.102269,   819.771667,   626.223816
-0.247987,   0.296437,   0.326324,   -343.135651,   593.251892,   0.532941,   19.803617,   35.252518,   560.229553,   -310.113312,   -172.717224,   0.101609,   820.521667,   625.532288
-0.248874,   0.297319,   0.327374,   -343.989166,   593.075073,   0.532943,   19.803617,   34.591129,   560.182739,   -311.096832,   -172.453857,   0.101128,   821.022522,   624.989197
-0.249447,   0.297848,   0.328033,   -344.580017,   592.968262,   0.532941,   19.803617,   33.929737,   560.025269,   -311.637054,   -172.627869,   0.100801,   821.384033,   624.630859
-0.249856,   0.298201,   0.328492,   -345.018250,   592.914246,   0.532941,   19.803617,   33.268345,   559.821472,   -311.925476,   -173.042358,   0.100565,   821.675781,   624.396423
-0.250190,   0.298481,   0.328864,   -345.393311,   592.875488,   0.532941,   19.803617,   32.606956,   559.603943,   -312.121796,   -173.524155,   0.100366,   821.932495,   624.204468
-0.250489,   0.298736,   0.329201,   -345.745819,   592.831238,   0.532943,   19.803617,   31.945564,   559.394348,   -312.308929,   -173.968597,   0.100177,   822.166626,   624.013611
-0.250764,   0.298981,   0.329518,   -346.074097,   592.785583,   0.532941,   19.803617,   31.284174,   559.211731,   -312.500244,   -174.338577,   0.099999,   822.380554,   623.829834
-0.251018,   0.299216,   0.329816,   -346.356720,   592.755127,   0.532942,   19.803617,   30.622782,   559.072388,   -312.673981,   -174.634888,   0.099849,   822.572998,   623.682312
-0.251245,   0.299438,   0.330091,   -346.570740,   592.757080,   0.532942,   19.803617,   29.961391,   558.988525,   -312.802185,   -174.869781,   0.099742,   822.742065,   623.602539
-0.251442,   0.299643,   0.330337,   -346.699554,   592.803406,   0.532941,   19.803617,   29.300001,   558.967712,   -312.863861,   -175.053894,   0.099691,   822.885864,   623.612061
-0.251609,   0.299826,   0.330553,   -346.734558,   592.900024,   0.532942,   19.803617,   28.638609,   559.013672,   -312.848236,   -175.192688,   0.099702,   823.003174,   623.721863
-0.251743,   0.299990,   0.330738,   -346.675323,   593.047180,   0.532942,   19.803617,   27.977219,   559.126770,   -312.754913,   -175.286011,   0.099775,   823.093933,   623.932678
-0.251847,   0.300135,   0.330893,   -346.529541,   593.239197,   0.532942,   19.803617,   27.315826,   559.303589,   -312.593933,   -175.328247,   0.099904,   823.158752,   624.234070
-0.251923,   0.300264,   0.331023,   -346.312439,   593.464783,   0.532941,   19.803617,   26.654436,   559.536804,   -312.384460,   -175.310120,   0.100078,   823.199280,   624.605103
-0.251972,   0.300380,   0.331129,   -346.043091,   593.709351,   0.532941,   19.803617,   25.993046,   559.814148,   -312.147858,   -175.226227,   0.100284,   823.216675,   625.020081
-0.251988,   0.300475,   0.331203,   -345.733032,   593.962585,   0.532943,   19.803617,   25.331656,   560.118591,   -311.889008,   -175.093277,   0.100513,   823.210388,   625.460693
-0.251945,   0.300519,   0.331213,   -345.368134,   594.228760,   0.532941,   19.803617,   24.670263,   560.427795,   -311.567139,   -174.976578,   0.100773,   823.173523,   625.937866
-0.251779,   0.300437,   0.331077,   -344.895844,   594.527039,   0.532942,   19.803617,   24.008873,   560.708374,   -311.077179,   -175.003799,   0.101096,   823.082886,   626.495056
-0.251373,   0.300089,   0.330644,   -344.235870,   594.869385,   0.532942,   19.803617,   23.347481,   560.901611,   -310.268097,   -175.343994,   0.101526,   822.887207,   627.176575
-0.250547,   0.299262,   0.329682,   -343.315399,   595.221619,   0.532941,   19.803617,   22.686090,   560.903931,   -308.997711,   -176.155380,   0.102090,   822.498047,   627.963806
-0.249078,   0.297679,   0.327892,   -342.103973,   595.475891,   0.532942,   19.803617,   22.024700,   560.556274,   -307.184357,   -177.540253,   0.102772,   821.791565,   628.728394
-0.246718,   0.295031,   0.324939,   -340.621216,   595.457153,   0.532941,   19.803617,   21.363308,   559.653992,   -304.818054,   -179.534668,   0.103514,   820.620117,   629.238770
-0.243227,   0.291007,   0.320488,   -338.913300,   594.956665,   0.532943,   19.803617,   20.701918,   557.970398,   -301.927032,   -182.132828,   0.104232,   818.825012,   629.214539
-0.238389,   0.285315,   0.314228,   -337.019196,   593.767944,   0.532941,   19.803617,   20.040525,   555.281067,   -298.532318,   -185.315567,   0.104850,   816.243530,   628.383545
-0.232011,   0.277700,   0.305885,   -334.943359,   591.709534,   0.532941,   19.803617,   19.379135,   551.378601,   -294.612457,   -189.066589,   0.105313,   812.709290,   626.519409
-0.223920,   0.267936,   0.295214,   -332.640533,   588.625793,   0.532942,   19.803617,   18.717745,   546.067688,   -290.082458,   -193.380798,   0.105599,   808.041382,   623.445862
-0.213967,   0.255840,   0.282011,   -330.015442,   584.376587,   0.532942,   19.803617,   18.056355,   539.159180,   -284.798065,   -198.246811,   0.105715,   802.034546,   619.021790
-0.202021,   0.241273,   0.266112,   -326.924591,   578.828491,   0.532942,   19.803617,   17.394962,   530.461121,   -278.557251,   -203.640564,   0.105693,   794.452881,   613.130310
-0.188004,   0.224169,   0.247427,   -323.145538,   571.840271,   0.532941,   19.803617,   16.733572,   519.761780,   -271.067047,   -209.516922,   0.105604,   784.991699,   605.670471
-0.171904,   0.204564,   0.225967,   -318.389587,   563.296204,   0.532942,   19.803617,   16.072182,   506.861694,   -261.955078,   -215.806946,   0.105565,   773.318970,   596.596252
-0.153808,   0.182625,   0.201883,   -312.166382,   553.160828,   0.532942,   19.803617,   15.410790,   491.606018,   -250.611572,   -222.432129,   0.105836,   759.021057,   586.030762
-0.133910,   0.158662,   0.175474,   -303.286255,   541.882080,   0.532942,   19.803617,   14.749399,   474.100769,   -235.504929,   -229.548065,   0.107244,   741.595642,   574.927368
-0.112519,   0.133185,   0.147282,   -286.764771,   533.562561,   0.532942,   19.803617,   14.088008,   455.142548,   -208.344742,   -241.206116,   0.114090,   721.061707,   569.761108
-0.090299,   0.107648,   0.118998,   -227.271362,   560.132751,   0.532942,   19.803617,   13.426618,   443.316345,   -110.454941,   -279.885071,   0.158070,   701.928162,   610.520752
-0.068606,   0.085421,   0.095085,   -105.006721,   630.645020,   0.532942,   19.803617,   12.765226,   431.979675,   93.658615,   -326.619934,   0.254236,   689.174500,   670.821838
-0.049688,   0.070400,   0.080135,   -36.013737,   656.194214,   0.532942,   19.803617,   12.103836,   413.916809,   206.263672,   -330.163605,   0.306297,   674.922119,   672.755188
-0.037041,   0.065602,   0.074672,   -18.961374,   660.402405,   0.532942,   19.803617,   11.442445,   394.649017,   246.792038,   -331.539398,   0.319085,   670.084351,   669.480347
-0.033674,   0.072887,   0.078967,   -4.271609,   678.014221,   0.532942,   19.803617,   10.781054,   382.770325,   290.972290,   -338.041077,   0.330188,   680.160095,   680.129883
-0.038443,   0.089829,   0.096880,   0.000000,   709.151184,   0.532942,   19.803617,   10.119662,   382.358704,   328.398834,   -352.742126,   0.334467,   708.349365,   708.345215
-0.066644,   0.163211,   0.176542,   0.000000,   789.894531,   0.533120,   20.809887,   48.523701,   484.863678,   318.790039,   -379.079651,   0.342080,   783.105530,   782.833557
-0.058428,   0.138608,   0.148795,   0.000000,   760.971741,   0.533122,   20.809887,   47.860813,   470.486603,   296.718445,   -367.231079,   0.337437,   757.874268,   757.816528
-0.054930,   0.119702,   0.129090,   -3.271083,   734.804565,   0.533120,   20.809887,   47.197926,   463.685333,   267.848145,   -355.810150,   0.331110,   736.445557,   736.429199
-0.056074,   0.107346,   0.118598,   -12.940000,   716.306763,   0.533120,   20.809887,   46.535042,   463.281433,   240.085327,   -347.125458,   0.324343,   722.863647,   722.602966
-0.062577,   0.102583,   0.115064,   -26.550671,   702.866943,   0.533120,   20.809887,   45.872154,   466.465576,   209.850677,   -341.393768,   0.314634,   716.511292,   715.403198
-0.073940,   0.105418,   0.117865,   -42.046860,   694.872681,   0.533122,   20.809887,   45.209270,   474.934021,   177.891785,   -337.200348,   0.303574,   716.821594,   714.039185
-0.089276,   0.115430,   0.127445,   -78.041389,   680.252930,   0.533120,   20.809887,   44.546383,   486.306793,   115.904778,   -330.837067,   0.277859,   722.441956,   712.866150
-0.107216,   0.131846,   0.144555,   -173.241714,   625.529114,   0.533120,   20.809887,   43.883495,   491.879761,   -39.592327,   -298.149414,   0.207153,   727.782349,   679.025269
-0.126095,   0.152397,   0.167086,   -259.203156,   572.276855,   0.533122,   20.809887,   43.220608,   489.228790,   -176.155060,   -249.310745,   0.141617,   736.901001,   621.158447
-0.144561,   0.173965,   0.190923,   -293.609680,   559.864624,   0.533120,   20.809887,   42.557724,   495.692047,   -229.437103,   -225.058945,   0.118174,   751.023743,   599.841370
-0.161786,   0.194520,   0.213599,   -306.872375,   563.576416,   0.533120,   20.809887,   41.894836,   507.311584,   -250.607529,   -214.032532,   0.111900,   764.679688,   600.645386
-0.177380,   0.213243,   0.234210,   -314.444855,   569.754700,   0.533120,   20.809887,   41.231953,   518.734802,   -263.424957,   -206.176468,   0.109626,   776.306885,   605.935303
-0.191198,   0.229853,   0.252471,   -319.993164,   575.462524,   0.533122,   20.809887,   40.569065,   528.639282,   -273.169922,   -199.338211,   0.108350,   785.936890,   611.239319
-0.203197,   0.244252,   0.268296,   -324.479614,   580.183655,   0.533120,   20.809887,   39.906178,   536.834961,   -281.130890,   -193.227554,   0.107372,   793.824890,   615.645386
-0.213404,   0.256444,   0.281706,   -328.282654,   583.856812,   0.533120,   20.809887,   39.243294,   543.385315,   -287.811157,   -187.823593,   0.106462,   800.205139,   618.959656
-0.221886,   0.266498,   0.292785,   -331.620361,   586.537842,   0.533122,   20.809887,   38.580406,   548.430542,   -293.513031,   -183.129425,   0.105517,   805.299072,   621.179565
-0.228740,   0.274534,   0.301671,   -334.613251,   588.309204,   0.533119,   20.809887,   37.917519,   552.119446,   -298.423523,   -179.138550,   0.104495,   809.277283,   622.364746
-0.234094,   0.280721,   0.308544,   -337.308411,   589.302002,   0.533122,   20.809887,   37.254635,   554.631714,   -302.638123,   -175.851669,   0.103408,   812.299438,   622.659912
-0.238111,   0.285278,   0.313642,   -339.690247,   589.697144,   0.533120,   20.809887,   36.591747,   556.179626,   -306.172729,   -173.283936,   0.102312,   814.522217,   622.296509
-0.240997,   0.288476,   0.317256,   -341.702026,   589.715271,   0.533122,   20.809887,   35.928864,   557.000977,   -308.987732,   -171.465530,   0.101299,   816.107361,   621.575195
-0.242992,   0.290620,   0.319717,   -343.287201,   589.581665,   0.533119,   20.809887,   35.265976,   557.335876,   -311.041412,   -170.415070,   0.100460,   817.219971,   620.807922
-0.244350,   0.292024,   0.321366,   -344.439362,   589.472046,   0.533122,   20.809887,   34.603092,   557.391174,   -312.358490,   -170.092651,   0.099848,   818.017822,   620.227661
-0.245307,   0.292970,   0.322511,   -345.230927,   589.468262,   0.533122,   20.809887,   33.940201,   557.309998,   -313.072693,   -170.364685,   0.099449,   818.632935,   619.917053
-0.246047,   0.293675,   0.323388,   -345.793152,   589.559082,   0.533119,   20.809887,   33.277317,   557.168762,   -313.402802,   -171.018265,   0.099194,   819.157104,   619.814941
-0.246688,   0.294279,   0.324148,   -346.257446,   589.688660,   0.533122,   20.809887,   32.614429,   557.000366,   -313.569183,   -171.831146,   0.098999,   819.640747,   619.799438
-0.247291,   0.294853,   0.324867,   -346.704315,   589.811584,   0.533121,   20.809887,   31.951544,   556.822815,   -313.715576,   -172.644821,   0.098811,   820.104736,   619.782043
-0.247879,   0.295423,   0.325576,   -347.153778,   589.916931,   0.533120,   20.809887,   31.288658,   556.654236,   -313.891083,   -173.387115,   0.098618,   820.554443,   619.740356
-0.248454,   0.295996,   0.326279,   -347.588501,   590.018860,   0.533120,   20.809887,   30.625772,   556.513916,   -314.083557,   -174.045685,   0.098430,   820.989563,   619.699524
-0.249015,   0.296567,   0.326973,   -347.980042,   590.138916,   0.533121,   20.809887,   29.962887,   556.418762,   -314.259857,   -174.632416,   0.098270,   821.407715,   619.698608
-0.249556,   0.297132,   0.327652,   -348.303070,   590.295715,   0.533120,   20.809887,   29.300001,   556.381470,   -314.388824,   -175.161942,   0.098155,   821.806519,   619.771606
-0.250074,   0.297686,   0.328311,   -348.539856,   590.501770,   0.533121,   20.809887,   28.637114,   556.410400,   -314.448486,   -175.644547,   0.098097,   822.183533,   619.942200
-0.250565,   0.298225,   0.328946,   -348.680481,   590.763794,   0.533120,   20.809887,   27.974228,   556.510376,   -314.427063,   -176.084900,   0.098104,   822.537415,   620.222900
-0.251030,   0.298751,   0.329558,   -348.722870,   591.082947,   0.533122,   20.809887,   27.311340,   556.682983,   -314.322937,   -176.482040,   0.098177,   822.867432,   620.615906
-0.251469,   0.299263,   0.330147,   -348.672729,   591.454712,   0.533120,   20.809887,   26.648455,   556.926147,   -314.144165,   -176.830521,   0.098311,   823.174011,   621.113159
-0.251883,   0.299764,   0.330715,   -348.541901,   591.870056,   0.533120,   20.809887,   25.985569,   557.233337,   -313.905182,   -177.124466,   0.098499,   823.458008,   621.698059
-0.252268,   0.300252,   0.331258,   -348.341949,   592.319275,   0.533121,   20.809887,   25.322683,   557.592712,   -313.615387,   -177.369629,   0.098730,   823.719543,   622.352905
-0.252609,   0.300706,   0.331758,   -348.071472,   592.799255,   0.533120,   20.809887,   24.659798,   557.985413,   -313.257599,   -177.604462,   0.099005,   823.954651,   623.073975
-0.252861,   0.301077,   0.332157,   -347.703186,   593.316895,   0.533121,   20.809887,   23.996910,   558.380859,   -312.767181,   -177.918427,   0.099340,   824.148438,   623.879944
-0.252934,   0.301256,   0.332339,   -347.184326,   593.876221,   0.533120,   20.809887,   23.334024,   558.725098,   -312.033234,   -178.448074,   0.099763,   824.263550,   624.795532
-0.252678,   0.301065,   0.332112,   -346.459167,   594.448975,   0.533120,   20.809887,   22.671139,   558.924438,   -310.934601,   -179.341431,   0.100291,   824.230469,   625.804443
-0.251891,   0.300257,   0.331207,   -345.499420,   594.945679,   0.533122,   20.809887,   22.008251,   558.833191,   -309.386902,   -180.714478,   0.100916,   823.943970,   626.800537
-0.250338,   0.298537,   0.329307,   -344.321381,   595.209167,   0.533120,   20.809887,   21.345366,   558.256531,   -307.368713,   -182.627090,   0.101582,   823.270569,   627.576111
-0.247775,   0.295590,   0.326072,   -342.973572,   595.036743,   0.533121,   20.809887,   20.682480,   556.968323,   -304.905182,   -185.092804,   0.102208,   822.059265,   627.855164
-0.243967,   0.291104,   0.321169,   -341.510437,   594.211792,   0.533120,   20.809887,   20.019594,   554.733154,   -302.031830,   -188.102234,   0.102705,   820.150330,   627.345459
-0.238698,   0.284787,   0.314287,   -339.964417,   592.528748,   0.533120,   20.809887,   19.356709,   551.322266,   -298.757935,   -191.642334,   0.102998,   817.376770,   625.778259
-0.231760,   0.276368,   0.305133,   -338.324890,   589.801880,   0.533121,   20.809887,   18.693821,   546.513977,   -295.036957,   -195.711121,   0.103036,   813.556824,   622.925415
-0.222963,   0.265606,   0.293444,   -336.532471,   585.859680,   0.533120,   20.809887,   18.030935,   540.092896,   -290.765717,   -200.300552,   0.102796,   808.484070,   618.592102
-0.212123,   0.252291,   0.278981,   -334.469727,   580.535034,   0.533122,   20.809887,   17.368050,   531.838623,   -285.773315,   -205.392563,   0.102283,   801.911682,   612.606995
-0.199099,   0.236280,   0.261571,   -331.960205,   573.661377,   0.533120,   20.809887,   16.705162,   521.528381,   -279.827179,   -210.938232,   0.101528,   793.547607,   604.817871
-0.183804,   0.217516,   0.241123,   -328.742126,   565.080078,   0.533121,   20.809887,   16.042276,   508.946472,   -272.608551,   -216.846634,   0.100607,   783.040588,   595.114380
-0.166256,   0.196087,   0.217697,   -324.433960,   554.635193,   0.533121,   20.809887,   15.379390,   493.891693,   -263.690491,   -222.952774,   0.099661,   769.948120,   583.438110
-0.146584,   0.172224,   0.191505,   -318.449860,   542.245422,   0.533121,   20.809887,   14.716504,   476.219330,   -252.423752,   -229.060944,   0.098972,   753.736328,   569.914062
-0.125022,   0.146303,   0.162908,   -309.725616,   527.971252,   0.533121,   20.809887,   14.053617,   455.970490,   -237.724838,   -234.799286,   0.099163,   733.627808,   555.044800
-0.101901,   0.118812,   0.132402,   -296.485657,   512.402588,   0.533121,   20.809887,   13.390732,   432.562500,   -216.645599,   -241.261795,   0.101543,   708.787842,   540.241699
-0.077819,   0.090911,   0.101314,   -252.239944,   519.990051,   0.533121,   20.809887,   12.727845,   411.031708,   -143.281616,   -268.828888,   0.130858,   682.038757,   561.709473
-0.054036,   0.065833,   0.073859,   -124.606369,   589.650879,   0.533121,   20.809887,   12.064960,   393.093109,   71.951424,   -318.995087,   0.234578,   660.824646,   633.579285
-0.033565,   0.048632,   0.056122,   -34.054211,   619.819214,   0.533121,   20.809887,   11.402073,   366.587158,   219.177841,   -318.520386,   0.306269,   637.528809,   635.477600
-0.023002,   0.045495,   0.050760,   -12.795569,   623.734253,   0.533121,   20.809887,   10.739187,   340.864655,   270.074005,   -316.290558,   0.323130,   630.229431,   629.937073
-0.024878,   0.056783,   0.060525,   0.000000,   654.710327,   0.533121,   20.809887,   10.076301,   333.905823,   325.094299,   -325.180420,   0.336615,   652.575989,   652.544250
-0.081591,   0.202006,   0.217866,   0.000000,   818.640320,   0.533468,   21.813259,   48.610340,   533.023743,   304.921387,   -383.049133,   0.345191,   809.160645,   808.642273
-0.071947,   0.174620,   0.187235,   0.000000,   792.864563,   0.533468,   21.813259,   47.944466,   514.106323,   290.996704,   -374.031830,   0.341080,   786.816711,   786.602539
-0.066258,   0.152071,   0.162293,   0.000000,   766.447815,   0.533466,   21.813259,   47.278591,   501.825165,   267.367065,   -363.411713,   0.335125,   765.079346,   765.068176
-0.064334,   0.134765,   0.145495,   -6.262083,   745.195923,   0.533468,   21.813259,   46.612720,   494.378021,   244.555832,   -354.357880,   0.329141,   748.346619,   748.287720
-0.066367,   0.123209,   0.135576,   -16.614573,   728.484375,   0.533466,   21.813259,   45.946846,   491.356567,   220.513260,   -347.064972,   0.321997,   736.932190,   736.510620
-0.072624,   0.118061,   0.131416,   -28.956240,   715.820862,   0.533468,   21.813259,   45.280972,   492.058380,   194.806244,   -341.443298,   0.313324,   730.729370,   729.436890
-0.082860,   0.119404,   0.132713,   -44.182266,   706.507263,   0.533468,   21.813259,   44.615097,   496.823761,   165.501221,   -336.808594,   0.302596,   729.602356,   726.583435
-0.096517,   0.127048,   0.139895,   -70.857758,   694.672852,   0.533466,   21.813259,   43.949223,   506.034302,   117.780785,   -329.884949,   0.283807,   732.676025,   724.907227
-0.112741,   0.140681,   0.153876,   -148.788254,   650.458557,   0.533468,   21.813259,   43.283348,   510.641327,   -8.971028,   -303.643890,   0.227139,   736.216614,   701.182129
-0.130095,   0.158690,   0.173499,   -239.786270,   592.552124,   0.533466,   21.813259,   42.617477,   504.658325,   -151.892487,   -255.796890,   0.158455,   742.092529,   645.893738
-0.147286,   0.178311,   0.195196,   -286.571991,   568.149536,   0.533468,   21.813259,   41.951603,   504.106476,   -222.528931,   -225.027710,   0.124567,   753.480652,   611.472534
-0.163401,   0.197312,   0.216197,   -304.791107,   566.297791,   0.533466,   21.813259,   41.285728,   511.804047,   -250.297363,   -210.948639,   0.113852,   765.632629,   604.593079
-0.177992,   0.214664,   0.235347,   -313.975494,   570.113098,   0.533468,   21.813259,   40.619858,   521.180725,   -265.043091,   -202.153900,   0.109985,   776.280334,   606.525940
-0.190894,   0.230017,   0.252280,   -320.213379,   574.461853,   0.533469,   21.813259,   39.953979,   529.718018,   -275.469543,   -195.010773,   0.107938,   785.170959,   609.924072
-0.202069,   0.243270,   0.266903,   -325.138184,   578.192749,   0.533466,   21.813259,   39.288105,   536.838562,   -283.783997,   -188.802414,   0.106441,   792.473511,   612.941467
-0.211541,   0.254430,   0.279237,   -329.300140,   581.061340,   0.533468,   21.813259,   38.622231,   542.477905,   -290.716736,   -183.401672,   0.105113,   798.382385,   615.112122
-0.219370,   0.263566,   0.289362,   -332.962341,   583.058533,   0.533466,   21.813259,   37.956360,   546.725830,   -296.629639,   -178.777679,   0.103805,   803.092590,   616.338745
-0.225647,   0.270797,   0.297410,   -336.248627,   584.246155,   0.533468,   21.813259,   37.290485,   549.711426,   -301.713928,   -174.918167,   0.102467,   806.758057,   616.654480
-0.230504,   0.276301,   0.303572,   -339.184235,   584.768005,   0.533466,   21.813259,   36.624611,   551.622559,   -306.038818,   -171.831802,   0.101122,   809.532959,   616.230103
-0.234117,   0.280310,   0.308103,   -341.724121,   584.832581,   0.533468,   21.813259,   35.958740,   552.690002,   -309.581573,   -169.554581,   0.099850,   811.576172,   615.347778
-0.236711,   0.283112,   0.311312,   -343.793091,   584.684082,   0.533466,   21.813259,   35.292866,   553.168396,   -312.277405,   -168.131989,   0.098760,   813.055664,   614.353577
-0.238539,   0.285022,   0.313544,   -345.347198,   584.543579,   0.533468,   21.813259,   34.626991,   553.296570,   -314.100189,   -167.570648,   0.097934,   814.141479,   613.557800
-0.239859,   0.286350,   0.315135,   -346.429169,   584.541870,   0.533468,   21.813259,   33.961117,   553.252625,   -315.139923,   -167.780670,   0.097389,   814.987549,   613.121216
-0.240888,   0.287352,   0.316366,   -347.174896,   584.691711,   0.533466,   21.813259,   33.295242,   553.134521,   -315.617737,   -168.556259,   0.097059,   815.711426,   613.012512
-0.241782,   0.288209,   0.317433,   -347.756775,   584.925049,   0.533468,   21.813259,   32.629368,   552.978333,   -315.810059,   -169.633514,   0.096837,   816.384583,   613.076843
-0.242627,   0.289022,   0.318447,   -348.307983,   585.165527,   0.533468,   21.813259,   31.963495,   552.795288,   -315.937775,   -170.789078,   0.096632,   817.040344,   613.161926
-0.243463,   0.289836,   0.319456,   -348.885986,   585.376160,   0.533467,   21.813259,   31.297621,   552.597778,   -316.107605,   -171.898712,   0.096406,   817.689575,   613.197083
-0.244298,   0.290665,   0.320474,   -349.488220,   585.560486,   0.533467,   21.813259,   30.631748,   552.404541,   -316.332275,   -172.925171,   0.096160,   818.333435,   613.187073
-0.245132,   0.291508,   0.321501,   -350.085968,   585.741150,   0.533468,   21.813259,   29.965874,   552.235901,   -316.580688,   -173.875076,   0.095915,   818.970520,   613.173584
-0.245961,   0.292360,   0.322531,   -350.647095,   585.942505,   0.533467,   21.813259,   29.299999,   552.109314,   -316.813904,   -174.765900,   0.095695,   819.598083,   613.200928
-0.246779,   0.293216,   0.323559,   -351.145508,   586.183350,   0.533467,   21.813259,   28.634127,   552.037598,   -316.999756,   -175.612854,   0.095519,   820.213257,   613.304993
-0.247583,   0.294071,   0.324578,   -351.562653,   586.476990,   0.533467,   21.813259,   27.968252,   552.030029,   -317.115692,   -176.425705,   0.095399,   820.813599,   613.511169
-0.248370,   0.294922,   0.325586,   -351.887360,   586.831055,   0.533468,   21.813259,   27.302378,   552.092590,   -317.148895,   -177.208557,   0.095343,   821.397461,   613.834351
-0.249138,   0.295768,   0.326582,   -352.115723,   587.248108,   0.533467,   21.813259,   26.636505,   552.228271,   -317.095917,   -177.960556,   0.095354,   821.964172,   614.279785
-0.249888,   0.296612,   0.327567,   -352.250519,   587.726074,   0.533467,   21.813259,   25.970631,   552.436707,   -316.961121,   -178.678085,   0.095429,   822.513916,   614.843445
-0.250619,   0.297452,   0.328540,   -352.297638,   588.260071,   0.533468,   21.813259,   25.304758,   552.712585,   -316.750122,   -179.362381,   0.095565,   823.046875,   615.516296
-0.251321,   0.298278,   0.329490,   -352.258057,   588.847229,   0.533467,   21.813259,   24.638884,   553.044067,   -316.454865,   -180.035263,   0.095759,   823.561157,   616.293762
-0.251964,   0.299056,   0.330380,   -352.116791,   589.489563,   0.533467,   21.813259,   23.973009,   553.407654,   -316.034851,   -180.756943,   0.096019,   824.046997,   617.184387
-0.252480,   0.299704,   0.331122,   -351.839539,   590.187256,   0.533467,   21.813259,   23.307137,   553.757996,   -315.410309,   -181.632126,   0.096363,   824.477600,   618.201355
-0.252748,   0.300080,   0.331562,   -351.385132,   590.916321,   0.533467,   21.813259,   22.641262,   554.013367,   -314.482178,   -182.789169,   0.096804,   824.798645,   619.329407
-0.252591,   0.299968,   0.331465,   -350.730042,   591.601562,   0.533468,   21.813259,   21.975388,   554.042358,   -313.170807,   -184.343582,   0.097331,   824.922119,   620.478882
-0.251792,   0.299095,   0.330539,   -349.887726,   592.103455,   0.533468,   21.813259,   21.309513,   553.663025,   -311.447296,   -186.367554,   0.097897,   824.728821,   621.463196
-0.250110,   0.297152,   0.328451,   -348.906677,   592.228577,   0.533467,   21.813259,   20.643641,   552.654846,   -309.332947,   -188.886581,   0.098422,   824.077087,   622.013855
-0.247303,   0.293818,   0.324858,   -347.850189,   591.756836,   0.533467,   21.813259,   19.977766,   550.779236,   -306.872589,   -191.894974,   0.098810,   822.811462,   621.825134
-0.243136,   0.288774,   0.319424,   -346.770416,   590.465576,   0.533467,   21.813259,   19.311893,   547.793518,   -304.098358,   -195.378799,   0.098971,   820.765076,   620.593933
-0.237373,   0.281710,   0.311814,   -345.688080,   588.140503,   0.533467,   21.813259,   18.646019,   543.451965,   -300.999573,   -199.334747,   0.098829,   817.754639,   618.039246
-0.229785,   0.272332,   0.301709,   -344.582001,   584.575439,   0.533467,   21.813259,   17.980146,   537.507935,   -297.514496,   -203.759125,   0.098329,   813.572021,   613.903015
-0.220139,   0.260362,   0.288800,   -343.375854,   579.564758,   0.533468,   21.813259,   17.314272,   529.701477,   -293.512543,   -208.649261,   0.097442,   807.967102,   607.942627
-0.208228,   0.245573,   0.272825,   -341.935883,   572.900879,   0.533467,   21.813259,   16.648397,   519.765991,   -288.800964,   -213.977692,   0.096158,   800.644104,   599.928894
-0.193881,   0.227810,   0.253584,   -340.055878,   564.360901,   0.533467,   21.813259,   15.982523,   507.413300,   -283.108276,   -219.684601,   0.094496,   791.236633,   589.635315
-0.177037,   0.207062,   0.231031,   -337.457916,   553.705322,   0.533467,   21.813259,   15.316649,   492.387695,   -276.140259,   -225.575226,   0.092496,   779.307190,   576.840454
-0.157741,   0.183473,   0.205270,   -333.607208,   540.745911,   0.533467,   21.813259,   14.650777,   474.509399,   -267.370728,   -231.358612,   0.090344,   764.262146,   561.509155
-0.136166,   0.157365,   0.176595,   -327.630432,   525.417664,   0.533467,   21.813259,   13.984902,   453.702820,   -255.915619,   -236.713272,   0.088454,   745.351074,   543.957764
-0.112599,   0.129210,   0.145456,   -318.181488,   507.567963,   0.533467,   21.813259,   13.319029,   430.092560,   -240.706085,   -240.775482,   0.087513,   721.362183,   524.667480
-0.087396,   0.099547,   0.112353,   -304.829987,   485.325653,   0.533467,   21.813259,   12.653154,   402.652374,   -222.156723,   -241.846817,   0.087168,   690.220337,   501.387054
-0.061062,   0.069263,   0.078253,   -270.032898,   473.237366,   0.533467,   21.813259,   11.987281,   372.082825,   -168.878372,   -254.858627,   0.103942,   651.660217,   500.325378
-0.035020,   0.041662,   0.047432,   -136.792923,   532.998474,   0.533467,   21.813259,   11.321407,   346.192322,   50.013264,   -300.374146,   0.215463,   612.951965,   577.089783
-0.014650,   0.024299,   0.028550,   -19.658161,   561.649475,   0.533467,   21.813259,   10.655534,   306.649597,   235.341736,   -288.458740,   0.315994,   571.732117,   570.970947
-0.011486,   0.027484,   0.028285,   0.000000,   578.267151,   0.533467,   21.813259,   9.989659,   293.855652,   295.743011,   -283.466278,   0.343178,   572.685547,   572.433228
-0.096677,   0.240678,   0.258403,   0.000000,   841.218140,   0.533953,   22.811810,   48.740093,   578.337891,   286.962463,   -381.710449,   0.347745,   829.439270,   828.652161
-0.085860,   0.211324,   0.225979,   0.000000,   818.867249,   0.533950,   22.811810,   48.069744,   557.277771,   279.883270,   -375.489746,   0.344564,   809.875366,   809.410278
-0.078209,   0.185813,   0.197578,   0.000000,   794.341797,   0.533951,   22.811810,   47.399399,   541.242493,   262.872925,   -366.762024,   0.339504,   789.500305,   789.364136
-0.074063,   0.164901,   0.175384,   0.000000,   771.790955,   0.533950,   22.811810,   46.729050,   528.797058,   243.743851,   -358.206970,   0.333819,   771.416260,   771.415405
-0.072947,   0.148564,   0.160040,   -8.227647,   753.210632,   0.533950,   22.811810,   46.058701,   520.500061,   224.482925,   -350.771332,   0.327887,   757.357971,   757.257446
-0.075173,   0.137293,   0.150258,   -18.321695,   737.913635,   0.533951,   22.811810,   45.388355,   515.672607,   203.919357,   -344.493042,   0.320999,   747.242981,   746.737305
-0.080918,   0.131525,   0.145388,   -29.787119,   725.700745,   0.533950,   22.811810,   44.718006,   514.425781,   181.487823,   -339.084869,   0.313033,   741.043396,   739.694702
-0.090061,   0.131413,   0.145298,   -44.612930,   715.543701,   0.533950,   22.811810,   44.047657,   516.370789,   154.559967,   -334.264496,   0.302687,   738.861023,   735.821411
-0.102208,   0.136904,   0.150364,   -65.924568,   704.910217,   0.533951,   22.811810,   43.377312,   523.254517,   115.731125,   -327.150940,   0.287801,   740.077942,   733.428284
-0.116837,   0.147940,   0.161511,   -127.657631,   670.192078,   0.533950,   22.811810,   42.706963,   527.296509,   15.237930,   -305.924896,   0.243628,   742.299866,   716.977051
-0.132775,   0.163468,   0.178313,   -217.616379,   612.883423,   0.533950,   22.811810,   42.036613,   519.960999,   -124.693954,   -261.796631,   0.176642,   745.893066,   668.678284
-0.148787,   0.181144,   0.197874,   -276.418823,   577.632568,   0.533951,   22.811810,   41.366264,   513.054932,   -211.841202,   -225.792679,   0.133020,   754.808105,   624.669556
-0.163911,   0.198655,   0.217284,   -301.503174,   568.939209,   0.533950,   22.811810,   40.695919,   516.010742,   -248.574677,   -208.013885,   0.116440,   765.593262,   608.729675
-0.177624,   0.214751,   0.235107,   -313.194611,   569.831726,   0.533953,   22.811810,   40.025570,   522.968018,   -266.330902,   -197.953705,   0.110323,   775.414246,   606.421570
-0.189725,   0.228967,   0.250849,   -320.451050,   572.693604,   0.533950,   22.811810,   39.355221,   530.040955,   -277.798401,   -190.461868,   0.107287,   783.700867,   607.644348
-0.200169,   0.241179,   0.264387,   -325.955597,   575.424683,   0.533950,   22.811810,   38.684872,   536.064148,   -286.595093,   -184.199722,   0.105192,   790.520996,   609.197083
-0.208971,   0.251384,   0.275729,   -330.558075,   577.493652,   0.533951,   22.811810,   38.014526,   540.778381,   -293.842804,   -178.861298,   0.103403,   796.029358,   610.180054
-0.216188,   0.259653,   0.284954,   -334.600555,   578.805237,   0.533950,   22.811810,   37.344177,   544.211487,   -300.006805,   -174.360001,   0.101701,   800.400879,   610.366089
-0.221917,   0.266115,   0.292204,   -338.208618,   579.411987,   0.533950,   22.811810,   36.673828,   546.486084,   -305.282715,   -170.673309,   0.100029,   803.781921,   609.778015
-0.226299,   0.270963,   0.297687,   -341.379517,   579.483459,   0.533951,   22.811810,   36.003483,   547.807007,   -309.703064,   -167.828140,   0.098431,   806.328003,   608.635071
-0.229533,   0.274453,   0.301682,   -344.038177,   579.264038,   0.533950,   22.811810,   35.333134,   548.429077,   -313.203247,   -165.889038,   0.097016,   808.206665,   607.286987
-0.231864,   0.276889,   0.304522,   -346.104462,   579.014404,   0.533951,   22.811810,   34.662785,   548.618347,   -315.708435,   -164.912186,   0.095896,   809.595825,   606.115540
-0.233559,   0.278596,   0.306560,   -347.573029,   578.927856,   0.533950,   22.811810,   33.992435,   548.595276,   -317.240479,   -164.872910,   0.095129,   810.668945,   605.388916
-0.234867,   0.279868,   0.308118,   -348.560333,   579.064026,   0.533950,   22.811810,   33.322090,   548.491577,   -317.987854,   -165.605240,   0.094674,   811.571472,   605.148132
-0.235983,   0.280929,   0.309442,   -349.269196,   579.358337,   0.533951,   22.811810,   32.651741,   548.353333,   -318.264221,   -166.825577,   0.094407,   812.402039,   605.228943
-0.237029,   0.281921,   0.310684,   -349.894775,   579.700806,   0.533951,   22.811810,   31.981392,   548.182739,   -318.376678,   -168.242935,   0.094197,   813.211975,   605.407349
-0.238063,   0.282911,   0.311920,   -350.551147,   580.015869,   0.533951,   22.811810,   31.311045,   547.979431,   -318.514679,   -169.663589,   0.093964,   814.020691,   605.535950
-0.239107,   0.283925,   0.313177,   -351.266144,   580.284912,   0.533950,   22.811810,   30.640696,   547.755920,   -318.737122,   -171.009674,   0.093687,   814.833069,   605.578186
-0.240163,   0.284968,   0.314458,   -352.019104,   580.525085,   0.533951,   22.811810,   29.970348,   547.532410,   -319.026398,   -172.274887,   0.093384,   815.648682,   605.564880
-0.241228,   0.286035,   0.315762,   -352.775238,   580.763550,   0.533951,   22.811810,   29.299999,   547.329163,   -319.340851,   -173.477493,   0.093079,   816.465332,   605.546387
-0.242296,   0.287122,   0.317080,   -353.502228,   581.024780,   0.533951,   22.811810,   28.629652,   547.162781,   -319.640259,   -174.637619,   0.092797,   817.280334,   605.568909
-0.243364,   0.288222,   0.318408,   -354.174500,   581.327332,   0.533950,   22.811810,   27.959303,   547.045593,   -319.892792,   -175.770798,   0.092554,   818.090698,   605.668823
-0.244425,   0.289331,   0.319740,   -354.773682,   581.684387,   0.533951,   22.811810,   27.288956,   546.986694,   -320.075989,   -176.886993,   0.092365,   818.894043,   605.871582
-0.245479,   0.290447,   0.321073,   -355.288208,   582.104431,   0.533951,   22.811810,   26.618608,   546.992493,   -320.176270,   -177.991104,   0.092237,   819.689087,   606.194214
-0.246525,   0.291570,   0.322407,   -355.712860,   582.591492,   0.533951,   22.811810,   25.948259,   547.066528,   -320.187897,   -179.084335,   0.092174,   820.475342,   606.644592
-0.247561,   0.292699,   0.323742,   -356.047119,   583.146179,   0.533951,   22.811810,   25.277912,   547.208679,   -320.109619,   -180.168716,   0.092176,   821.253052,   607.224243
-0.248583,   0.293830,   0.325073,   -356.290100,   583.768616,   0.533951,   22.811810,   24.607563,   547.413025,   -319.934509,   -181.258575,   0.092244,   822.021545,   607.933411
-0.249569,   0.294940,   0.326375,   -356.432159,   584.460510,   0.533951,   22.811810,   23.937216,   547.663330,   -319.634979,   -182.395615,   0.092382,   822.774841,   608.778503
-0.250471,   0.295970,   0.327584,   -356.450378,   585.221130,   0.533951,   22.811810,   23.266867,   547.923462,   -319.152740,   -183.660034,   0.092602,   823.494324,   609.768250
-0.251192,   0.296808,   0.328579,   -356.315643,   586.030029,   0.533950,   22.811810,   22.596519,   548.123108,   -318.408752,   -185.160645,   0.092911,   824.138123,   610.887756
-0.251582,   0.297269,   0.329162,   -356.011353,   586.822998,   0.533951,   22.811810,   21.926172,   548.144043,   -317.332397,   -187.007416,   0.093299,   824.633789,   612.058716
-0.251444,   0.297108,   0.329067,   -355.552429,   587.474854,   0.533951,   22.811810,   21.255823,   547.815552,   -315.893127,   -189.280090,   0.093720,   824.877197,   613.110107
-0.250550,   0.296029,   0.327981,   -354.989838,   587.802002,   0.533951,   22.811810,   20.585474,   546.922546,   -314.110382,   -192.014847,   0.094095,   824.737976,   613.779541
-0.248658,   0.293714,   0.325563,   -354.397247,   587.581848,   0.533950,   22.811810,   19.915127,   545.223389,   -312.038757,   -195.209030,   0.094323,   824.067505,   613.746826
-0.245524,   0.289830,   0.321460,   -353.844147,   586.578125,   0.533951,   22.811810,   19.244780,   542.464783,   -309.730804,   -198.844650,   0.094297,   822.700928,   612.675964
-0.240890,   0.284033,   0.315308,   -353.374878,   584.553772,   0.533951,   22.811810,   18.574430,   538.383057,   -307.204163,   -202.911591,   0.093923,   820.453247,   610.238525
-0.234497,   0.275986,   0.306743,   -353.000183,   581.270508,   0.533951,   22.811810,   17.904083,   532.706726,   -304.436401,   -207.396439,   0.093121,   817.112671,   606.111206
-0.226067,   0.265345,   0.295388,   -352.675995,   576.485901,   0.533951,   22.811810,   17.233734,   525.145935,   -301.336060,   -212.290680,   0.091828,   812.421753,   599.977844
-0.215330,   0.251803,   0.280895,   -352.297028,   569.953613,   0.533951,   22.811810,   16.563387,   515.396790,   -297.740204,   -217.574402,   0.090007,   806.072754,   591.528198
-0.202030,   0.235097,   0.262952,   -351.670532,   561.417908,   0.533951,   22.811810,   15.893039,   503.129456,   -293.382080,   -223.215057,   0.087649,   797.681885,   580.461731
-0.186014,   0.215109,   0.241392,   -350.588501,   550.549316,   0.533950,   22.811810,   15.222691,   487.991608,   -288.030792,   -229.040741,   0.084716,   786.786560,   566.368591
-0.167239,   0.191881,   0.216204,   -348.767883,   536.920837,   0.533950,   22.811810,   14.552342,   469.637207,   -281.484283,   -234.659866,   0.081159,   772.776672,   548.715820
-0.145790,   0.165636,   0.187565,   -345.491394,   520.254761,   0.533951,   22.811810,   13.881994,   447.877991,   -273.114594,   -239.627899,   0.077175,   754.833008,   527.397278
-0.121879,   0.136786,   0.155846,   -339.690430,   500.189636,   0.533950,   22.811810,   13.211646,   422.419159,   -261.919952,   -243.453522,   0.073110,   731.771057,   502.456055
-0.095903,   0.105931,   0.121650,   -330.367615,   475.427704,   0.533951,   22.811810,   12.541299,   392.741943,   -247.681870,   -244.521683,   0.068919,   701.598267,   472.637054
-0.068382,   0.073705,   0.085660,   -318.969025,   440.116882,   0.533951,   22.811810,   11.870951,   356.227570,   -235.079697,   -237.995331,   0.061170,   660.172485,   427.831818
-0.040096,   0.041064,   0.049280,   -292.408203,   400.329010,   0.533951,   22.811810,   11.200602,   309.403900,   -201.483093,   -233.922714,   0.059722,   602.349854,   387.323669
-0.014360,   0.012875,   0.019648,   -162.262619,   434.062836,   0.533950,   22.811810,   10.530254,   264.938324,   6.861902,   -268.793884,   0.169658,   534.014893,   473.596985
-0.005054,   0.003664,   0.015776,   -51.097694,   499.180237,   0.533951,   22.811810,   9.859906,   236.844467,   211.238068,   -274.840912,   0.283637,   526.591736,   520.970337
-0.111304,   0.276316,   0.294911,   0.000000,   856.773376,   0.534530,   23.803621,   48.912712,   619.035828,   264.420868,   -375.265808,   0.349021,   843.748169,   842.798096
-0.099616,   0.246503,   0.262483,   0.000000,   838.267944,   0.534527,   23.803621,   48.236412,   598.192078,   263.049713,   -371.612701,   0.347126,   827.020325,   826.301941
-0.090337,   0.219355,   0.232620,   0.000000,   817.209229,   0.534530,   23.803621,   47.560112,   580.525146,   253.496277,   -365.269592,   0.343671,   808.934143,   808.540955
-0.084247,   0.195937,   0.206945,   0.000000,   795.641052,   0.534528,   23.803621,   46.883808,   565.284668,   239.170914,   -358.031372,   0.338888,   791.270630,   791.160156
-0.080926,   0.176351,   0.186932,   0.000000,   776.291931,   0.534528,   23.803621,   46.207512,   553.099426,   223.920486,   -351.119904,   0.333802,   775.928223,   775.927490
-0.080231,   0.160687,   0.172435,   -7.798111,   759.699890,   0.534530,   23.803621,   45.531208,   544.107788,   207.793991,   -344.944275,   0.328214,   763.628784,   763.539246
-0.082396,   0.149442,   0.162607,   -17.536589,   745.444946,   0.534528,   23.803621,   44.854908,   537.950378,   189.957962,   -339.500397,   0.321642,   754.366089,   753.907288
-0.087567,   0.143002,   0.157051,   -28.527681,   733.490356,   0.534527,   23.803621,   44.178608,   535.000305,   169.962387,   -334.446869,   0.314086,   748.162231,   746.937073
-0.095699,   0.141547,   0.155716,   -42.861618,   722.837097,   0.534530,   23.803621,   43.502308,   534.746460,   145.229004,   -329.609863,   0.304161,   745.192932,   742.411987
-0.106520,   0.145117,   0.158953,   -61.688396,   712.312073,   0.534528,   23.803621,   42.826008,   539.025146,   111.598511,   -322.638794,   0.291078,   745.074036,   739.295654
-0.119695,   0.153788,   0.167602,   -110.230751,   684.998535,   0.534528,   23.803621,   42.149708,   542.383118,   32.384689,   -305.078369,   0.256738,   746.245056,   727.590027
-0.134317,   0.166944,   0.181741,   -194.599182,   631.793518,   0.534530,   23.803621,   41.473408,   534.814941,   -97.620590,   -265.965332,   0.194746,   748.317078,   687.849304
-0.149230,   0.182684,   0.199179,   -263.153412,   588.298157,   0.534527,   23.803621,   40.797108,   522.889282,   -197.744537,   -226.746902,   0.143535,   755.087402,   638.976440
-0.163448,   0.198739,   0.217041,   -296.494598,   571.961426,   0.534530,   23.803621,   40.120808,   520.526062,   -245.059265,   -204.996918,   0.120090,   764.612549,   613.684326
-0.176371,   0.213650,   0.233623,   -311.688446,   569.266907,   0.534528,   23.803621,   39.444504,   524.556396,   -266.977936,   -193.362167,   0.110969,   773.723694,   606.189270
-0.187757,   0.226820,   0.248275,   -320.380676,   570.413940,   0.534528,   23.803621,   38.768208,   529.967163,   -279.933868,   -185.455780,   0.106645,   781.514832,   604.824097
-0.197533,   0.238063,   0.260809,   -326.648682,   572.079102,   0.534530,   23.803621,   38.091904,   534.807434,   -289.377014,   -179.186783,   0.103828,   787.935730,   604.748047
-0.205713,   0.247371,   0.271222,   -331.802124,   573.318115,   0.534527,   23.803621,   37.415604,   538.539307,   -297.023315,   -173.981125,   0.101507,   793.104309,   604.440857
-0.212354,   0.254820,   0.279599,   -336.301514,   573.923706,   0.534528,   23.803621,   36.739307,   541.112183,   -303.490021,   -169.673996,   0.099359,   797.181641,   603.501892
-0.217563,   0.260553,   0.286095,   -340.279266,   573.942810,   0.534530,   23.803621,   36.063004,   542.643433,   -308.979919,   -166.237534,   0.097322,   800.313171,   601.950806
-0.221505,   0.264787,   0.290947,   -343.697235,   573.585449,   0.534528,   23.803621,   35.386703,   543.366150,   -313.477936,   -163.726746,   0.095469,   802.662964,   600.083130
-0.224403,   0.267803,   0.294462,   -346.453247,   573.134888,   0.534530,   23.803621,   34.710403,   543.562012,   -316.880402,   -162.235291,   0.093933,   804.411499,   598.325806
-0.226521,   0.269927,   0.296996,   -348.483978,   572.850891,   0.534528,   23.803621,   34.034103,   543.496338,   -319.129395,   -161.813812,   0.092819,   805.747253,   597.069824
-0.228135,   0.271482,   0.298902,   -349.855682,   572.866394,   0.534527,   23.803621,   33.357803,   543.350403,   -320.339691,   -162.369507,   0.092133,   806.842896,   596.481995
-0.229479,   0.272738,   0.300477,   -350.776306,   573.147034,   0.534530,   23.803621,   32.681503,   543.195129,   -320.824371,   -163.634247,   0.091757,   807.829163,   596.438843
-0.230714,   0.273881,   0.301924,   -351.502502,   573.557434,   0.534528,   23.803621,   32.005203,   543.026611,   -320.971680,   -165.259537,   0.091518,   808.782471,   596.651978
-0.231929,   0.275011,   0.303353,   -352.222870,   573.972717,   0.534529,   23.803621,   31.328901,   542.826050,   -321.076202,   -166.966415,   0.091285,   809.735718,   596.873169
-0.233159,   0.276170,   0.304809,   -353.015289,   574.337341,   0.534528,   23.803621,   30.652601,   542.591919,   -321.269836,   -168.616272,   0.091001,   810.699097,   596.994019
-0.234414,   0.277370,   0.306305,   -353.878845,   574.653931,   0.534529,   23.803621,   29.976301,   542.339905,   -321.564789,   -170.177704,   0.090667,   811.674377,   597.017212
-0.235691,   0.278611,   0.307841,   -354.781311,   574.948792,   0.534528,   23.803621,   29.300001,   542.091309,   -321.923828,   -171.665268,   0.090307,   812.660400,   596.991699
-0.236989,   0.279888,   0.309412,   -355.686462,   575.250183,   0.534529,   23.803621,   28.623699,   541.865417,   -322.301666,   -173.102783,   0.089950,   813.654968,   596.971497
-0.238299,   0.281194,   0.311011,   -356.563019,   575.581787,   0.534528,   23.803621,   27.947399,   541.677490,   -322.658722,   -174.511368,   0.089616,   814.654968,   597.002441
-0.239619,   0.282525,   0.312632,   -357.386505,   575.961670,   0.534528,   23.803621,   27.271099,   541.539246,   -322.964081,   -175.906769,   0.089325,   815.657959,   597.120544
-0.240945,   0.283877,   0.314272,   -358.138947,   576.403076,   0.534529,   23.803621,   26.594799,   541.459473,   -323.195343,   -177.299774,   0.089088,   816.661743,   597.352722
-0.242273,   0.285247,   0.315927,   -358.808258,   576.915344,   0.534529,   23.803621,   25.918497,   541.444580,   -323.337463,   -178.697174,   0.088915,   817.665405,   597.717529
-0.243604,   0.286635,   0.317598,   -359.387482,   577.504517,   0.534528,   23.803621,   25.242197,   541.498047,   -323.381042,   -180.104660,   0.088810,   818.668884,   598.226929
-0.244935,   0.288038,   0.319281,   -359.871552,   578.174744,   0.534529,   23.803621,   24.565897,   541.618713,   -323.315521,   -181.534851,   0.088777,   819.672058,   598.889404
-0.246251,   0.289443,   0.320961,   -360.251678,   578.930237,   0.534528,   23.803621,   23.889597,   541.796814,   -323.118225,   -183.019577,   0.088821,   820.671753,   599.714844
-0.247516,   0.290807,   0.322593,   -360.510864,   579.771790,   0.534529,   23.803621,   23.213297,   542.004639,   -322.743744,   -184.622375,   0.088951,   821.655334,   600.711914
-0.248657,   0.292041,   0.324081,   -360.628448,   580.682983,   0.534528,   23.803621,   22.536997,   542.182739,   -322.128235,   -186.436127,   0.089171,   822.591248,   601.868225
-0.249547,   0.292993,   0.325262,   -360.594482,   581.608765,   0.534528,   23.803621,   21.860695,   542.225037,   -321.210754,   -188.564011,   0.089470,   823.420959,   603.114319
-0.250011,   0.293444,   0.325902,   -360.427979,   582.436096,   0.534529,   23.803621,   21.184395,   541.970581,   -319.962463,   -191.091644,   0.089803,   824.054871,   604.289795
-0.249837,   0.293122,   0.325708,   -360.186157,   582.989746,   0.534529,   23.803621,   20.508095,   541.207825,   -318.404236,   -194.066895,   0.090090,   824.376099,   605.136047
-0.248793,   0.291715,   0.324353,   -359.956757,   583.045349,   0.534528,   23.803621,   19.831795,   539.689880,   -316.601257,   -197.495895,   0.090219,   824.246277,   605.315857
-0.246631,   0.288889,   0.321482,   -359.835327,   582.350220,   0.534529,   23.803621,   19.155495,   537.146301,   -314.631439,   -201.363007,   0.090068,   823.506775,   604.451538
-0.243083,   0.284279,   0.316710,   -359.898041,   580.641479,   0.534528,   23.803621,   18.479193,   533.289734,   -312.546326,   -205.654999,   0.089517,   821.974976,   602.156433
-0.237867,   0.277514,   0.309640,   -360.192261,   577.648804,   0.534529,   23.803621,   17.802893,   527.820068,   -310.363525,   -210.353317,   0.088457,   819.439575,   598.035767
-0.230666,   0.268196,   0.299840,   -360.717804,   573.083557,   0.534528,   23.803621,   17.126593,   520.410339,   -308.044586,   -215.434082,   0.086789,   815.636902,   591.672058
-0.221157,   0.255941,   0.286882,   -361.406036,   566.651123,   0.534528,   23.803621,   16.450293,   510.721283,   -305.476196,   -220.857285,   0.084437,   810.246216,   582.643188
-0.209001,   0.240385,   0.270343,   -362.070496,   558.060181,   0.534529,   23.803621,   15.773993,   498.397278,   -302.407593,   -226.578934,   0.081372,   802.859497,   570.553894
-0.193950,   0.221296,   0.249933,   -362.468262,   546.972290,   0.534528,   23.803621,   15.097692,   483.080963,   -298.576904,   -232.429077,   0.077557,   792.982971,   554.930847
-0.175889,   0.198620,   0.225539,   -362.474426,   532.789307,   0.534528,   23.803621,   14.421391,   464.316925,   -294.002075,   -237.933502,   0.072786,   779.983765,   534.793030
-0.154842,   0.172466,   0.197231,   -361.996429,   514.596313,   0.534529,   23.803621,   13.745091,   441.556000,   -288.956146,   -242.263718,   0.066669,   762.976257,   508.486267
-0.131009,   0.143156,   0.165334,   -360.117615,   491.825592,   0.534528,   23.803621,   13.068790,   414.564178,   -282.856201,   -244.648727,   0.059269,   740.737549,   475.127777
-0.104798,   0.111264,   0.130552,   -355.331482,   463.803406,   0.534529,   23.803621,   12.392490,   383.146942,   -274.675018,   -244.055420,   0.050821,   711.461853,   433.954773
-0.076993,   0.077765,   0.094343,   -346.995392,   427.794952,   0.534528,   23.803621,   11.716190,   347.174835,   -266.375275,   -236.567307,   0.040067,   672.203247,   379.141663
-0.049234,   0.044189,   0.059445,   -339.788788,   373.736664,   0.534529,   23.803621,   11.039889,   305.455475,   -271.507599,   -209.900101,   0.018306,   618.164246,   268.880035
-0.026798,   0.015825,   0.030682,   -285.945679,   329.473724,   0.534528,   23.803621,   10.363589,   278.456116,   -234.928085,   -169.689194,   0.027201,   533.412964,   264.651367
-0.028567,   0.013294,   0.033602,   -84.851601,   329.649048,   0.534529,   23.803621,   9.687288,   206.372696,   38.424747,   -189.475769,   0.215153,   379.261841,   356.956055
-0.124562,   0.306259,   0.324614,   0.000000,   865.227539,   0.535148,   24.786791,   49.127861,   653.654297,   237.980148,   -364.292114,   0.348704,   852.330933,   851.409790
-0.112292,   0.277512,   0.293906,   0.000000,   850.768677,   0.535147,   24.786791,   48.444141,   634.702454,   241.480316,   -362.831421,   0.348376,   838.350586,   837.483276
-0.101906,   0.250279,   0.264461,   0.000000,   833.882019,   0.535148,   24.786791,   47.760422,   617.370544,   239.002838,   -358.884644,   0.346906,   822.866943,   822.174927
-0.094167,   0.225627,   0.237492,   0.000000,   815.025330,   0.535148,   24.786791,   47.076702,   601.317688,   230.436859,   -353.455841,   0.343647,   806.790833,   806.400513
-0.089143,   0.204103,   0.214377,   0.000000,   796.447205,   0.535148,   24.786791,   46.392986,   587.114319,   219.386978,   -347.559631,   0.339665,   791.468079,   791.324341
-0.086404,   0.185672,   0.196060,   0.000000,   779.514465,   0.535148,   24.786791,   45.709267,   575.216003,   207.058990,   -341.982147,   0.335106,   778.137878,   778.126892
-0.085925,   0.170576,   0.182205,   -5.258112,   764.485840,   0.535148,   24.786791,   45.025547,   565.726196,   193.501556,   -336.880768,   0.329900,   767.128418,   767.087891
-0.087936,   0.159332,   0.172337,   -14.567691,   751.129211,   0.535147,   24.786791,   44.341827,   558.603943,   177.957565,   -332.189728,   0.323685,   758.517944,   758.203064
-0.092566,   0.152285,   0.166199,   -25.298328,   739.392151,   0.535148,   24.786791,   43.658108,   554.175781,   159.918060,   -327.609680,   0.316379,   752.360413,   751.402466
-0.099799,   0.149647,   0.163798,   -39.126053,   728.497864,   0.535148,   24.786791,   42.974388,   552.152893,   137.218933,   -322.907227,   0.306867,   748.827942,   746.522949
-0.109457,   0.151539,   0.165477,   -57.088055,   717.570679,   0.535150,   24.786791,   42.290668,   553.825562,   106.657059,   -316.281708,   0.294431,   747.750916,   742.824158
-0.121317,   0.158109,   0.171982,   -96.186859,   695.329346,   0.535148,   24.786791,   41.606945,   556.116089,   43.026394,   -301.345673,   0.266971,   748.075073,   733.969299
-0.134713,   0.169056,   0.183687,   -172.546982,   647.814880,   0.535147,   24.786791,   40.923229,   548.766724,   -73.498848,   -267.291565,   0.211472,   749.142883,   702.315247
-0.148590,   0.182904,   0.199055,   -247.484253,   599.326904,   0.535148,   24.786791,   40.239510,   533.387146,   -181.544510,   -226.915100,   0.155511,   754.165222,   652.961487
-0.161949,   0.197510,   0.215382,   -289.521057,   575.378845,   0.535148,   24.786791,   39.555790,   525.603271,   -239.745499,   -201.428101,   0.124959,   762.540222,   619.408142
-0.174141,   0.211279,   0.230773,   -309.106140,   568.529053,   0.535148,   24.786791,   38.872070,   526.226135,   -266.803253,   -187.981308,   0.112152,   771.043213,   606.062317
-0.184853,   0.223446,   0.244384,   -319.676575,   567.690430,   0.535148,   24.786791,   38.188351,   529.714539,   -281.700653,   -179.600677,   0.106204,   778.423340,   601.657959
-0.193998,   0.233766,   0.255964,   -326.922302,   568.182800,   0.535147,   24.786791,   37.504631,   533.243347,   -291.982849,   -173.360092,   0.102510,   784.513550,   599.729858
-0.201582,   0.242216,   0.265491,   -332.752563,   568.538879,   0.535148,   24.786791,   36.820915,   535.910828,   -300.124512,   -168.353165,   0.099564,   789.394409,   597.992188
-0.207670,   0.248878,   0.273055,   -337.791687,   568.408447,   0.535148,   24.786791,   36.137192,   537.561584,   -306.944794,   -164.322601,   0.096912,   793.218140,   595.824585
-0.212387,   0.253918,   0.278839,   -342.185059,   567.836975,   0.535148,   24.786791,   35.453476,   538.310303,   -312.658386,   -161.239258,   0.094478,   796.137451,   593.252197
-0.215924,   0.257581,   0.283111,   -345.856995,   567.084534,   0.535148,   24.786791,   34.769756,   538.423462,   -317.195892,   -159.199387,   0.092371,   798.330811,   590.670044
-0.218533,   0.260179,   0.286210,   -348.693573,   566.464600,   0.535148,   24.786791,   34.086037,   538.203308,   -320.432281,   -158.318832,   0.090738,   799.994934,   588.574341
-0.220498,   0.262051,   0.288509,   -350.685883,   566.202148,   0.535147,   24.786791,   33.402317,   537.893005,   -322.376709,   -158.603027,   0.089650,   801.326721,   587.304871
-0.222090,   0.263510,   0.290352,   -352.008423,   566.330444,   0.535148,   24.786791,   32.718597,   537.610291,   -323.288300,   -159.843567,   0.089024,   802.491821,   586.853394
-0.223518,   0.264793,   0.291997,   -352.962372,   566.711365,   0.535148,   24.786791,   32.034878,   537.357605,   -323.608643,   -161.660812,   0.088663,   803.599365,   586.907715
-0.224905,   0.266039,   0.293600,   -353.823914,   567.166565,   0.535148,   24.786791,   31.351158,   537.094238,   -323.751617,   -163.682495,   0.088373,   804.702637,   587.103271
-0.226308,   0.267313,   0.295230,   -354.743408,   567.587769,   0.535147,   24.786791,   30.667439,   536.796326,   -323.951965,   -165.685791,   0.088045,   805.820496,   587.223816
-0.227746,   0.268639,   0.296912,   -355.755341,   567.950684,   0.535149,   24.786791,   29.983719,   536.468811,   -324.273438,   -167.597473,   0.087652,   806.958130,   587.219788
-0.229222,   0.270020,   0.298653,   -356.837372,   568.275085,   0.535147,   24.786791,   29.299999,   536.131165,   -324.693451,   -169.421097,   0.087214,   808.115906,   587.126892
-0.230734,   0.271454,   0.300448,   -357.952209,   568.591431,   0.535148,   24.786791,   28.616280,   535.804871,   -325.165680,   -171.181763,   0.086759,   809.292603,   587.003540
-0.232277,   0.272936,   0.302294,   -359.064270,   568.927673,   0.535148,   24.786791,   27.932560,   535.507996,   -325.644623,   -172.905441,   0.086312,   810.485962,   586.904602
-0.233847,   0.274460,   0.304183,   -360.143646,   569.306763,   0.535147,   24.786791,   27.248842,   535.255066,   -326.091980,   -174.613358,   0.085896,   811.693176,   586.876038
-0.235438,   0.276023,   0.306112,   -361.166504,   569.746887,   0.535148,   24.786791,   26.565123,   535.057678,   -326.477295,   -176.321640,   0.085528,   812.912231,   586.955322
-0.237050,   0.277620,   0.308077,   -362.114319,   570.262512,   0.535148,   24.786791,   25.881403,   534.925049,   -326.776886,   -178.042328,   0.085222,   814.141479,   587.172180
-0.238681,   0.279250,   0.310076,   -362.973267,   570.865051,   0.535147,   24.786791,   25.197683,   534.864441,   -326.972626,   -179.785202,   0.084988,   815.380432,   587.550293
-0.240327,   0.280913,   0.312109,   -363.731720,   571.564880,   0.535148,   24.786791,   24.513964,   534.880127,   -327.046936,   -181.563705,   0.084834,   816.629333,   588.110474
-0.241982,   0.282598,   0.314166,   -364.377228,   572.371094,   0.535147,   24.786791,   23.830246,   534.969360,   -326.975494,   -183.404266,   0.084769,   817.886536,   588.872192
-0.243619,   0.284276,   0.316215,   -364.892120,   573.289673,   0.535148,   24.786791,   23.146526,   535.114563,   -326.717010,   -185.358688,   0.084803,   819.143555,   589.853088
-0.245181,   0.285879,   0.318184,   -365.257111,   574.311707,   0.535148,   24.786791,   22.462807,   535.269592,   -326.214966,   -187.505966,   0.084943,   820.376831,   591.050598
-0.246563,   0.287282,   0.319938,   -365.463196,   575.393433,   0.535148,   24.786791,   21.779087,   535.343689,   -325.413452,   -189.939697,   0.085178,   821.538879,   592.409180
-0.247613,   0.288293,   0.321273,   -365.528351,   576.436218,   0.535148,   24.786791,   21.095367,   535.190552,   -324.282684,   -192.745285,   0.085469,   822.553040,   593.785461
-0.248137,   0.288663,   0.321924,   -365.510406,   577.277100,   0.535148,   24.786791,   20.411648,   534.608459,   -322.841797,   -195.976608,   0.085737,   823.314941,   594.929321
-0.247917,   0.288100,   0.321583,   -365.505554,   577.696045,   0.535147,   24.786791,   19.727928,   533.352783,   -321.162262,   -199.645508,   0.085869,   823.697876,   595.496948
-0.246710,   0.286270,   0.319900,   -365.627808,   577.432068,   0.535148,   24.786791,   19.044209,   531.143860,   -319.339600,   -203.739899,   0.085728,   823.551270,   595.079468
-0.244240,   0.282803,   0.316483,   -365.987061,   576.197083,   0.535147,   24.786791,   18.360491,   527.672852,   -317.462799,   -208.240692,   0.085171,   822.696960,   593.229858
-0.240215,   0.277302,   0.310914,   -366.669464,   573.688843,   0.535148,   24.786791,   17.676771,   522.614868,   -315.595490,   -213.118027,   0.084059,   820.926086,   589.479065
-0.234287,   0.269325,   0.302715,   -367.718781,   569.575989,   0.535148,   24.786791,   16.993052,   515.608459,   -313.751251,   -218.336853,   0.082259,   817.971680,   583.313171
-0.226089,   0.258427,   0.291392,   -369.131287,   563.496277,   0.535147,   24.786791,   16.309332,   506.271912,   -311.906952,   -223.817734,   0.079641,   813.504761,   574.154358
-0.215212,   0.244144,   0.276424,   -370.784973,   555.075806,   0.535149,   24.786791,   15.625613,   494.196625,   -309.905762,   -229.476334,   0.076113,   807.096313,   561.406128
-0.201338,   0.226139,   0.257412,   -372.513824,   543.877686,   0.535148,   24.786791,   14.941894,   478.978363,   -307.614502,   -235.077179,   0.071560,   798.230225,   544.311829
-0.184304,   0.204256,   0.234161,   -374.136749,   529.330322,   0.535148,   24.786791,   14.258174,   460.229950,   -305.036377,   -240.114685,   0.065794,   786.263855,   521.764954
-0.164147,   0.178527,   0.206737,   -375.818359,   510.301453,   0.535148,   24.786791,   13.574455,   437.386230,   -302.903137,   -243.505615,   0.058192,   770.342529,   491.168762
-0.141136,   0.149200,   0.175553,   -377.557434,   485.412018,   0.535148,   24.786791,   12.890736,   410.098969,   -302.244385,   -243.558655,   0.047980,   749.296631,   448.479340
-0.115671,   0.116737,   0.141526,   -376.940796,   455.137451,   0.535148,   24.786791,   12.207016,   379.469635,   -301.272980,   -239.240326,   0.036119,   721.660828,   393.321381
-0.088854,   0.082388,   0.107213,   -371.709625,   420.572144,   0.535148,   24.786791,   11.523296,   348.096680,   -299.234161,   -228.403824,   0.023723,   686.570984,   325.512787
-0.063836,   0.049232,   0.077238,   -368.975708,   376.081329,   0.535148,   24.786791,   10.839578,   317.375275,   -310.269653,   -200.731049,   0.003671,   645.248108,   164.327805
-0.049675,   0.025191,   0.055700,   -421.319427,   270.147736,   0.535148,   24.786791,   10.155858,   245.946609,   -397.118317,   -127.077080,   -0.083486,   603.579590,   -432.465240
-0.062199,   0.028085,   0.069814,   -237.400238,   171.020782,   0.535148,   24.786791,   9.472138,   158.441360,   -224.820816,   -70.565269,   -0.062283,   355.256714,   -231.584045
-0.135232,   0.327499,   0.344515,   0.000000,   866.384094,   0.535738,   25.759434,   49.385132,   680.796692,   208.431000,   -349.439270,   0.346600,   855.191162,   854.504333
-0.122812,   0.301301,   0.317102,   0.000000,   855.928955,   0.535738,   25.759434,   48.692539,   664.763672,   215.914810,   -349.783508,   0.347891,   843.826477,   843.009277
-0.111865,   0.275524,   0.289763,   0.000000,   843.247986,   0.535738,   25.759434,   47.999950,   649.117981,   219.268692,   -348.041779,   0.348345,   830.963867,   830.107605
-0.102967,   0.251113,   0.263457,   0.000000,   828.055237,   0.535738,   25.759434,   47.307358,   633.883850,   216.772476,   -344.519409,   0.347070,   816.989197,   816.285400
-0.096527,   0.228922,   0.239376,   0.000000,   811.680359,   0.535738,   25.759434,   46.614769,   619.372620,   210.374207,   -340.052673,   0.344522,   802.799622,   802.341980
-0.092335,   0.209199,   0.218630,   0.000000,   795.613953,   0.535738,   25.759434,   45.922176,   606.228516,   201.963791,   -335.303864,   0.341269,   789.399902,   789.174438
-0.090034,   0.191904,   0.201783,   0.000000,   780.690125,   0.535738,   25.759434,   45.229588,   594.702759,   192.175827,   -330.841675,   0.337305,   777.614380,   777.558899
-0.089711,   0.177440,   0.188597,   -1.211778,   767.038818,   0.535738,   25.759434,   44.536995,   584.991821,   180.835190,   -326.675049,   0.332544,   767.645386,   767.643188
-0.091573,   0.166319,   0.178826,   -10.010124,   754.546326,   0.535738,   25.759434,   43.844406,   577.250427,   167.285782,   -322.674591,   0.326723,   759.600891,   759.452515
-0.095728,   0.158851,   0.172297,   -20.482742,   743.114014,   0.535738,   25.759434,   43.151814,   571.663757,   150.967499,   -318.627777,   0.319650,   753.564209,   752.937500
-0.102194,   0.155273,   0.169075,   -33.813194,   732.202332,   0.535739,   25.759434,   42.459225,   568.248352,   130.140762,   -314.182068,   0.310527,   749.681030,   747.962402
-0.110857,   0.155776,   0.169501,   -51.559425,   720.833435,   0.535737,   25.759434,   41.766632,   567.636902,   101.637085,   -307.991425,   0.298272,   747.947144,   743.933105
-0.121559,   0.160563,   0.174248,   -84.714737,   701.656372,   0.535738,   25.759434,   41.074043,   568.494812,   48.446854,   -294.927826,   0.275068,   747.622192,   736.707947
-0.133831,   0.169544,   0.183842,   -152.749268,   659.872986,   0.535738,   25.759434,   40.381451,   561.391113,   -54.267426,   -265.197784,   0.225980,   748.037292,   711.668030
-0.146721,   0.181593,   0.197253,   -230.654190,   609.388367,   0.535738,   25.759434,   39.688862,   543.895447,   -165.161301,   -225.227661,   0.167937,   751.740295,   664.848694
-0.159265,   0.194787,   0.212086,   -280.752991,   578.758301,   0.535738,   25.759434,   38.996269,   531.135559,   -233.130219,   -196.632584,   0.130855,   759.125488,   625.191833
-0.170745,   0.207428,   0.226302,   -305.258453,   567.498352,   0.535738,   25.759434,   38.303680,   528.038208,   -265.798340,   -181.333908,   0.113950,   767.118469,   605.926147
-0.180807,   0.218621,   0.238904,   -318.088135,   564.456055,   0.535738,   25.759434,   37.611088,   529.365845,   -282.997955,   -172.445129,   0.106078,   774.168884,   598.151184
-0.189335,   0.228046,   0.249557,   -326.513489,   563.669373,   0.535738,   25.759434,   36.918499,   531.449585,   -294.293701,   -166.263031,   0.101350,   779.987061,   594.158203
-0.196333,   0.235660,   0.258220,   -333.134552,   563.089661,   0.535738,   25.759434,   36.225906,   532.968140,   -303.013062,   -161.518784,   0.097692,   784.622925,   590.853882
-0.201879,   0.241559,   0.264999,   -338.782043,   562.199463,   0.535738,   25.759434,   35.533318,   533.640320,   -310.222931,   -157.846802,   0.094481,   788.228760,   587.364807
-0.206124,   0.245937,   0.270106,   -343.600555,   561.063049,   0.535738,   25.759434,   34.840725,   533.589355,   -316.126862,   -155.240616,   0.091644,   790.970764,   583.764954
-0.209290,   0.249074,   0.273849,   -347.491058,   559.985901,   0.535738,   25.759434,   34.148136,   533.109924,   -320.615112,   -153.840790,   0.089316,   793.047485,   580.549683
-0.211659,   0.251310,   0.276597,   -350.364044,   559.284119,   0.535738,   25.759434,   33.455544,   532.507507,   -323.587463,   -153.753983,   0.087633,   794.673950,   578.240967
-0.213528,   0.252990,   0.278733,   -352.320526,   559.094421,   0.535738,   25.759434,   32.762955,   531.969177,   -325.195282,   -154.876022,   0.086583,   796.050720,   577.027649
-0.215152,   0.254405,   0.280573,   -353.672577,   559.314026,   0.535738,   25.759434,   32.070362,   531.524536,   -325.883118,   -156.841187,   0.085971,   797.327087,   576.649963
-0.216699,   0.255742,   0.282326,   -354.785980,   559.718872,   0.535738,   25.759434,   31.377773,   531.113708,   -326.180847,   -159.189453,   0.085540,   798.585449,   576.636475
-0.218256,   0.257098,   0.284098,   -355.907654,   560.132629,   0.535738,   25.759434,   30.685183,   530.681030,   -326.456055,   -161.590393,   0.085109,   799.858948,   576.627319
-0.219852,   0.258508,   0.285928,   -357.128082,   560.488342,   0.535739,   25.759434,   29.992590,   530.211792,   -326.851501,   -163.907318,   0.084611,   801.157776,   576.485107
-0.221499,   0.259984,   0.287828,   -358.444855,   560.791016,   0.535738,   25.759434,   29.299999,   529.719360,   -327.373199,   -166.122665,   0.084050,   802.484863,   576.216370
-0.223195,   0.261527,   0.289801,   -359.824432,   561.069580,   0.535737,   25.759434,   28.607409,   529.225220,   -327.980042,   -168.259445,   0.083452,   803.840332,   575.875916
-0.224938,   0.263133,   0.291844,   -361.228973,   561.355347,   0.535738,   25.759434,   27.914818,   528.749756,   -328.623413,   -170.347458,   0.082845,   805.222900,   575.525024
-0.226725,   0.264799,   0.293951,   -362.624847,   561.675110,   0.535738,   25.759434,   27.222227,   528.309692,   -329.259430,   -172.413467,   0.082256,   806.630676,   575.217957
-0.228552,   0.266519,   0.296118,   -363.983856,   562.051331,   0.535738,   25.759434,   26.529636,   527.918640,   -329.851196,   -174.479279,   0.081705,   808.061584,   575.001648
-0.230416,   0.268290,   0.298343,   -365.282928,   562.502502,   0.535738,   25.759434,   25.837046,   527.587769,   -330.368195,   -176.562576,   0.081209,   809.514160,   574.915283
-0.232316,   0.270110,   0.300622,   -366.502808,   563.044922,   0.535738,   25.759434,   25.144455,   527.326904,   -330.784760,   -178.678055,   0.080783,   810.987976,   574.993591
-0.234250,   0.271978,   0.302956,   -367.626404,   563.693970,   0.535738,   25.759434,   24.451864,   527.143799,   -331.076202,   -180.842529,   0.080440,   812.483154,   575.268860
-0.236214,   0.273888,   0.305340,   -368.636414,   564.464539,   0.535738,   25.759434,   23.759274,   527.041748,   -331.213654,   -183.081268,   0.080192,   813.999512,   575.773071
-0.238190,   0.275820,   0.307751,   -369.511841,   565.369202,   0.535738,   25.759434,   23.066683,   527.012207,   -331.154846,   -185.439957,   0.080053,   815.531738,   576.537170
-0.240134,   0.277721,   0.310136,   -370.230957,   566.408142,   0.535738,   25.759434,   22.374092,   527.021606,   -330.844391,   -187.988525,   0.080034,   817.062439,   577.574402
-0.241961,   0.279489,   0.312385,   -370.782074,   567.550293,   0.535739,   25.759434,   21.681501,   526.995056,   -330.226837,   -190.812927,   0.080128,   818.553711,   578.848022
-0.243539,   0.280960,   0.314324,   -371.178802,   568.712524,   0.535738,   25.759434,   20.988911,   526.802063,   -329.268341,   -193.996902,   0.080304,   819.940063,   580.235352
-0.244694,   0.281909,   0.315714,   -371.475403,   569.746826,   0.535738,   25.759434,   20.296320,   526.254822,   -327.983398,   -197.595749,   0.080487,   821.128662,   581.500488
-0.245224,   0.282063,   0.316271,   -371.769196,   570.442200,   0.535737,   25.759434,   19.603729,   525.116577,   -326.443573,   -201.623199,   0.080565,   822.003357,   582.298645
-0.244894,   0.281100,   0.315658,   -372.183899,   570.536316,   0.535738,   25.759434,   18.911140,   523.106628,   -324.754181,   -206.066437,   0.080394,   822.421448,   582.198792
-0.243431,   0.278650,   0.313486,   -372.846985,   569.729614,   0.535738,   25.759434,   18.218550,   519.908813,   -323.026184,   -210.897598,   0.079819,   822.209595,   580.712219
-0.240536,   0.274301,   0.309324,   -373.882782,   567.686401,   0.535738,   25.759434,   17.525959,   515.177734,   -321.374146,   -216.063324,   0.078671,   821.160339,   577.284424
-0.235840,   0.267579,   0.302661,   -375.374542,   564.033875,   0.535738,   25.759434,   16.833368,   508.528046,   -319.868744,   -221.498825,   0.076784,   819.001953,   571.298340
-0.228949,   0.257984,   0.292957,   -377.401825,   558.326355,   0.535738,   25.759434,   16.140778,   499.528442,   -318.603912,   -227.071945,   0.073962,   815.397949,   561.971008
-0.219406,   0.244970,   0.279608,   -379.945282,   550.076416,   0.535738,   25.759434,   15.448186,   487.704529,   -317.573364,   -232.630554,   0.070021,   809.902100,   548.405212
-0.206867,   0.228100,   0.262151,   -383.009003,   538.685486,   0.535738,   25.759434,   14.755594,   472.555695,   -316.879211,   -237.861984,   0.064704,   801.997070,   529.326538
-0.191167,   0.207106,   0.240353,   -386.554077,   523.458191,   0.535738,   25.759434,   14.063004,   453.664307,   -316.760193,   -242.161346,   0.057688,   791.060974,   502.948273
-0.172378,   0.181949,   0.214356,   -390.326019,   503.758850,   0.535738,   25.759434,   13.370413,   430.853699,   -317.420868,   -244.679840,   0.048702,   776.374573,   466.971558
-0.150781,   0.152830,   0.184795,   -395.118774,   477.790680,   0.535738,   25.759434,   12.677823,   403.524170,   -320.852264,   -243.541397,   0.036399,   757.091003,   413.686890
-0.126976,   0.120237,   0.153245,   -401.955688,   443.726685,   0.535738,   25.759434,   11.985232,   371.350159,   -329.579163,   -236.578064,   0.019004,   732.680115,   322.681854
-0.102697,   0.085791,   0.123081,   -407.458130,   406.086151,   0.535738,   25.759434,   11.292642,   338.115723,   -339.487701,   -225.115494,   -0.000649,   704.550415,   -100.711250
-0.082821,   0.054225,   0.099515,   -418.613739,   362.927979,   0.535738,   25.759434,   10.600051,   305.016174,   -360.701935,   -204.711319,   -0.027401,   677.407471,   -336.913696
-0.081551,   0.038641,   0.090798,   -519.005188,   228.411545,   0.535738,   25.759434,   9.907460,   214.987961,   -505.581573,   -99.261368,   -0.146015,   663.389038,   -564.160400
-0.107751,   0.048102,   0.119291,   -507.032623,   80.077232,   0.535738,   25.759434,   9.214869,   78.646141,   -505.601532,   28.951015,   -0.258081,   551.449219,   -538.135132
-0.141992,   0.337584,   0.352340,   0.000000,   860.614380,   0.536220,   26.719685,   49.684025,   700.246582,   177.364731,   -331.015503,   0.343255,   852.243103,   851.861572
-0.129967,   0.315068,   0.329322,   0.000000,   853.747437,   0.536219,   26.719685,   48.981129,   687.391296,   187.625046,   -332.886658,   0.345864,   843.314148,   842.710327
-0.119050,   0.292078,   0.305448,   0.000000,   844.865845,   0.536220,   26.719685,   48.278233,   674.078796,   195.117325,   -333.119568,   0.347831,   832.967285,   832.167297
-0.109607,   0.269350,   0.281428,   0.000000,   833.514771,   0.536220,   26.719685,   47.575333,   660.586609,   197.980637,   -331.514343,   0.348469,   821.275208,   820.414734
-0.102153,   0.247783,   0.258260,   0.000000,   820.158386,   0.536220,   26.719685,   46.872437,   646.988281,   196.394363,   -328.659790,   0.347588,   808.796326,   808.045593
-0.096829,   0.228013,   0.237002,   0.000000,   806.031433,   0.536219,   26.719685,   46.169540,   633.916992,   192.026352,   -325.083252,   0.345759,   796.262146,   795.701721
-0.093348,   0.210097,   0.218521,   0.000000,   792.125854,   0.536220,   26.719685,   45.466640,   621.748962,   185.907455,   -321.380768,   0.343183,   784.475830,   784.129822
-0.091448,   0.194068,   0.203149,   0.000000,   778.964233,   0.536220,   26.719685,   44.763744,   610.692078,   178.353531,   -317.908875,   0.339825,   773.972778,   773.825073
-0.091298,   0.180435,   0.190807,   0.000000,   766.626770,   0.536220,   26.719685,   44.060844,   601.050598,   168.997162,   -314.568329,   0.335567,   764.921997,   764.904846
-0.093073,   0.169668,   0.181368,   -4.774095,   755.043274,   0.536219,   26.719685,   43.357948,   592.996521,   157.272644,   -311.234283,   0.330177,   757.441589,   757.407715
-0.096860,   0.162056,   0.174726,   -14.880713,   744.070801,   0.536220,   26.719685,   42.655052,   586.640869,   142.549210,   -307.729584,   0.323385,   751.621643,   751.290100
-0.102696,   0.157858,   0.170986,   -27.748243,   733.335754,   0.536219,   26.719685,   41.952156,   582.163940,   123.423584,   -303.647064,   0.314603,   747.596191,   746.436218
-0.110530,   0.157329,   0.170515,   -45.371590,   721.741943,   0.536220,   26.719685,   41.249256,   579.810120,   96.560219,   -297.881134,   0.302438,   745.463989,   742.347900
-0.120246,   0.160714,   0.173930,   -75.247963,   704.216919,   0.536219,   26.719685,   40.546360,   579.116394,   49.852577,   -286.114197,   0.281532,   744.697693,   736.071655
-0.131489,   0.168031,   0.181784,   -136.158646,   667.225342,   0.536220,   26.719685,   39.843464,   571.989258,   -40.922569,   -259.694489,   0.237710,   744.699524,   715.886719
-0.143461,   0.178470,   0.193461,   -214.370941,   616.905334,   0.536220,   26.719685,   39.140564,   553.348816,   -150.814423,   -220.892715,   0.179500,   747.511658,   672.966980
-0.155203,   0.190308,   0.206861,   -271.012207,   581.152466,   0.536219,   26.719685,   38.437668,   536.420166,   -226.279892,   -190.048203,   0.137088,   754.112183,   629.660156
-0.165979,   0.201849,   0.219929,   -300.405273,   565.700745,   0.536220,   26.719685,   37.734772,   529.618408,   -264.322937,   -173.058365,   0.116097,   761.708740,   605.096191
-0.175392,   0.212086,   0.231537,   -315.677887,   560.394958,   0.536220,   26.719685,   37.031872,   528.657288,   -283.940216,   -163.698593,   0.106144,   768.504639,   593.888916
-0.183300,   0.220629,   0.241273,   -325.420044,   558.268555,   0.536220,   26.719685,   36.328976,   529.194763,   -296.346222,   -157.629013,   0.100266,   774.101929,   587.697388
-0.189711,   0.227423,   0.249086,   -332.926300,   556.718079,   0.536219,   26.719685,   35.626076,   529.498535,   -305.706787,   -153.214844,   0.095817,   778.537720,   582.713440
-0.194721,   0.232580,   0.255101,   -339.202972,   555.072449,   0.536220,   26.719685,   34.923180,   529.158142,   -313.288696,   -150.009872,   0.092022,   781.950317,   577.858826
-0.198511,   0.236330,   0.259568,   -344.404419,   553.439331,   0.536220,   26.719685,   34.220284,   528.324097,   -319.289185,   -148.049927,   0.088813,   784.548584,   573.301514
-0.201343,   0.238990,   0.262835,   -348.429901,   552.152649,   0.536220,   26.719685,   33.517384,   527.307495,   -323.584778,   -147.505295,   0.086336,   786.550964,   569.623108
-0.203526,   0.240927,   0.265305,   -351.283478,   551.470825,   0.536219,   26.719685,   32.814487,   526.377991,   -326.190643,   -148.401550,   0.084661,   788.189514,   567.260986
-0.205358,   0.242480,   0.267349,   -353.240265,   551.375061,   0.536220,   26.719685,   32.111591,   525.622620,   -327.487823,   -150.442215,   0.083637,   789.658813,   566.117676
-0.207058,   0.243894,   0.269239,   -354.742432,   551.620178,   0.536220,   26.719685,   31.408693,   524.973755,   -328.096039,   -153.105438,   0.082957,   791.081604,   565.661560
-0.208747,   0.245302,   0.271123,   -356.155945,   551.950806,   0.536220,   26.719685,   30.705795,   524.334778,   -328.539886,   -155.934860,   0.082352,   792.513306,   565.361572
-0.210476,   0.246762,   0.273063,   -357.652679,   552.238831,   0.536220,   26.719685,   30.002897,   523.659973,   -329.073822,   -158.703827,   0.081693,   793.972839,   564.950378
-0.212261,   0.248290,   0.275080,   -359.262970,   552.463745,   0.536220,   26.719685,   29.299999,   522.950439,   -329.749664,   -161.359909,   0.080959,   795.465759,   564.381470
-0.214107,   0.249893,   0.277181,   -360.962250,   552.648804,   0.536220,   26.719685,   28.597103,   522.225708,   -330.539154,   -163.918594,   0.080171,   796.994202,   563.697144
-0.216011,   0.251571,   0.279365,   -362.712677,   552.826721,   0.536220,   26.719685,   27.894205,   521.507996,   -331.393921,   -166.411194,   0.079357,   798.558167,   562.960999
-0.217973,   0.253319,   0.281630,   -364.477997,   553.027832,   0.536220,   26.719685,   27.191309,   520.816223,   -332.266388,   -168.869064,   0.078547,   800.156555,   562.234985
-0.219990,   0.255135,   0.283972,   -366.226593,   553.278198,   0.536220,   26.719685,   26.488411,   520.166138,   -333.114532,   -171.319275,   0.077764,   801.787964,   561.573853
-0.222059,   0.257015,   0.286389,   -367.931641,   553.599976,   0.536220,   26.719685,   25.785513,   519.570557,   -333.902222,   -173.784882,   0.077030,   803.451050,   561.025513
-0.224180,   0.258956,   0.288879,   -369.570129,   554.013184,   0.536220,   26.719685,   25.082615,   519.041138,   -334.598083,   -176.285431,   0.076360,   805.145569,   560.633972
-0.226351,   0.260958,   0.291442,   -371.120209,   554.537476,   0.536220,   26.719685,   24.379717,   518.588196,   -335.170929,   -178.841797,   0.075773,   806.871826,   560.443115
-0.228572,   0.263016,   0.294075,   -372.560150,   555.192932,   0.536220,   26.719685,   23.676821,   518.219421,   -335.586639,   -181.480728,   0.075285,   808.630371,   560.497925
-0.230828,   0.265116,   0.296764,   -373.864685,   555.998657,   0.536220,   26.719685,   22.973923,   517.933533,   -335.799591,   -184.245468,   0.074914,   810.418152,   560.844116
-0.233086,   0.267218,   0.299467,   -375.007477,   556.963989,   0.536220,   26.719685,   22.271025,   517.708191,   -335.751678,   -187.201141,   0.074674,   812.222351,   561.514221
-0.235278,   0.269238,   0.302097,   -375.971680,   558.070618,   0.536220,   26.719685,   21.568127,   517.482788,   -335.383850,   -190.429428,   0.074568,   814.012451,   562.494629
-0.237289,   0.271034,   0.304503,   -376.764221,   559.251160,   0.536220,   26.719685,   20.865231,   517.142639,   -334.655701,   -194.013153,   0.074570,   815.732178,   563.686279
-0.238964,   0.272406,   0.306475,   -377.434418,   560.372559,   0.536220,   26.719685,   20.162333,   516.513306,   -333.575134,   -198.009857,   0.074611,   817.299316,   564.869141
-0.240119,   0.273103,   0.307753,   -378.079254,   561.233643,   0.536219,   26.719685,   19.459436,   515.365723,   -332.211304,   -202.436356,   0.074580,   818.607361,   565.697083
-0.240529,   0.272815,   0.308017,   -378.828156,   561.572998,   0.536220,   26.719685,   18.756538,   513.419312,   -330.674469,   -207.280045,   0.074330,   819.520996,   565.717102
-0.239928,   0.271177,   0.306884,   -379.823853,   561.080322,   0.536220,   26.719685,   18.053640,   510.351013,   -329.094513,   -212.504059,   0.073693,   819.871338,   564.391968
-0.238013,   0.267772,   0.303921,   -381.227966,   559.385986,   0.536220,   26.719685,   17.350744,   505.790924,   -327.632904,   -218.036301,   0.072470,   819.451660,   561.067810
-0.234407,   0.262101,   0.298598,   -383.198303,   556.046814,   0.536220,   26.719685,   16.647846,   499.303619,   -326.455078,   -223.776657,   0.070436,   817.988525,   554.940308
-0.228713,   0.253627,   0.290350,   -385.933777,   550.505676,   0.536220,   26.719685,   15.944948,   490.379089,   -325.807190,   -229.542389,   0.067298,   815.144226,   544.910156
-0.220470,   0.241734,   0.278538,   -389.556671,   542.144409,   0.536220,   26.719685,   15.242051,   478.450745,   -325.863007,   -235.130951,   0.062756,   810.475708,   529.634644
-0.209338,   0.225907,   0.262682,   -394.181030,   530.276306,   0.536220,   26.719685,   14.539153,   462.956787,   -326.861511,   -240.212601,   0.056460,   803.490173,   507.271881
-0.195206,   0.205820,   0.242624,   -399.998749,   514.073120,   0.536220,   26.719685,   13.836256,   443.407013,   -329.332642,   -244.131500,   0.047911,   793.661560,   474.806305
-0.178144,   0.181331,   0.218624,   -407.136841,   492.709961,   0.536220,   26.719685,   13.133358,   419.459991,   -333.886871,   -246.065414,   0.036548,   780.463867,   427.034851
-0.158391,   0.152570,   0.191664,   -415.558502,   465.702545,   0.536220,   26.719685,   12.430461,   391.165039,   -341.020996,   -245.216568,   0.021889,   763.606201,   352.485565
-0.137234,   0.120577,   0.164476,   -429.431305,   429.432526,   0.536220,   26.719685,   11.727564,   357.449493,   -357.448273,   -237.995926,   0.000001,   743.797913,   10.208301
-0.117753,   0.087829,   0.140815,   -452.422943,   382.176239,   0.536220,   26.719685,   11.024666,   318.089691,   -388.336395,   -222.214996,   -0.032358,   723.637024,   -380.303986
-0.106419,   0.060456,   0.125631,   -472.191986,   343.264679,   0.536220,   26.719685,   10.321769,   286.540009,   -415.467316,   -207.457993,   -0.060602,   709.142273,   -458.174011
-0.121144,   0.055364,   0.134312,   -614.871948,   172.130981,   0.536220,   26.719685,   9.618871,   166.514694,   -609.255676,   -66.245667,   -0.205941,   716.613647,   -667.681580
-0.163326,   0.072911,   0.180148,   -723.500183,   28.260912,   0.536220,   26.719685,   8.915974,   9.518469,   -704.757751,   117.211609,   -0.314004,   738.036560,   -736.817749
-0.143890,   0.335578,   0.347468,   0.000000,   848.933838,   0.536501,   27.665697,   50.023975,   713.001526,   146.828949,   -308.931610,   0.339771,   843.538269,   843.379944
-0.132812,   0.317392,   0.329369,   0.000000,   845.079468,   0.536499,   27.665697,   49.309357,   703.075012,   158.687149,   -312.203125,   0.343251,   836.862915,   836.488586
-0.122499,   0.298077,   0.309781,   0.000000,   839.380188,   0.536501,   27.665697,   48.594734,   692.154114,   168.667328,   -314.239441,   0.346184,   828.867554,   828.243347
-0.113171,   0.278181,   0.289208,   0.000000,   831.496277,   0.536501,   27.665697,   47.880116,   680.663940,   175.425003,   -314.573914,   0.348226,   819.476746,   818.645813
-0.105268,   0.258463,   0.268410,   0.000000,   821.362122,   0.536499,   27.665697,   47.165497,   668.590942,   178.131470,   -313.475830,   0.348885,   808.980164,   808.085022
-0.099158,   0.239695,   0.248308,   0.000000,   809.721130,   0.536499,   27.665697,   46.450878,   656.346680,   177.589264,   -311.372559,   0.348392,   797.889343,   797.062012
-0.094846,   0.222306,   0.229793,   0.000000,   797.522583,   0.536501,   27.665697,   45.736256,   644.434937,   174.919876,   -308.727661,   0.347111,   786.833618,   786.151733
-0.092017,   0.206247,   0.213520,   0.000000,   785.466187,   0.536501,   27.665697,   45.021637,   633.089844,   170.745102,   -306.053864,   0.345092,   776.444824,   775.955750
-0.090539,   0.191660,   0.199725,   0.000000,   773.863953,   0.536501,   27.665697,   44.307014,   622.560486,   165.064529,   -303.501984,   0.342263,   767.075989,   766.798218
-0.090614,   0.179091,   0.188442,   0.000000,   762.780884,   0.536499,   27.665697,   43.592396,   613.148438,   157.451431,   -300.959991,   0.338472,   758.901611,   758.810974
-0.092380,   0.168952,   0.179605,   0.000000,   752.157654,   0.536501,   27.665697,   42.877777,   605.022705,   147.399857,   -298.296814,   0.333509,   752.025208,   752.025146
-0.095910,   0.161507,   0.173147,   -9.374033,   741.801208,   0.536499,   27.665697,   42.163158,   598.220703,   134.206482,   -295.362091,   0.327035,   746.532349,   746.399963
-0.101261,   0.157052,   0.169234,   -21.826433,   731.414612,   0.536501,   27.665697,   41.448536,   593.008118,   116.580048,   -291.714050,   0.318529,   742.568481,   741.846252
-0.108431,   0.155881,   0.168242,   -39.261459,   719.847961,   0.536499,   27.665697,   40.733917,   589.487122,   91.099373,   -286.293884,   0.306463,   740.259949,   737.911926
-0.117309,   0.158251,   0.170730,   -67.632263,   703.107483,   0.536501,   27.665697,   40.019299,   587.311890,   48.163349,   -275.390015,   0.286541,   739.247620,   732.238647
-0.127645,   0.164277,   0.177274,   -123.395103,   669.568909,   0.536501,   27.665697,   39.304676,   579.879150,   -33.705357,   -251.150330,   0.246346,   739.033386,   715.304138
-0.138739,   0.173335,   0.187481,   -200.393097,   620.510986,   0.536499,   27.665697,   38.590057,   560.554260,   -140.436386,   -213.597534,   0.188908,   741.307861,   676.229492
-0.149693,   0.183929,   0.199563,   -261.578583,   581.418579,   0.536501,   27.665697,   37.875439,   540.438110,   -220.598099,   -181.292648,   0.142652,   747.367126,   631.313416
-0.159755,   0.194408,   0.211515,   -295.162567,   562.491028,   0.536499,   27.665697,   37.160820,   530.319946,   -262.991486,   -162.962189,   0.118076,   754.680969,   602.609375
-0.168495,   0.203696,   0.222127,   -312.740021,   555.101318,   0.536501,   27.665697,   36.446198,   527.136475,   -284.775177,   -153.254761,   0.106120,   761.279297,   588.263855
-0.175760,   0.211358,   0.230941,   -323.801147,   551.662415,   0.536499,   27.665697,   35.731579,   526.112610,   -298.251343,   -147.360519,   0.099068,   766.686035,   579.881470
-0.181563,   0.217332,   0.237898,   -332.194031,   549.145081,   0.536501,   27.665697,   35.016960,   525.175476,   -308.224457,   -143.355484,   0.093805,   770.931824,   573.177002
-0.186027,   0.221757,   0.243154,   -339.048615,   546.807434,   0.536501,   27.665697,   34.302338,   523.843933,   -316.085144,   -140.765823,   0.089454,   774.174805,   567.011597
-0.189374,   0.224906,   0.247008,   -344.509308,   544.806580,   0.536501,   27.665697,   33.587719,   522.297607,   -322.000366,   -139.681473,   0.085966,   776.654236,   561.687744
-0.191908,   0.227144,   0.249857,   -348.540802,   543.461975,   0.536498,   27.665697,   32.873100,   520.840820,   -325.919678,   -140.236954,   0.083447,   778.620789,   557.799072
-0.193959,   0.228849,   0.252118,   -351.344727,   542.875671,   0.536502,   27.665697,   32.158482,   519.640503,   -328.109558,   -142.258514,   0.081818,   780.316345,   555.503784
-0.195800,   0.230327,   0.254129,   -353.406769,   542.823425,   0.536500,   27.665697,   31.443859,   518.645996,   -329.229340,   -145.203308,   0.080749,   781.915039,   554.306091
-0.197597,   0.231761,   0.256092,   -355.226837,   542.971313,   0.536500,   27.665697,   30.729240,   517.715759,   -329.971252,   -148.481216,   0.079874,   783.506226,   553.499023
-0.199425,   0.233233,   0.258099,   -357.088104,   543.109619,   0.536501,   27.665697,   30.014620,   516.758545,   -330.737061,   -151.745773,   0.078978,   785.122864,   552.639465
-0.201308,   0.234769,   0.260181,   -359.071075,   543.179382,   0.536499,   27.665697,   29.299999,   515.754517,   -331.646240,   -154.893356,   0.078001,   786.775635,   551.597229
-0.203256,   0.236381,   0.262350,   -361.166809,   543.192261,   0.536501,   27.665697,   28.585381,   514.717468,   -332.692017,   -157.925964,   0.076953,   788.468323,   550.388184
-0.205270,   0.238070,   0.264608,   -363.341309,   543.179138,   0.536500,   27.665697,   27.870760,   513.669495,   -333.831635,   -160.873520,   0.075862,   790.202454,   549.071045
-0.207350,   0.239835,   0.266957,   -365.556671,   543.173218,   0.536501,   27.665697,   27.156141,   512.632080,   -335.015564,   -163.770752,   0.074756,   791.978149,   547.712524
-0.209495,   0.241675,   0.269394,   -367.778839,   543.203552,   0.536499,   27.665697,   26.441521,   511.623016,   -336.198303,   -166.649261,   0.073665,   793.794739,   546.373962
-0.211704,   0.243585,   0.271917,   -369.977783,   543.295837,   0.536501,   27.665697,   25.726900,   510.657104,   -337.339081,   -169.536987,   0.072611,   795.651550,   545.111755
-0.213977,   0.245565,   0.274527,   -372.127808,   543.473022,   0.536500,   27.665697,   25.012281,   509.747345,   -338.402100,   -172.458267,   0.071613,   797.548401,   543.977905
-0.216312,   0.247612,   0.277221,   -374.203674,   543.758301,   0.536500,   27.665697,   24.297661,   508.906006,   -339.351349,   -175.437775,   0.070693,   799.485962,   543.026123
-0.218711,   0.249724,   0.280001,   -376.179718,   544.176147,   0.536500,   27.665697,   23.583042,   508.144012,   -340.147552,   -178.505142,   0.069871,   801.465454,   542.314514
-0.221164,   0.251890,   0.282856,   -378.025879,   544.752075,   0.536501,   27.665697,   22.868422,   507.466461,   -340.740265,   -181.703369,   0.069168,   803.485352,   541.906250
-0.223645,   0.254079,   0.285756,   -379.710052,   545.504456,   0.536499,   27.665697,   22.153801,   506.860901,   -341.066498,   -185.095291,   0.068606,   805.536072,   541.857361
-0.226098,   0.256220,   0.288626,   -381.206696,   546.428833,   0.536501,   27.665697,   21.439182,   506.281158,   -341.059052,   -188.760559,   0.068195,   807.592285,   542.184753
-0.228424,   0.258191,   0.291341,   -382.512787,   547.473877,   0.536500,   27.665697,   20.724562,   505.628662,   -340.667603,   -192.780838,   0.067918,   809.604492,   542.819458
-0.230485,   0.259813,   0.293712,   -383.667603,   548.523499,   0.536501,   27.665697,   20.009941,   504.745148,   -339.889252,   -197.213669,   0.067717,   811.498352,   543.565247
-0.232111,   0.260854,   0.295503,   -384.763031,   549.387512,   0.536499,   27.665697,   19.295322,   503.411438,   -338.786957,   -202.076187,   0.067482,   813.174805,   544.076355
-0.233091,   0.261023,   0.296413,   -385.930511,   549.806580,   0.536501,   27.665697,   18.580702,   501.349731,   -337.473633,   -207.351929,   0.067066,   814.504028,   543.873291
-0.233167,   0.259962,   0.296072,   -387.323212,   549.461182,   0.536500,   27.665697,   17.866083,   498.231628,   -336.093658,   -212.994293,   0.066288,   815.319458,   542.362305
-0.232037,   0.257249,   0.294046,   -389.148071,   547.937134,   0.536500,   27.665697,   17.151463,   493.653687,   -334.864594,   -218.909897,   0.064911,   815.414062,   538.742554
-0.229339,   0.252377,   0.289812,   -391.633789,   544.728027,   0.536500,   27.665697,   16.436844,   487.131012,   -334.036743,   -224.976120,   0.062652,   814.518005,   531.988586
-0.224697,   0.244786,   0.282813,   -395.120087,   539.153748,   0.536500,   27.665697,   15.722223,   478.066925,   -334.033264,   -230.955048,   0.059105,   812.303589,   520.561584
-0.217674,   0.233819,   0.272419,   -399.830688,   530.507751,   0.536501,   27.665697,   15.007604,   465.837921,   -335.160889,   -236.606476,   0.053887,   808.341675,   502.605011
-0.207989,   0.218911,   0.258220,   -405.982697,   518.054626,   0.536500,   27.665697,   14.292984,   449.874939,   -337.803009,   -241.561813,   0.046569,   802.199341,   475.451355
-0.195553,   0.199704,   0.240195,   -413.751984,   501.097168,   0.536501,   27.665697,   13.578364,   429.797577,   -342.452393,   -245.244232,   0.036693,   793.485352,   434.727264
-0.180350,   0.175969,   0.218780,   -423.953674,   478.375641,   0.536500,   27.665697,   12.863744,   404.928802,   -350.506836,   -246.736282,   0.023200,   781.913757,   367.982422
-0.162974,   0.147989,   0.195686,   -437.339355,   449.335693,   0.536500,   27.665697,   12.149125,   375.429413,   -363.433075,   -245.089203,   0.005207,   767.906555,   219.739014
-0.145640,   0.117551,   0.174317,   -455.500793,   413.889496,   0.536500,   27.665697,   11.434505,   342.753387,   -384.364685,   -238.295410,   -0.018415,   753.201477,   -328.267426
-0.133125,   0.088608,   0.159217,   -491.368988,   360.959045,   0.536500,   27.665697,   10.719885,   301.848816,   -432.258759,   -216.534714,   -0.058663,   741.012085,   -473.712982
-0.133852,   0.068396,   0.155028,   -536.431824,   305.363220,   0.536500,   27.665697,   10.005265,   258.516022,   -489.584656,   -192.979477,   -0.104351,   738.114075,   -567.394348
-0.166486,   0.074550,   0.184378,   -713.964478,   94.366592,   0.536500,   27.665697,   9.290645,   94.147087,   -713.744995,   -13.318668,   -0.269793,   765.522522,   -752.269958
-0.225717,   0.100890,   0.248987,   -847.126892,   0.000000,   0.536500,   27.665697,   8.576026,   -75.385391,   -816.786194,   153.020126,   -0.360243,   825.526672,   -822.754822
-0.140836,   0.322619,   0.331418,   0.000000,   832.644958,   0.536478,   28.595657,   50.404324,   720.142151,   118.471977,   -283.454559,   0.336924,   829.676514,   829.628174
-0.131148,   0.308917,   0.318230,   0.000000,   831.363159,   0.536478,   28.595657,   49.676586,   712.809753,   131.264221,   -288.095703,   0.341006,   825.081238,   824.860840
-0.121900,   0.293678,   0.303207,   0.000000,   828.310303,   0.536478,   28.595657,   48.948853,   704.143127,   142.579178,   -291.796692,   0.344507,   819.259521,   818.793884
-0.113249,   0.277283,   0.286669,   0.000000,   823.320679,   0.536478,   28.595657,   48.221115,   694.595947,   151.699219,   -294.031128,   0.347379,   812.077209,   811.345520
-0.105510,   0.260300,   0.269147,   0.000000,   816.173157,   0.536477,   28.595657,   47.493382,   684.221619,   157.639130,   -294.778839,   0.349188,   803.637329,   802.712830
-0.099085,   0.243443,   0.251376,   0.000000,   807.142639,   0.536478,   28.595657,   46.765648,   673.197571,   160.344086,   -294.339020,   0.349814,   794.272217,   793.284302
-0.094205,   0.227342,   0.234176,   0.000000,   796.981262,   0.536478,   28.595657,   46.037910,   661.988281,   160.665375,   -293.083923,   0.349563,   784.460205,   783.514221
-0.090808,   0.212244,   0.218264,   0.000000,   786.406738,   0.536478,   28.595657,   45.310177,   650.961121,   159.340668,   -291.433289,   0.348636,   774.735657,   773.905945
-0.088606,   0.198067,   0.204134,   0.000000,   775.893738,   0.536478,   28.595657,   44.582439,   640.302368,   156.650787,   -289.765442,   0.346993,   765.581299,   764.929260
-0.087582,   0.185051,   0.191994,   0.000000,   765.657715,   0.536478,   28.595657,   43.854706,   630.274719,   152.458893,   -288.126160,   0.344544,   757.264160,   756.830750
-0.087931,   0.173729,   0.181942,   0.000000,   755.752625,   0.536478,   28.595657,   43.126968,   621.177612,   146.312881,   -286.383209,   0.341128,   749.952576,   749.745911
-0.089754,   0.164437,   0.173912,   0.000000,   746.077820,   0.536477,   28.595657,   42.399235,   613.111450,   137.711777,   -284.415588,   0.336519,   743.716492,   743.682373
-0.093136,   0.157442,   0.167908,   -4.456344,   736.417175,   0.536478,   28.595657,   41.671501,   606.100952,   125.859879,   -282.073608,   0.330312,   738.655396,   738.625244
-0.098145,   0.153062,   0.164129,   -16.579142,   726.481018,   0.536478,   28.595657,   40.943764,   600.454346,   109.447548,   -278.859619,   0.321990,   734.910889,   734.489929
-0.104777,   0.151587,   0.162929,   -33.891998,   715.077026,   0.536478,   28.595657,   40.216030,   596.134644,   85.050392,   -273.746002,   0.309935,   732.611206,   730.844177
-0.112970,   0.153323,   0.164872,   -61.889889,   698.602600,   0.536478,   28.595657,   39.488293,   592.738159,   43.974552,   -263.252411,   0.290135,   731.513794,   725.588379
-0.122494,   0.158396,   0.170479,   -114.730293,   667.076416,   0.536478,   28.595657,   38.760559,   584.601196,   -32.255100,   -240.161407,   0.251791,   731.223511,   710.549438
-0.132759,   0.166333,   0.179506,   -190.144409,   619.458557,   0.536478,   28.595657,   38.032822,   564.617004,   -135.302872,   -203.450928,   0.195162,   733.260071,   674.365601
-0.142922,   0.175817,   0.190407,   -253.868195,   578.631836,   0.536477,   28.595657,   37.305088,   542.187500,   -217.423859,   -170.328293,   0.146483,   739.026489,   629.062805
-0.152238,   0.185273,   0.201272,   -290.387390,   557.301697,   0.536478,   28.595657,   36.577354,   529.430237,   -262.515930,   -151.160522,   0.119240,   746.152344,   597.579346
-0.160261,   0.193608,   0.210873,   -309.768860,   548.250916,   0.536478,   28.595657,   35.849617,   524.311157,   -285.829102,   -141.307037,   0.105630,   752.573486,   580.701538
-0.166836,   0.200367,   0.218730,   -321.957275,   543.640625,   0.536478,   28.595657,   35.121883,   521.826782,   -300.143433,   -135.669327,   0.097514,   757.780090,   570.313782
-0.171989,   0.205501,   0.224800,   -331.095398,   540.247803,   0.536478,   28.595657,   34.394146,   519.713684,   -310.561279,   -132.176483,   0.091515,   761.817200,   561.998169
-0.175883,   0.209191,   0.229287,   -338.326477,   537.378845,   0.536478,   28.595657,   33.666412,   517.509094,   -318.456757,   -130.404068,   0.086746,   764.885803,   554.768555
-0.178795,   0.211771,   0.232552,   -343.805481,   535.215637,   0.536477,   28.595657,   32.938675,   515.406250,   -323.996094,   -130.462479,   0.083159,   767.247009,   549.044312
-0.181070,   0.213643,   0.235038,   -347.683167,   533.978333,   0.536479,   28.595657,   32.210941,   513.653259,   -327.358093,   -132.312973,   0.080731,   769.201965,   545.254639
-0.183032,   0.215174,   0.237148,   -350.462860,   533.493652,   0.536478,   28.595657,   31.483206,   512.228943,   -329.198120,   -135.443405,   0.079133,   770.979553,   543.027161
-0.184901,   0.216602,   0.239149,   -352.782135,   533.363220,   0.536479,   28.595657,   30.755470,   510.949707,   -330.368591,   -139.137634,   0.077899,   772.717651,   541.512878
-0.186781,   0.218043,   0.241167,   -355.070648,   533.274719,   0.536478,   28.595657,   30.027735,   509.660797,   -331.456726,   -142.897537,   0.076699,   774.472290,   540.044006
-0.188709,   0.219537,   0.243249,   -357.479156,   533.115906,   0.536478,   28.595657,   29.299999,   508.311371,   -332.674652,   -146.545273,   0.075420,   776.261353,   538.372131
-0.190698,   0.221097,   0.245411,   -360.020386,   532.881836,   0.536478,   28.595657,   28.572264,   506.906219,   -334.044739,   -150.063232,   0.074054,   778.091309,   536.474121
-0.192754,   0.222729,   0.247660,   -362.668213,   532.598206,   0.536478,   28.595657,   27.844528,   505.465271,   -335.535278,   -153.476456,   0.072623,   779.965088,   534.394104
-0.194876,   0.224434,   0.249999,   -365.385895,   532.298157,   0.536478,   28.595657,   27.116795,   504.010590,   -337.098328,   -156.821884,   0.071158,   781.883911,   532.196594
-0.197066,   0.226210,   0.252426,   -368.138245,   532.012756,   0.536478,   28.595657,   26.389059,   502.561371,   -338.686859,   -160.135315,   0.069688,   783.847900,   529.944946
-0.199324,   0.228055,   0.254942,   -370.893555,   531.769958,   0.536478,   28.595657,   25.661324,   501.133850,   -340.257446,   -163.448822,   0.068238,   785.857056,   527.700073
-0.201649,   0.229968,   0.257546,   -373.624023,   531.594971,   0.536478,   28.595657,   24.933588,   499.741821,   -341.770874,   -166.791626,   0.066831,   787.911621,   525.518860
-0.204042,   0.231945,   0.260238,   -376.303070,   531.512695,   0.536478,   28.595657,   24.205853,   498.398285,   -343.188629,   -170.191772,   0.065488,   790.012451,   523.461426
-0.206504,   0.233986,   0.263018,   -378.902374,   531.550598,   0.536478,   28.595657,   23.478117,   497.115753,   -344.467560,   -173.682266,   0.064233,   792.160828,   521.595215
-0.209028,   0.236081,   0.265880,   -381.388641,   531.738647,   0.536478,   28.595657,   22.750381,   495.903137,   -345.553131,   -177.308182,   0.063091,   794.356567,   519.999390
-0.211594,   0.238203,   0.268797,   -383.724823,   532.102417,   0.536478,   28.595657,   22.022648,   494.755188,   -346.377625,   -181.131912,   0.062088,   796.591858,   518.751953
-0.214153,   0.240292,   0.271710,   -385.876099,   532.649536,   0.536478,   28.595657,   21.294912,   493.637695,   -346.864258,   -185.233475,   0.061244,   798.844482,   517.904419
-0.216618,   0.242239,   0.274505,   -387.827637,   533.344238,   0.536478,   28.595657,   20.567177,   492.466888,   -346.950287,   -189.694794,   0.060551,   801.069275,   517.424377
-0.218866,   0.243883,   0.277016,   -389.607697,   534.085083,   0.536478,   28.595657,   19.839441,   491.098846,   -346.621460,   -194.571991,   0.059959,   803.196594,   517.140442
-0.220738,   0.245009,   0.279025,   -391.299622,   534.692322,   0.536478,   28.595657,   19.111706,   489.324402,   -345.931732,   -199.880127,   0.059366,   805.131165,   516.707947
-0.222037,   0.245339,   0.280249,   -393.038727,   534.903503,   0.536478,   28.595657,   18.383970,   486.865112,   -345.000336,   -205.594635,   0.058616,   806.745911,   515.600281
-0.222515,   0.244526,   0.280335,   -394.990662,   534.385498,   0.536478,   28.595657,   17.656237,   483.382874,   -343.988007,   -211.658646,   0.057515,   807.875488,   513.135193
-0.221881,   0.242149,   0.278858,   -397.402161,   532.681213,   0.536478,   28.595657,   16.928501,   478.438080,   -343.158997,   -217.964081,   0.055787,   808.310852,   508.317444
-0.219794,   0.237697,   0.275313,   -400.562775,   529.225281,   0.536479,   28.595657,   16.200766,   471.502075,   -342.839569,   -224.362167,   0.053093,   807.785767,   499.822418
-0.215928,   0.230603,   0.269186,   -404.879059,   523.281250,   0.536478,   28.595657,   15.473030,   461.946320,   -343.544128,   -230.578995,   0.048968,   805.987549,   485.650696
-0.209899,   0.220202,   0.259927,   -410.684814,   514.065918,   0.536478,   28.595657,   14.745295,   449.112091,   -345.730988,   -236.319916,   0.042940,   802.524048,   463.105469
-0.201475,   0.205911,   0.247248,   -418.273712,   500.833923,   0.536478,   28.595657,   14.017559,   432.452820,   -349.892609,   -241.192093,   0.034528,   797.040283,   427.978577
-0.190443,   0.187287,   0.231199,   -428.003845,   482.798798,   0.536478,   28.595657,   13.289824,   411.473511,   -356.678558,   -244.695648,   0.023142,   789.253906,   371.126801
-0.176925,   0.164128,   0.212701,   -440.781952,   459.029480,   0.536478,   28.595657,   12.562089,   385.737091,   -367.489563,   -246.125092,   0.007805,   779.312988,   255.199463
-0.162314,   0.137329,   0.194201,   -459.749420,   427.210724,   0.536478,   28.595657,   11.834353,   354.553162,   -387.091858,   -243.239075,   -0.014117,   768.302368,   -306.501404
-0.149648,   0.109227,   0.179124,   -486.028931,   388.118073,   0.536478,   28.595657,   11.106618,   319.255951,   -417.166809,   -235.485947,   -0.043022,   758.614746,   -438.041687
-0.145122,   0.085351,   0.172720,   -528.066895,   335.712891,   0.536478,   28.595657,   10.378882,   278.255798,   -470.609772,   -215.241638,   -0.085013,   754.212585,   -543.525757
-0.160344,   0.075167,   0.182037,   -625.855286,   223.737045,   0.536478,   28.595657,   9.651148,   193.050812,   -595.169067,   -158.521759,   -0.175733,   762.745117,   -682.852417
-0.208936,   0.091681,   0.230695,   -808.666565,   0.000000,   0.536478,   28.595657,   8.923412,   -8.132873,   -806.338257,   43.172913,   -0.336929,   805.780029,   -805.732971
-0.280802,   0.125927,   0.309437,   -906.802612,   0.000000,   0.536478,   28.595657,   8.195677,   -133.763382,   -867.515869,   174.270401,   -0.386542,   863.449463,   -851.704468
-0.133578,   0.301221,   0.307045,   0.000000,   812.868530,   0.536039,   29.507784,   50.824341,   722.299866,   93.005768,   -255.337067,   0.334834,   811.652771,   811.644470
-0.125517,   0.291771,   0.298372,   0.000000,   813.940491,   0.536039,   29.507784,   50.082123,   717.314026,   106.624489,   -261.429626,   0.339494,   808.987854,   808.848816
-0.117636,   0.280599,   0.287762,   0.000000,   813.227661,   0.536040,   29.507784,   49.339905,   710.792969,   118.791489,   -266.710266,   0.343439,   805.173889,   804.799927
-0.110044,   0.267946,   0.275385,   0.000000,   810.703491,   0.536039,   29.507784,   48.597683,   703.122253,   129.276352,   -270.755951,   0.346800,   800.076599,   799.414368
-0.102965,   0.254199,   0.261566,   0.000000,   806.189758,   0.536039,   29.507784,   47.855469,   694.468140,   137.368652,   -273.352875,   0.349360,   793.677124,   792.743958
-0.096721,   0.239894,   0.246812,   0.000000,   799.671143,   0.536040,   29.507784,   47.113247,   684.881348,   142.577393,   -274.640961,   0.350850,   786.145752,   785.039673
-0.091640,   0.225660,   0.231795,   0.000000,   791.604919,   0.536039,   29.507784,   46.371029,   674.652710,   145.280655,   -274.934662,   0.351377,   777.827698,   776.665771
-0.087867,   0.211998,   0.217231,   0.000000,   782.668823,   0.536039,   29.507784,   45.628811,   664.219910,   146.199158,   -274.570801,   0.351210,   769.169189,   768.041748
-0.085297,   0.199029,   0.203703,   0.000000,   773.403687,   0.536040,   29.507784,   44.886593,   653.871582,   145.768204,   -273.902557,   0.350431,   760.625122,   759.606018
-0.083696,   0.186683,   0.191595,   0.000000,   764.167664,   0.536039,   29.507784,   44.144371,   643.778137,   144.134293,   -273.213318,   0.348985,   752.576233,   751.732727
-0.083132,   0.175277,   0.181114,   0.000000,   755.116577,   0.536039,   29.507784,   43.402153,   634.228027,   141.042297,   -272.460144,   0.346763,   745.244080,   744.630615
-0.083778,   0.165284,   0.172355,   0.000000,   746.267944,   0.536040,   29.507784,   42.659935,   625.476257,   136.030182,   -271.498901,   0.343594,   738.766541,   738.412781
-0.085722,   0.156974,   0.165263,   0.000000,   737.469788,   0.536039,   29.507784,   41.917717,   617.539185,   128.550476,   -270.237061,   0.339194,   733.197876,   733.083923
-0.089036,   0.150628,   0.159894,   -0.243105,   728.507874,   0.536039,   29.507784,   41.175499,   610.517883,   117.746895,   -268.446808,   0.333167,   728.629456,   728.629333
-0.093794,   0.146542,   0.156440,   -12.259091,   718.997375,   0.536040,   29.507784,   40.433281,   604.564087,   102.174210,   -265.678589,   0.324845,   725.204651,   724.971497
-0.100020,   0.145052,   0.155296,   -29.684795,   707.748718,   0.536039,   29.507784,   39.691059,   599.744934,   78.318962,   -260.731232,   0.312595,   723.048279,   721.675293
-0.107636,   0.146438,   0.156965,   -58.206001,   691.107605,   0.536039,   29.507784,   38.948841,   595.281189,   37.620426,   -250.242569,   0.292209,   721.972473,   716.665100
-0.116438,   0.150853,   0.161945,   -110.258331,   660.230530,   0.536040,   29.507784,   38.206623,   586.028320,   -36.056114,   -227.301590,   0.254015,   721.704346,   702.380005
-0.125909,   0.157903,   0.170050,   -184.547867,   613.607422,   0.536039,   29.507784,   37.464405,   565.033936,   -135.974365,   -190.813553,   0.197610,   723.748535,   667.662964
-0.135272,   0.166407,   0.179902,   -249.068466,   572.298584,   0.536039,   29.507784,   36.722187,   540.932495,   -217.702377,   -157.414246,   0.147704,   729.453430,   622.396301
-0.143798,   0.174873,   0.189702,   -286.945312,   549.787109,   0.536040,   29.507784,   35.979969,   526.359192,   -263.517395,   -138.036301,   0.118968,   736.452515,   589.400818
-0.151044,   0.182234,   0.198255,   -307.355774,   539.652710,   0.536039,   29.507784,   35.237751,   519.743103,   -287.446167,   -128.324600,   0.104262,   742.669434,   570.745178
-0.156862,   0.188048,   0.205099,   -320.293091,   534.112732,   0.536039,   29.507784,   34.495529,   515.998291,   -302.178650,   -123.081078,   0.095333,   747.620667,   558.682739
-0.161312,   0.192309,   0.210238,   -329.852020,   530.051331,   0.536039,   29.507784,   33.753311,   512.882141,   -312.682861,   -120.287346,   0.088812,   751.395569,   549.073181
-0.164619,   0.195270,   0.213950,   -337.083679,   526.924866,   0.536040,   29.507784,   33.011093,   510.032532,   -320.191345,   -119.623451,   0.083898,   754.249939,   541.270508
-0.167121,   0.197331,   0.216672,   -342.258392,   524.891357,   0.536039,   29.507784,   32.268875,   507.637390,   -325.004395,   -121.095383,   0.080472,   756.505310,   535.703857
-0.169186,   0.198907,   0.218862,   -345.894745,   523.856201,   0.536040,   29.507784,   31.526657,   505.725647,   -327.764221,   -124.259148,   0.078211,   758.463928,   532.207764
-0.171089,   0.200305,   0.220859,   -348.769684,   523.367004,   0.536040,   29.507784,   30.784437,   504.071045,   -329.473724,   -128.282394,   0.076545,   760.320862,   529.834656
-0.172974,   0.201679,   0.222837,   -351.501984,   523.003784,   0.536039,   29.507784,   30.042219,   502.448761,   -330.946960,   -132.487640,   0.075005,   762.183350,   527.669800
-0.174895,   0.203087,   0.224860,   -354.341461,   522.572754,   0.536040,   29.507784,   29.299999,   500.752167,   -332.520874,   -136.596680,   0.073392,   764.074219,   525.288635
-0.176866,   0.204546,   0.226947,   -357.329773,   522.046753,   0.536040,   29.507784,   28.557781,   498.972107,   -334.255127,   -140.566193,   0.071678,   766.002747,   522.614380
-0.178895,   0.206062,   0.229109,   -360.451691,   521.442749,   0.536039,   29.507784,   27.815563,   497.124176,   -336.133118,   -144.412689,   0.069877,   767.973206,   519.667358
-0.180985,   0.207638,   0.231349,   -363.673218,   520.792114,   0.536040,   29.507784,   27.073343,   495.230865,   -338.111938,   -148.171112,   0.068018,   769.987488,   516.502380
-0.183137,   0.209274,   0.233669,   -366.957092,   520.128418,   0.536040,   29.507784,   26.331125,   493.313873,   -340.142548,   -151.880768,   0.066132,   772.046570,   513.184326
-0.185351,   0.210968,   0.236068,   -370.271393,   519.479858,   0.536039,   29.507784,   25.588907,   491.389862,   -342.181396,   -155.576584,   0.064246,   774.150391,   509.770538
-0.187628,   0.212717,   0.238545,   -373.587128,   518.873047,   0.536040,   29.507784,   24.846687,   489.472900,   -344.187012,   -159.292404,   0.062384,   776.299438,   506.319214
-0.189968,   0.214519,   0.241101,   -376.877472,   518.333069,   0.536040,   29.507784,   24.104469,   487.575500,   -346.119934,   -163.059662,   0.060568,   778.494629,   502.888977
-0.192371,   0.216370,   0.243735,   -380.113373,   517.887756,   0.536039,   29.507784,   23.362249,   485.710114,   -347.935699,   -166.913681,   0.058822,   780.736816,   499.550232
-0.194833,   0.218262,   0.246440,   -383.258331,   517.570740,   0.536040,   29.507784,   22.620031,   483.888214,   -349.575836,   -170.902512,   0.057177,   783.026001,   496.393982
-0.197335,   0.220169,   0.249194,   -386.271851,   517.411621,   0.536039,   29.507784,   21.877813,   482.108826,   -350.969086,   -175.089233,   0.055661,   785.354797,   493.515289
-0.199834,   0.222036,   0.251943,   -389.110992,   517.426880,   0.536040,   29.507784,   21.135595,   480.346283,   -352.030396,   -179.555008,   0.054300,   787.702026,   490.997162
-0.202250,   0.223764,   0.254583,   -391.748962,   517.593323,   0.536040,   29.507784,   20.393375,   478.528595,   -352.684235,   -184.383209,   0.053097,   790.023315,   488.845886
-0.204469,   0.225203,   0.256964,   -394.204224,   517.820312,   0.536039,   29.507784,   19.651157,   476.522797,   -352.906738,   -189.628174,   0.052010,   792.251099,   486.912628
-0.206342,   0.226150,   0.258880,   -396.554962,   517.931702,   0.536040,   29.507784,   18.908939,   474.123749,   -352.747009,   -195.301407,   0.050937,   794.290527,   484.838593
-0.207684,   0.226340,   0.260064,   -398.943481,   517.654541,   0.536040,   29.507784,   18.166719,   471.046082,   -352.335022,   -201.367477,   0.049711,   796.013184,   482.018707
-0.208255,   0.225430,   0.260175,   -401.555786,   516.627869,   0.536039,   29.507784,   17.424501,   466.928406,   -351.856293,   -207.757599,   0.048112,   797.249207,   477.611145
-0.207781,   0.222994,   0.258800,   -404.658630,   514.364929,   0.536040,   29.507784,   16.682283,   461.302826,   -351.596527,   -214.358871,   0.045838,   797.785706,   470.381073
-0.205966,   0.218541,   0.255493,   -408.590393,   510.264923,   0.536040,   29.507784,   15.940063,   453.608826,   -351.934296,   -221.017731,   0.042504,   797.374268,   458.587921
-0.202533,   0.211510,   0.249807,   -413.787201,   503.569946,   0.536039,   29.507784,   15.197845,   443.215210,   -353.432465,   -227.429428,   0.037611,   795.721863,   439.528046
-0.197162,   0.201254,   0.241320,   -420.678345,   493.448761,   0.536039,   29.507784,   14.455626,   429.445404,   -356.674988,   -233.261169,   0.030608,   792.492981,   408.888397
-0.189542,   0.187157,   0.229812,   -429.695831,   479.053314,   0.536039,   29.507784,   13.713408,   411.651550,   -362.294067,   -238.135025,   0.020895,   787.386719,   357.890686
-0.179438,   0.168696,   0.215569,   -441.620941,   459.373627,   0.536040,   29.507784,   12.971189,   389.102539,   -371.349854,   -241.610916,   0.007583,   780.334656,   253.093216
-0.167537,   0.146089,   0.200179,   -457.954590,   433.391998,   0.536040,   29.507784,   12.228970,   361.482086,   -386.044678,   -242.746017,   -0.010605,   772.026489,   -280.002075
-0.155916,   0.120849,   0.186294,   -481.715820,   399.184570,   0.536039,   29.507784,   11.486752,   328.393341,   -410.924591,   -239.475723,   -0.036009,   763.997375,   -415.974854
-0.148675,   0.096316,   0.177529,   -520.507812,   350.411652,   0.536040,   29.507784,   10.744533,   286.211761,   -456.307953,   -227.577042,   -0.074700,   759.018311,   -524.790771
-0.153216,   0.079056,   0.179360,   -570.765137,   294.568207,   0.536039,   29.507784,   10.002314,   240.270599,   -516.467529,   -209.850662,   -0.120818,   762.018677,   -612.723755
-0.183177,   0.080632,   0.204235,   -726.566895,   102.275673,   0.536039,   29.507784,   9.260096,   92.119995,   -716.411194,   -91.182884,   -0.265860,   782.732239,   -767.483337
-0.241963,   0.104851,   0.266288,   -871.664429,   0.000000,   0.536039,   29.507784,   8.517877,   -94.469246,   -858.579285,   100.844902,   -0.380935,   833.955994,   -824.950928
-0.318794,   0.144460,   0.350591,   -939.905029,   0.000000,   0.536039,   29.507784,   7.775658,   -168.730011,   -889.992432,   196.192169,   -0.398096,   886.488586,   -868.303101
-0.123225,   0.274203,   0.277402,   0.000000,   790.477722,   0.535065,   30.400322,   51.283226,   719.874390,   70.608681,   -225.444366,   0.333337,   790.475037,   790.475037
-0.116849,   0.268563,   0.272663,   0.000000,   793.829529,   0.535064,   30.400322,   50.525185,   717.096741,   85.201859,   -233.184402,   0.338682,   789.629028,   789.526855
-0.110459,   0.261164,   0.266038,   0.000000,   795.314270,   0.535065,   30.400322,   49.767139,   712.654236,   98.146530,   -240.058167,   0.343115,   787.685242,   787.342529
-0.104138,   0.252135,   0.257573,   0.000000,   794.983643,   0.535064,   30.400322,   49.009098,   706.831482,   109.504845,   -245.817871,   0.346849,   784.525269,   783.871094
-0.098036,   0.241723,   0.247448,   0.000000,   792.769958,   0.535064,   30.400322,   48.251057,   699.862427,   118.945679,   -250.206619,   0.349883,   780.076904,   779.098267
-0.092389,   0.230314,   0.235994,   0.000000,   788.594360,   0.535065,   30.400322,   47.493015,   691.826050,   125.975037,   -253.220383,   0.352013,   774.404236,   773.163513
-0.087494,   0.218412,   0.223698,   0.000000,   782.649048,   0.535064,   30.400322,   46.734970,   682.843872,   130.564011,   -255.110718,   0.353165,   767.731934,   766.343750
-0.083602,   0.206537,   0.211140,   0.000000,   775.426208,   0.535064,   30.400322,   45.976933,   673.251709,   133.204819,   -256.161407,   0.353529,   760.386108,   758.959595
-0.080801,   0.195060,   0.198924,   0.000000,   767.506836,   0.535066,   30.400322,   45.218887,   663.439392,   134.463120,   -256.669556,   0.353319,   752.769470,   751.386841
-0.078957,   0.184018,   0.187534,   0.000000,   759.325012,   0.535064,   30.400322,   44.460846,   653.645508,   134.610062,   -256.942749,   0.352554,   745.281006,   744.015991
-0.077919,   0.173390,   0.177281,   0.000000,   751.138916,   0.535064,   30.400322,   43.702801,   644.036682,   133.638763,   -257.168549,   0.351145,   738.228455,   737.154297
-0.077803,   0.163538,   0.168374,   0.000000,   743.084351,   0.535065,   30.400322,   42.944759,   634.948181,   131.249161,   -257.218811,   0.349000,   731.801636,   730.979736
-0.078753,   0.154849,   0.160877,   0.000000,   735.128052,   0.535064,   30.400322,   42.186718,   626.518433,   126.985771,   -257.002167,   0.345907,   726.114380,   725.590881
-0.080840,   0.147572,   0.154765,   0.000000,   727.102661,   0.535064,   30.400322,   41.428677,   618.791565,   120.257927,   -256.374725,   0.341582,   721.203430,   720.980652
-0.084143,   0.141958,   0.150093,   0.000000,   718.724121,   0.535065,   30.400322,   40.670635,   611.774963,   110.104279,   -255.130142,   0.335531,   717.151794,   717.136169
-0.088732,   0.138331,   0.147104,   -8.991231,   709.565552,   0.535065,   30.400322,   39.912590,   605.686462,   94.887848,   -252.689835,   0.327018,   714.103638,   713.976196
-0.094621,   0.136994,   0.146152,   -26.980852,   698.278809,   0.535064,   30.400322,   39.154549,   600.448242,   70.849686,   -247.753357,   0.314211,   712.152588,   711.001282
-0.101743,   0.138242,   0.147741,   -56.916904,   680.982544,   0.535065,   30.400322,   38.396507,   594.981140,   29.084511,   -236.778702,   0.292514,   711.151306,   705.999512
-0.109895,   0.142225,   0.152325,   -110.138039,   649.485229,   0.535064,   30.400322,   37.638466,   584.144104,   -44.796909,   -212.991028,   0.252865,   710.981323,   691.397217
-0.118610,   0.148584,   0.159719,   -184.088043,   603.157288,   0.535064,   30.400322,   36.880424,   561.582214,   -142.512939,   -176.071899,   0.195850,   713.246948,   656.530518
-0.127163,   0.156218,   0.168634,   -247.885971,   562.352722,   0.535065,   30.400322,   36.122379,   536.294800,   -221.828064,   -142.947937,   0.145771,   719.087891,   611.234192
-0.134851,   0.163713,   0.177378,   -285.444641,   539.865356,   0.535064,   30.400322,   35.364338,   520.768372,   -266.347626,   -124.081650,   0.116818,   725.971741,   577.798462
-0.141247,   0.170060,   0.184829,   -305.975494,   529.266846,   0.535064,   30.400322,   34.606297,   513.154358,   -289.862976,   -114.883598,   0.101694,   731.906494,   558.121887
-0.146237,   0.174879,   0.190595,   -319.123108,   523.128601,   0.535065,   30.400322,   33.848255,   508.431976,   -304.426453,   -110.282730,   0.092330,   736.509033,   544.853088
-0.149946,   0.178252,   0.194774,   -328.578583,   518.755981,   0.535065,   30.400322,   33.090210,   504.618042,   -314.440643,   -108.534241,   0.085671,   739.948486,   534.557678
-0.152681,   0.180527,   0.197748,   -335.306671,   515.772583,   0.535064,   30.400322,   32.332169,   501.479065,   -321.013153,   -109.364639,   0.081011,   742.559082,   526.951782
-0.154835,   0.182155,   0.200012,   -339.937531,   514.080444,   0.535064,   30.400322,   31.574127,   499.030060,   -324.887115,   -112.369072,   0.077947,   744.709045,   521.987976
-0.156744,   0.183509,   0.201979,   -343.422302,   513.183411,   0.535064,   30.400322,   30.816084,   497.004639,   -327.243530,   -116.606529,   0.075785,   746.682495,   518.662048
-0.158598,   0.184795,   0.203879,   -346.598724,   512.514221,   0.535064,   30.400322,   30.058043,   495.065094,   -329.149597,   -121.186989,   0.073876,   748.624207,   515.757385
-0.160467,   0.186090,   0.205798,   -349.851532,   511.789825,   0.535065,   30.400322,   29.300001,   493.043915,   -331.105621,   -125.701378,   0.071917,   750.583374,   512.643921
-0.162373,   0.187415,   0.207762,   -353.257629,   510.948090,   0.535064,   30.400322,   28.541958,   490.907288,   -333.216827,   -130.068207,   0.069846,   752.565735,   509.167816
-0.164324,   0.188779,   0.209783,   -356.820984,   510.006134,   0.535064,   30.400322,   27.783916,   488.675140,   -335.489990,   -134.295471,   0.067668,   754.591553,   505.329773
-0.166324,   0.190185,   0.211863,   -360.513428,   508.982697,   0.535065,   30.400322,   27.025873,   486.360138,   -337.890869,   -138.414078,   0.065406,   756.656067,   501.154694
-0.168374,   0.191632,   0.214005,   -364.296570,   507.911957,   0.535064,   30.400322,   26.267830,   483.984955,   -340.369568,   -142.466995,   0.063092,   758.760315,   496.700531
-0.170474,   0.193119,   0.216210,   -368.138397,   506.822449,   0.535064,   30.400322,   25.509789,   481.567230,   -342.883179,   -146.490646,   0.060754,   760.904541,   492.017670
-0.172625,   0.194643,   0.218475,   -372.007751,   505.741638,   0.535064,   30.400322,   24.751747,   479.122406,   -345.388519,   -150.520554,   0.058418,   763.088562,   487.159393
-0.174827,   0.196199,   0.220799,   -375.875488,   504.696686,   0.535065,   30.400322,   23.993704,   476.664520,   -347.843323,   -154.591507,   0.056108,   765.313110,   482.183044
-0.177079,   0.197782,   0.223181,   -379.714386,   503.712616,   0.535064,   30.400322,   23.235661,   474.203186,   -350.204956,   -158.740723,   0.053848,   767.578247,   477.147430
-0.179375,   0.199382,   0.225613,   -383.485565,   502.824585,   0.535064,   30.400322,   22.477619,   471.751007,   -352.411987,   -163.019241,   0.051670,   769.882935,   472.146667
-0.181698,   0.200975,   0.228072,   -387.145142,   502.064636,   0.535064,   30.400322,   21.719578,   469.309326,   -354.389832,   -167.491592,   0.049606,   772.218994,   467.285950
-0.184006,   0.202506,   0.230506,   -390.644196,   501.453461,   0.535065,   30.400322,   20.961535,   466.857544,   -356.048279,   -172.238388,   0.047687,   774.563354,   462.667877
-0.186222,   0.203877,   0.232816,   -393.944855,   500.975830,   0.535064,   30.400322,   20.203493,   464.331909,   -357.300934,   -177.343231,   0.045924,   776.869446,   458.331848
-0.188238,   0.204949,   0.234860,   -397.059296,   500.544067,   0.535064,   30.400322,   19.445450,   461.604126,   -358.119354,   -182.855957,   0.044277,   779.067444,   454.135315
-0.189914,   0.205524,   0.236441,   -400.063904,   499.978668,   0.535064,   30.400322,   18.687408,   458.467194,   -358.552429,   -188.782623,   0.042641,   781.058960,   449.680756
-0.191075,   0.205348,   0.237310,   -403.111694,   498.992859,   0.535065,   30.400322,   17.929365,   454.624878,   -358.743713,   -195.079605,   0.040833,   782.714966,   444.240417
-0.191498,   0.204084,   0.237143,   -406.405853,   497.202118,   0.535064,   30.400322,   17.171324,   449.691010,   -358.894745,   -201.678207,   0.038611,   783.863159,   436.748260
-0.190926,   0.201303,   0.235546,   -410.218140,   494.097504,   0.535065,   30.400322,   16.413282,   443.177338,   -359.297974,   -208.458694,   0.035650,   784.282471,   425.609131
-0.189118,   0.196534,   0.232145,   -414.903351,   489.072144,   0.535064,   30.400322,   15.655239,   434.525665,   -360.356873,   -215.251862,   0.031545,   783.743591,   408.432892
-0.185834,   0.189248,   0.226593,   -420.925323,   481.363037,   0.535064,   30.400322,   14.897197,   423.116058,   -362.678345,   -221.726974,   0.025762,   781.988708,   381.046631
-0.180766,   0.178819,   0.218585,   -428.800354,   470.090759,   0.535064,   30.400322,   14.139154,   408.237427,   -366.947021,   -227.538071,   0.017674,   778.736267,   334.789368
-0.173500,   0.164550,   0.208008,   -439.184570,   454.239349,   0.535064,   30.400322,   13.381112,   389.072998,   -374.018219,   -232.324188,   0.006486,   773.764465,   238.219330
-0.164165,   0.146154,   0.195688,   -453.308655,   432.732788,   0.535064,   30.400322,   12.623070,   364.966827,   -385.542694,   -235.480835,   -0.008937,   767.403381,   -262.904663
-0.154074,   0.124445,   0.183491,   -473.882629,   403.544617,   0.535064,   30.400322,   11.865027,   335.085724,   -405.423737,   -235.331848,   -0.030822,   760.687744,   -393.385193
-0.145900,   0.101526,   0.174062,   -502.936890,   365.875610,   0.535064,   30.400322,   11.106986,   299.608093,   -436.669373,   -230.613647,   -0.060470,   755.528137,   -487.796722
-0.144986,   0.082128,   0.171629,   -550.141541,   310.763702,   0.535065,   30.400322,   10.348944,   254.006241,   -493.384064,   -213.638474,   -0.105670,   755.111816,   -582.729126
-0.160238,   0.073668,   0.182673,   -633.096252,   218.289749,   0.535064,   30.400322,   9.590901,   179.735931,   -594.542419,   -177.024796,   -0.180522,   765.937134,   -690.580383
-0.201642,   0.085550,   0.222274,   -808.479980,   0.000000,   0.535064,   30.400322,   8.832859,   -16.911312,   -808.402039,   7.855221,   -0.343796,   800.196167,   -799.797668
-0.263863,   0.114239,   0.289679,   -907.281128,   0.000000,   0.535064,   30.400322,   8.074817,   -154.519073,   -876.995667,   150.989304,   -0.403573,   851.984924,   -831.240051
-0.338498,   0.156487,   0.371348,   -953.486511,   0.000000,   0.535064,   30.400322,   7.316774,   -184.355026,   -893.037842,   215.622253,   -0.399937,   897.967834,   -878.426025
-0.110915,   0.244104,   0.245154,   -1.750956,   766.120850,   0.533428,   31.271563,   51.780094,   713.190186,   51.179695,   -194.530975,   0.332191,   766.997803,   766.993286
-0.106168,   0.241747,   0.243710,   0.000000,   771.744263,   0.533425,   31.271563,   51.004917,   712.576050,   66.934250,   -204.211563,   0.338377,   767.890686,   767.802368
-0.101265,   0.237683,   0.240514,   0.000000,   775.382263,   0.533425,   31.271563,   50.229740,   710.184631,   80.762413,   -212.808731,   0.343419,   767.718201,   767.363037
-0.096278,   0.231975,   0.235543,   0.000000,   777.137085,   0.533425,   31.271563,   49.454567,   706.232849,   92.881599,   -220.264893,   0.347569,   766.384827,   765.675293
-0.091302,   0.224755,   0.228857,   0.000000,   777.026367,   0.533425,   31.271563,   48.679390,   700.956848,   103.250839,   -226.392960,   0.350968,   763.798523,   762.709106
-0.086503,   0.216272,   0.220640,   0.000000,   775.001099,   0.533425,   31.271563,   47.904217,   694.498352,   111.563622,   -231.102921,   0.353561,   759.946899,   758.516785
-0.082114,   0.206892,   0.211214,   0.000000,   771.104675,   0.533425,   31.271563,   47.129040,   686.918213,   117.599052,   -234.555573,   0.355217,   754.953064,   753.286804
-0.078396,   0.197067,   0.201019,   0.000000,   765.633606,   0.533426,   31.271563,   46.353867,   678.414490,   121.564705,   -237.012924,   0.355996,   749.051636,   747.276917
-0.075524,   0.187234,   0.190579,   0.000000,   759.117859,   0.533426,   31.271563,   45.578690,   669.339722,   124.045456,   -238.779388,   0.356140,   742.577393,   740.795288
-0.073548,   0.177658,   0.180400,   0.000000,   752.027039,   0.533425,   31.271563,   44.803513,   660.041199,   125.404022,   -240.084229,   0.355781,   735.887268,   734.177124
-0.072340,   0.168310,   0.170874,   0.000000,   744.706543,   0.533425,   31.271563,   44.028336,   650.693054,   125.799316,   -241.216995,   0.354887,   729.333313,   727.772461
-0.071810,   0.159246,   0.162284,   0.000000,   737.383301,   0.533425,   31.271563,   43.253162,   641.549744,   125.148338,   -242.224396,   0.353396,   723.171631,   721.833008
-0.072108,   0.150826,   0.154816,   0.000000,   730.159302,   0.533425,   31.271563,   42.477985,   632.876709,   123.137039,   -243.007599,   0.351186,   717.581482,   716.532410
-0.073346,   0.143375,   0.148508,   0.000000,   722.961487,   0.533426,   31.271563,   41.702808,   624.782349,   119.296181,   -243.448883,   0.348040,   712.637695,   711.933228
-0.075588,   0.137098,   0.143331,   0.000000,   715.556458,   0.533425,   31.271563,   40.927635,   617.229370,   112.949776,   -243.418488,   0.343602,   708.358276,   708.018555
-0.078912,   0.132262,   0.139391,   0.000000,   707.650940,   0.533426,   31.271563,   40.152458,   610.306763,   103.020996,   -242.605042,   0.337352,   704.829651,   704.778198
-0.083380,   0.129158,   0.136904,   -6.977887,   698.653931,   0.533425,   31.271563,   39.377281,   604.095764,   87.580292,   -240.378891,   0.328352,   702.168884,   702.090942
-0.088991,   0.128089,   0.136235,   -26.128662,   687.017883,   0.533425,   31.271563,   38.602108,   598.459167,   62.430038,   -235.186493,   0.314508,   700.447815,   699.350098
-0.095671,   0.129341,   0.137867,   -58.563820,   668.406738,   0.533425,   31.271563,   37.826931,   591.883362,   17.959560,   -223.101807,   0.290597,   699.529663,   693.982239
-0.103225,   0.133056,   0.142220,   -114.723717,   635.055054,   0.533425,   31.271563,   37.051758,   578.881958,   -58.550617,   -197.387894,   0.247951,   699.508606,   677.856812
-0.111212,   0.138870,   0.149057,   -188.929184,   588.426147,   0.533426,   31.271563,   36.276581,   554.178650,   -154.681702,   -159.529236,   0.189636,   702.218201,   641.194641
-0.118940,   0.145708,   0.157108,   -250.476669,   549.059937,   0.533425,   31.271563,   35.501404,   528.222778,   -229.639496,   -127.380928,   0.140510,   708.330505,   595.713501
-0.125731,   0.152223,   0.164775,   -286.101471,   527.686462,   0.533425,   31.271563,   34.726231,   512.590027,   -271.005066,   -109.806084,   0.112621,   715.037659,   562.760681
-0.131203,   0.157503,   0.171059,   -305.830261,   517.207214,   0.533426,   31.271563,   33.951054,   504.474548,   -293.097595,   -101.574287,   0.097783,   720.564392,   542.773010
-0.135311,   0.161295,   0.175703,   -318.486298,   510.921173,   0.533425,   31.271563,   33.175877,   499.160217,   -306.725342,   -98.062744,   0.088512,   724.703613,   528.999939
-0.138287,   0.163813,   0.178949,   -327.144806,   506.759796,   0.533425,   31.271563,   32.400703,   495.104523,   -315.489532,   -97.895592,   0.082270,   727.745239,   518.992554
-0.140527,   0.165508,   0.181292,   -332.943268,   504.294586,   0.533426,   31.271563,   31.625526,   492.049774,   -320.698456,   -100.508072,   0.078230,   730.113525,   512.354614
-0.142423,   0.166819,   0.183217,   -337.083771,   502.934174,   0.533425,   31.271563,   30.850351,   489.642426,   -323.792023,   -104.826660,   0.075504,   732.187927,   507.988220
-0.144219,   0.168009,   0.185017,   -340.692505,   501.944611,   0.533425,   31.271563,   30.075176,   487.411713,   -326.159607,   -109.703033,   0.073211,   734.185608,   504.339264
-0.146009,   0.169180,   0.186809,   -344.325897,   500.924927,   0.533426,   31.271563,   29.300001,   485.101288,   -328.502258,   -114.562439,   0.070906,   736.184448,   500.515747
-0.147818,   0.170359,   0.188622,   -348.121002,   499.775543,   0.533425,   31.271563,   28.524824,   482.652008,   -330.997467,   -119.271820,   0.068479,   738.204712,   496.267395
-0.149657,   0.171556,   0.190470,   -352.088928,   498.492096,   0.533425,   31.271563,   27.749649,   480.065796,   -333.662628,   -123.828690,   0.065925,   740.253052,   491.549774
-0.151530,   0.172773,   0.192357,   -356.210571,   497.093079,   0.533426,   31.271563,   26.974474,   477.358398,   -336.475891,   -128.258423,   0.063261,   742.332336,   486.369568
-0.153437,   0.174012,   0.194285,   -360.444000,   495.606689,   0.533425,   31.271563,   26.199297,   474.548004,   -339.385315,   -132.604095,   0.060521,   744.435608,   480.766937
-0.155380,   0.175268,   0.196253,   -364.763397,   494.071198,   0.533425,   31.271563,   25.424122,   471.663055,   -342.355255,   -136.904205,   0.057734,   746.577393,   474.788635
-0.157356,   0.176538,   0.198259,   -369.136719,   492.505615,   0.533426,   31.271563,   24.648947,   468.710968,   -345.342072,   -141.195953,   0.054922,   748.749390,   468.461670
-0.159366,   0.177817,   0.200300,   -373.533142,   490.938354,   0.533426,   31.271563,   23.873770,   465.706116,   -348.300903,   -145.519333,   0.052114,   750.952209,   461.831360
-0.161407,   0.179098,   0.202372,   -377.924744,   489.392883,   0.533425,   31.271563,   23.098595,   462.657623,   -351.189484,   -149.910568,   0.049332,   753.184021,   454.939880
-0.163472,   0.180367,   0.204466,   -382.269775,   487.905548,   0.533425,   31.271563,   22.323420,   459.579559,   -353.943787,   -154.422165,   0.046611,   755.442566,   447.873322
-0.165543,   0.181598,   0.206557,   -386.520569,   486.509369,   0.533426,   31.271563,   21.548244,   456.474121,   -356.485321,   -159.121231,   0.043987,   757.717285,   440.733765
-0.167577,   0.182737,   0.208592,   -390.625824,   485.224121,   0.533426,   31.271563,   20.773067,   453.321259,   -358.722961,   -164.086349,   0.041491,   759.981628,   433.621246
-0.169500,   0.183688,   0.210475,   -394.541351,   484.035919,   0.533425,   31.271563,   19.997892,   450.059692,   -360.565125,   -169.399963,   0.039139,   762.184875,   426.582245
-0.171208,   0.184313,   0.212067,   -398.277466,   482.853790,   0.533426,   31.271563,   19.222717,   446.560028,   -361.983704,   -175.106628,   0.036888,   764.252869,   419.449097
-0.172565,   0.184419,   0.213181,   -401.912994,   481.487732,   0.533425,   31.271563,   18.447540,   442.607452,   -363.032715,   -181.204834,   0.034624,   766.081360,   411.734528
-0.173410,   0.183755,   0.213578,   -405.603577,   479.637665,   0.533426,   31.271563,   17.672365,   437.896240,   -363.862152,   -187.640289,   0.032152,   767.534546,   402.522125
-0.173538,   0.181988,   0.212955,   -409.561218,   476.900055,   0.533425,   31.271563,   16.897190,   432.022461,   -364.683624,   -194.340530,   0.029210,   768.435913,   390.378815
-0.172712,   0.178703,   0.210960,   -414.040070,   472.774231,   0.533426,   31.271563,   16.122015,   424.504822,   -365.770660,   -201.186646,   0.025474,   768.565002,   373.105927
-0.170760,   0.173460,   0.207317,   -419.430603,   466.645599,   0.533425,   31.271563,   15.346839,   414.801697,   -367.586700,   -207.966003,   0.020500,   767.727539,   346.746643
-0.167441,   0.165761,   0.201775,   -426.160004,   457.805817,   0.533426,   31.271563,   14.571663,   402.342712,   -370.696899,   -214.362610,   0.013776,   765.700378,   302.988098
-0.162378,   0.154949,   0.194118,   -434.906464,   445.238342,   0.533425,   31.271563,   13.796487,   386.301514,   -375.969635,   -219.998642,   0.004518,   762.245300,   208.038620
-0.155330,   0.140426,   0.184603,   -446.670441,   427.829987,   0.533426,   31.271563,   13.021312,   365.861481,   -384.701935,   -224.391144,   -0.008292,   757.398193,   -253.073761
-0.146975,   0.122398,   0.174413,   -463.379578,   404.060394,   0.533425,   31.271563,   12.246136,   340.283997,   -399.603180,   -226.395142,   -0.026301,   751.810303,   -368.864410
-0.139069,   0.102167,   0.165415,   -487.335754,   372.383362,   0.533426,   31.271563,   11.470961,   309.135864,   -424.088257,   -224.443420,   -0.051312,   746.753784,   -456.919800
-0.135211,   0.082793,   0.160528,   -525.557068,   326.559418,   0.533425,   31.271563,   10.695785,   268.725311,   -467.722961,   -214.328278,   -0.089081,   744.632019,   -544.652527
-0.141649,   0.069894,   0.164484,   -578.834351,   267.819519,   0.533425,   31.271563,   9.920609,   220.823532,   -531.838379,   -193.857468,   -0.138315,   749.533020,   -627.472717
-0.167615,   0.071261,   0.186470,   -719.291138,   93.376564,   0.533425,   31.271563,   9.145433,   82.067406,   -707.981995,   -95.198151,   -0.270876,   770.236267,   -757.345215
-0.214894,   0.089699,   0.235680,   -861.436218,   0.000000,   0.533425,   31.271563,   8.370258,   -114.638901,   -847.120972,   103.395279,   -0.392917,   815.913391,   -801.860840
-0.274755,   0.120260,   0.301043,   -922.520142,   0.000000,   0.533425,   31.271563,   7.595082,   -187.481491,   -873.829102,   189.181885,   -0.410620,   861.550476,   -835.842957
-0.341431,   0.162393,   0.373537,   -950.169556,   0.000000,   0.533425,   31.271563,   6.819907,   -179.034714,   -881.673279,   229.825699,   -0.392852,   900.005920,   -884.540527
-0.097592,   0.212889,   0.212300,   -3.126178,   740.254028,   0.530986,   32.119831,   52.313992,   702.558350,   34.569530,   -163.098984,   0.331224,   741.822083,   741.807251
-0.094351,   0.213257,   0.213506,   0.000000,   748.132385,   0.530986,   32.119831,   51.520405,   704.129456,   51.561390,   -175.074692,   0.338397,   744.381836,   744.295532
-0.090847,   0.212029,   0.213145,   0.000000,   753.894226,   0.530985,   32.119831,   50.726818,   703.788330,   66.351585,   -185.607010,   0.344164,   745.904114,   745.505981
-0.087149,   0.209220,   0.211150,   0.000000,   757.676453,   0.530985,   32.119831,   49.933235,   701.729858,   79.233467,   -194.824509,   0.348813,   746.305603,   745.487488
-0.083331,   0.204891,   0.207502,   0.000000,   759.553711,   0.530986,   32.119831,   49.139648,   698.173523,   90.340073,   -202.673233,   0.352568,   745.495728,   744.228577
-0.079503,   0.199184,   0.202277,   0.000000,   759.533875,   0.530985,   32.119831,   48.346062,   693.303345,   99.575722,   -209.067871,   0.355509,   743.422363,   741.736938
-0.075833,   0.192345,   0.195662,   0.000000,   757.620728,   0.530986,   32.119831,   47.552475,   687.210327,   106.734642,   -214.077454,   0.357571,   740.127441,   738.117920
-0.072533,   0.184714,   0.187961,   0.000000,   753.963257,   0.530986,   32.119831,   46.758888,   680.003601,   111.818886,   -217.928406,   0.358730,   735.764587,   733.568298
-0.069810,   0.176679,   0.179568,   0.000000,   748.939819,   0.530986,   32.119831,   45.965305,   671.913940,   115.238464,   -220.933014,   0.359143,   730.583374,   728.329895
-0.067803,   0.168594,   0.170930,   0.000000,   743.009949,   0.530985,   32.119831,   45.171719,   663.287720,   117.441383,   -223.319763,   0.359012,   724.886719,   722.673767
-0.066523,   0.160634,   0.162486,   0.000000,   736.594971,   0.530985,   32.119831,   44.378132,   654.410889,   118.722145,   -225.342667,   0.358419,   719.022522,   716.929260
-0.065850,   0.152755,   0.154570,   0.000000,   729.975586,   0.530986,   32.119831,   43.584549,   645.482788,   119.119843,   -227.184784,   0.357311,   713.292725,   711.398010
-0.065776,   0.145071,   0.147439,   0.000000,   723.358948,   0.530985,   32.119831,   42.790962,   636.752502,   118.523079,   -228.872620,   0.355621,   707.940430,   706.318909
-0.066444,   0.137936,   0.141251,   0.000000,   716.826660,   0.530987,   32.119831,   41.997375,   628.464722,   116.626724,   -230.292923,   0.353231,   703.120483,   701.840515
-0.067944,   0.131604,   0.136008,   0.000000,   710.231323,   0.530985,   32.119831,   41.203789,   620.649231,   112.897629,   -231.323181,   0.349875,   698.865356,   697.989441
-0.070340,   0.126271,   0.131708,   0.000000,   703.302063,   0.530986,   32.119831,   40.410202,   613.276550,   106.546623,   -231.782730,   0.345145,   695.188782,   694.746948
-0.073702,   0.122186,   0.128454,   0.000000,   695.666077,   0.530985,   32.119831,   39.616615,   606.398010,   96.341843,   -231.301758,   0.338430,   692.156250,   692.074890
-0.078065,   0.119623,   0.126468,   -6.512038,   686.582397,   0.530985,   32.119831,   38.823032,   600.061646,   80.008705,   -229.087769,   0.328602,   689.861450,   689.792236
-0.083423,   0.118877,   0.126113,   -27.612082,   674.121582,   0.530986,   32.119831,   38.029446,   593.945435,   52.564037,   -223.235458,   0.313075,   688.343079,   687.095337
-0.089702,   0.120230,   0.127875,   -63.916775,   653.299744,   0.530985,   32.119831,   37.235859,   585.969971,   3.413019,   -209.181122,   0.285766,   687.490173,   680.757324
-0.096699,   0.123794,   0.132116,   -124.588623,   616.902771,   0.530987,   32.119831,   36.442272,   570.056885,   -77.742729,   -180.392044,   0.238624,   687.713928,   661.604858
-0.103974,   0.129159,   0.138496,   -198.965363,   569.789429,   0.530985,   32.119831,   35.648685,   542.802612,   -171.978561,   -141.484787,   0.178858,   691.097351,   621.593994
-0.110845,   0.135224,   0.145699,   -256.503143,   532.934570,   0.530986,   32.119831,   34.855103,   516.926147,   -240.494751,   -111.271599,   0.132105,   697.504456,   576.066711
-0.116672,   0.140714,   0.152233,   -288.758728,   513.582214,   0.530985,   32.119831,   34.061516,   501.981842,   -277.158386,   -95.775070,   0.106468,   703.881836,   544.463501
-0.121154,   0.144879,   0.157288,   -306.767395,   503.782043,   0.530985,   32.119831,   33.267929,   493.866669,   -296.852020,   -89.098694,   0.092647,   708.834534,   524.948425
-0.124376,   0.147661,   0.160821,   -318.052979,   497.975098,   0.530986,   32.119831,   32.474346,   488.509125,   -308.587006,   -87.377937,   0.084185,   712.403931,   511.797821
-0.126704,   0.149446,   0.163258,   -325.269379,   494.575684,   0.530985,   32.119831,   31.680758,   484.729492,   -315.423187,   -89.305122,   0.078927,   715.035400,   503.201813
-0.128579,   0.150721,   0.165139,   -330.124634,   492.705261,   0.530985,   32.119831,   30.887173,   481.928345,   -319.347717,   -93.549057,   0.075561,   717.213257,   497.719299
-0.130301,   0.151817,   0.166832,   -334.145233,   491.397034,   0.530985,   32.119831,   30.093586,   479.439117,   -322.187317,   -98.634590,   0.072878,   719.251038,   493.352600
-0.131993,   0.152865,   0.168485,   -338.120392,   490.094299,   0.530986,   32.119831,   29.299999,   476.880310,   -324.906403,   -103.775719,   0.070235,   721.268799,   488.869812
-0.133689,   0.153899,   0.170138,   -342.258972,   488.644501,   0.530985,   32.119831,   28.506414,   474.152344,   -327.766815,   -108.773033,   0.067462,   723.296387,   483.894409
-0.135397,   0.154929,   0.171802,   -346.586212,   487.031586,   0.530985,   32.119831,   27.712828,   471.249725,   -330.804352,   -113.608849,   0.064542,   725.341431,   478.344391
-0.137122,   0.155959,   0.173483,   -351.087128,   485.269501,   0.530986,   32.119831,   26.919241,   468.186493,   -334.004120,   -118.303200,   0.061489,   727.406677,   472.203400
-0.138864,   0.156987,   0.175182,   -355.727478,   483.387421,   0.530985,   32.119831,   26.125656,   464.984314,   -337.324371,   -122.896873,   0.058333,   729.492676,   465.490234
-0.140625,   0.158011,   0.176898,   -360.474792,   481.412872,   0.530985,   32.119831,   25.332071,   461.661224,   -340.723145,   -127.430519,   0.055102,   731.599365,   458.221802
-0.142401,   0.159026,   0.178628,   -365.299042,   479.369781,   0.530986,   32.119831,   24.538485,   458.230835,   -344.160095,   -131.941513,   0.051823,   733.724792,   450.408051
-0.144192,   0.160027,   0.180368,   -370.160736,   477.284119,   0.530985,   32.119831,   23.744898,   454.704254,   -347.580872,   -136.474686,   0.048525,   735.860718,   442.074982
-0.145992,   0.161002,   0.182111,   -375.043243,   475.182953,   0.530985,   32.119831,   22.951313,   451.095398,   -350.955688,   -141.066177,   0.045229,   738.017883,   433.230682
-0.147795,   0.161937,   0.183846,   -379.900269,   473.096649,   0.530985,   32.119831,   22.157726,   447.411926,   -354.215546,   -145.771347,   0.041970,   740.185242,   423.925995
-0.149578,   0.162803,   0.185544,   -384.679688,   471.058563,   0.530986,   32.119831,   21.364141,   443.656952,   -357.278076,   -150.657745,   0.038786,   742.348511,   414.237946
-0.151299,   0.163543,   0.187151,   -389.329193,   469.083710,   0.530985,   32.119831,   20.570555,   439.808472,   -360.053955,   -155.798599,   0.035709,   744.476135,   404.229340
-0.152882,   0.164060,   0.188570,   -393.802856,   467.152374,   0.530985,   32.119831,   19.776970,   435.802307,   -362.452789,   -161.270477,   0.032752,   746.510498,   393.900879
-0.154230,   0.164218,   0.189667,   -398.115204,   465.162781,   0.530986,   32.119831,   18.983383,   431.500732,   -364.453156,   -167.112473,   0.029864,   748.371948,   382.985199
-0.155215,   0.163828,   0.190263,   -402.348022,   462.915253,   0.530985,   32.119831,   18.189796,   426.680542,   -366.113312,   -173.319397,   0.026921,   749.951660,   370.808746
-0.155685,   0.162645,   0.190136,   -406.651398,   460.103912,   0.530985,   32.119831,   17.396212,   421.031647,   -367.579132,   -179.831711,   0.023722,   751.107727,   356.103912
-0.155458,   0.160331,   0.189005,   -411.223602,   456.321960,   0.530985,   32.119831,   16.602625,   414.152008,   -369.053650,   -186.563782,   0.020000,   751.654785,   336.709961
-0.154332,   0.156499,   0.186584,   -416.310211,   451.086029,   0.530985,   32.119831,   15.809039,   405.588776,   -370.812958,   -193.375656,   0.015427,   751.388367,   308.741821
-0.152170,   0.150751,   0.182699,   -422.308258,   443.806610,   0.530986,   32.119831,   15.015453,   394.847290,   -373.348938,   -200.018448,   0.009553,   750.154480,   262.760468
-0.148670,   0.142578,   0.177164,   -429.670624,   433.761230,   0.530985,   32.119831,   14.221868,   381.334595,   -377.243988,   -206.199615,   0.001824,   747.756714,   150.822525
-0.143530,   0.131341,   0.170018,   -439.277832,   419.900116,   0.530985,   32.119831,   13.428282,   364.236298,   -383.614014,   -211.486816,   -0.008680,   744.132996,   -252.463928
-0.136928,   0.116820,   0.161897,   -452.652161,   400.857666,   0.530986,   32.119831,   12.634696,   342.778137,   -394.572632,   -214.937698,   -0.023343,   739.614746,   -348.785522
-0.129942,   0.099642,   0.153991,   -472.206482,   374.626984,   0.530985,   32.119831,   11.841109,   315.990875,   -413.570374,   -214.980972,   -0.044254,   735.000366,   -428.372955
-0.124894,   0.081719,   0.148264,   -501.082794,   338.878540,   0.530985,   32.119831,   11.047523,   282.789398,   -444.993652,   -209.682404,   -0.073870,   731.934937,   -504.247040
-0.126320,   0.067183,   0.148153,   -546.478455,   287.034576,   0.530986,   32.119831,   10.253938,   239.720596,   -499.164490,   -192.868362,   -0.117917,   733.406921,   -585.382935
-0.141152,   0.061920,   0.159413,   -633.923462,   187.741440,   0.530985,   32.119831,   9.460352,   159.585083,   -605.767090,   -149.473419,   -0.199437,   745.734131,   -689.491333
-0.174814,   0.071412,   0.191919,   -797.938354,   0.000000,   0.530985,   32.119831,   8.666766,   -39.033825,   -796.885376,   28.268717,   -0.357394,   779.642090,   -777.556458
-0.222284,   0.092822,   0.243330,   -886.536926,   0.000000,   0.530986,   32.119831,   7.873180,   -178.010529,   -845.846313,   169.795074,   -0.412940,   826.477661,   -800.206116
-0.275439,   0.123059,   0.301186,   -921.747559,   0.000000,   0.530986,   32.119831,   7.079594,   -194.444794,   -858.175476,   215.025986,   -0.406207,   863.779297,   -841.039246
-0.329901,   0.162284,   0.359816,   -932.969055,   0.000000,   0.530985,   32.119831,   6.286008,   -156.055634,   -861.452881,   235.715652,   -0.379510,   893.703186,   -884.640137
-0.084057,   0.182107,   0.180370,   -4.384086,   713.257446,   0.527611,   32.943504,   52.883896,   688.247742,   20.625648,   -131.615112,   0.330265,   715.459595,   715.429321
-0.082167,   0.184650,   0.183613,   0.000000,   723.320007,   0.527612,   32.943504,   52.070660,   692.064026,   38.736156,   -146.278320,   0.338517,   719.609131,   719.521667
-0.079923,   0.185754,   0.185510,   0.000000,   731.168823,   0.527612,   32.943504,   51.257420,   693.802246,   54.478706,   -159.014389,   0.345101,   722.764648,   722.308655
-0.077409,   0.185395,   0.185960,   0.000000,   736.953308,   0.527611,   32.943504,   50.444183,   693.676331,   68.144646,   -170.129471,   0.350340,   724.839539,   723.878784
-0.074689,   0.183581,   0.184891,   0.000000,   740.770020,   0.527613,   32.943504,   49.630943,   691.891235,   79.934608,   -179.724350,   0.354500,   725.740662,   724.243347
-0.071840,   0.180373,   0.182298,   0.000000,   742.668640,   0.527611,   32.943504,   48.817707,   688.646912,   89.904099,   -187.785645,   0.357760,   725.393372,   723.392578
-0.068975,   0.175918,   0.178261,   0.000000,   742.661743,   0.527612,   32.943504,   48.004471,   684.081482,   97.945129,   -194.339081,   0.360157,   723.782593,   721.368225
-0.066253,   0.170449,   0.172963,   0.000000,   740.813599,   0.527612,   32.943504,   47.191231,   678.287231,   103.970177,   -199.548279,   0.361661,   720.985596,   718.298340
-0.063865,   0.164275,   0.166683,   0.000000,   737.359558,   0.527612,   32.943504,   46.377995,   671.392517,   108.182419,   -203.727692,   0.362331,   717.184326,   714.380920
-0.061973,   0.157737,   0.159782,   0.000000,   732.700989,   0.527612,   32.943504,   45.564754,   663.674622,   111.025711,   -207.152130,   0.362367,   712.630188,   709.837646
-0.060673,   0.151115,   0.152654,   0.000000,   727.265808,   0.527611,   32.943504,   44.751518,   655.442993,   112.895866,   -210.061417,   0.361934,   707.623901,   704.934509
-0.059967,   0.144505,   0.145665,   0.000000,   721.387085,   0.527612,   32.943504,   43.938282,   646.946289,   113.924789,   -212.649887,   0.361042,   702.477783,   699.974609
-0.059754,   0.137873,   0.139123,   0.000000,   715.341919,   0.527612,   32.943504,   43.125042,   638.386780,   114.148666,   -215.092804,   0.359640,   697.489319,   695.252869
-0.060076,   0.131395,   0.133262,   0.000000,   709.337097,   0.527612,   32.943504,   42.311806,   630.032898,   113.461876,   -217.383041,   0.357678,   692.889954,   690.991821
-0.061074,   0.125392,   0.128197,   0.000000,   703.371338,   0.527612,   32.943504,   41.498566,   622.078247,   111.446495,   -219.361343,   0.354982,   688.789856,   687.302490
-0.062816,   0.120056,   0.123899,   0.000000,   697.223633,   0.527612,   32.943504,   40.685329,   614.467529,   107.503189,   -220.913910,   0.351229,   685.185303,   684.178711
-0.065353,   0.115580,   0.120380,   0.000000,   690.595581,   0.527611,   32.943504,   39.872089,   607.197998,   100.772247,   -221.787811,   0.345989,   682.074219,   681.576111
-0.068739,   0.112194,   0.117745,   0.000000,   682.999207,   0.527612,   32.943504,   39.058853,   600.297180,   89.762009,   -221.499268,   0.338515,   679.496765,   679.414246
-0.073006,   0.110163,   0.116231,   -8.051263,   673.461548,   0.527612,   32.943504,   38.245617,   593.755798,   71.654465,   -219.014771,   0.327374,   677.523010,   677.415405
-0.078134,   0.109773,   0.116213,   -32.174156,   659.493896,   0.527612,   32.943504,   37.432377,   586.991211,   40.328518,   -211.875305,   0.309258,   676.155273,   674.429810
-0.084036,   0.111290,   0.118167,   -74.065102,   635.255737,   0.527612,   32.943504,   36.619141,   577.067505,   -15.876886,   -194.649033,   0.276991,   675.341187,   666.112000
-0.090498,   0.114778,   0.122375,   -140.359024,   594.793701,   0.527611,   32.943504,   35.805901,   557.312500,   -102.877823,   -161.708282,   0.224083,   675.991760,   641.966736
-0.097053,   0.119725,   0.128326,   -213.680649,   547.758301,   0.527613,   32.943504,   34.992664,   527.558777,   -193.481125,   -122.362907,   0.163703,   680.252808,   597.438843
-0.103011,   0.124980,   0.134629,   -265.177002,   514.689331,   0.527611,   32.943504,   34.179428,   502.860779,   -253.348450,   -95.314041,   0.121097,   686.809753,   552.635803
-0.107797,   0.129374,   0.139945,   -292.870300,   498.067963,   0.527612,   32.943504,   33.366188,   489.323669,   -284.126007,   -82.702705,   0.098755,   692.613953,   523.339233
-0.111264,   0.132415,   0.143756,   -308.176300,   489.597504,   0.527612,   32.943504,   32.552952,   481.813446,   -300.392242,   -78.417656,   0.086785,   696.821838,   505.474426
-0.113689,   0.134312,   0.146304,   -317.229919,   484.981598,   0.527611,   32.943504,   31.739714,   477.074982,   -309.323303,   -79.248138,   0.079907,   699.780457,   494.417603
-0.115540,   0.135566,   0.148150,   -322.894409,   482.537354,   0.527611,   32.943504,   30.926476,   473.842041,   -314.199097,   -83.233788,   0.075796,   702.076660,   487.700500
-0.117181,   0.136577,   0.149737,   -327.306244,   480.919952,   0.527612,   32.943504,   30.113239,   471.124725,   -317.511017,   -88.435371,   0.072719,   704.145935,   482.651855
-0.118767,   0.137510,   0.151252,   -331.572662,   479.361694,   0.527612,   32.943504,   29.299999,   468.365662,   -320.576630,   -93.787788,   0.069761,   706.166626,   477.588165
-0.120339,   0.138409,   0.152744,   -335.995544,   477.643738,   0.527612,   32.943504,   28.486761,   465.411560,   -323.763367,   -99.009895,   0.066672,   708.182617,   471.976959
-0.121907,   0.139283,   0.154226,   -340.621826,   475.732391,   0.527612,   32.943504,   27.673523,   462.243225,   -327.132660,   -104.067215,   0.063414,   710.203796,   465.684387
-0.123475,   0.140135,   0.155702,   -345.443817,   473.634918,   0.527611,   32.943504,   26.860287,   458.869904,   -330.678802,   -108.975723,   0.059995,   712.232910,   458.661896
-0.125044,   0.140964,   0.157174,   -350.431396,   471.375763,   0.527611,   32.943504,   26.047049,   455.311035,   -334.366669,   -113.771805,   0.056442,   714.270325,   450.896881
-0.126613,   0.141768,   0.158639,   -355.548553,   468.983643,   0.527612,   32.943504,   25.233810,   451.587189,   -338.152100,   -118.495964,   0.052786,   716.314758,   442.384888
-0.128179,   0.142541,   0.160094,   -360.762665,   466.483368,   0.527612,   32.943504,   24.420572,   447.713562,   -341.992859,   -123.186607,   0.049056,   718.363586,   433.109467
-0.129740,   0.143275,   0.161534,   -366.036072,   463.906097,   0.527612,   32.943504,   23.607334,   443.707367,   -345.837341,   -127.889793,   0.045284,   720.414917,   423.066559
-0.131290,   0.143960,   0.162951,   -371.343140,   461.269562,   0.527611,   32.943504,   22.794098,   439.572449,   -349.646027,   -132.644363,   0.041491,   722.464294,   412.212341
-0.132819,   0.144579,   0.164330,   -376.637756,   458.600342,   0.527612,   32.943504,   21.980860,   435.313263,   -353.350677,   -137.506256,   0.037710,   724.497437,   400.535736
-0.134304,   0.145100,   0.165641,   -381.872620,   455.937531,   0.527612,   32.943504,   21.167622,   430.940369,   -356.875458,   -142.541290,   0.033982,   726.509277,   388.054901
-0.135701,   0.145463,   0.166826,   -386.996277,   453.281403,   0.527611,   32.943504,   20.354383,   426.418732,   -360.133606,   -147.819153,   0.030331,   728.456116,   374.718170
-0.136935,   0.145570,   0.167787,   -391.971252,   450.595795,   0.527611,   32.943504,   19.541147,   421.671448,   -363.046906,   -153.408249,   0.026759,   730.273010,   360.359375
-0.137911,   0.145281,   0.168394,   -396.812469,   447.768311,   0.527612,   32.943504,   18.727909,   416.553497,   -365.597656,   -159.339432,   0.023208,   731.872009,   344.469543
-0.138516,   0.144415,   0.168481,   -401.601074,   444.592865,   0.527612,   32.943504,   17.914671,   410.836609,   -367.844818,   -165.604538,   0.019547,   733.140686,   325.925140
-0.138614,   0.142734,   0.167850,   -406.476440,   440.770874,   0.527612,   32.943504,   17.101433,   404.216217,   -369.921783,   -172.147034,   0.015576,   733.938049,   302.532684
-0.138044,   0.139904,   0.166253,   -411.614960,   435.906036,   0.527612,   32.943504,   16.288195,   396.310028,   -372.018951,   -178.859146,   0.011030,   734.075195,   269.745453
-0.136651,   0.135574,   0.163499,   -417.265167,   429.546509,   0.527612,   32.943504,   15.474957,   386.718201,   -374.436859,   -185.561981,   0.005582,   733.386108,   214.777039
-0.134254,   0.129354,   0.159467,   -423.832428,   421.101654,   0.527612,   32.943504,   14.661719,   374.957001,   -377.687775,   -191.989212,   -0.001244,   731.735657,   -129.927048
-0.130555,   0.120715,   0.154126,   -431.839478,   409.886230,   0.527612,   32.943504,   13.848482,   360.470215,   -382.423462,   -197.870651,   -0.010038,   729.038513,   -259.609131
-0.125550,   0.109274,   0.147889,   -442.529999,   394.790436,   0.527612,   32.943504,   13.035244,   342.569092,   -390.308655,   -202.481903,   -0.021933,   725.533508,   -335.134552
-0.119782,   0.095153,   0.141424,   -457.899597,   373.969666,   0.527612,   32.943504,   12.222006,   320.308472,   -404.238403,   -204.351608,   -0.038768,   721.641113,   -402.620514
-0.114690,   0.079421,   0.135924,   -480.364105,   345.441406,   0.527612,   32.943504,   11.408768,   292.782196,   -427.704895,   -201.775284,   -0.062608,   718.343262,   -469.066345
-0.113398,   0.064845,   0.133699,   -517.574097,   301.929199,   0.527611,   32.943504,   10.595531,   255.371948,   -471.016815,   -189.700409,   -0.100134,   717.854370,   -544.769653
-0.121037,   0.056077,   0.138738,   -574.167175,   239.694565,   0.527612,   32.943504,   9.782292,   204.850800,   -539.323425,   -164.754105,   -0.153909,   724.393677,   -625.358337
-0.143725,   0.058574,   0.158613,   -720.696777,   51.262817,   0.527612,   32.943504,   8.969054,   48.171932,   -717.605896,   -48.749199,   -0.298462,   747.647461,   -743.677979
-0.180402,   0.072709,   0.197282,   -843.146362,   0.000000,   0.527611,   32.943504,   8.155817,   -142.313644,   -815.786011,   138.473953,   -0.403265,   791.951782,   -772.847290
-0.223446,   0.094512,   0.244317,   -891.362061,   0.000000,   0.527612,   32.943504,   7.342579,   -202.282883,   -828.530090,   208.077362,   -0.413749,   830.464661,   -803.487549
-0.266634,   0.122297,   0.290868,   -908.835144,   0.000000,   0.527612,   32.943504,   6.529341,   -181.970871,   -836.896912,   228.668640,   -0.395315,   859.119873,   -843.048523
-0.306021,   0.155933,   0.332624,   -904.877930,   0.000000,   0.527612,   32.943504,   5.716104,   -121.653084,   -836.761902,   230.976501,   -0.363312,   879.332581,   -875.654541
-0.070891,   0.152790,   0.150340,   -5.668964,   685.391418,   0.523154,   33.740997,   53.488712,   670.450256,   9.272187,   -100.508705,   0.329206,   688.243408,   688.190796
-0.070185,   0.156979,   0.155051,   0.000000,   697.409058,   0.523154,   33.740997,   52.654621,   676.532043,   27.985744,   -118.218338,   0.338443,   693.882019,   693.800171
-0.069039,   0.159919,   0.158656,   0.000000,   707.262268,   0.523154,   33.740997,   51.820526,   680.391113,   44.516140,   -133.449432,   0.345882,   698.606934,   698.105286
-0.067562,   0.161560,   0.161038,   0.000000,   715.020813,   0.523154,   33.740997,   50.986435,   682.243347,   58.933258,   -146.645386,   0.351781,   702.308289,   701.211060
-0.065829,   0.161868,   0.162089,   0.000000,   720.767700,   0.523155,   33.740997,   50.152340,   682.295593,   71.398338,   -158.058868,   0.356416,   704.881592,   703.148193
-0.063898,   0.160845,   0.161742,   0.000000,   724.565186,   0.523154,   33.740997,   49.318245,   680.751831,   82.028976,   -167.784576,   0.360023,   706.233276,   703.901306
-0.061846,   0.158553,   0.159992,   0.000000,   726.437622,   0.523154,   33.740997,   48.484154,   677.781189,   90.812195,   -175.861511,   0.362730,   706.303894,   703.465088
-0.059782,   0.155133,   0.156921,   0.000000,   726.417419,   0.523155,   33.740997,   47.650059,   673.499146,   97.669144,   -182.406860,   0.364563,   705.107849,   701.902100
-0.057854,   0.150806,   0.152705,   0.000000,   724.633972,   0.523154,   33.740997,   46.815964,   667.986877,   102.652367,   -187.705795,   0.365529,   702.761658,   699.361755
-0.056217,   0.145848,   0.147599,   0.000000,   721.380127,   0.523155,   33.740997,   45.981869,   661.422241,   106.088310,   -192.071869,   0.365765,   699.456787,   696.021851
-0.055005,   0.140544,   0.141919,   0.000000,   717.040649,   0.523152,   33.740997,   45.147778,   654.062622,   108.399788,   -195.783035,   0.365456,   695.443176,   692.094055
-0.054289,   0.135124,   0.136033,   0.000000,   712.010742,   0.523154,   33.740997,   44.313686,   646.201782,   109.876007,   -199.062408,   0.364710,   691.031799,   687.859863
-0.054050,   0.129630,   0.130268,   0.000000,   706.600525,   0.523155,   33.740997,   43.479591,   638.062683,   110.611641,   -202.108398,   0.363506,   686.531311,   683.621582
-0.054215,   0.124039,   0.124884,   0.000000,   701.054810,   0.523154,   33.740997,   42.645496,   629.822327,   110.604706,   -205.083511,   0.361773,   682.221313,   679.658142
-0.054881,   0.118579,   0.120097,   0.000000,   695.529602,   0.523155,   33.740997,   41.811405,   621.781616,   109.621765,   -207.868973,   0.359427,   678.304565,   676.165161
-0.056163,   0.113527,   0.115976,   0.000000,   689.969116,   0.523154,   33.740997,   40.977310,   614.016296,   107.246231,   -210.379288,   0.356249,   674.866760,   673.231506
-0.058105,   0.109056,   0.112489,   0.000000,   684.114685,   0.523154,   33.740997,   40.143215,   606.489685,   102.818565,   -212.421982,   0.351906,   671.872192,   670.808228
-0.060761,   0.105339,   0.109641,   0.000000,   677.559448,   0.523154,   33.740997,   39.309124,   599.178040,   95.256035,   -213.639328,   0.345860,   669.281677,   668.802795
-0.064169,   0.102600,   0.107561,   0.000000,   669.694763,   0.523154,   33.740997,   38.475029,   592.143982,   82.739426,   -213.351486,   0.337215,   667.115601,   667.070190
-0.068343,   0.101084,   0.106492,   -12.253331,   659.190186,   0.523155,   33.740997,   37.640938,   585.280518,   61.656334,   -210.151199,   0.324083,   665.401489,   665.147522
-0.073249,   0.101065,   0.106825,   -40.909683,   642.701599,   0.523154,   33.740997,   36.806843,   577.528320,   24.263580,   -200.762604,   0.302058,   664.102112,   661.258240
-0.078792,   0.102788,   0.109022,   -90.402519,   613.507935,   0.523154,   33.740997,   35.972748,   564.730713,   -41.625278,   -178.761276,   0.262862,   663.345520,   649.269348
-0.084721,   0.106227,   0.113229,   -162.395386,   568.492554,   0.523155,   33.740997,   35.138653,   540.155151,   -134.057983,   -141.097321,   0.203638,   664.737976,   617.696594
-0.090513,   0.110720,   0.118698,   -231.962738,   523.138611,   0.523154,   33.740997,   34.304562,   508.834930,   -217.659058,   -102.937515,   0.144875,   669.947266,   568.452698
-0.095472,   0.115064,   0.123982,   -275.348083,   495.198517,   0.523154,   33.740997,   33.470467,   486.702454,   -266.852020,   -80.463799,   0.108358,   676.306213,   525.989624
-0.099166,   0.118311,   0.128016,   -297.471252,   481.929016,   0.523154,   33.740997,   32.636375,   475.278992,   -290.821228,   -71.685425,   0.090254,   681.252319,   500.364410
-0.101700,   0.120338,   0.130693,   -309.121918,   475.550781,   0.523154,   33.740997,   31.802280,   469.117706,   -302.688843,   -70.756447,   0.081032,   684.622559,   485.878113
-0.103534,   0.121594,   0.132522,   -315.746338,   472.435638,   0.523154,   33.740997,   30.968187,   465.379608,   -308.690308,   -74.240471,   0.076018,   687.066956,   477.724884
-0.105094,   0.122536,   0.134014,   -320.524414,   470.531830,   0.523154,   33.740997,   30.134094,   462.470428,   -312.463013,   -79.448364,   0.072555,   689.168396,   472.041779
-0.106573,   0.123371,   0.135401,   -325.019135,   468.764374,   0.523154,   33.740997,   29.300001,   459.570129,   -315.824890,   -84.933533,   0.069323,   691.183655,   466.503571
-0.108021,   0.124150,   0.136743,   -329.654877,   466.827545,   0.523154,   33.740997,   28.465906,   456.452362,   -319.279694,   -90.310593,   0.065963,   693.175476,   460.376312
-0.109449,   0.124884,   0.138053,   -334.505310,   464.666504,   0.523154,   33.740997,   27.631813,   453.080933,   -322.919739,   -95.523026,   0.062413,   695.156250,   453.465454
-0.110859,   0.125576,   0.139335,   -339.570435,   462.281525,   0.523154,   33.740997,   26.797718,   449.460114,   -326.749023,   -100.580719,   0.058674,   697.129456,   445.688171
-0.112253,   0.126225,   0.140590,   -344.824280,   459.692413,   0.523154,   33.740997,   25.963625,   445.606659,   -330.738525,   -105.516853,   0.054770,   699.095093,   436.997742
-0.113629,   0.126828,   0.141815,   -350.231323,   456.926453,   0.523154,   33.740997,   25.129532,   441.540283,   -334.845154,   -110.373634,   0.050731,   701.051941,   427.356323
-0.114984,   0.127378,   0.143007,   -355.757812,   454.008545,   0.523154,   33.740997,   24.295439,   437.276062,   -339.025330,   -115.192970,   0.046587,   702.996765,   416.708405
-0.116315,   0.127868,   0.144160,   -361.367157,   450.966583,   0.523154,   33.740997,   23.461344,   432.829163,   -343.229736,   -120.019455,   0.042368,   704.926636,   404.991882
-0.117614,   0.128286,   0.145262,   -367.024048,   447.824188,   0.523153,   33.740997,   22.627251,   428.208984,   -347.408844,   -124.894623,   0.038104,   706.834778,   392.115906
-0.118870,   0.128613,   0.146300,   -372.685730,   444.609741,   0.523154,   33.740997,   21.793158,   423.423035,   -351.499023,   -129.872696,   0.033829,   708.711609,   377.981262
-0.120059,   0.128816,   0.147240,   -378.305969,   441.341125,   0.523154,   33.740997,   20.959064,   418.462555,   -355.427399,   -135.014572,   0.029572,   710.534607,   362.438690
-0.121137,   0.128834,   0.148025,   -383.834076,   438.011505,   0.523154,   33.740997,   20.124969,   413.287262,   -359.109833,   -140.386017,   0.025355,   712.254456,   345.234253
-0.122033,   0.128569,   0.148559,   -389.251495,   434.574799,   0.523154,   33.740997,   19.290876,   407.814789,   -362.491486,   -146.046249,   0.021165,   713.814331,   325.836670
-0.122660,   0.127883,   0.148718,   -394.577209,   430.899292,   0.523154,   33.740997,   18.456783,   401.881561,   -365.559479,   -152.024445,   0.016931,   715.114258,   303.072388
-0.122914,   0.126592,   0.148347,   -399.888641,   426.773621,   0.523154,   33.740997,   17.622690,   395.253754,   -368.368774,   -158.312271,   0.012516,   716.036743,   274.424133
-0.122685,   0.124466,   0.147281,   -405.303406,   421.922577,   0.523154,   33.740997,   16.788595,   387.651672,   -371.032501,   -164.849319,   0.007732,   716.446899,   233.881927
-0.121832,   0.121192,   0.145328,   -410.976624,   415.981445,   0.523154,   33.740997,   15.954503,   378.738373,   -373.733551,   -171.497543,   0.002329,   716.171021,   156.735916
-0.120218,   0.116445,   0.142379,   -417.158234,   408.537323,   0.523154,   33.740997,   15.120409,   368.171112,   -376.792023,   -178.047134,   -0.004019,   715.086365,   -187.692947
-0.117606,   0.109801,   0.138390,   -424.320465,   398.979523,   0.523154,   33.740997,   14.286316,   355.458099,   -380.799042,   -184.220200,   -0.011845,   713.111267,   -268.337524
-0.113907,   0.100866,   0.133665,   -433.198975,   386.735504,   0.523154,   33.740997,   13.452222,   340.223694,   -386.687164,   -189.666260,   -0.021800,   710.464050,   -327.508514
-0.109434,   0.089577,   0.128718,   -445.221375,   370.587097,   0.523154,   33.740997,   12.618128,   321.919281,   -396.553558,   -193.222794,   -0.035164,   707.495667,   -382.197449
-0.104983,   0.076331,   0.124128,   -462.712616,   348.237549,   0.523154,   33.740997,   11.784035,   299.391815,   -413.866882,   -192.939224,   -0.054154,   704.631958,   -438.830078
-0.102551,   0.062797,   0.121253,   -491.154358,   314.450104,   0.523154,   33.740997,   10.949941,   269.269470,   -445.973724,   -185.354874,   -0.083756,   703.246033,   -504.396179
-0.105893,   0.052496,   0.122856,   -534.359741,   266.323456,   0.523154,   33.740997,   10.115848,   230.086807,   -498.123108,   -166.436096,   -0.126508,   706.244324,   -575.804810
-0.120406,   0.050118,   0.134206,   -641.593140,   139.078873,   0.523154,   33.740997,   9.281754,   125.878799,   -628.393066,   -100.651321,   -0.232239,   721.260498,   -690.117554
-0.147942,   0.058373,   0.161710,   -790.892944,   0.000000,   0.523154,   33.740997,   8.447660,   -80.461716,   -779.940674,   88.209099,   -0.378100,   758.530640,   -751.315125
-0.182814,   0.073930,   0.199829,   -858.433044,   0.000000,   0.523154,   33.740997,   7.613567,   -195.995972,   -797.465820,   200.965012,   -0.414193,   799.516663,   -773.236816
-0.217975,   0.094022,   0.237991,   -882.634766,   0.000000,   0.523154,   33.740997,   6.779473,   -199.125412,   -806.111206,   228.701935,   -0.404602,   828.168274,   -807.372070
-0.248785,   0.117342,   0.270613,   -886.348938,   0.000000,   0.523154,   33.740997,   5.945380,   -157.459808,   -813.079834,   231.095306,   -0.381773,   847.396118,   -837.909241
-0.271707,   0.143198,   0.294142,   -868.117126,   0.000000,   0.523154,   33.740997,   5.111286,   -81.819351,   -809.794739,   214.146622,   -0.346954,   856.610413,   -855.885010
-0.058451,   0.125485,   0.122678,   -6.890700,   656.788086,   0.517472,   34.510784,   54.127285,   649.238464,   0.658921,   -70.381294,   0.328102,   660.260437,   660.179504
-0.058778,   0.130837,   0.128364,   0.000000,   670.255432,   0.517472,   34.510784,   53.271168,   657.466614,   18.765219,   -91.278618,   0.337801,   667.287292,   667.227173
-0.058582,   0.135171,   0.133200,   0.000000,   681.946716,   0.517471,   34.510784,   52.415058,   663.468201,   35.633968,   -109.283592,   0.345988,   673.532898,   673.041016
-0.058003,   0.138412,   0.137066,   0.000000,   691.670105,   0.517472,   34.510784,   51.558945,   667.364136,   50.688339,   -124.818626,   0.352576,   678.863525,   677.708618
-0.057133,   0.140491,   0.139832,   0.000000,   699.401917,   0.517472,   34.510784,   50.702831,   669.346680,   63.842567,   -138.209564,   0.357757,   683.135193,   681.251404
-0.056028,   0.141357,   0.141378,   0.000000,   705.162048,   0.517472,   34.510784,   49.846718,   669.618347,   75.149666,   -149.642807,   0.361775,   686.216858,   683.638245
-0.054739,   0.140997,   0.141624,   0.000000,   708.967834,   0.517472,   34.510784,   48.990604,   668.364685,   84.642677,   -159.215500,   0.364826,   688.006042,   684.824036
-0.053338,   0.139468,   0.140566,   0.000000,   710.837769,   0.517472,   34.510784,   48.134491,   665.726807,   92.288658,   -167.042953,   0.367009,   688.462341,   684.811340
-0.051929,   0.136905,   0.138282,   0.000000,   710.837463,   0.517472,   34.510784,   47.278378,   661.781189,   98.080475,   -173.376999,   0.368344,   687.637268,   683.688904
-0.050641,   0.133510,   0.134934,   0.000000,   709.148621,   0.517472,   34.510784,   46.422264,   656.624512,   102.186722,   -178.550140,   0.368892,   685.667603,   681.603516
-0.049607,   0.129532,   0.130760,   0.000000,   706.084595,   0.517471,   34.510784,   45.566151,   650.432495,   104.975235,   -182.901627,   0.368801,   682.760498,   678.734863
-0.048933,   0.125218,   0.126055,   0.000000,   702.029602,   0.517472,   34.510784,   44.710037,   643.454346,   106.842903,   -186.716965,   0.368235,   679.183350,   675.308411
-0.048669,   0.120740,   0.121154,   0.000000,   697.339355,   0.517472,   34.510784,   43.853924,   635.955139,   107.980034,   -190.203476,   0.367240,   675.248291,   671.616882
-0.048792,   0.116107,   0.116362,   0.000000,   692.293091,   0.517472,   34.510784,   42.997814,   628.081787,   108.400734,   -193.629745,   0.365705,   671.290039,   668.005920
-0.049279,   0.111361,   0.111939,   0.000000,   687.147583,   0.517472,   34.510784,   42.141701,   620.108948,   108.054298,   -197.032013,   0.363581,   667.585388,   664.741699
-0.050244,   0.106749,   0.108058,   0.000000,   682.012329,   0.517472,   34.510784,   41.285587,   612.239136,   106.684860,   -200.355774,   0.360728,   664.326050,   662.012878
-0.051770,   0.102507,   0.104737,   0.000000,   676.727417,   0.517472,   34.510784,   40.429474,   604.493408,   103.752342,   -203.441132,   0.356872,   661.531616,   659.839172
-0.053893,   0.098783,   0.101930,   0.000000,   670.947571,   0.517471,   34.510784,   39.573360,   596.844971,   98.450668,   -205.969681,   0.351633,   659.110901,   658.097961
-0.056648,   0.095747,   0.099664,   0.000000,   664.198547,   0.517472,   34.510784,   38.717247,   589.340271,   89.493210,   -207.416092,   0.344409,   657.003296,   656.636414
-0.060070,   0.093606,   0.098083,   0.000000,   655.647644,   0.517472,   34.510784,   37.861134,   582.021729,   74.521004,   -206.847748,   0.334016,   655.200562,   655.199158
-0.064155,   0.092591,   0.097447,   -20.112274,   643.385559,   0.517472,   34.510784,   37.005020,   574.595215,   48.678066,   -202.262527,   0.317831,   653.673767,   652.977112
-0.068857,   0.092959,   0.098163,   -55.458122,   622.858398,   0.517473,   34.510784,   36.148907,   565.219910,   2.180356,   -189.142639,   0.289923,   652.357849,   647.022400
-0.074047,   0.094908,   0.100643,   -114.460350,   586.991516,   0.517472,   34.510784,   35.292793,   548.114685,   -75.583534,   -160.495514,   0.241653,   651.803284,   628.593262
-0.079413,   0.098268,   0.104815,   -190.214111,   538.192810,   0.517472,   34.510784,   34.436680,   518.261047,   -170.282333,   -118.832535,   0.177258,   654.373596,   587.173157
-0.084352,   0.102188,   0.109653,   -251.966995,   497.203613,   0.517471,   34.510784,   33.580566,   487.539246,   -242.302628,   -84.539093,   0.123803,   660.286072,   534.850647
-0.088223,   0.105505,   0.113776,   -285.506866,   475.587524,   0.517472,   34.510784,   32.724453,   469.435913,   -279.355255,   -68.147659,   0.095143,   665.943848,   497.334961
-0.090876,   0.107666,   0.116588,   -301.245575,   466.310944,   0.517471,   34.510784,   31.868340,   460.890533,   -295.825165,   -64.273590,   0.082143,   669.827515,   477.452942
-0.092707,   0.108951,   0.118425,   -309.088104,   462.350983,   0.517472,   34.510784,   31.012226,   456.505646,   -303.242767,   -66.896523,   0.075971,   672.466370,   467.478210
-0.094195,   0.109850,   0.119844,   -314.201050,   460.199280,   0.517473,   34.510784,   30.156113,   453.452057,   -307.453827,   -71.968964,   0.072139,   674.611572,   461.215790
-0.095575,   0.110610,   0.121122,   -318.833557,   458.299561,   0.517471,   34.510784,   29.299999,   450.495422,   -311.029419,   -77.485168,   0.068707,   676.619995,   455.356506
-0.096904,   0.111293,   0.122332,   -323.577240,   456.226318,   0.517472,   34.510784,   28.443888,   447.306641,   -314.657562,   -82.921829,   0.065160,   678.578735,   448.892975
-0.098195,   0.111909,   0.123486,   -328.541412,   453.896820,   0.517472,   34.510784,   27.587774,   443.825653,   -318.470245,   -88.196579,   0.061403,   680.503967,   441.555420
-0.099451,   0.112462,   0.124588,   -333.737518,   451.301331,   0.517472,   34.510784,   26.731661,   440.048462,   -322.484650,   -93.313004,   0.057427,   682.400024,   433.219910
-0.100672,   0.112950,   0.125639,   -339.144775,   448.454834,   0.517471,   34.510784,   25.875547,   435.988190,   -326.678131,   -98.302109,   0.053249,   684.267456,   423.803467
-0.101856,   0.113370,   0.126637,   -344.728790,   445.382843,   0.517472,   34.510784,   25.019434,   431.663422,   -331.009369,   -103.206795,   0.048901,   686.104980,   413.230316
-0.103001,   0.113717,   0.127577,   -350.453949,   442.110901,   0.517472,   34.510784,   24.163321,   427.090027,   -335.433075,   -108.071274,   0.044413,   687.909546,   401.403046
-0.104102,   0.113983,   0.128454,   -356.283691,   438.665894,   0.517472,   34.510784,   23.307207,   422.281982,   -339.899780,   -112.942276,   0.039817,   689.677734,   388.194183
-0.105152,   0.114155,   0.129256,   -362.183533,   435.069489,   0.517471,   34.510784,   22.451094,   417.245728,   -344.359772,   -117.865829,   0.035139,   691.402466,   373.417847
-0.106138,   0.114214,   0.129968,   -368.110992,   431.345947,   0.517472,   34.510784,   21.594982,   411.985474,   -348.750519,   -122.894424,   0.030413,   693.071533,   356.833923
-0.107036,   0.114126,   0.130555,   -374.027222,   427.500458,   0.517472,   34.510784,   20.738867,   406.483002,   -353.009766,   -128.079391,   0.025659,   694.658081,   338.041901
-0.107803,   0.113828,   0.130960,   -379.891205,   423.518829,   0.517471,   34.510784,   19.882755,   400.693451,   -357.065826,   -133.480850,   0.020891,   696.115417,   316.384674
-0.108376,   0.113223,   0.131093,   -385.694611,   419.323944,   0.517472,   34.510784,   19.026642,   394.507385,   -360.878052,   -139.147156,   0.016074,   697.369324,   290.491089
-0.108680,   0.112179,   0.130844,   -391.460815,   414.779388,   0.517473,   34.510784,   18.170528,   387.754883,   -364.436310,   -145.113480,   0.011131,   698.321838,   257.383667
-0.108633,   0.110522,   0.130086,   -397.273315,   409.690216,   0.517472,   34.510784,   17.314415,   380.213104,   -367.796204,   -151.387100,   0.005922,   698.878479,   208.746902
-0.108155,   0.108028,   0.128697,   -403.238220,   403.803986,   0.517471,   34.510784,   16.458302,   371.627777,   -371.062012,   -157.899490,   0.000270,   698.919067,   74.561401
-0.107118,   0.104405,   0.126551,   -409.495544,   396.804169,   0.517472,   34.510784,   15.602188,   361.723175,   -374.414551,   -164.484375,   -0.006058,   698.304871,   -210.158325
-0.105348,   0.099316,   0.123603,   -416.315186,   388.300598,   0.517472,   34.510784,   14.746075,   350.187469,   -378.202057,   -170.920471,   -0.013398,   696.958435,   -273.244781
-0.102688,   0.092362,   0.120031,   -424.309021,   377.770477,   0.517472,   34.510784,   13.889962,   336.672516,   -383.211060,   -176.846786,   -0.022320,   695.010864,   -322.908264
-0.099363,   0.083450,   0.116387,   -434.386414,   364.774567,   0.517472,   34.510784,   13.033849,   321.049286,   -390.661133,   -181.746063,   -0.033485,   692.968323,   -368.337494
-0.095891,   0.072700,   0.113051,   -447.986786,   347.914246,   0.517472,   34.510784,   12.177735,   302.824280,   -402.896820,   -183.994659,   -0.048268,   691.084229,   -414.451752
-0.093402,   0.060882,   0.110582,   -468.599152,   323.522400,   0.517472,   34.510784,   11.321622,   280.010437,   -425.087189,   -180.481247,   -0.070103,   689.821899,   -467.273102
-0.094483,   0.050354,   0.110650,   -503.674988,   284.085358,   0.517472,   34.510784,   10.465509,   247.784821,   -467.374451,   -165.161728,   -0.105929,   690.999023,   -533.657043
-0.103370,   0.044953,   0.116790,   -574.075623,   205.774673,   0.517472,   34.510784,   9.609395,   184.108582,   -552.409546,   -128.167404,   -0.175375,   700.025879,   -626.363464
-0.123572,   0.048483,   0.135328,   -729.951233,   0.000000,   0.517472,   34.510784,   8.753282,   -4.045445,   -728.993713,   26.363987,   -0.335451,   728.412170,   -728.397461
-0.151701,   0.059319,   0.165691,   -823.204285,   0.000000,   0.517472,   34.510784,   7.897169,   -171.524033,   -770.207947,   185.840469,   -0.407250,   770.805847,   -749.891174
-0.180704,   0.073951,   0.197490,   -855.828369,   0.000000,   0.517472,   34.510784,   7.041056,   -207.551239,   -773.569824,   230.924942,   -0.408510,   800.569458,   -778.051514
-0.205303,   0.090433,   0.223719,   -865.157715,   0.000000,   0.517472,   34.510784,   6.184943,   -183.349136,   -782.952393,   236.745193,   -0.393150,   819.281738,   -805.055847
-0.222295,   0.107696,   0.240905,   -856.531311,   0.000000,   0.517472,   34.510784,   5.328829,   -128.451645,   -788.868225,   221.955261,   -0.369375,   827.812744,   -822.768677
-0.229360,   0.124533,   0.247063,   -824.073853,   1.930451,   0.517472,   34.510784,   4.472716,   -41.065155,   -781.078247,   183.482788,   -0.332163,   825.040771,   -825.035583
-0.045994,   0.098306,   0.095399,   -8.872378,   624.153564,   0.522564,   35.259705,   54.819710,   621.734802,   -6.453646,   -39.054710,   0.326252,   628.636719,   628.495850
-0.047337,   0.104836,   0.102088,   0.000000,   639.561890,   0.522564,   35.259705,   53.939720,   633.065430,   10.483553,   -63.928093,   0.336455,   637.577698,   637.549622
-0.048132,   0.110464,   0.108044,   0.000000,   653.346436,   0.522564,   35.259705,   53.059731,   641.687317,   27.105125,   -85.448265,   0.345221,   645.761963,   645.346191
-0.048484,   0.115184,   0.113240,   0.000000,   665.320129,   0.522564,   35.259705,   52.179741,   647.960083,   42.537262,   -103.978485,   0.352423,   653.095581,   652.002380
-0.048488,   0.118930,   0.117572,   0.000000,   675.371826,   0.522564,   35.259705,   51.299751,   652.162048,   56.345310,   -119.864311,   0.358142,   659.428711,   657.551636
-0.048210,   0.121612,   0.120890,   0.000000,   683.439697,   0.522565,   35.259705,   50.419762,   654.527588,   68.387459,   -133.350937,   0.362591,   664.581909,   661.936462
-0.047691,   0.123154,   0.123053,   0.000000,   689.508362,   0.522564,   35.259705,   49.539768,   655.278015,   78.636810,   -144.604050,   0.365999,   668.412354,   665.081482
-0.046979,   0.123525,   0.123968,   0.000000,   693.564697,   0.522564,   35.259705,   48.659779,   654.571289,   87.088135,   -153.780914,   0.368538,   670.811646,   666.916077
-0.046143,   0.122768,   0.123617,   0.000000,   695.628967,   0.522564,   35.259705,   47.779793,   652.493042,   93.723572,   -161.132751,   0.370276,   671.765259,   667.459595
-0.045280,   0.121006,   0.122068,   0.000000,   695.802307,   0.522564,   35.259705,   46.899803,   649.093750,   98.619713,   -167.013565,   0.371247,   671.353638,   666.815857
-0.044508,   0.118427,   0.119474,   0.000000,   694.311951,   0.522564,   35.259705,   46.019814,   644.459656,   102.043091,   -171.831207,   0.371537,   669.743469,   665.145264
-0.043946,   0.115258,   0.116062,   0.000000,   691.492920,   0.522565,   35.259705,   45.139820,   638.752869,   104.388161,   -175.965775,   0.371290,   667.169922,   662.649719
-0.043678,   0.111723,   0.112122,   0.000000,   687.706726,   0.522564,   35.259705,   44.259830,   632.207031,   105.949196,   -179.686844,   0.370604,   663.921082,   659.587952
-0.043765,   0.107956,   0.107983,   0.000000,   683.268799,   0.522564,   35.259705,   43.379841,   624.982727,   106.779526,   -183.306595,   0.369376,   660.358826,   656.334839
-0.044169,   0.103972,   0.103959,   0.000000,   678.513611,   0.522564,   35.259705,   42.499851,   617.327820,   106.913483,   -187.012848,   0.367536,   656.844666,   653.249084
-0.044919,   0.099885,   0.100313,   0.000000,   673.686707,   0.522564,   35.259705,   41.619862,   609.475891,   106.224686,   -190.885330,   0.364952,   653.693176,   650.645142
-0.046131,   0.095953,   0.097160,   0.000000,   668.799744,   0.522565,   35.259705,   40.739872,   601.566406,   104.337410,   -194.809341,   0.361423,   651.041138,   648.655945
-0.047849,   0.092372,   0.094475,   0.000000,   663.590332,   0.522564,   35.259705,   39.859882,   593.628357,   100.590378,   -198.465607,   0.356658,   648.818542,   647.189026
-0.050107,   0.089279,   0.092215,   0.000000,   657.632080,   0.522564,   35.259705,   38.979893,   585.656921,   93.996857,   -201.414322,   0.350209,   646.902405,   646.058228
-0.052945,   0.086843,   0.090445,   0.000000,   650.316650,   0.522564,   35.259705,   38.099903,   577.720093,   82.882629,   -202.962463,   0.341272,   645.235107,   645.050537
-0.056373,   0.085249,   0.089314,   -6.564949,   640.439697,   0.522564,   35.259705,   37.219910,   569.818665,   64.056061,   -201.754288,   0.328221,   643.747314,   643.671936
-0.060368,   0.084706,   0.089101,   -33.008823,   625.168396,   0.522565,   35.259705,   36.339920,   561.335876,   30.823681,   -194.778107,   0.307308,   642.309204,   640.396729
-0.064857,   0.085445,   0.090210,   -77.734947,   598.495239,   0.522565,   35.259705,   35.459930,   549.175659,   -28.415340,   -175.837952,   0.270845,   640.908203,   630.171265
-0.069661,   0.087577,   0.092947,   -146.630386,   554.905945,   0.522564,   35.259705,   34.579941,   526.088135,   -117.812584,   -139.234589,   0.212336,   640.926758,   601.426270
-0.074369,   0.090724,   0.096924,   -221.110077,   505.268433,   0.522564,   35.259705,   33.699951,   492.240601,   -208.082260,   -96.402298,   0.146873,   644.907593,   549.368225
-0.078322,   0.093882,   0.100897,   -270.704224,   471.793579,   0.522564,   35.259705,   32.819962,   465.313171,   -264.223816,   -69.062927,   0.102990,   650.835205,   498.263824
-0.081104,   0.096147,   0.103821,   -293.537323,   457.265228,   0.522564,   35.259705,   31.939970,   452.421539,   -288.693634,   -60.109859,   0.083278,   655.347290,   469.182739
-0.082962,   0.097499,   0.105707,   -303.199554,   452.031891,   0.522564,   35.259705,   31.059980,   447.020752,   -298.188416,   -61.314495,   0.075365,   658.269470,   456.433289
-0.084402,   0.098396,   0.107094,   -308.642059,   449.678406,   0.522564,   35.259705,   30.179991,   443.874237,   -302.837891,   -66.088898,   0.071177,   660.500000,   449.613037
-0.085702,   0.099121,   0.108301,   -313.308838,   447.758698,   0.522564,   35.259705,   29.299999,   440.976990,   -306.527130,   -71.521675,   0.067645,   662.523254,   443.625854
-0.086928,   0.099744,   0.109411,   -318.027466,   445.672729,   0.522564,   35.259705,   28.420010,   437.848907,   -310.203644,   -76.901550,   0.064035,   664.456055,   437.069885
-0.088094,   0.100274,   0.110435,   -322.952850,   443.301300,   0.522564,   35.259705,   27.540020,   434.398102,   -314.049652,   -82.114883,   0.060206,   666.318237,   429.584808
-0.089200,   0.100713,   0.111376,   -328.112366,   440.620483,   0.522564,   35.259705,   26.660030,   430.608124,   -318.100006,   -87.158348,   0.056132,   668.114624,   421.001892
-0.090247,   0.101060,   0.112235,   -333.493378,   437.637634,   0.522564,   35.259705,   25.780041,   426.485382,   -322.341125,   -92.062294,   0.051825,   669.846069,   411.201202
-0.091232,   0.101311,   0.113008,   -339.065918,   434.373932,   0.522564,   35.259705,   24.900049,   422.044373,   -326.736359,   -96.871887,   0.047310,   671.511597,   400.067993
-0.092153,   0.101461,   0.113692,   -344.795837,   430.853363,   0.522564,   35.259705,   24.020060,   417.298798,   -331.241272,   -101.635925,   0.042617,   673.108643,   387.459015
-0.093005,   0.101503,   0.114280,   -350.647919,   427.100708,   0.522564,   35.259705,   23.140070,   412.260193,   -335.807404,   -106.404678,   0.037775,   674.633911,   373.180847
-0.093780,   0.101425,   0.114762,   -356.587952,   423.136322,   0.522564,   35.259705,   22.260080,   406.933228,   -340.384857,   -111.226830,   0.032811,   676.080322,   356.949371
-0.094468,   0.101207,   0.115123,   -362.580963,   418.975525,   0.522564,   35.259705,   21.380089,   401.313843,   -344.919281,   -116.153664,   0.027749,   677.434875,   338.339844
-0.095044,   0.100815,   0.115329,   -368.600555,   414.608887,   0.522564,   35.259705,   20.500099,   395.370728,   -349.362396,   -121.232849,   0.022597,   678.669250,   316.610809
-0.095472,   0.100189,   0.115328,   -374.625397,   410.000641,   0.522564,   35.259705,   19.620110,   389.038910,   -353.663666,   -126.521614,   0.017348,   679.736206,   290.419983
-0.095697,   0.099233,   0.115037,   -380.667633,   405.050629,   0.522564,   35.259705,   18.740120,   382.188171,   -357.805176,   -132.063431,   0.011943,   680.561218,   256.788635
-0.095663,   0.097819,   0.114364,   -386.759674,   399.624512,   0.522564,   35.259705,   17.860130,   374.646484,   -361.781647,   -137.907272,   0.006296,   681.059021,   207.621124
-0.095320,   0.095786,   0.113227,   -392.990387,   393.541412,   0.522564,   35.259705,   16.980139,   366.194733,   -365.643707,   -144.087448,   0.000270,   681.156555,   72.650864
-0.094625,   0.092939,   0.111574,   -399.469788,   386.607086,   0.522563,   35.259705,   16.100149,   356.626160,   -369.488861,   -150.560486,   -0.006298,   680.792908,   -207.555267
-0.093439,   0.088980,   0.109347,   -406.378601,   378.534485,   0.522564,   35.259705,   15.220160,   345.699554,   -373.543671,   -157.144608,   -0.013651,   679.897217,   -268.218842
-0.091616,   0.083569,   0.106674,   -414.078918,   369.042175,   0.522564,   35.259705,   14.340169,   333.212555,   -378.249298,   -163.631165,   -0.022123,   678.576477,   -314.344574
-0.089255,   0.076516,   0.104039,   -423.493805,   357.696899,   0.522564,   35.259705,   13.460179,   319.037933,   -384.834839,   -169.426987,   -0.032381,   677.330444,   -356.048981
-0.086832,   0.067956,   0.101958,   -435.416504,   344.208160,   0.522564,   35.259705,   12.580190,   303.226105,   -394.434448,   -173.985931,   -0.044927,   676.713196,   -396.368591
-0.085068,   0.058233,   0.100693,   -451.157257,   327.125671,   0.522564,   35.259705,   11.700199,   285.421051,   -409.452637,   -175.267578,   -0.061082,   676.859802,   -438.440613
-0.085563,   0.048625,   0.100892,   -478.831146,   297.302734,   0.522564,   35.259705,   10.820210,   260.133881,   -441.662292,   -165.730133,   -0.089214,   678.252136,   -496.334290
-0.091316,   0.041950,   0.104637,   -525.890747,   247.175705,   0.522564,   35.259705,   9.940220,   220.611099,   -499.326111,   -140.820908,   -0.135857,   683.845215,   -569.476990
-0.106205,   0.042027,   0.117014,   -664.859985,   73.206108,   0.522564,   35.259705,   9.060229,   71.896065,   -663.549927,   -31.067345,   -0.280011,   704.322144,   -695.685608
-0.128993,   0.049240,   0.140795,   -786.538025,   0.000000,   0.522564,   35.259705,   8.180239,   -129.178329,   -749.025085,   157.033463,   -0.392960,   744.947205,   -732.097717
-0.153198,   0.059927,   0.167573,   -831.161194,   0.000000,   0.522564,   35.259705,   7.300249,   -209.015305,   -745.341064,   231.068512,   -0.409459,   776.924072,   -754.478638
-0.172792,   0.071661,   0.188729,   -844.825623,   0.000000,   0.522564,   35.259705,   6.420259,   -203.949844,   -751.837891,   244.117996,   -0.400663,   795.172485,   -777.467896
-0.184457,   0.083060,   0.200395,   -841.146973,   0.000000,   0.522564,   35.259705,   5.540269,   -164.868317,   -760.807068,   233.092560,   -0.384626,   802.229675,   -792.117737
-0.186797,   0.093198,   0.201355,   -818.205505,   0.000000,   0.522564,   35.259705,   4.660279,   -97.596886,   -762.645508,   200.092484,   -0.359325,   798.017883,   -795.521057
-0.179447,   0.100473,   0.192048,   -768.749451,   25.677925,   0.522564,   35.259705,   3.780289,   0.962581,   -744.034119,   137.926422,   -0.316778,   781.904785,   -780.955261
-0.035359,   0.075753,   0.072925,   -6.866966,   594.449097,   0.537509,   36.001991,   55.549416,   593.916687,   -6.334535,   -17.885065,   0.327574,   597.912170,   597.823425
-0.037652,   0.082308,   0.079513,   -1.000585,   607.559692,   0.537508,   36.001991,   54.644264,   604.556458,   2.002658,   -42.645458,   0.332510,   608.060608,   608.058716
-0.039155,   0.088415,   0.085785,   0.000000,   621.986816,   0.537508,   36.001991,   53.739113,   614.778625,   15.806808,   -66.101929,   0.340269,   617.732422,   617.597778
-0.040148,   0.093907,   0.091593,   0.000000,   635.770508,   0.537509,   36.001991,   52.833961,   623.251648,   30.969095,   -87.013969,   0.347944,   626.749084,   626.137573
-0.040762,   0.098674,   0.096807,   0.000000,   648.060059,   0.537508,   36.001991,   51.928806,   629.732361,   45.520088,   -105.086449,   0.354519,   634.900696,   633.588501
-0.041075,   0.102607,   0.101282,   0.000000,   658.517334,   0.537509,   36.001991,   51.023655,   634.355896,   58.641102,   -120.390556,   0.359827,   641.972351,   639.884033
-0.041129,   0.105588,   0.104844,   0.000000,   666.991028,   0.537509,   36.001991,   50.118504,   637.319275,   70.036598,   -133.089035,   0.364005,   647.752563,   644.913818
-0.040957,   0.107517,   0.107336,   0.000000,   673.406799,   0.537508,   36.001991,   49.213352,   638.786865,   79.617546,   -143.376907,   0.367241,   652.073425,   648.566528
-0.040599,   0.108348,   0.108647,   0.000000,   677.738525,   0.537508,   36.001991,   48.308201,   638.852783,   87.366859,   -151.515854,   0.369665,   654.845337,   650.789246
-0.040122,   0.108109,   0.108747,   0.000000,   680.018616,   0.537509,   36.001991,   47.403046,   637.538208,   93.333603,   -157.868942,   0.371337,   656.071777,   651.615479
-0.039616,   0.106910,   0.107694,   0.000000,   680.396667,   0.537508,   36.001991,   46.497894,   634.864441,   97.683563,   -162.887146,   0.372299,   655.877869,   651.188538
-0.039194,   0.104923,   0.105631,   0.000000,   679.131836,   0.537509,   36.001991,   45.592743,   630.883606,   100.765823,   -167.048325,   0.372651,   654.455383,   649.689209
-0.038957,   0.102364,   0.102784,   0.000000,   676.576355,   0.537508,   36.001991,   44.687592,   625.761169,   102.964935,   -170.728409,   0.372521,   652.067444,   647.350769
-0.038996,   0.099437,   0.099450,   0.000000,   673.081665,   0.537509,   36.001991,   43.782436,   619.655701,   104.469505,   -174.294754,   0.371880,   649.066956,   644.528198
-0.039338,   0.096241,   0.095957,   0.000000,   669.003235,   0.537508,   36.001991,   42.877285,   612.789551,   105.336021,   -178.005081,   0.370639,   645.844666,   641.621521
-0.039974,   0.092806,   0.092625,   0.000000,   664.661499,   0.537508,   36.001991,   41.972134,   605.372437,   105.473473,   -182.081635,   0.368611,   642.814819,   639.066040
-0.040958,   0.089298,   0.089676,   0.000000,   660.257812,   0.537510,   36.001991,   41.066982,   597.642090,   104.682693,   -186.514740,   0.365645,   640.261658,   637.141235
-0.042381,   0.085970,   0.087155,   0.000000,   655.640259,   0.537508,   36.001991,   40.161827,   589.702576,   102.366257,   -191.001541,   0.361466,   638.206177,   635.860596
-0.044275,   0.082983,   0.085013,   0.000000,   650.446716,   0.537508,   36.001991,   39.256676,   581.520569,   97.730225,   -195.183533,   0.355703,   636.533630,   635.064819
-0.046673,   0.080473,   0.083249,   0.000000,   644.146912,   0.537509,   36.001991,   38.351524,   573.078369,   89.474899,   -198.544022,   0.347718,   635.143799,   634.543335
-0.049600,   0.078598,   0.081940,   0.000000,   635.878601,   0.537508,   36.001991,   37.446369,   564.433350,   75.325592,   -200.122086,   0.336389,   633.947327,   633.920593
-0.053051,   0.077528,   0.081258,   -17.606773,   623.789856,   0.537508,   36.001991,   36.541222,   555.499268,   50.683846,   -197.832672,   0.319324,   632.777039,   632.225525
-0.056972,   0.077451,   0.081492,   -52.213207,   603.629395,   0.537511,   36.001991,   35.636066,   545.103027,   6.313183,   -186.972626,   0.291127,   631.357361,   626.472229
-0.061244,   0.078548,   0.083017,   -109.032219,   568.320129,   0.537508,   36.001991,   34.730915,   528.327271,   -69.039383,   -159.655289,   0.243028,   629.953186,   608.178833
-0.065600,   0.080775,   0.085925,   -185.333298,   517.754089,   0.537508,   36.001991,   33.825764,   498.174133,   -165.753342,   -115.685127,   0.175558,   631.169434,   564.909302
-0.069508,   0.083511,   0.089457,   -251.217804,   472.292786,   0.537509,   36.001991,   32.920609,   464.057373,   -242.982376,   -76.750214,   0.115821,   636.254089,   505.069397
-0.072399,   0.085779,   0.092399,   -285.493347,   449.024048,   0.537509,   36.001991,   32.015457,   444.164978,   -280.634277,   -59.543816,   0.084994,   641.344238,   462.153137
-0.074306,   0.087211,   0.094354,   -298.485565,   441.320709,   0.537509,   36.001991,   31.110304,   436.725983,   -293.890839,   -58.121300,   0.073856,   644.659119,   444.092682
-0.075722,   0.088149,   0.095748,   -304.389313,   438.701691,   0.537508,   36.001991,   30.205153,   433.443604,   -299.131226,   -62.286350,   0.069194,   647.030273,   436.439941
-0.076961,   0.088881,   0.096923,   -308.957550,   436.905975,   0.537509,   36.001991,   29.300001,   430.752838,   -302.804413,   -67.465149,   0.065706,   649.097107,   430.554321
-0.078100,   0.089484,   0.097967,   -313.462463,   434.983398,   0.537509,   36.001991,   28.394848,   427.870209,   -306.349274,   -72.617020,   0.062221,   651.014771,   424.245026
-0.079149,   0.089964,   0.098889,   -318.128326,   432.756378,   0.537508,   36.001991,   27.489697,   424.653229,   -310.025177,   -77.581444,   0.058531,   652.806091,   417.017853
-0.080111,   0.090321,   0.099692,   -323.004456,   430.181274,   0.537509,   36.001991,   26.584543,   421.067780,   -313.890961,   -82.347412,   0.054587,   654.475525,   408.657715
-0.080982,   0.090553,   0.100373,   -328.091461,   427.253357,   0.537508,   36.001991,   25.679390,   417.109039,   -317.947144,   -86.945694,   0.050385,   656.024109,   399.011322
-0.081762,   0.090656,   0.100929,   -333.368805,   423.985718,   0.537509,   36.001991,   24.774239,   412.783356,   -322.166443,   -91.425743,   0.045944,   657.451355,   387.932678
-0.082447,   0.090623,   0.101356,   -338.809906,   420.396362,   0.537509,   36.001991,   23.869085,   408.097778,   -326.511322,   -95.843079,   0.041283,   658.756165,   375.241364
-0.083034,   0.090449,   0.101649,   -344.388489,   416.502563,   0.537508,   36.001991,   22.963934,   403.055573,   -330.941498,   -100.254082,   0.036425,   659.936707,   360.684814
-0.083517,   0.090123,   0.101800,   -350.083618,   412.313873,   0.537509,   36.001991,   22.058783,   397.650085,   -335.419830,   -104.712036,   0.031382,   660.988342,   343.873383
-0.083887,   0.089627,   0.101794,   -355.882843,   407.824677,   0.537509,   36.001991,   21.153629,   391.857605,   -339.915771,   -109.266716,   0.026158,   661.899841,   324.165741
-0.084126,   0.088928,   0.101605,   -361.788849,   402.998871,   0.537508,   36.001991,   20.248476,   385.621674,   -344.411652,   -113.964424,   0.020730,   662.645996,   300.399506
-0.084208,   0.087971,   0.101188,   -367.818726,   397.768372,   0.537509,   36.001991,   19.343325,   378.846558,   -348.896912,   -118.862350,   0.015053,   663.186951,   270.283813
-0.084100,   0.086670,   0.100484,   -374.019165,   392.014374,   0.537509,   36.001991,   18.438171,   371.379333,   -353.384125,   -124.021492,   0.009041,   663.465515,   228.170197
-0.083774,   0.084908,   0.099433,   -380.467377,   385.587402,   0.537508,   36.001991,   17.533020,   363.022278,   -357.902252,   -129.525803,   0.002573,   663.427795,   150.077911
-0.083223,   0.082542,   0.098010,   -387.278046,   378.340302,   0.537509,   36.001991,   16.627869,   353.578766,   -362.516510,   -135.442810,   -0.004493,   663.059998,   -180.633911
-0.082423,   0.079393,   0.096247,   -394.604767,   370.144714,   0.537508,   36.001991,   15.722715,   342.884186,   -367.344238,   -141.789795,   -0.012309,   662.405396,   -252.464035
-0.081237,   0.075149,   0.094214,   -402.697784,   360.805939,   0.537509,   36.001991,   14.817563,   330.762177,   -372.654022,   -148.444946,   -0.021108,   661.545288,   -301.707550
-0.079676,   0.069574,   0.092328,   -412.132019,   350.262756,   0.537509,   36.001991,   13.912411,   317.286194,   -379.155457,   -155.092575,   -0.031201,   660.977539,   -343.207397
-0.078091,   0.062723,   0.091124,   -423.876801,   338.141815,   0.537508,   36.001991,   13.007258,   302.511749,   -388.246735,   -160.876587,   -0.043214,   661.318298,   -382.422424
-0.077129,   0.054909,   0.091005,   -438.076782,   324.744263,   0.537509,   36.001991,   12.102106,   286.993713,   -400.326233,   -165.444305,   -0.056975,   663.048340,   -419.851227
-0.077795,   0.046763,   0.092147,   -458.940796,   305.150665,   0.537509,   36.001991,   11.196954,   267.856506,   -421.646637,   -164.636841,   -0.076952,   666.175415,   -465.019196
-0.081945,   0.039944,   0.095221,   -491.398834,   272.941803,   0.537509,   36.001991,   10.291800,   242.505768,   -460.962799,   -149.456192,   -0.108541,   670.889954,   -522.048584
-0.092930,   0.037608,   0.103482,   -598.601074,   148.248016,   0.537508,   36.001991,   9.386649,   139.992447,   -590.345520,   -78.086533,   -0.219193,   684.866516,   -647.272278
-0.111359,   0.041903,   0.121546,   -745.526489,   0.000000,   0.537509,   36.001991,   8.481497,   -72.430084,   -726.219055,   113.998886,   -0.369521,   720.435547,   -716.009094
-0.131841,   0.049840,   0.144186,   -807.087463,   0.000000,   0.537509,   36.001991,   7.576344,   -200.678131,   -723.614929,   224.985641,   -0.407895,   755.335815,   -734.458557
-0.147930,   0.058626,   0.161795,   -824.664429,   0.000000,   0.537509,   36.001991,   6.671192,   -216.081192,   -723.219666,   248.470490,   -0.404657,   773.741760,   -754.280579
-0.156193,   0.066673,   0.170038,   -823.129272,   0.000000,   0.537509,   36.001991,   5.766040,   -188.144272,   -730.123535,   243.016937,   -0.392460,   779.924194,   -766.706238
-0.155988,   0.073166,   0.168405,   -805.049622,   0.000000,   0.537509,   36.001991,   4.860888,   -133.925888,   -735.572815,   215.934082,   -0.374056,   774.837952,   -768.772827
-0.148380,   0.077124,   0.158672,   -769.014221,   0.000000,   0.537509,   36.001991,   3.955735,   -57.517296,   -731.186707,   164.055374,   -0.346214,   759.360779,   -758.786133
-0.135454,   0.076355,   0.143841,   -719.367737,   33.693138,   0.537509,   36.001991,   3.050583,   23.911970,   -709.586548,   85.265137,   -0.310207,   736.792297,   -735.056030
-0.027024,   0.057886,   0.055189,   -6.792814,   565.303955,   0.552449,   36.744282,   56.279121,   565.119934,   -6.608784,   -10.259117,   0.327344,   568.730774,   568.639404
-0.029737,   0.063888,   0.061177,   -7.717377,   575.947937,   0.552447,   36.744282,   55.348808,   574.121033,   -5.890495,   -32.602917,   0.326656,   579.845154,   579.729614
-0.031848,   0.069917,   0.067264,   -2.937957,   589.371948,   0.552447,   36.744282,   54.418495,   584.093994,   2.339967,   -55.662464,   0.330844,   590.846436,   590.830017
-0.033400,   0.075726,   0.073247,   0.000000,   603.959656,   0.552449,   36.744282,   53.488178,   593.762207,   15.220653,   -77.483124,   0.337500,   601.463806,   601.416687
-0.034519,   0.081120,   0.078946,   0.000000,   618.242065,   0.552447,   36.744282,   52.557865,   602.278625,   29.883711,   -96.913422,   0.344652,   611.400757,   611.044067
-0.035288,   0.085930,   0.084177,   0.000000,   631.243286,   0.552448,   36.744282,   51.627552,   609.286743,   44.332142,   -113.518906,   0.351205,   620.358215,   619.449280
-0.035761,   0.089996,   0.088745,   0.000000,   642.425415,   0.552448,   36.744282,   50.697235,   614.730896,   57.470028,   -127.279442,   0.356756,   628.067261,   626.476318
-0.035971,   0.093166,   0.092448,   0.000000,   651.505920,   0.552448,   36.744282,   49.766922,   618.660583,   68.790359,   -138.345551,   0.361266,   634.297668,   632.000061
-0.035952,   0.095319,   0.095107,   0.000000,   658.351318,   0.552447,   36.744282,   48.836605,   621.133911,   78.115158,   -146.951996,   0.364828,   638.884949,   635.929810
-0.035750,   0.096396,   0.096601,   0.000000,   662.945129,   0.552449,   36.744282,   47.906292,   622.169128,   85.473602,   -153.450195,   0.367550,   641.764771,   638.248596
-0.035437,   0.096422,   0.096897,   0.000000,   665.379395,   0.552447,   36.744282,   46.975975,   621.741638,   91.041916,   -158.312317,   0.369516,   642.989197,   639.039917
-0.035110,   0.095506,   0.096056,   0.000000,   665.859680,   0.552448,   36.744282,   46.045662,   619.820923,   95.135162,   -162.097061,   0.370797,   642.719421,   638.480103
-0.034872,   0.093821,   0.094230,   0.000000,   664.701477,   0.552447,   36.744282,   45.115349,   616.472839,   98.166870,   -165.297318,   0.371516,   641.192566,   636.795227
-0.034828,   0.091580,   0.091656,   0.000000,   662.264587,   0.552450,   36.744282,   44.185036,   611.820923,   100.482376,   -168.339996,   0.371737,   638.716980,   634.284546
-0.035047,   0.088973,   0.088654,   0.000000,   658.962341,   0.552447,   36.744282,   43.254719,   606.112061,   102.243355,   -171.530670,   0.371427,   635.706604,   631.367798
-0.035557,   0.086092,   0.085590,   0.000000,   655.207581,   0.552448,   36.744282,   42.324406,   599.598938,   103.456696,   -175.163162,   0.370434,   632.642151,   628.551819
-0.036352,   0.083010,   0.082778,   0.000000,   651.354492,   0.552448,   36.744282,   41.394089,   592.578003,   104.007706,   -179.363113,   0.368588,   629.957947,   626.288879
-0.037509,   0.079919,   0.080329,   0.000000,   647.360779,   0.552447,   36.744282,   40.463776,   585.198669,   103.359512,   -183.891968,   0.365607,   627.776672,   624.724426
-0.039076,   0.077018,   0.078218,   0.000000,   642.923889,   0.552448,   36.744282,   39.533463,   577.387024,   100.805000,   -188.490814,   0.361104,   626.035339,   623.794312
-0.041099,   0.074458,   0.076434,   0.000000,   637.575928,   0.552448,   36.744282,   38.603146,   568.992188,   95.227287,   -192.863403,   0.354432,   624.680420,   623.400085
-0.043614,   0.072390,   0.075025,   0.000000,   630.600464,   0.552448,   36.744282,   37.672832,   559.905273,   84.798126,   -196.432190,   0.344576,   623.668640,   623.309753
-0.046628,   0.070972,   0.074098,   -4.516278,   620.613892,   0.552447,   36.744282,   36.742519,   550.029602,   66.068024,   -197.843964,   0.329701,   622.884277,   622.847412
-0.050105,   0.070361,   0.073839,   -33.590305,   604.528503,   0.552450,   36.744282,   35.812202,   538.969055,   31.969130,   -193.743820,   0.305967,   622.004272,   619.958618
-0.053945,   0.070712,   0.074534,   -81.060593,   576.051514,   0.552447,   36.744282,   34.881889,   524.464844,   -29.473904,   -176.740067,   0.265882,   620.565308,   608.483276
-0.057939,   0.072099,   0.076447,   -151.931473,   529.593750,   0.552448,   36.744282,   33.951572,   499.958832,   -122.296562,   -138.991760,   0.203146,   619.689148,   575.503296
-0.061696,   0.074252,   0.079326,   -228.122803,   476.416321,   0.552448,   36.744282,   33.021259,   464.126099,   -215.832581,   -92.238235,   0.132923,   622.650757,   515.186462
-0.064659,   0.076395,   0.082158,   -276.689636,   441.971649,   0.552448,   36.744282,   32.090942,   436.239105,   -270.957092,   -63.928886,   0.087751,   627.841614,   457.041504
-0.066664,   0.077936,   0.084222,   -295.373535,   429.892548,   0.552448,   36.744282,   31.160629,   425.239868,   -290.720856,   -57.903214,   0.070984,   631.689819,   429.624756
-0.068122,   0.079002,   0.085717,   -302.168152,   426.782379,   0.552448,   36.744282,   30.230314,   421.641022,   -297.026794,   -61.003017,   0.065481,   634.357056,   420.308197
-0.069363,   0.079837,   0.086957,   -306.587128,   425.283691,   0.552448,   36.744282,   29.299999,   419.323975,   -300.627411,   -65.774040,   0.062152,   636.591248,   414.695618
-0.070468,   0.080510,   0.088023,   -310.724884,   423.758850,   0.552448,   36.744282,   28.369686,   416.919434,   -303.885468,   -70.545433,   0.059002,   638.587402,   409.003693
-0.071446,   0.081024,   0.088923,   -314.915802,   421.932465,   0.552448,   36.744282,   27.439371,   414.202454,   -307.185791,   -75.073891,   0.055706,   640.368774,   402.513489
-0.072295,   0.081373,   0.089650,   -319.232300,   419.736786,   0.552448,   36.744282,   26.509056,   411.118866,   -310.614380,   -79.335403,   0.052188,   641.935913,   394.971436
-0.073009,   0.081550,   0.090199,   -323.687958,   417.153015,   0.552448,   36.744282,   25.578741,   407.651733,   -314.186676,   -83.358627,   0.048431,   643.286804,   386.213562
-0.073586,   0.081549,   0.090565,   -328.272583,   414.183228,   0.552448,   36.744282,   24.648426,   403.797455,   -317.886810,   -87.195808,   0.044438,   644.418823,   376.095520
-0.074022,   0.081363,   0.090743,   -332.969299,   410.835785,   0.552448,   36.744282,   23.718113,   399.553833,   -321.687347,   -90.908165,   0.040221,   645.329590,   364.443817
-0.074313,   0.080985,   0.090726,   -337.765259,   407.115540,   0.552448,   36.744282,   22.787798,   394.912231,   -325.561951,   -94.557365,   0.035784,   646.017029,   351.009277
-0.074456,   0.080403,   0.090508,   -342.660004,   403.013397,   0.552448,   36.744282,   21.857483,   389.848724,   -329.495331,   -98.200020,   0.031119,   646.476807,   335.386139
-0.074446,   0.079601,   0.090077,   -347.676910,   398.492493,   0.552448,   36.744282,   20.927168,   384.310669,   -333.495087,   -101.886742,   0.026192,   646.700928,   316.859344
-0.074273,   0.078549,   0.089414,   -352.868591,   393.476410,   0.552448,   36.744282,   19.996855,   378.202789,   -337.594971,   -105.669838,   0.020932,   646.672607,   294.102875
-0.073928,   0.077201,   0.088491,   -358.316376,   387.849823,   0.552448,   36.744282,   19.066540,   371.381378,   -341.847931,   -109.621971,   0.015230,   646.367554,   264.456329
-0.073403,   0.075479,   0.087274,   -364.130493,   381.458832,   0.552448,   36.744282,   18.136225,   363.651794,   -346.323456,   -113.840416,   0.008945,   645.757385,   221.289413
-0.072716,   0.073291,   0.085756,   -370.469788,   374.141266,   0.552448,   36.744282,   17.205910,   354.788361,   -351.116882,   -118.473007,   0.001898,   644.854736,   131.811508
-0.071915,   0.070534,   0.084005,   -377.515717,   365.817169,   0.552448,   36.744282,   16.275597,   344.634796,   -356.333344,   -123.680504,   -0.006057,   643.771729,   -193.737411
-0.070994,   0.067023,   0.082162,   -385.567535,   356.404999,   0.552448,   36.744282,   15.345281,   333.015533,   -362.178070,   -129.642853,   -0.015124,   642.732483,   -262.357025
-0.069914,   0.062488,   0.080562,   -395.255768,   345.800293,   0.552448,   36.744282,   14.414967,   319.790039,   -369.245514,   -136.376373,   -0.025668,   642.249573,   -312.572815
-0.068940,   0.056927,   0.079824,   -407.302673,   334.205139,   0.552448,   36.744282,   13.484652,   305.280609,   -378.378143,   -143.565781,   -0.037882,   643.203857,   -356.127808
-0.068606,   0.050566,   0.080384,   -422.574707,   321.227905,   0.552448,   36.744282,   12.554337,   289.582153,   -390.928955,   -150.122452,   -0.052283,   646.142090,   -397.796082
-0.069782,   0.043968,   0.082636,   -441.340454,   306.987152,   0.552448,   36.744282,   11.624022,   272.964355,   -407.317657,   -155.893051,   -0.068736,   651.543030,   -438.539581
-0.073656,   0.038007,   0.086638,   -464.978058,   288.712036,   0.552448,   36.744282,   10.693707,   255.594406,   -431.860443,   -154.478638,   -0.089207,   658.638000,   -481.969788
-0.082323,   0.034423,   0.093245,   -531.794678,   219.865585,   0.552448,   36.744282,   9.763393,   200.195023,   -512.124146,   -119.994362,   -0.155332,   669.380127,   -579.366882
-0.097648,   0.036167,   0.106941,   -692.923706,   8.514544,   0.552448,   36.744282,   8.833078,   5.030023,   -689.439209,   49.315659,   -0.327209,   697.219971,   -697.102966
-0.115722,   0.041883,   0.126526,   -785.037231,   0.000000,   0.552448,   36.744282,   7.902764,   -181.338287,   -715.225220,   205.293549,   -0.406250,   735.642090,   -716.251343
-0.130017,   0.048766,   0.142360,   -811.237183,   0.000000,   0.552448,   36.744282,   6.972449,   -229.719589,   -709.005005,   243.823303,   -0.414117,   755.603210,   -730.816589
-0.136925,   0.055204,   0.149328,   -812.607483,   0.000000,   0.552448,   36.744282,   6.042135,   -213.422485,   -712.812073,   244.532043,   -0.405085,   762.173096,   -742.758301
-0.136009,   0.060310,   0.147090,   -797.265747,   0.000000,   0.552448,   36.744282,   5.111820,   -167.106140,   -716.972961,   224.938339,   -0.388983,   757.598755,   -746.285217
-0.128815,   0.063364,   0.137840,   -766.535095,   0.000000,   0.552448,   36.744282,   4.181505,   -99.669540,   -715.884033,   183.786423,   -0.365765,   743.239197,   -739.589233
-0.117723,   0.063282,   0.124790,   -724.235046,   0.000000,   0.552448,   36.744282,   3.251191,   -24.587629,   -704.177856,   118.460876,   -0.336466,   721.980591,   -721.948547
-0.105187,   0.058917,   0.110845,   -687.940674,   24.678030,   0.552448,   36.744282,   2.320876,   22.423357,   -685.685974,   40.020470,   -0.315566,   700.605713,   -699.626892
-0.019540,   0.041484,   0.038958,   -11.898800,   529.572327,   0.567390,   37.486568,   57.008831,   529.024353,   -11.350846,   -17.216291,   0.322164,   535.620789,   535.323303
-0.022540,   0.047171,   0.044627,   -20.369349,   538.712585,   0.567390,   37.486568,   56.053352,   536.390381,   -18.047123,   -35.957222,   0.314616,   549.180664,   548.329834
-0.025283,   0.053202,   0.050673,   -21.339010,   551.727844,   0.567390,   37.486568,   55.097878,   545.983032,   -15.594191,   -57.089081,   0.314192,   562.700928,   561.789490
-0.027566,   0.059348,   0.056895,   -16.780285,   567.247864,   0.567390,   37.486568,   54.142399,   556.646240,   -6.178677,   -77.969505,   0.318656,   575.821411,   575.270874
-0.029350,   0.065365,   0.063083,   -8.758368,   583.756714,   0.567390,   37.486568,   53.186924,   567.373169,   7.625163,   -97.154869,   0.325860,   588.184753,   588.037964
-0.030661,   0.071008,   0.069009,   0.000000,   599.814392,   0.567390,   37.486568,   52.231445,   577.315125,   23.223749,   -113.898430,   0.333937,   599.452454,   599.451477
-0.031552,   0.076060,   0.074445,   0.000000,   614.367615,   0.567390,   37.486568,   51.275970,   585.936707,   38.603466,   -127.943367,   0.341646,   609.345032,   609.153931
-0.032073,   0.080333,   0.079174,   0.000000,   626.782349,   0.567391,   37.486568,   50.320492,   592.995972,   52.497704,   -139.294647,   0.348366,   617.639282,   617.001099
-0.032280,   0.083664,   0.082985,   0.000000,   636.717346,   0.567389,   37.486568,   49.365013,   598.417847,   64.234612,   -148.073608,   0.353894,   624.154053,   622.939941
-0.032234,   0.085936,   0.085704,   0.000000,   644.051086,   0.567391,   37.486568,   48.409538,   602.188477,   73.601662,   -154.533234,   0.358253,   628.782654,   626.976624
-0.032013,   0.087101,   0.087221,   0.000000,   648.833313,   0.567390,   37.486568,   47.454060,   604.282776,   80.727890,   -159.089325,   0.361566,   631.522278,   629.184509
-0.031711,   0.087200,   0.087519,   0.000000,   651.275024,   0.567390,   37.486568,   46.498585,   604.664856,   86.015869,   -162.317093,   0.363999,   632.493530,   629.722778
-0.031433,   0.086363,   0.086684,   0.000000,   651.714966,   0.567390,   37.486568,   45.543106,   603.366760,   90.006798,   -164.795624,   0.365752,   631.916382,   628.815857
-0.031284,   0.084786,   0.084904,   0.000000,   650.556641,   0.567390,   37.486568,   44.587631,   600.517151,   93.198318,   -167.002747,   0.366995,   630.086792,   626.748291
-0.031353,   0.082695,   0.082453,   0.000000,   648.252747,   0.567390,   37.486568,   43.632153,   596.387512,   95.955109,   -169.248444,   0.367854,   627.370789,   623.870850
-0.031688,   0.080263,   0.079680,   0.000000,   645.294800,   0.567391,   37.486568,   42.676678,   591.320190,   98.495720,   -171.794281,   0.368358,   624.226135,   620.638977
-0.032286,   0.077565,   0.076948,   0.000000,   642.115173,   0.567389,   37.486568,   41.721199,   585.661865,   100.705673,   -174.826599,   0.368318,   621.172302,   617.610901
-0.033167,   0.074699,   0.074471,   0.000000,   638.855408,   0.567390,   37.486568,   40.765724,   579.659790,   102.167946,   -178.240143,   0.367469,   618.489868,   615.117615
-0.034400,   0.071834,   0.072249,   0.000000,   635.289001,   0.567390,   37.486568,   39.810246,   573.221313,   102.270500,   -181.887985,   0.365424,   616.172058,   613.210815
-0.036048,   0.069134,   0.070285,   0.000000,   631.047974,   0.567390,   37.486568,   38.854771,   566.130493,   100.087158,   -185.657303,   0.361553,   614.218750,   611.947144
-0.038152,   0.066763,   0.068619,   0.000000,   625.537964,   0.567391,   37.486568,   37.899292,   558.068054,   94.057663,   -189.364548,   0.354796,   612.676941,   611.376892
-0.040748,   0.064902,   0.067357,   0.000000,   617.646912,   0.567389,   37.486568,   36.943813,   548.584717,   81.299278,   -192.461258,   0.343287,   611.620178,   611.344727
-0.043830,   0.063741,   0.066664,   -11.972221,   604.919983,   0.567391,   37.486568,   35.988338,   536.962158,   55.985580,   -193.143402,   0.323488,   610.994080,   610.730103
-0.047329,   0.063455,   0.066771,   -53.530163,   581.802490,   0.567389,   37.486568,   35.032864,   521.601135,   6.671222,   -186.074448,   0.288517,   610.330811,   605.015564
-0.051070,   0.064158,   0.067940,   -120.726929,   539.917053,   0.567391,   37.486568,   34.077385,   498.261078,   -79.070930,   -160.575729,   0.229322,   609.317627,   581.488098
-0.054710,   0.065759,   0.070195,   -204.127991,   482.135590,   0.567390,   37.486568,   33.121906,   462.411072,   -184.403473,   -114.661095,   0.151827,   610.360840,   524.887695
-0.057762,   0.067742,   0.072875,   -267.877991,   435.617096,   0.567390,   37.486568,   32.166431,   427.432800,   -259.693695,   -75.436279,   0.090917,   614.990295,   452.743591
-0.059957,   0.069469,   0.075140,   -294.902649,   416.941528,   0.567390,   37.486568,   31.210953,   411.469574,   -289.430695,   -62.171001,   0.065667,   619.487671,   410.834259
-0.061586,   0.070821,   0.076910,   -303.329895,   412.961609,   0.567390,   37.486568,   30.255476,   407.319305,   -297.687592,   -63.322109,   0.058682,   622.743835,   398.148773
-0.062952,   0.071929,   0.078391,   -307.614899,   412.031128,   0.567390,   37.486568,   29.299999,   405.644379,   -301.228149,   -67.493790,   0.055652,   625.414673,   392.988922
-0.064135,   0.072836,   0.079646,   -311.271057,   411.251801,   0.567390,   37.486568,   28.344522,   404.056946,   -304.076202,   -71.740349,   0.053092,   627.716858,   388.402863
-0.065139,   0.073535,   0.080672,   -314.800140,   410.191711,   0.567391,   37.486568,   27.389046,   402.209473,   -306.817902,   -75.652740,   0.050498,   629.670349,   383.263641
-0.065954,   0.074014,   0.081456,   -318.295197,   408.758362,   0.567390,   37.486568,   26.433569,   400.030151,   -309.566986,   -79.181389,   0.047768,   631.269348,   377.285187
-0.066575,   0.074261,   0.081987,   -321.773346,   406.923523,   0.567390,   37.486568,   25.478092,   397.496460,   -312.346283,   -82.344460,   0.044875,   632.504517,   370.331665
-0.066991,   0.074264,   0.082251,   -325.224335,   404.682495,   0.567390,   37.486568,   24.522615,   394.601044,   -315.142883,   -85.187378,   0.041818,   633.365112,   362.313538
-0.067195,   0.074009,   0.082239,   -328.630829,   402.036224,   0.567391,   37.486568,   23.567139,   391.337158,   -317.931763,   -87.766670,   0.038604,   633.839722,   353.137604
-0.067181,   0.073485,   0.081938,   -331.984344,   398.976776,   0.567390,   37.486568,   22.611660,   387.687042,   -320.694611,   -90.138252,   0.035227,   633.916504,   342.652374
-0.066944,   0.072675,   0.081339,   -335.299774,   395.472290,   0.567390,   37.486568,   21.656183,   383.609039,   -323.436523,   -92.350418,   0.031657,   633.581909,   330.569275
-0.066479,   0.071561,   0.080428,   -338.631836,   391.449646,   0.567390,   37.486568,   20.700708,   379.020813,   -326.203003,   -94.443565,   0.027821,   632.820374,   316.330597
-0.065786,   0.070112,   0.079192,   -342.079315,   386.789581,   0.567390,   37.486568,   19.745232,   373.790497,   -329.080231,   -96.465813,   0.023596,   631.614685,   298.922852
-0.064874,   0.068287,   0.077618,   -345.778534,   381.337891,   0.567391,   37.486568,   18.789755,   367.740387,   -332.181030,   -98.499168,   0.018816,   629.952332,   276.524170
-0.063769,   0.066025,   0.075708,   -349.901764,   374.920624,   0.567390,   37.486568,   17.834278,   360.656525,   -335.637665,   -100.675072,   0.013283,   627.839233,   245.437927
-0.062532,   0.063257,   0.073509,   -354.696014,   367.370789,   0.567390,   37.486568,   16.878801,   352.306244,   -339.631470,   -103.202042,   0.006756,   625.360291,   195.169144
-0.061253,   0.059909,   0.071179,   -360.441956,   358.672028,   0.567390,   37.486568,   15.923324,   342.582489,   -344.352417,   -106.354744,   -0.000947,   622.771606,   -100.980484
-0.060003,   0.055809,   0.069064,   -367.813507,   348.812012,   0.567390,   37.486568,   14.967846,   331.327850,   -350.329346,   -110.561798,   -0.010205,   620.688660,   -222.244141
-0.058972,   0.050814,   0.067814,   -378.170135,   337.708191,   0.567390,   37.486568,   14.012369,   318.318542,   -358.780487,   -116.209602,   -0.021743,   620.298828,   -285.698639
-0.058675,   0.045146,   0.068075,   -393.084015,   324.994263,   0.567390,   37.486568,   13.056892,   303.128448,   -371.218201,   -123.382584,   -0.036443,   622.805298,   -340.445679
-0.059844,   0.039273,   0.070327,   -413.398865,   310.440399,   0.567390,   37.486568,   12.101416,   285.559479,   -388.517944,   -131.873871,   -0.054564,   628.973389,   -392.681519
-0.063615,   0.034105,   0.075103,   -441.325531,   292.000732,   0.567390,   37.486568,   11.145939,   263.906830,   -413.231628,   -140.757706,   -0.077840,   639.452942,   -448.013550
-0.071141,   0.030516,   0.082223,   -473.933258,   270.901184,   0.567390,   37.486568,   10.190462,   240.287079,   -443.319153,   -147.868896,   -0.103643,   652.984863,   -500.893463
-0.084273,   0.030268,   0.093253,   -619.890137,   96.967339,   0.567390,   37.486568,   9.234985,   95.411278,   -618.334045,   -33.362457,   -0.258759,   673.628601,   -657.651672
-0.100776,   0.033900,   0.110310,   -759.652161,   0.000000,   0.567390,   37.486568,   8.279508,   -148.183746,   -714.459778,   166.233948,   -0.402868,   713.751404,   -696.739380
-0.114455,   0.039262,   0.125590,   -802.476868,   0.000000,   0.567390,   37.486568,   7.324031,   -250.301117,   -707.375916,   229.155930,   -0.433005,   737.232422,   -699.045288
-0.121526,   0.045028,   0.132836,   -809.335266,   0.000000,   0.567390,   37.486568,   6.368554,   -249.391968,   -711.415161,   234.157410,   -0.429756,   745.235352,   -709.349854
-0.121543,   0.050257,   0.131631,   -797.565796,   0.000000,   0.567390,   37.486568,   5.413077,   -208.041611,   -715.758667,   219.607117,   -0.414703,   742.540283,   -717.801514
-0.115922,   0.054129,   0.124098,   -769.642822,   0.000000,   0.567390,   37.486568,   4.457601,   -141.788315,   -712.915344,   188.723663,   -0.389830,   730.834473,   -719.571411
-0.106719,   0.055613,   0.113062,   -728.485779,   0.000000,   0.567390,   37.486568,   3.502124,   -63.091816,   -699.228088,   139.527313,   -0.356805,   712.171692,   -710.360046
-0.096077,   0.053749,   0.101091,   -685.688293,   10.700554,   0.567390,   37.486568,   2.546647,   2.213762,   -677.201477,   76.407341,   -0.325562,   691.100708,   -690.914246
-0.085845,   0.048778,   0.089927,   -660.491272,   25.570555,   0.567390,   37.486568,   1.591170,   24.958309,   -659.879028,   20.485699,   -0.314174,   673.640625,   -672.547302
-0.011811,   0.023954,   0.021742,   -33.723145,   471.640564,   0.582331,   38.228855,   57.738537,   466.368622,   -28.451191,   -51.346478,   0.298284,   489.374390,   486.749847
-0.015722,   0.030560,   0.028358,   -52.487682,   483.866425,   0.582333,   38.228855,   56.757896,   475.894470,   -44.515717,   -64.901810,   0.280773,   512.131531,   506.027161
-0.019556,   0.037496,   0.035326,   -59.996765,   500.106995,   0.582333,   38.228855,   55.777256,   488.247894,   -48.137672,   -80.633026,   0.275424,   532.645691,   524.962891
-0.022932,   0.044589,   0.042451,   -57.932331,   519.736633,   0.582332,   38.228855,   54.796619,   502.991028,   -41.186741,   -96.917450,   0.279378,   550.991699,   544.076538
-0.025652,   0.051590,   0.049506,   -49.673412,   540.784973,   0.582332,   38.228855,   53.815979,   518.501587,   -27.390051,   -112.520439,   0.288589,   567.255188,   562.330750
-0.027669,   0.058253,   0.056287,   -37.995308,   561.599365,   0.582332,   38.228855,   52.835342,   533.510742,   -9.906676,   -126.699738,   0.300131,   581.528748,   578.726196
-0.029023,   0.064347,   0.062594,   -25.114304,   580.896606,   0.582333,   38.228855,   51.854702,   547.122681,   8.659628,   -139.020477,   0.311964,   593.852234,   592.655640
-0.029800,   0.069673,   0.068229,   -12.617132,   597.806641,   0.582333,   38.228855,   50.874062,   558.817139,   26.372381,   -149.264679,   0.322838,   604.214050,   603.917542
-0.030100,   0.074066,   0.073007,   -1.506947,   611.819153,   0.582331,   38.228855,   49.893421,   568.365967,   41.946239,   -157.361984,   0.332103,   612.574036,   612.569885
-0.030036,   0.077402,   0.076758,   0.000000,   622.688660,   0.582333,   38.228855,   48.912785,   575.698181,   54.656086,   -163.377258,   0.339507,   618.891479,   618.784607
-0.029730,   0.079603,   0.079345,   0.000000,   630.391235,   0.582333,   38.228855,   47.932144,   580.813904,   64.296921,   -167.527420,   0.345074,   623.161804,   622.770508
-0.029312,   0.080663,   0.080696,   0.000000,   635.141663,   0.582332,   38.228855,   46.951504,   583.776428,   71.206467,   -170.195908,   0.349069,   625.457092,   624.748352
-0.028908,   0.080661,   0.080830,   0.000000,   637.383972,   0.582332,   38.228855,   45.970867,   584.754639,   76.182274,   -171.859436,   0.351970,   625.939941,   624.941711
-0.028623,   0.079763,   0.079872,   0.000000,   637.722107,   0.582332,   38.228855,   44.990227,   584.049927,   80.225410,   -172.979950,   0.354355,   624.868774,   623.597534
-0.028528,   0.078200,   0.078063,   0.000000,   636.781006,   0.582333,   38.228855,   44.009590,   582.068909,   84.132172,   -173.886673,   0.356681,   622.592529,   621.025696
-0.028645,   0.076205,   0.075722,   0.000000,   635.066162,   0.582333,   38.228855,   43.028946,   579.207031,   88.176140,   -174.782104,   0.359075,   619.540100,   617.639404
-0.028976,   0.073894,   0.073151,   0.000000,   632.879272,   0.582331,   38.228855,   42.048309,   575.739014,   92.159508,   -175.775055,   0.361349,   616.116516,   613.871399
-0.029525,   0.071292,   0.070578,   0.000000,   630.432495,   0.582333,   38.228855,   41.067673,   571.916199,   95.847443,   -176.866989,   0.363337,   612.620544,   610.053589
-0.030364,   0.068462,   0.068112,   0.000000,   627.788269,   0.582332,   38.228855,   40.087032,   567.839233,   98.955139,   -178.053497,   0.364833,   609.222534,   606.403564
-0.031559,   0.065535,   0.065763,   0.000000,   624.722168,   0.582333,   38.228855,   39.106392,   563.363647,   100.878876,   -179.282562,   0.365413,   605.929321,   603.019409
-0.033158,   0.062673,   0.063564,   0.000000,   620.805908,   0.582332,   38.228855,   38.125751,   558.220703,   100.416023,   -180.468063,   0.364221,   602.781494,   600.101807
-0.035205,   0.060062,   0.061606,   0.000000,   615.287537,   0.582332,   38.228855,   37.145115,   551.975769,   95.370743,   -181.429977,   0.359696,   599.900818,   597.968933
-0.037731,   0.057926,   0.060057,   0.000000,   606.518555,   0.582333,   38.228855,   36.164474,   543.761719,   81.253593,   -181.559769,   0.348692,   597.484924,   596.840210
-0.040726,   0.056524,   0.059184,   -10.867290,   590.177307,   0.582332,   38.228855,   35.183834,   531.403564,   47.906452,   -178.525314,   0.324170,   595.685303,   595.462219
-0.044100,   0.056119,   0.059341,   -70.170097,   556.330200,   0.582332,   38.228855,   34.203197,   509.301208,   -23.141113,   -165.081635,   0.272574,   594.529114,   585.104004
-0.047614,   0.056872,   0.060808,   -164.294006,   496.035492,   0.582333,   38.228855,   33.222557,   468.632843,   -136.891342,   -131.696167,   0.185715,   595.432129,   540.804321
-0.050864,   0.058605,   0.063331,   -254.576462,   431.537384,   0.582332,   38.228855,   32.241917,   418.896698,   -241.935776,   -92.266815,   0.098190,   600.743713,   453.106323
-0.053530,   0.060753,   0.066098,   -299.310455,   399.331940,   0.582332,   38.228855,   31.261278,   391.430725,   -291.409241,   -73.876198,   0.054917,   607.105408,   379.829407
-0.055687,   0.062829,   0.068617,   -312.048309,   393.042389,   0.582332,   38.228855,   30.280640,   385.454315,   -304.460236,   -72.750992,   0.044117,   611.967896,   356.303101
-0.057511,   0.064651,   0.070804,   -316.164825,   393.527985,   0.582332,   38.228855,   29.300001,   385.313690,   -307.950531,   -75.908905,   0.041875,   615.828064,   352.439484
-0.059056,   0.066179,   0.072649,   -318.888885,   394.554016,   0.582333,   38.228855,   28.319361,   385.654419,   -309.989288,   -79.184341,   0.040745,   619.016907,   351.081421
-0.060323,   0.067401,   0.074146,   -321.247406,   395.238525,   0.582332,   38.228855,   27.338722,   385.723846,   -311.732727,   -82.015869,   0.039678,   621.596924,   349.470825
-0.061306,   0.068307,   0.075284,   -323.396118,   395.453644,   0.582332,   38.228855,   26.358082,   385.417023,   -313.359497,   -84.345047,   0.038518,   623.583862,   347.169128
-0.061997,   0.068885,   0.076051,   -325.360779,   395.176849,   0.582332,   38.228855,   25.377443,   384.717163,   -314.901093,   -86.181129,   0.037236,   624.979553,   344.077179
-0.062387,   0.069123,   0.076433,   -327.119690,   394.418427,   0.582332,   38.228855,   24.396805,   383.633209,   -316.334473,   -87.553589,   0.035848,   625.775696,   340.214294
-0.062465,   0.069004,   0.076415,   -328.634033,   393.195343,   0.582332,   38.228855,   23.416164,   382.177338,   -317.616028,   -88.497063,   0.034380,   625.955505,   335.636475
-0.062220,   0.068511,   0.075980,   -329.874908,   391.506622,   0.582333,   38.228855,   22.435526,   380.343872,   -318.712158,   -89.039261,   0.032844,   625.494263,   330.352814
-0.061643,   0.067623,   0.075112,   -330.843903,   389.314880,   0.582332,   38.228855,   21.454885,   378.093140,   -319.622162,   -89.193619,   0.031216,   624.360596,   324.247833
-0.060730,   0.066315,   0.073793,   -331.582947,   386.537292,   0.582332,   38.228855,   20.474247,   375.342346,   -320.388000,   -88.960602,   0.029426,   622.517090,   317.021545
-0.059483,   0.064552,   0.072008,   -332.156708,   383.063965,   0.582332,   38.228855,   19.493608,   371.979492,   -321.072235,   -88.345779,   0.027373,   619.922058,   308.216583
-0.057924,   0.062292,   0.069753,   -332.636047,   378.783020,   0.582333,   38.228855,   18.512968,   367.882965,   -321.735992,   -87.382500,   0.024949,   616.538879,   297.245026
-0.056096,   0.059485,   0.067049,   -333.122314,   373.583893,   0.582332,   38.228855,   17.532330,   362.923462,   -322.461884,   -86.140305,   0.022025,   612.359802,   283.251282
-0.054075,   0.056083,   0.063970,   -333.825104,   367.344696,   0.582333,   38.228855,   16.551691,   356.952179,   -323.432587,   -84.728508,   0.018393,   607.462097,   264.644440
-0.051968,   0.052011,   0.060726,   -335.034973,   360.131195,   0.582333,   38.228855,   15.571051,   349.992401,   -324.896179,   -83.338799,   0.013892,   602.162292,   238.941376
-0.049976,   0.047125,   0.057883,   -337.460388,   352.404449,   0.582332,   38.228855,   14.590412,   342.417664,   -327.473602,   -82.400284,   0.008337,   597.487244,   200.005676
-0.048532,   0.041385,   0.056231,   -342.752441,   344.381622,   0.582332,   38.228855,   13.609773,   334.352997,   -332.723816,   -82.404144,   0.000913,   595.076111,   95.294151
-0.048329,   0.035108,   0.056396,   -352.458954,   336.104523,   0.582332,   38.228855,   12.629134,   325.656464,   -342.010895,   -84.172356,   -0.009141,   596.369507,   -205.849426
-0.050305,   0.029012,   0.058941,   -373.954926,   321.542480,   0.582332,   38.228855,   11.648495,   310.610657,   -363.023102,   -86.507538,   -0.028979,   602.888306,   -305.469452
-0.055594,   0.024274,   0.064603,   -395.740479,   313.040405,   0.582332,   38.228855,   10.667855,   298.960938,   -381.661011,   -98.899055,   -0.044808,   615.213440,   -360.032501
-0.065811,   0.021871,   0.073979,   -506.167847,   211.691696,   0.582332,   38.228855,   9.687216,   201.718430,   -496.194580,   -84.023445,   -0.153641,   638.882446,   -551.266418
-0.080869,   0.023326,   0.088957,   -721.252319,   0.000000,   0.582332,   38.228855,   8.706576,   -104.828659,   -705.786377,   97.639977,   -0.396787,   680.982727,   -667.600098
-0.095554,   0.027608,   0.105458,   -792.550415,   0.000000,   0.582332,   38.228855,   7.725937,   -287.329071,   -715.105103,   197.805527,   -0.469814,   711.227051,   -635.747009
-0.104851,   0.033425,   0.115255,   -807.966248,   0.000000,   0.582332,   38.228855,   6.745298,   -306.913849,   -721.807373,   207.774185,   -0.474079,   723.311584,   -640.677979
-0.107826,   0.039858,   0.117122,   -802.920715,   0.000000,   0.582332,   38.228855,   5.764659,   -267.712341,   -731.818787,   195.075211,   -0.459620,   724.896362,   -660.802124
-0.105685,   0.045936,   0.113165,   -781.359009,   0.000000,   0.582332,   38.228855,   4.784020,   -199.375366,   -731.972107,   169.535690,   -0.432255,   718.208557,   -681.621887
-0.099857,   0.050440,   0.105687,   -743.246826,   0.000000,   0.582332,   38.228855,   3.803381,   -112.414696,   -715.100830,   133.249420,   -0.391316,   704.900452,   -693.432312
-0.091667,   0.051934,   0.096436,   -693.389954,   0.000000,   0.582332,   38.228855,   2.822742,   -24.710058,   -681.201904,   90.276756,   -0.342403,   687.214478,   -686.957642
-0.082512,   0.049551,   0.086575,   -649.627930,   37.390160,   0.582332,   38.228855,   1.842103,   33.347794,   -645.585571,   52.543682,   -0.305002,   669.106995,   -666.750366
-0.073812,   0.044096,   0.077135,   -631.632446,   43.114933,   0.582332,   38.228855,   0.861463,   41.201969,   -629.719482,   35.876274,   -0.299840,   654.256287,   -651.048584
