MinPrincipalStrain,MaxPrincipalStrain,EqPlasticStrain,MinPrincipalStress,MaxPrincipalStress,ElemVolume,IntegrationPoint_CoordX,IntegrationPoint_CoordY,Stress_xx,Stress_yy,Stress_xy,StressTriaxility,MisesStress,ThirdInvStress
-0.004185,   0.007910,   0.006318,   -23.058023,   436.498077,   0.582331,   0.371144,   57.738537,   -20.240189,   433.680237,   -35.874966,   0.307295,   448.471893,   447.135284
-0.005415,   0.009743,   0.008269,   -31.547729,   445.253082,   0.582334,   0.371144,   56.757896,   -27.870712,   441.576080,   -41.709522,   0.298595,   461.835815,   459.402130
-0.006582,   0.011614,   0.010256,   -32.864113,   457.248260,   0.582334,   0.371144,   55.777256,   -27.675369,   452.059509,   -50.161190,   0.298105,   474.534637,   471.964050
-0.007551,   0.013528,   0.012275,   -25.324551,   473.794312,   0.582333,   0.371144,   54.796619,   -17.681705,   466.151459,   -61.288456,   0.306992,   486.950714,   485.465820
-0.008253,   0.015432,   0.014280,   -11.085375,   493.214783,   0.582333,   0.371144,   53.815979,   -0.014866,   482.144287,   -73.893867,   0.322161,   498.849884,   498.572632
-0.008698,   0.017274,   0.016238,   0.000000,   513.762817,   0.582333,   0.371144,   52.835342,   23.043125,   498.286377,   -87.146912,   0.340724,   510.021576,   509.895233
-0.008905,   0.019021,   0.018131,   0.000000,   534.141663,   0.582334,   0.371144,   51.854702,   49.550056,   513.383606,   -100.295540,   0.360617,   520.343506,   518.546753
-0.008895,   0.020655,   0.019953,   0.000000,   553.427307,   0.582334,   0.371144,   50.874062,   77.794708,   526.690613,   -112.769020,   0.380361,   529.746948,   524.168274
-0.008694,   0.022167,   0.021701,   0.000000,   571.120483,   0.582331,   0.371144,   49.893421,   106.551842,   537.886536,   -124.255638,   0.399117,   538.220032,   526.809143
-0.008333,   0.023552,   0.023374,   0.000000,   586.970825,   0.582334,   0.371144,   48.912785,   134.880356,   546.896851,   -134.599609,   0.416394,   545.778687,   526.772827
-0.007849,   0.024809,   0.024966,   0.000000,   600.912415,   0.582334,   0.371144,   47.932144,   162.117599,   553.806885,   -143.769470,   0.431962,   552.459351,   524.499451
-0.007276,   0.025942,   0.026471,   0.000000,   613.006348,   0.582333,   0.371144,   46.951504,   187.841629,   558.805359,   -151.803604,   0.445775,   558.313538,   520.469849
-0.006647,   0.026955,   0.027880,   0.000000,   623.390259,   0.582333,   0.371144,   45.970867,   211.844131,   562.119446,   -158.794724,   0.457911,   563.401978,   515.136719
-0.005993,   0.027852,   0.029185,   0.000000,   632.203735,   0.582333,   0.371144,   44.990227,   234.067337,   563.942139,   -164.855789,   0.468514,   567.758850,   508.860535
-0.005335,   0.028637,   0.030378,   0.000000,   639.614807,   0.582334,   0.371144,   44.009590,   254.551163,   564.476746,   -170.096863,   0.477759,   571.437622,   501.945007
-0.004694,   0.029315,   0.031451,   0.000000,   645.792175,   0.582334,   0.371144,   43.028946,   273.422943,   563.899109,   -174.626617,   0.485832,   574.493408,   494.610718
-0.004083,   0.029891,   0.032397,   0.000000,   650.884277,   0.582331,   0.371144,   42.048309,   290.841827,   562.343262,   -178.545578,   0.492906,   576.976196,   487.016022
-0.003512,   0.030371,   0.033215,   0.000000,   655.014954,   0.582334,   0.371144,   41.067673,   306.988708,   559.908508,   -181.932800,   0.499143,   578.923706,   479.248047
-0.002989,   0.030762,   0.033907,   0.000000,   658.294983,   0.582333,   0.371144,   40.087032,   322.041809,   556.673950,   -184.852341,   0.504682,   580.375488,   471.361481
-0.002517,   0.031072,   0.034478,   0.000000,   660.528870,   0.582334,   0.371144,   39.106392,   336.107239,   552.442993,   -187.257553,   0.509694,   581.100159,   463.073730
-0.002099,   0.031309,   0.034935,   0.000000,   662.025208,   0.582333,   0.371144,   38.125751,   349.418488,   547.406860,   -189.289368,   0.514222,   581.347412,   454.662384
-0.001735,   0.031487,   0.035291,   0.000000,   662.790344,   0.582333,   0.371144,   37.145115,   362.120392,   541.525879,   -190.946518,   0.518363,   581.090027,   446.051392
-0.001426,   0.031615,   0.035560,   0.000000,   662.849182,   0.582334,   0.371144,   36.164474,   374.323914,   534.729004,   -192.265228,   0.522142,   580.335632,   437.305817
-0.001170,   0.031709,   0.035756,   0.000000,   662.298157,   0.582333,   0.371144,   35.183834,   386.140381,   527.023132,   -193.280243,   0.525569,   579.158508,   428.572021
-0.000966,   0.031779,   0.035894,   0.000000,   661.323303,   0.582333,   0.371144,   34.203197,   397.655121,   518.455811,   -194.086639,   0.528572,   577.726807,   420.260284
-0.000813,   0.031836,   0.035989,   0.000000,   659.886719,   0.582334,   0.371144,   33.222557,   408.839752,   508.945618,   -194.662018,   0.531124,   576.002014,   412.545715
-0.000709,   0.031888,   0.036049,   0.000000,   658.472107,   0.582333,   0.371144,   32.241917,   419.817719,   498.860504,   -195.171768,   0.533108,   574.416504,   406.184021
-0.000652,   0.031942,   0.036082,   0.000000,   656.997803,   0.582333,   0.371144,   31.261278,   430.437775,   488.135071,   -195.595352,   0.534459,   572.899109,   401.446747
-0.000642,   0.032000,   0.036088,   0.000000,   656.148865,   0.582333,   0.371144,   30.280640,   440.962402,   477.262268,   -196.198807,   0.535038,   572.061462,   399.259247
-0.000678,   0.032061,   0.036070,   0.000000,   655.462341,   0.582333,   0.371144,   29.300001,   450.977356,   466.117706,   -196.769226,   0.534922,   571.482422,   399.178528
-0.000758,   0.032125,   0.036028,   0.000000,   654.782104,   0.582333,   0.371144,   28.319361,   460.340698,   454.697479,   -197.242859,   0.534156,   571.018250,   400.956360
-0.000884,   0.032185,   0.035955,   0.000000,   653.923950,   0.582333,   0.371144,   27.338722,   468.800476,   443.030914,   -197.588577,   0.532759,   570.509338,   404.349548
-0.001053,   0.032234,   0.035844,   0.000000,   652.649963,   0.582333,   0.371144,   26.358082,   476.287262,   431.053680,   -197.689941,   0.530858,   569.732727,   408.736572
-0.001266,   0.032260,   0.035683,   0.000000,   650.709045,   0.582333,   0.371144,   25.377443,   482.665009,   418.718048,   -197.445450,   0.528555,   568.457458,   413.559357
-0.001523,   0.032251,   0.035455,   0.000000,   648.202881,   0.582333,   0.371144,   24.396805,   488.134216,   406.014282,   -196.892899,   0.525869,   566.774719,   418.713440
-0.001823,   0.032191,   0.035146,   0.000000,   645.042969,   0.582333,   0.371144,   23.416164,   492.771484,   392.823395,   -195.974106,   0.522840,   564.605469,   423.930725
-0.002164,   0.032069,   0.034741,   0.000000,   641.441345,   0.582333,   0.371144,   22.435526,   496.771820,   379.162933,   -194.791397,   0.519389,   562.156921,   429.417419
-0.002545,   0.031873,   0.034230,   0.000000,   637.330811,   0.582333,   0.371144,   21.454885,   500.155731,   364.899872,   -193.315125,   0.515479,   559.386353,   435.085022
-0.002963,   0.031596,   0.033608,   0.000000,   632.647278,   0.582333,   0.371144,   20.474247,   502.917358,   349.913818,   -191.517593,   0.511051,   556.259644,   440.868805
-0.003414,   0.031229,   0.032870,   0.000000,   627.320129,   0.582333,   0.371144,   19.493608,   505.036438,   334.066772,   -189.367630,   0.506022,   552.744812,   446.723389
-0.003892,   0.030765,   0.032014,   0.000000,   621.278687,   0.582334,   0.371144,   18.512968,   506.481812,   317.234589,   -186.824310,   0.500300,   548.815125,   452.583069
-0.004392,   0.030198,   0.031042,   0.000000,   614.448853,   0.582333,   0.371144,   17.532330,   507.207825,   299.298035,   -183.839844,   0.493776,   544.448364,   458.370117
-0.004903,   0.029523,   0.029957,   0.000000,   606.747681,   0.582333,   0.371144,   16.551691,   507.153778,   280.136139,   -180.356674,   0.486320,   539.624573,   463.989929
-0.005415,   0.028735,   0.028761,   0.000000,   598.087463,   0.582333,   0.371144,   15.571051,   506.240082,   259.644745,   -176.309586,   0.477786,   534.328613,   469.318604
-0.005912,   0.027830,   0.027463,   0.000000,   588.380981,   0.582333,   0.371144,   14.590412,   504.374695,   237.750107,   -171.625198,   0.468022,   528.554138,   474.195312
-0.006380,   0.026806,   0.026069,   0.000000,   577.536621,   0.582333,   0.371144,   13.609773,   501.448395,   214.417099,   -166.220078,   0.456871,   522.296326,   478.411530
-0.006797,   0.025659,   0.024588,   0.000000,   565.467102,   0.582333,   0.371144,   12.629134,   497.336517,   189.675919,   -160.009018,   0.444190,   515.554504,   481.709808
-0.007144,   0.024387,   0.023026,   0.000000,   552.107849,   0.582333,   0.371144,   11.648495,   491.913391,   163.659637,   -152.913101,   0.429883,   508.334656,   483.785736
-0.007396,   0.022992,   0.021393,   0.000000,   537.436218,   0.582333,   0.371144,   10.667855,   485.073853,   136.640076,   -144.867691,   0.413941,   500.646149,   484.299774
-0.007532,   0.021478,   0.019695,   0.000000,   521.487183,   0.582333,   0.371144,   9.687216,   476.746124,   109.035492,   -135.843719,   0.396470,   492.497620,   482.920349
-0.007532,   0.019851,   0.017940,   0.000000,   504.390381,   0.582333,   0.371144,   8.706576,   466.934418,   81.449837,   -125.863594,   0.377757,   483.895630,   479.365295
-0.007381,   0.018122,   0.016135,   0.000000,   486.360260,   0.582333,   0.371144,   7.725937,   455.727936,   54.618176,   -115.001167,   0.358272,   474.821930,   473.455963
-0.007071,   0.016305,   0.014287,   0.000000,   467.701324,   0.582333,   0.371144,   6.745298,   443.312622,   29.373749,   -103.393639,   0.338677,   465.228821,   465.168732
-0.006598,   0.014419,   0.012403,   -12.072129,   448.880066,   0.582333,   0.371144,   5.764659,   430.047363,   6.760567,   -91.248573,   0.319980,   455.036224,   454.675690
-0.005965,   0.012487,   0.010498,   -25.973795,   430.563171,   0.582333,   0.371144,   4.784020,   416.513916,   -11.924531,   -78.845589,   0.303664,   444.120087,   442.406403
-0.005170,   0.010543,   0.008592,   -34.979549,   413.771729,   0.582333,   0.371144,   3.803381,   403.700531,   -24.908350,   -66.468292,   0.292059,   432.324127,   429.123016
-0.004228,   0.008637,   0.006724,   -36.767502,   399.933289,   0.582333,   0.371144,   2.822742,   393.011993,   -29.846205,   -54.540176,   0.288552,   419.527161,   415.879120
-0.003205,   0.006811,   0.004934,   -29.964636,   389.859467,   0.582333,   0.371144,   1.842103,   385.310852,   -25.416033,   -43.461742,   0.295719,   405.672607,   403.171509
-0.002212,   0.005050,   0.003216,   -17.927620,   381.170654,   0.582333,   0.371144,   0.861463,   378.734161,   -15.491113,   -31.088093,   0.310112,   390.443268,   389.515625
-0.006450,   0.012446,   0.011059,   -6.159241,   476.433472,   0.567391,   1.113431,   57.008831,   -5.957798,   476.232025,   -9.857711,   0.326891,   479.542725,   479.453735
-0.007127,   0.013580,   0.012263,   -8.361815,   481.960938,   0.567391,   1.113431,   56.053352,   -7.575859,   481.174988,   -19.615171,   0.324697,   486.195770,   486.033936
-0.007743,   0.014888,   0.013648,   -3.951530,   492.040558,   0.567391,   1.113431,   55.097878,   -1.591517,   489.680542,   -34.131771,   0.329326,   494.028137,   493.992584
-0.008194,   0.016298,   0.015146,   0.000000,   505.778137,   0.567391,   1.113431,   54.142399,   11.717532,   500.452179,   -51.296703,   0.339671,   502.612854,   502.521362
-0.008494,   0.017757,   0.016718,   0.000000,   521.532776,   0.567391,   1.113431,   53.186924,   30.401573,   511.715057,   -69.439003,   0.353250,   511.551514,   510.618500
-0.008664,   0.019244,   0.018352,   0.000000,   538.063354,   0.567391,   1.113431,   52.231445,   52.686993,   522.293152,   -87.489906,   0.368161,   520.587646,   517.630371
-0.008714,   0.020742,   0.020039,   0.000000,   554.484192,   0.567391,   1.113431,   51.275970,   77.084404,   531.556335,   -104.621994,   0.383164,   529.487183,   523.201721
-0.008645,   0.022231,   0.021765,   0.000000,   570.238708,   0.567392,   1.113431,   50.320492,   102.473526,   539.292358,   -120.314751,   0.397585,   538.052795,   527.197388
-0.008465,   0.023691,   0.023507,   0.000000,   584.949951,   0.567390,   1.113431,   49.365013,   127.958038,   545.458191,   -134.340622,   0.411033,   546.117493,   529.635742
-0.008186,   0.025099,   0.025240,   0.000000,   598.389038,   0.567392,   1.113431,   48.409538,   152.842606,   550.121643,   -146.647110,   0.423299,   553.560120,   530.649231
-0.007826,   0.026435,   0.026937,   0.000000,   610.458374,   0.567391,   1.113431,   47.454060,   176.649231,   553.408752,   -157.317017,   0.434314,   560.315002,   530.443237
-0.007404,   0.027685,   0.028569,   0.000000,   621.149353,   0.567391,   1.113431,   46.498585,   199.104202,   555.457214,   -166.508362,   0.444105,   566.353638,   529.238342
-0.006937,   0.028835,   0.030114,   0.000000,   630.509094,   0.567391,   1.113431,   45.543106,   220.076065,   556.411011,   -174.391251,   0.452757,   571.673706,   527.238708
-0.006446,   0.029878,   0.031552,   0.000000,   638.620850,   0.567391,   1.113431,   44.587631,   239.561966,   556.397522,   -181.140656,   0.460391,   576.291809,   524.610413
-0.005945,   0.030811,   0.032871,   0.000000,   645.562988,   0.567391,   1.113431,   43.632153,   257.647552,   555.498291,   -186.915741,   0.467151,   580.215759,   521.453247
-0.005447,   0.031633,   0.034060,   0.000000,   651.487183,   0.567392,   1.113431,   42.676678,   274.464996,   553.848083,   -191.864777,   0.473165,   583.526428,   517.899414
-0.004964,   0.032346,   0.035115,   0.000000,   656.485901,   0.567390,   1.113431,   41.721199,   290.174408,   551.514343,   -196.092575,   0.478571,   586.251465,   513.976501
-0.004503,   0.032956,   0.036034,   0.000000,   660.657593,   0.567391,   1.113431,   40.765724,   304.941498,   548.556274,   -199.690338,   0.483486,   588.433899,   509.706604
-0.004072,   0.033468,   0.036823,   0.000000,   664.067261,   0.567391,   1.113431,   39.810246,   318.907074,   545.010742,   -202.715500,   0.488011,   590.094360,   505.074585
-0.003674,   0.033892,   0.037488,   0.000000,   666.526611,   0.567391,   1.113431,   38.854771,   332.178253,   540.684692,   -205.122025,   0.492292,   591.019287,   499.771667
-0.003314,   0.034236,   0.038037,   0.000000,   668.405029,   0.567392,   1.113431,   37.899292,   344.965027,   535.803711,   -207.095551,   0.496315,   591.539246,   494.153778
-0.002994,   0.034512,   0.038483,   0.000000,   669.528076,   0.567390,   1.113431,   36.943813,   357.289917,   530.195618,   -208.578323,   0.500152,   591.476685,   488.004852
-0.002715,   0.034730,   0.038836,   0.000000,   670.097412,   0.567392,   1.113431,   35.988338,   369.251404,   523.935913,   -209.695236,   0.503753,   591.022522,   481.613037
-0.002478,   0.034902,   0.039110,   0.000000,   670.054138,   0.567390,   1.113431,   35.032864,   380.859985,   516.875671,   -210.471649,   0.507084,   590.129211,   475.044922
-0.002286,   0.035036,   0.039313,   0.000000,   669.586853,   0.567392,   1.113431,   34.077385,   392.127045,   509.103394,   -211.015915,   0.510050,   588.982056,   468.691010
-0.002137,   0.035138,   0.039455,   0.000000,   668.731445,   0.567391,   1.113431,   33.121906,   403.051056,   500.522034,   -211.399979,   0.512554,   587.627747,   462.848969
-0.002032,   0.035216,   0.039542,   0.000000,   667.619507,   0.567391,   1.113431,   32.166431,   413.554779,   491.198364,   -211.713013,   0.514471,   586.202332,   457.963806
-0.001971,   0.035275,   0.039578,   0.000000,   666.628357,   0.567391,   1.113431,   31.210953,   423.747009,   481.386780,   -212.112503,   0.515702,   585.050171,   454.595795
-0.001953,   0.035316,   0.039567,   0.000000,   665.702332,   0.567391,   1.113431,   30.255476,   433.522583,   471.032043,   -212.599396,   0.516185,   584.127991,   452.897461
-0.001979,   0.035339,   0.039509,   0.000000,   664.974792,   0.567391,   1.113431,   29.299999,   442.747803,   460.423004,   -213.206329,   0.515903,   583.553345,   453.025146
-0.002046,   0.035343,   0.039404,   0.000000,   664.035461,   0.567391,   1.113431,   28.344522,   451.160950,   449.410339,   -213.748016,   0.514956,   582.944336,   454.456421
-0.002153,   0.035325,   0.039249,   0.000000,   662.852539,   0.567391,   1.113431,   27.389046,   458.753845,   438.062286,   -214.194778,   0.513409,   582.262085,   456.969452
-0.002299,   0.035278,   0.039039,   0.000000,   661.162109,   0.567391,   1.113431,   26.433569,   465.400391,   426.344727,   -214.402115,   0.511395,   581.249634,   460.027740
-0.002481,   0.035195,   0.038767,   0.000000,   658.878967,   0.567391,   1.113431,   25.478092,   471.204712,   414.238525,   -214.272507,   0.509046,   579.805481,   463.224060
-0.002699,   0.035068,   0.038423,   0.000000,   656.111877,   0.567391,   1.113431,   24.522615,   476.350281,   401.820129,   -213.803375,   0.506432,   578.011719,   466.432373
-0.002950,   0.034888,   0.037999,   0.000000,   652.725525,   0.567391,   1.113431,   23.567139,   480.850708,   389.044434,   -212.885254,   0.503651,   575.726562,   469.318573
-0.003231,   0.034644,   0.037484,   0.000000,   648.884094,   0.567391,   1.113431,   22.611660,   484.851105,   375.931030,   -211.597031,   0.500650,   573.109131,   472.060699
-0.003541,   0.034327,   0.036866,   0.000000,   644.590149,   0.567391,   1.113431,   21.656183,   488.397552,   362.433746,   -209.930298,   0.497416,   570.167358,   474.645111
-0.003874,   0.033925,   0.036139,   0.000000,   639.785461,   0.567390,   1.113431,   20.700708,   491.499359,   348.441895,   -207.851425,   0.493914,   566.860718,   477.040405
-0.004229,   0.033432,   0.035297,   0.000000,   634.408569,   0.567391,   1.113431,   19.745232,   494.139343,   333.841431,   -205.329758,   0.490087,   563.152344,   479.239807
-0.004598,   0.032841,   0.034337,   0.000000,   628.398682,   0.567391,   1.113431,   18.789755,   496.298340,   318.512787,   -202.326538,   0.485865,   559.010864,   481.239166
-0.004977,   0.032146,   0.033259,   0.000000,   621.691162,   0.567391,   1.113431,   17.834278,   497.946747,   302.328857,   -198.794617,   0.481160,   554.407715,   483.036133
-0.005359,   0.031346,   0.032066,   0.000000,   614.222046,   0.567391,   1.113431,   16.878801,   499.052307,   285.179016,   -194.668427,   0.475883,   549.316345,   484.600403
-0.005735,   0.030438,   0.030763,   0.000000,   605.928955,   0.567391,   1.113431,   15.923324,   499.573212,   266.964905,   -189.870392,   0.469938,   543.716309,   485.889618
-0.006096,   0.029424,   0.029360,   0.000000,   596.748779,   0.567391,   1.113431,   14.967846,   499.456482,   247.600433,   -184.308044,   0.463212,   537.592285,   486.845367
-0.006430,   0.028304,   0.027866,   0.000000,   586.624939,   0.567391,   1.113431,   14.012369,   498.646820,   227.032669,   -177.865829,   0.455598,   530.935181,   487.376923
-0.006725,   0.027085,   0.026296,   0.000000,   575.519714,   0.567391,   1.113431,   13.056892,   497.078217,   205.265656,   -170.420914,   0.446994,   523.753296,   487.376404
-0.006970,   0.025777,   0.024669,   0.000000,   563.423767,   0.567391,   1.113431,   12.101416,   494.681244,   182.375763,   -161.846268,   0.437310,   516.076782,   486.720612
-0.007152,   0.024393,   0.023006,   0.000000,   550.368958,   0.567391,   1.113431,   11.145939,   491.396912,   158.541519,   -152.009430,   0.426505,   507.956818,   485.266602
-0.007260,   0.022947,   0.021327,   0.000000,   536.437622,   0.567391,   1.113431,   10.190462,   487.161377,   134.065720,   -140.809723,   0.414591,   499.470032,   482.878601
-0.007287,   0.021458,   0.019652,   0.000000,   521.787109,   0.567391,   1.113431,   9.234985,   481.930298,   109.407768,   -128.203476,   0.401679,   490.722290,   479.445221
-0.007227,   0.019946,   0.018004,   0.000000,   506.659424,   0.567391,   1.113431,   8.279508,   475.703766,   85.162125,   -114.226624,   0.387996,   481.848389,   474.916016
-0.007081,   0.018432,   0.016399,   0.000000,   491.364716,   0.567391,   1.113431,   7.324031,   468.518585,   62.019245,   -99.039818,   0.373884,   472.996338,   469.325958
-0.006852,   0.016932,   0.014849,   0.000000,   476.237305,   0.567391,   1.113431,   6.368554,   460.449890,   40.672333,   -82.924339,   0.359773,   464.295288,   462.791290
-0.006546,   0.015460,   0.013358,   0.000000,   461.684265,   0.567391,   1.113431,   5.413077,   451.695160,   21.902979,   -66.279900,   0.346316,   455.844116,   455.493622
-0.006162,   0.014021,   0.011927,   0.000000,   448.227142,   0.567391,   1.113431,   4.457601,   442.662628,   6.706399,   -49.566589,   0.334608,   447.657288,   447.654022
-0.005683,   0.012629,   0.010557,   -6.076054,   436.660431,   0.567391,   1.113431,   3.502124,   434.088379,   -3.503990,   -33.647152,   0.326401,   439.729919,   439.635498
-0.005104,   0.011322,   0.009278,   -8.010517,   428.057922,   0.567391,   1.113431,   2.546647,   427.149841,   -7.102427,   -19.878759,   0.324022,   432.118866,   431.951752
-0.004505,   0.010149,   0.008131,   -5.195546,   422.384521,   0.567391,   1.113431,   1.591170,   422.157227,   -4.968252,   -9.855692,   0.327202,   425.006104,   424.934662
-0.008108,   0.015610,   0.014400,   -1.406661,   496.637177,   0.552450,   1.855719,   56.279121,   -1.380305,   496.610809,   -3.622945,   0.331918,   497.342010,   497.337555
-0.008672,   0.016805,   0.015668,   0.000000,   504.471375,   0.552448,   1.855719,   55.348808,   2.210114,   503.802887,   -18.323702,   0.334862,   503.702362,   503.697052
-0.009027,   0.018089,   0.017035,   0.000000,   516.445557,   0.552448,   1.855719,   54.418495,   13.972101,   513.750549,   -36.798916,   0.344309,   510.900391,   510.620239
-0.009219,   0.019396,   0.018449,   0.000000,   530.296326,   0.552450,   1.855719,   53.488178,   30.932665,   523.801636,   -56.949276,   0.356621,   518.509460,   517.211304
-0.009310,   0.020735,   0.019932,   0.000000,   544.901855,   0.552448,   1.855719,   52.557865,   51.249462,   532.766785,   -77.398407,   0.369793,   526.435669,   523.151428
-0.009318,   0.022116,   0.021500,   0.000000,   559.596802,   0.552449,   1.855719,   51.627552,   73.657478,   540.157837,   -97.191299,   0.382759,   534.553772,   528.314453
-0.009249,   0.023535,   0.023154,   0.000000,   573.948547,   0.552449,   1.855719,   50.697235,   97.192513,   545.901733,   -115.635139,   0.395004,   542.689575,   532.643860
-0.009106,   0.024976,   0.024877,   0.000000,   587.623230,   0.552449,   1.855719,   49.766922,   121.041298,   550.107910,   -132.302597,   0.406290,   550.632202,   536.101074
-0.008895,   0.026416,   0.026640,   0.000000,   600.370544,   0.552448,   1.855719,   48.836605,   144.517914,   552.941345,   -147.039825,   0.416497,   558.195068,   538.705322
-0.008625,   0.027830,   0.028411,   0.000000,   612.054749,   0.552450,   1.855719,   47.906292,   167.137985,   554.608948,   -159.870529,   0.425622,   565.248352,   540.518066
-0.008306,   0.029195,   0.030155,   0.000000,   622.608765,   0.552448,   1.855719,   46.975975,   188.595337,   555.290283,   -170.930176,   0.433727,   571.700745,   541.612549
-0.007949,   0.030487,   0.031839,   0.000000,   632.030029,   0.552449,   1.855719,   46.045662,   208.752380,   555.125671,   -180.421463,   0.440906,   577.506653,   542.068909
-0.007565,   0.031693,   0.033436,   0.000000,   640.366333,   0.552448,   1.855719,   45.115349,   227.599182,   554.241028,   -188.546295,   0.447285,   582.656677,   541.954163
-0.007163,   0.032799,   0.034926,   0.000000,   647.657532,   0.552450,   1.855719,   44.185036,   245.173096,   552.722412,   -195.473511,   0.452987,   587.136230,   541.297119
-0.006754,   0.033799,   0.036293,   0.000000,   653.998718,   0.552448,   1.855719,   43.254719,   261.599670,   550.633789,   -201.395889,   0.458122,   590.988342,   540.161438
-0.006346,   0.034691,   0.037530,   0.000000,   659.477722,   0.552449,   1.855719,   42.324406,   277.030609,   548.033142,   -206.450104,   0.462806,   594.246826,   538.560791
-0.005946,   0.035476,   0.038632,   0.000000,   664.173218,   0.552449,   1.855719,   41.394089,   291.597656,   544.959961,   -210.750931,   0.467129,   596.950073,   536.516968
-0.005561,   0.036158,   0.039601,   0.000000,   668.165894,   0.552448,   1.855719,   40.463776,   305.446198,   541.444763,   -214.392761,   0.471169,   599.141296,   534.040161
-0.005196,   0.036743,   0.040443,   0.000000,   671.469971,   0.552449,   1.855719,   39.533463,   318.681458,   537.471069,   -217.424179,   0.475000,   600.808411,   531.081604
-0.004856,   0.037242,   0.041166,   0.000000,   673.980408,   0.552449,   1.855719,   38.603146,   331.393768,   532.897766,   -219.847733,   0.478700,   601.832153,   527.475037
-0.004543,   0.037663,   0.041778,   0.000000,   675.975952,   0.552449,   1.855719,   37.672832,   343.692383,   527.887329,   -221.827454,   0.482219,   602.478943,   523.543152
-0.004262,   0.038012,   0.042287,   0.000000,   677.282715,   0.552448,   1.855719,   36.742519,   355.567749,   522.245117,   -223.333633,   0.485582,   602.584961,   519.138611
-0.004014,   0.038299,   0.042702,   0.000000,   678.089905,   0.552450,   1.855719,   35.812202,   367.075531,   516.084717,   -224.468155,   0.488745,   602.331848,   514.508972
-0.003801,   0.038531,   0.043031,   0.000000,   678.409973,   0.552448,   1.855719,   34.881889,   378.190399,   509.344421,   -225.292648,   0.491642,   601.748169,   509.809113
-0.003624,   0.038713,   0.043280,   0.000000,   678.225281,   0.552449,   1.855719,   33.951572,   388.890015,   501.915649,   -225.859650,   0.494204,   600.834839,   505.188690
-0.003485,   0.038852,   0.043454,   0.000000,   677.864807,   0.552449,   1.855719,   33.021259,   399.243561,   493.974060,   -226.353394,   0.496303,   599.914490,   501.168793
-0.003384,   0.038952,   0.043562,   0.000000,   676.935730,   0.552448,   1.855719,   32.090942,   409.061157,   485.225281,   -226.615021,   0.497968,   598.624146,   497.454346
-0.003321,   0.039014,   0.043601,   0.000000,   676.091614,   0.552449,   1.855719,   31.160629,   418.585510,   476.032349,   -226.972397,   0.499017,   597.586609,   494.902100
-0.003297,   0.039039,   0.043570,   0.000000,   675.496277,   0.552448,   1.855719,   30.230314,   427.764282,   466.569214,   -227.503693,   0.499382,   596.960022,   493.790161
-0.003310,   0.039029,   0.043479,   0.000000,   674.444397,   0.552449,   1.855719,   29.299999,   436.151855,   456.498413,   -227.892334,   0.499171,   596.088379,   493.411957
-0.003359,   0.038983,   0.043321,   0.000000,   673.389038,   0.552449,   1.855719,   28.369686,   443.941620,   446.159027,   -228.336044,   0.498332,   595.386902,   494.182678
-0.003444,   0.038898,   0.043098,   0.000000,   671.941528,   0.552448,   1.855719,   27.439371,   450.963531,   435.413940,   -228.620605,   0.497009,   594.474365,   495.520721
-0.003561,   0.038771,   0.042807,   0.000000,   670.034546,   0.552449,   1.855719,   26.509056,   457.261993,   424.259033,   -228.679428,   0.495289,   593.270203,   497.180145
-0.003710,   0.038599,   0.042445,   0.000000,   667.608093,   0.552448,   1.855719,   25.578741,   462.928040,   412.684021,   -228.424789,   0.493280,   591.693420,   498.883850
-0.003888,   0.038377,   0.042008,   0.000000,   664.681335,   0.552449,   1.855719,   24.648426,   468.019989,   400.714539,   -227.842178,   0.491016,   589.752991,   500.550385
-0.004094,   0.038100,   0.041491,   0.000000,   661.192932,   0.552449,   1.855719,   23.718113,   472.579437,   388.352295,   -226.851105,   0.488578,   587.371948,   501.961365
-0.004324,   0.037761,   0.040886,   0.000000,   657.255920,   0.552448,   1.855719,   22.787798,   476.728119,   375.654205,   -225.470490,   0.485981,   584.646667,   503.153107
-0.004575,   0.037350,   0.040185,   0.000000,   652.915894,   0.552449,   1.855719,   21.857483,   480.525482,   362.653656,   -223.692703,   0.483242,   581.612732,   504.110107
-0.004843,   0.036860,   0.039381,   0.000000,   648.126770,   0.552448,   1.855719,   20.927168,   483.993500,   349.283661,   -221.472565,   0.480362,   578.228394,   504.772339
-0.005126,   0.036283,   0.038468,   0.000000,   642.847900,   0.552448,   1.855719,   19.996855,   487.121521,   335.483765,   -218.780045,   0.477317,   574.464539,   505.122406
-0.005418,   0.035614,   0.037444,   0.000000,   637.027222,   0.552449,   1.855719,   19.066540,   489.900299,   321.151093,   -215.577988,   0.474058,   570.289307,   505.160828
-0.005715,   0.034849,   0.036306,   0.000000,   630.603882,   0.552449,   1.855719,   18.136225,   492.328705,   306.162018,   -211.807144,   0.470532,   565.665283,   504.878113
-0.006012,   0.033984,   0.035058,   0.000000,   623.522339,   0.552448,   1.855719,   17.205910,   494.394043,   290.404083,   -207.400528,   0.466673,   560.562988,   504.270081
-0.006303,   0.033020,   0.033704,   0.000000,   615.731873,   0.552449,   1.855719,   16.275597,   496.078247,   273.779785,   -202.276566,   0.462411,   554.959656,   503.326202
-0.006582,   0.031960,   0.032254,   0.000000,   607.182556,   0.552449,   1.855719,   15.345281,   497.353088,   256.197540,   -196.337723,   0.457665,   548.837097,   502.033875
-0.006843,   0.030810,   0.030719,   0.000000,   597.837036,   0.552449,   1.855719,   14.414967,   498.193756,   237.590286,   -189.462860,   0.452354,   542.188782,   500.369690
-0.007079,   0.029579,   0.029119,   0.000000,   587.672852,   0.552449,   1.855719,   13.484652,   498.556976,   217.920456,   -181.523590,   0.446380,   535.028076,   498.320648
-0.007285,   0.028280,   0.027473,   0.000000,   576.687134,   0.552449,   1.855719,   12.554337,   498.383057,   197.197937,   -172.381973,   0.439638,   527.389038,   495.872711
-0.007454,   0.026928,   0.025803,   0.000000,   564.902954,   0.552449,   1.855719,   11.624022,   497.599182,   175.500473,   -161.889618,   0.432033,   519.327637,   493.002960
-0.007581,   0.025542,   0.024137,   0.000000,   552.400024,   0.552449,   1.855719,   10.693707,   496.110931,   153.021713,   -149.935486,   0.423482,   510.948059,   489.706909
-0.007660,   0.024141,   0.022499,   0.000000,   539.297119,   0.552449,   1.855719,   9.763393,   493.797974,   130.050323,   -136.456558,   0.413923,   502.386444,   485.991058
-0.007687,   0.022741,   0.020908,   0.000000,   525.766113,   0.552449,   1.855719,   8.833078,   490.527039,   107.020454,   -121.475136,   0.403363,   493.803986,   481.856262
-0.007661,   0.021358,   0.019383,   0.000000,   512.041748,   0.552449,   1.855719,   7.902764,   486.182953,   84.474220,   -105.149391,   0.391885,   485.395691,   477.335968
-0.007579,   0.020006,   0.017932,   0.000000,   498.382721,   0.552449,   1.855719,   6.972449,   480.678528,   63.004410,   -87.795349,   0.379656,   477.347443,   472.475159
-0.007442,   0.018689,   0.016555,   0.000000,   485.031891,   0.552449,   1.855719,   6.042135,   473.987488,   43.178852,   -69.857018,   0.366949,   469.789642,   467.307343
-0.007250,   0.017404,   0.015244,   0.000000,   472.238831,   0.552449,   1.855719,   5.111820,   466.237366,   25.559467,   -51.775810,   0.354241,   462.769928,   461.838654
-0.006989,   0.016132,   0.013974,   0.000000,   460.291962,   0.552449,   1.855719,   4.181505,   457.698730,   10.905793,   -34.137424,   0.342403,   456.192505,   456.022064
-0.006614,   0.014866,   0.012728,   0.000000,   450.034058,   0.552449,   1.855719,   3.251191,   449.328674,   0.981631,   -17.797747,   0.333640,   449.895996,   449.895782
-0.006102,   0.013672,   0.011560,   -1.573560,   443.130676,   0.552449,   1.855719,   2.320876,   443.088226,   -1.531100,   -4.345157,   0.331559,   443.919586,   443.913300
-0.009846,   0.018866,   0.017859,   -0.127200,   513.191772,   0.537507,   2.598006,   55.549416,   -0.005613,   513.070190,   -7.899224,   0.333209,   513.255371,   513.255310
-0.010279,   0.020295,   0.019379,   0.000000,   524.914246,   0.537506,   2.598006,   54.644264,   10.564574,   523.391418,   -27.986826,   0.341982,   520.452271,   520.275452
-0.010471,   0.021663,   0.020859,   0.000000,   538.395813,   0.537506,   2.598006,   53.739113,   26.747061,   533.619995,   -49.432297,   0.353932,   527.753357,   526.722900
-0.010542,   0.023012,   0.022354,   0.000000,   552.335632,   0.537507,   2.598006,   52.833961,   46.057076,   542.333435,   -71.161110,   0.366448,   535.219788,   532.477173
-0.010526,   0.024385,   0.023915,   0.000000,   566.339844,   0.537506,   2.598006,   51.928806,   67.507324,   549.237061,   -92.365707,   0.378676,   542.895325,   537.593140
-0.010431,   0.025792,   0.025560,   0.000000,   580.067078,   0.537507,   2.598006,   51.023655,   90.233353,   554.290588,   -112.366295,   0.390142,   550.675232,   542.090698
-0.010267,   0.027225,   0.027279,   0.000000,   593.199646,   0.537507,   2.598006,   50.118504,   113.411102,   557.625244,   -130.645233,   0.400596,   558.365173,   545.959106
-0.010048,   0.028666,   0.029048,   0.000000,   605.483582,   0.537506,   2.598006,   49.213352,   136.301392,   559.454102,   -146.956482,   0.409913,   565.774841,   549.221008
-0.009783,   0.030098,   0.030841,   0.000000,   616.795837,   0.537506,   2.598006,   48.308201,   158.405960,   560.052612,   -161.277756,   0.418118,   572.771545,   551.922852
-0.009483,   0.031498,   0.032625,   0.000000,   627.074097,   0.537507,   2.598006,   47.403046,   179.408401,   559.664612,   -173.715073,   0.425302,   579.253052,   554.101318
-0.009157,   0.032846,   0.034366,   0.000000,   636.323792,   0.537506,   2.598006,   46.497894,   199.175934,   558.500305,   -184.446091,   0.431605,   585.162292,   555.783081
-0.008814,   0.034126,   0.036041,   0.000000,   644.591187,   0.537507,   2.598006,   45.592743,   217.697266,   556.729614,   -193.668747,   0.437175,   590.477966,   556.986511
-0.008458,   0.035324,   0.037624,   0.000000,   651.920532,   0.537506,   2.598006,   44.687592,   235.011337,   554.455444,   -201.578995,   0.442138,   595.189148,   557.722839
-0.008097,   0.036429,   0.039099,   0.000000,   658.374268,   0.537507,   2.598006,   43.782436,   251.220551,   551.748413,   -208.358170,   0.446611,   599.305359,   557.997681
-0.007735,   0.037435,   0.040455,   0.000000,   664.041809,   0.537506,   2.598006,   42.877285,   266.492432,   548.661194,   -214.171646,   0.450714,   602.861328,   557.813049
-0.007377,   0.038343,   0.041687,   0.000000,   668.988464,   0.537506,   2.598006,   41.972134,   280.954041,   545.230042,   -219.140427,   0.454535,   605.882751,   557.165100
-0.007028,   0.039153,   0.042795,   0.000000,   673.286865,   0.537508,   2.598006,   41.066982,   294.732849,   541.478638,   -223.375290,   0.458139,   608.411499,   556.068970
-0.006693,   0.039869,   0.043779,   0.000000,   676.991089,   0.537506,   2.598006,   40.161827,   307.926453,   537.403931,   -226.972870,   0.461563,   610.484131,   554.552612
-0.006374,   0.040497,   0.044644,   0.000000,   680.099304,   0.537506,   2.598006,   39.256676,   320.612579,   532.965515,   -229.983978,   0.464848,   612.084229,   552.582092
-0.006077,   0.041043,   0.045399,   0.000000,   682.512451,   0.537507,   2.598006,   38.351524,   332.820282,   528.047058,   -232.412003,   0.468033,   613.110291,   550.043396
-0.005803,   0.041514,   0.046049,   0.000000,   684.473572,   0.537506,   2.598006,   37.446369,   344.601227,   522.817078,   -234.398346,   0.471064,   613.801331,   547.229492
-0.005555,   0.041917,   0.046601,   0.000000,   685.891968,   0.537506,   2.598006,   36.541222,   355.969849,   517.108337,   -235.977631,   0.473920,   614.082214,   544.117981
-0.005336,   0.042255,   0.047060,   0.000000,   686.732605,   0.537508,   2.598006,   35.636066,   366.898682,   510.847229,   -237.179474,   0.476571,   613.932129,   540.755676
-0.005146,   0.042532,   0.047427,   0.000000,   687.240784,   0.537506,   2.598006,   34.730915,   377.429840,   504.234039,   -238.112335,   0.478970,   613.583496,   537.430664
-0.004986,   0.042753,   0.047710,   0.000000,   687.362732,   0.537506,   2.598006,   33.825764,   387.582947,   497.144501,   -238.796082,   0.481098,   612.992004,   534.159424
-0.004858,   0.042920,   0.047911,   0.000000,   686.868530,   0.537507,   2.598006,   32.920609,   397.146942,   489.404938,   -239.184982,   0.482896,   611.968567,   530.885498
-0.004763,   0.043032,   0.048025,   0.000000,   686.455566,   0.537507,   2.598006,   32.015457,   406.443878,   481.358612,   -239.644592,   0.484198,   611.184143,   528.447693
-0.004699,   0.043091,   0.048058,   0.000000,   685.788696,   0.537507,   2.598006,   31.110304,   415.349152,   472.728394,   -240.041519,   0.485028,   610.327393,   526.572632
-0.004668,   0.043100,   0.048011,   0.000000,   684.905823,   0.537506,   2.598006,   30.205153,   423.667755,   463.690460,   -240.395233,   0.485337,   609.444092,   525.385010
-0.004668,   0.043058,   0.047882,   0.000000,   684.090515,   0.537507,   2.598006,   29.300001,   431.576965,   454.406586,   -240.828384,   0.485105,   608.791870,   525.142517
-0.004699,   0.042967,   0.047678,   0.000000,   682.828247,   0.537507,   2.598006,   28.394848,   438.841858,   444.634308,   -241.072769,   0.484466,   607.869995,   525.219360
-0.004760,   0.042826,   0.047399,   0.000000,   681.165466,   0.537506,   2.598006,   27.489697,   445.484802,   434.484894,   -241.117889,   0.483469,   606.704956,   525.554932
-0.004849,   0.042634,   0.047041,   0.000000,   679.252075,   0.537507,   2.598006,   26.584543,   451.689697,   424.006012,   -241.007065,   0.482139,   605.424438,   526.207764
-0.004964,   0.042389,   0.046607,   0.000000,   676.676208,   0.537506,   2.598006,   25.679390,   457.229004,   413.015076,   -240.540405,   0.480557,   603.635986,   526.703064
-0.005105,   0.042091,   0.046093,   0.000000,   673.766052,   0.537507,   2.598006,   24.774239,   462.406952,   401.639343,   -239.825882,   0.478722,   601.633545,   527.273254
-0.005269,   0.041735,   0.045500,   0.000000,   670.237854,   0.537507,   2.598006,   23.869085,   467.083984,   389.785645,   -238.694244,   0.476726,   599.134766,   527.533691
-0.005453,   0.041319,   0.044822,   0.000000,   666.353577,   0.537506,   2.598006,   22.963934,   471.472076,   377.569214,   -237.231369,   0.474554,   596.378418,   527.690918
-0.005656,   0.040836,   0.044055,   0.000000,   662.089172,   0.537507,   2.598006,   22.058783,   475.584900,   364.998718,   -235.390427,   0.472239,   593.332275,   527.658325
-0.005874,   0.040283,   0.043196,   0.000000,   657.403442,   0.537507,   2.598006,   21.153629,   479.427124,   352.075897,   -233.111740,   0.469819,   589.946045,   527.332458
-0.006104,   0.039655,   0.042239,   0.000000,   652.302490,   0.537506,   2.598006,   20.248476,   483.015198,   338.817719,   -230.367081,   0.467306,   586.220093,   526.686829
-0.006342,   0.038943,   0.041180,   0.000000,   646.738037,   0.537507,   2.598006,   19.343325,   486.349731,   325.141479,   -227.113052,   0.464677,   582.118164,   525.701599
-0.006585,   0.038146,   0.040017,   0.000000,   640.665588,   0.537507,   2.598006,   18.438171,   489.446228,   310.956604,   -223.289932,   0.461907,   577.607361,   524.355713
-0.006829,   0.037260,   0.038752,   0.000000,   634.036011,   0.537506,   2.598006,   17.533020,   492.299622,   296.163605,   -218.835129,   0.458950,   572.657837,   522.646484
-0.007070,   0.036286,   0.037388,   0.000000,   626.801270,   0.537507,   2.598006,   16.627869,   494.901001,   280.658661,   -213.673355,   0.455746,   567.245056,   520.578003
-0.007307,   0.035228,   0.035936,   0.000000,   618.923767,   0.537506,   2.598006,   15.722715,   497.238922,   264.351074,   -207.716415,   0.452232,   561.356140,   518.160095
-0.007535,   0.034093,   0.034405,   0.000000,   610.363770,   0.537507,   2.598006,   14.817563,   499.295990,   247.141647,   -200.853867,   0.448325,   554.982422,   515.406189
-0.007751,   0.032887,   0.032811,   0.000000,   601.087830,   0.537507,   2.598006,   13.912411,   501.028900,   228.955170,   -192.964233,   0.443927,   548.126648,   512.335815
-0.007952,   0.031623,   0.031172,   0.000000,   591.084839,   0.537506,   2.598006,   13.007258,   502.378387,   209.762207,   -183.917847,   0.438930,   540.815613,   508.975189
-0.008135,   0.030314,   0.029508,   0.000000,   580.355530,   0.537507,   2.598006,   12.102106,   503.258728,   189.561661,   -173.576981,   0.433206,   533.095947,   505.360199
-0.008295,   0.028972,   0.027841,   0.000000,   568.926575,   0.537507,   2.598006,   11.196954,   503.540192,   168.426331,   -161.824768,   0.426609,   525.045227,   501.534546
-0.008426,   0.027612,   0.026193,   0.000000,   556.866150,   0.537507,   2.598006,   10.291800,   503.071136,   146.530457,   -148.573273,   0.419008,   516.777100,   497.537689
-0.008523,   0.026251,   0.024586,   0.000000,   544.293213,   0.537506,   2.598006,   9.386649,   501.683929,   124.169121,   -133.795288,   0.410307,   508.443329,   493.403259
-0.008580,   0.024897,   0.023033,   0.000000,   531.363586,   0.537507,   2.598006,   8.481497,   499.195984,   101.766197,   -117.554764,   0.400474,   500.209015,   489.137543
-0.008588,   0.023563,   0.021548,   0.000000,   518.317139,   0.537507,   2.598006,   7.576344,   495.485962,   79.906174,   -100.047112,   0.389620,   492.267426,   484.739624
-0.008543,   0.022257,   0.020138,   0.000000,   505.407135,   0.537507,   2.598006,   6.671192,   490.474976,   59.194500,   -81.626671,   0.377940,   484.793823,   480.216217
-0.008444,   0.020978,   0.018796,   0.000000,   492.866577,   0.537507,   2.598006,   5.766040,   484.175903,   40.209240,   -62.720844,   0.365766,   477.887482,   475.540558
-0.008286,   0.019717,   0.017506,   0.000000,   480.867706,   0.537507,   2.598006,   4.860888,   476.680298,   23.398487,   -43.767632,   0.353496,   471.555756,   470.674042
-0.008050,   0.018428,   0.016218,   0.000000,   469.454956,   0.537507,   2.598006,   3.955735,   468.087616,   9.213625,   -25.085880,   0.341724,   465.581360,   465.432556
-0.007646,   0.017073,   0.014885,   -0.033773,   459.616058,   0.537507,   2.598006,   3.050583,   459.504242,   0.078048,   -7.168394,   0.333297,   459.632935,   459.632965
-0.012352,   0.023558,   0.022864,   0.000000,   533.670410,   0.522564,   3.340294,   54.819710,   1.734759,   532.579224,   -24.092125,   0.333937,   533.348877,   533.347961
-0.012476,   0.024961,   0.024378,   0.000000,   547.312927,   0.522564,   3.340294,   53.939720,   18.565693,   543.200500,   -46.630856,   0.346621,   540.231323,   539.796143
-0.012492,   0.026302,   0.025863,   0.000000,   560.788025,   0.522564,   3.340294,   53.059731,   37.524132,   551.678284,   -69.042038,   0.358963,   547.134460,   545.470703
-0.012415,   0.027663,   0.027415,   0.000000,   574.416443,   0.522564,   3.340294,   52.179741,   58.720482,   558.355103,   -91.009651,   0.371071,   554.319336,   550.608093
-0.012255,   0.029063,   0.029056,   0.000000,   587.894836,   0.522564,   3.340294,   51.299751,   81.403465,   563.199402,   -111.839249,   0.382536,   561.691833,   555.196777
-0.012024,   0.030484,   0.030770,   0.000000,   600.820679,   0.522565,   3.340294,   50.419762,   104.650719,   566.250732,   -130.967850,   0.393011,   569.026245,   559.193542
-0.011738,   0.031908,   0.032530,   0.000000,   612.887024,   0.522564,   3.340294,   49.539768,   127.629906,   567.679138,   -148.113007,   0.402298,   576.115051,   562.620972
-0.011411,   0.033320,   0.034311,   0.000000,   623.960510,   0.522564,   3.340294,   48.659779,   149.801315,   567.756653,   -163.246964,   0.410390,   582.825928,   565.545654
-0.011059,   0.034700,   0.036081,   0.000000,   633.984680,   0.522564,   3.340294,   47.779793,   170.829987,   566.744446,   -176.472778,   0.417373,   589.061218,   568.024048
-0.010694,   0.036034,   0.037817,   0.000000,   642.990723,   0.522564,   3.340294,   46.899803,   190.589493,   564.891602,   -187.968475,   0.423397,   594.778015,   570.103088
-0.010323,   0.037312,   0.039494,   0.000000,   651.049194,   0.522564,   3.340294,   46.019814,   209.091705,   562.413025,   -197.922775,   0.428642,   599.960083,   571.796753
-0.009953,   0.038521,   0.041094,   0.000000,   658.222839,   0.522565,   3.340294,   45.139820,   226.362732,   559.465881,   -206.516815,   0.433246,   604.605286,   573.120789
-0.009587,   0.039654,   0.042602,   0.000000,   664.584229,   0.522564,   3.340294,   44.259830,   242.537888,   556.138000,   -213.937714,   0.437354,   608.718018,   574.059631
-0.009228,   0.040705,   0.044008,   0.000000,   670.235718,   0.522564,   3.340294,   43.379841,   257.803864,   552.513977,   -220.345642,   0.441110,   612.332336,   574.597717
-0.008878,   0.041670,   0.045304,   0.000000,   675.220886,   0.522564,   3.340294,   42.499851,   272.272675,   548.617859,   -225.863831,   0.444599,   615.454041,   574.715027
-0.008540,   0.042549,   0.046488,   0.000000,   679.604797,   0.522564,   3.340294,   41.619862,   286.048492,   544.487793,   -230.599564,   0.447885,   618.117493,   574.420898
-0.008216,   0.043346,   0.047562,   0.000000,   683.454468,   0.522565,   3.340294,   40.739872,   299.225220,   540.146484,   -234.655334,   0.451007,   620.369141,   573.748474
-0.007909,   0.044063,   0.048528,   0.000000,   686.810181,   0.522564,   3.340294,   39.859882,   311.877594,   535.577454,   -238.122009,   0.453981,   622.239929,   572.730286
-0.007621,   0.044704,   0.049390,   0.000000,   689.675903,   0.522564,   3.340294,   38.979893,   324.056580,   530.733826,   -241.064896,   0.456816,   623.730835,   571.376770
-0.007353,   0.045270,   0.050150,   0.000000,   691.875732,   0.522564,   3.340294,   38.099903,   335.716522,   525.437195,   -243.472000,   0.459516,   624.682129,   569.554810
-0.007108,   0.045767,   0.050812,   0.000000,   693.705444,   0.522564,   3.340294,   37.219910,   346.954865,   519.925293,   -245.475815,   0.462064,   625.367493,   567.547668
-0.006886,   0.046197,   0.051380,   0.000000,   695.139404,   0.522565,   3.340294,   36.339920,   357.782928,   514.135864,   -247.108734,   0.464454,   625.766296,   565.361572
-0.006689,   0.046564,   0.051858,   0.000000,   695.988892,   0.522565,   3.340294,   35.459930,   368.119568,   507.871063,   -248.350693,   0.466660,   625.717163,   562.895874
-0.006519,   0.046867,   0.052244,   0.000000,   696.429321,   0.522564,   3.340294,   34.579941,   378.017670,   501.174500,   -249.341949,   0.468597,   625.407593,   560.434692
-0.006374,   0.047105,   0.052536,   0.000000,   696.566162,   0.522564,   3.340294,   33.699951,   387.401947,   494.170532,   -250.146942,   0.470210,   624.950073,   558.167908
-0.006256,   0.047279,   0.052736,   0.000000,   696.432678,   0.522564,   3.340294,   32.819962,   396.411316,   486.804749,   -250.784485,   0.471532,   624.359253,   556.090271
-0.006164,   0.047393,   0.052848,   0.000000,   696.032654,   0.522564,   3.340294,   31.939970,   405.121277,   479.002869,   -251.269623,   0.472564,   623.636108,   554.219849
-0.006100,   0.047448,   0.052872,   0.000000,   695.389282,   0.522564,   3.340294,   31.059980,   413.398621,   470.850281,   -251.630493,   0.473251,   622.818787,   552.669312
-0.006062,   0.047443,   0.052808,   0.000000,   694.636536,   0.522565,   3.340294,   30.179991,   421.315216,   462.405182,   -251.940002,   0.473564,   622.035400,   551.596924
-0.006050,   0.047380,   0.052659,   0.000000,   693.565430,   0.522565,   3.340294,   29.299999,   428.719482,   453.603119,   -252.097321,   0.473538,   621.085205,   550.785278
-0.006064,   0.047255,   0.052421,   0.000000,   692.257080,   0.522564,   3.340294,   28.420010,   435.652832,   444.475159,   -252.154510,   0.473150,   620.048706,   550.332336
-0.006103,   0.047070,   0.052095,   0.000000,   690.726807,   0.522564,   3.340294,   27.540020,   442.184723,   434.981476,   -252.117996,   0.472404,   618.938232,   550.234924
-0.006166,   0.046828,   0.051688,   0.000000,   688.624146,   0.522565,   3.340294,   26.660030,   448.147888,   425.013641,   -251.777832,   0.471420,   617.398071,   550.021057
-0.006251,   0.046528,   0.051199,   0.000000,   686.123718,   0.522564,   3.340294,   25.780041,   453.720306,   414.667603,   -251.171936,   0.470233,   615.573120,   549.766296
-0.006358,   0.046172,   0.050629,   0.000000,   683.231628,   0.522565,   3.340294,   24.900049,   458.962280,   403.894958,   -250.293121,   0.468840,   613.469543,   549.464539
-0.006486,   0.045758,   0.049979,   0.000000,   679.832092,   0.522564,   3.340294,   24.020060,   463.814087,   392.642792,   -249.074402,   0.467261,   610.976868,   548.979187
-0.006633,   0.045286,   0.049249,   0.000000,   676.070740,   0.522564,   3.340294,   23.140070,   468.433563,   380.951263,   -247.543457,   0.465500,   608.224304,   548.405090
-0.006797,   0.044755,   0.048437,   0.000000,   671.949829,   0.522565,   3.340294,   22.260080,   472.839539,   368.867249,   -245.655960,   0.463598,   605.198975,   547.671082
-0.006976,   0.044162,   0.047541,   0.000000,   667.452698,   0.522564,   3.340294,   21.380089,   477.034760,   356.392303,   -243.375183,   0.461568,   601.880859,   546.732300
-0.007169,   0.043504,   0.046560,   0.000000,   662.578735,   0.522564,   3.340294,   20.500099,   481.027893,   343.560425,   -240.661697,   0.459438,   598.258850,   545.539001
-0.007371,   0.042776,   0.045490,   0.000000,   657.302368,   0.522565,   3.340294,   19.620110,   484.842773,   330.336426,   -237.462463,   0.457217,   594.305237,   544.046021
-0.007581,   0.041975,   0.044328,   0.000000,   651.599915,   0.522564,   3.340294,   18.740120,   488.485352,   316.705048,   -233.722519,   0.454914,   589.994019,   542.211243
-0.007796,   0.041100,   0.043076,   0.000000,   645.434448,   0.522565,   3.340294,   17.860130,   491.960419,   302.582153,   -229.388123,   0.452497,   585.302734,   540.034546
-0.008016,   0.040153,   0.041739,   0.000000,   638.767029,   0.522565,   3.340294,   16.980139,   495.265930,   287.872803,   -224.396347,   0.449915,   580.212585,   537.526001
-0.008238,   0.039134,   0.040320,   0.000000,   631.551575,   0.522564,   3.340294,   16.100149,   498.387329,   272.471191,   -218.670197,   0.447105,   574.703613,   534.699768
-0.008460,   0.038046,   0.038826,   0.000000,   623.739258,   0.522565,   3.340294,   15.220160,   501.301453,   256.268097,   -212.113998,   0.443990,   568.758240,   531.571960
-0.008682,   0.036897,   0.037270,   0.000000,   615.301514,   0.522565,   3.340294,   14.340169,   503.973328,   239.184021,   -204.627686,   0.440482,   562.381714,   528.175293
-0.008902,   0.035694,   0.035667,   0.000000,   606.205505,   0.522564,   3.340294,   13.460179,   506.343109,   221.134415,   -196.097244,   0.436462,   555.586426,   524.552551
-0.009117,   0.034445,   0.034030,   0.000000,   596.420898,   0.522565,   3.340294,   12.580190,   508.320587,   202.057220,   -186.396255,   0.431792,   548.395630,   520.747009
-0.009324,   0.033160,   0.032377,   0.000000,   585.943298,   0.522565,   3.340294,   11.700199,   509.784363,   181.956268,   -175.405914,   0.426320,   540.861755,   516.806274
-0.009516,   0.031846,   0.030724,   0.000000,   574.783020,   0.522565,   3.340294,   10.820210,   510.579651,   160.890976,   -163.013123,   0.419887,   533.056885,   512.768860
-0.009687,   0.030514,   0.029089,   0.000000,   562.990601,   0.522564,   3.340294,   9.940220,   510.534393,   139.025986,   -149.129410,   0.412352,   525.085510,   508.657288
-0.009828,   0.029177,   0.027494,   0.000000,   550.690308,   0.522565,   3.340294,   9.060229,   509.484772,   116.681198,   -133.729446,   0.403639,   517.100220,   504.484314
-0.009930,   0.027846,   0.025951,   0.000000,   538.047546,   0.522564,   3.340294,   8.180239,   507.270660,   94.302734,   -116.863518,   0.393753,   509.264923,   500.234497
-0.009984,   0.026533,   0.024478,   0.000000,   525.333313,   0.522565,   3.340294,   7.300249,   503.804016,   72.530991,   -98.734627,   0.382860,   501.780212,   495.898499
-0.009987,   0.025253,   0.023086,   0.000000,   512.840515,   0.522564,   3.340294,   6.420259,   499.053650,   52.013699,   -79.708023,   0.371212,   494.835785,   491.497375
-0.009935,   0.024005,   0.021770,   0.000000,   500.826019,   0.522565,   3.340294,   5.540269,   493.056610,   33.348625,   -60.266327,   0.359170,   488.538910,   487.028870
-0.009826,   0.022775,   0.020509,   0.000000,   489.381165,   0.522564,   3.340294,   4.660279,   485.853638,   16.811249,   -40.828983,   0.346993,   482.876404,   482.465027
-0.009654,   0.021492,   0.019227,   0.000000,   478.036896,   0.522565,   3.340294,   3.780289,   477.088135,   1.894388,   -21.254307,   0.334323,   477.564758,   477.562683
-0.015404,   0.029400,   0.029136,   0.000000,   556.485779,   0.517473,   4.089216,   54.127285,   6.521463,   552.241272,   -48.315022,   0.335381,   555.350830,   555.340271
-0.015287,   0.030648,   0.030517,   0.000000,   569.352417,   0.517473,   4.089216,   53.271168,   25.358782,   560.172852,   -70.665680,   0.347638,   561.437744,   560.912903
-0.015091,   0.031967,   0.032021,   0.000000,   582.824402,   0.517472,   4.089216,   52.415058,   46.893898,   566.714417,   -92.918411,   0.360062,   568.058350,   566.177063
-0.014810,   0.033337,   0.033633,   0.000000,   596.320679,   0.517473,   4.089216,   51.558945,   70.164391,   571.552979,   -114.156441,   0.372031,   574.968079,   570.915100
-0.014452,   0.034721,   0.035315,   0.000000,   609.269348,   0.517473,   4.089216,   50.702831,   94.052795,   574.579590,   -133.688965,   0.383041,   581.863403,   574.991455
-0.014040,   0.036102,   0.037038,   0.000000,   621.330444,   0.517473,   4.089216,   49.846718,   117.663795,   575.937683,   -151.204575,   0.392842,   588.532471,   578.422791
-0.013592,   0.037462,   0.038777,   0.000000,   632.340454,   0.517473,   4.089216,   48.990604,   140.389359,   575.868225,   -166.678070,   0.401374,   594.838135,   581.296875
-0.013129,   0.038786,   0.040500,   0.000000,   642.246887,   0.517473,   4.089216,   48.134491,   161.881882,   574.629089,   -180.225464,   0.408704,   600.687866,   583.698914
-0.012663,   0.040062,   0.042186,   0.000000,   651.093628,   0.517473,   4.089216,   47.278378,   182.004913,   572.481262,   -192.031677,   0.414976,   606.048401,   585.711182
-0.012206,   0.041285,   0.043816,   0.000000,   658.963074,   0.517473,   4.089216,   46.422264,   200.778641,   569.617126,   -202.328735,   0.420349,   610.916931,   587.395874
-0.011763,   0.042449,   0.045378,   0.000000,   665.947205,   0.517472,   4.089216,   45.566151,   218.261063,   566.210815,   -211.306915,   0.424976,   615.306946,   588.795959
-0.011339,   0.043549,   0.046860,   0.000000,   672.159912,   0.517473,   4.089216,   44.710037,   234.611145,   562.447388,   -219.099457,   0.429058,   619.230774,   589.883789
-0.010934,   0.044580,   0.048252,   0.000000,   677.696045,   0.517473,   4.089216,   43.853924,   250.029510,   558.386597,   -225.886383,   0.432739,   622.712769,   590.647522
-0.010551,   0.045543,   0.049551,   0.000000,   682.608887,   0.517473,   4.089216,   42.997814,   264.622711,   554.078857,   -231.783905,   0.436109,   625.761963,   591.073303
-0.010189,   0.046437,   0.050757,   0.000000,   686.964478,   0.517473,   4.089216,   42.141701,   278.514191,   549.571472,   -236.892822,   0.439254,   628.402832,   591.151978
-0.009848,   0.047262,   0.051868,   0.000000,   690.815247,   0.517473,   4.089216,   41.285587,   291.759644,   544.899231,   -241.306030,   0.442206,   630.670349,   590.914612
-0.009529,   0.048020,   0.052884,   0.000000,   694.218506,   0.517473,   4.089216,   40.429474,   304.436310,   540.071655,   -245.119736,   0.444988,   632.607727,   590.402649
-0.009232,   0.048711,   0.053806,   0.000000,   697.241760,   0.517472,   4.089216,   39.573360,   316.616364,   535.124268,   -248.407013,   0.447626,   634.265686,   589.657104
-0.008959,   0.049340,   0.054639,   0.000000,   699.870117,   0.517473,   4.089216,   38.717247,   328.300171,   530.028381,   -251.213226,   0.450119,   635.631104,   588.680847
-0.008709,   0.049906,   0.055386,   0.000000,   701.813416,   0.517473,   4.089216,   37.861134,   339.450684,   524.490112,   -253.486435,   0.452493,   636.430847,   587.212219
-0.008481,   0.050409,   0.056041,   0.000000,   703.476196,   0.517473,   4.089216,   37.005020,   350.180389,   518.741028,   -255.472427,   0.454641,   637.074646,   585.745117
-0.008277,   0.050845,   0.056604,   0.000000,   704.718994,   0.517474,   4.089216,   36.148907,   360.374512,   512.740784,   -257.112122,   0.456583,   637.427734,   584.157166
-0.008096,   0.051217,   0.057074,   0.000000,   705.625610,   0.517473,   4.089216,   35.292793,   370.131287,   506.518066,   -258.455902,   0.458338,   637.556213,   582.503235
-0.007937,   0.051525,   0.057456,   0.000000,   706.213623,   0.517473,   4.089216,   34.436680,   379.541046,   500.009277,   -259.540558,   0.459916,   637.471985,   580.800598
-0.007803,   0.051771,   0.057751,   0.000000,   706.093201,   0.517472,   4.089216,   33.580566,   388.403809,   492.993835,   -260.191101,   0.461366,   636.802917,   578.668945
-0.007691,   0.051951,   0.057950,   0.000000,   706.037109,   0.517473,   4.089216,   32.724453,   397.030975,   485.891846,   -260.818390,   0.462523,   636.308899,   576.986145
-0.007601,   0.052063,   0.058054,   0.000000,   705.685608,   0.517472,   4.089216,   31.868340,   405.236908,   478.442993,   -261.294373,   0.463391,   635.661926,   575.463257
-0.007535,   0.052107,   0.058063,   0.000000,   705.094482,   0.517473,   4.089216,   31.012226,   413.040222,   470.657532,   -261.664490,   0.463941,   634.921387,   574.194763
-0.007490,   0.052083,   0.057977,   0.000000,   704.243469,   0.517473,   4.089216,   30.156113,   420.420441,   462.525299,   -261.925934,   0.464169,   634.069031,   573.174744
-0.007468,   0.051992,   0.057796,   0.000000,   703.325439,   0.517472,   4.089216,   29.299999,   427.493103,   454.167084,   -262.156281,   0.464071,   633.279175,   572.567444
-0.007467,   0.051838,   0.057526,   0.000000,   702.005859,   0.517473,   4.089216,   28.443888,   434.165894,   445.429047,   -262.147888,   0.463772,   632.203674,   571.920227
-0.007487,   0.051623,   0.057171,   0.000000,   700.264343,   0.517473,   4.089216,   27.587774,   440.407074,   436.377899,   -261.864105,   0.463313,   630.807861,   571.152344
-0.007527,   0.051344,   0.056727,   0.000000,   698.243469,   0.517473,   4.089216,   26.731661,   446.333771,   427.002869,   -261.396484,   0.462640,   629.240662,   570.452209
-0.007587,   0.051004,   0.056198,   0.000000,   695.801697,   0.517472,   4.089216,   25.875547,   451.911774,   417.169769,   -260.682770,   0.461757,   627.373474,   569.691650
-0.007667,   0.050605,   0.055586,   0.000000,   693.029175,   0.517473,   4.089216,   25.019434,   457.184326,   406.952850,   -259.749176,   0.460661,   625.287598,   568.934570
-0.007766,   0.050151,   0.054897,   0.000000,   689.762695,   0.517473,   4.089216,   24.163321,   462.135162,   396.265503,   -258.472504,   0.459424,   622.809082,   567.939697
-0.007883,   0.049642,   0.054131,   0.000000,   686.161865,   0.517473,   4.089216,   23.307207,   466.934875,   385.125610,   -256.895447,   0.458033,   620.086426,   566.844177
-0.008018,   0.049078,   0.053289,   0.000000,   682.232666,   0.517472,   4.089216,   22.451094,   471.581970,   373.543030,   -255.001358,   0.456484,   617.126282,   565.647339
-0.008169,   0.048460,   0.052372,   0.000000,   677.966187,   0.517473,   4.089216,   21.594982,   476.057526,   361.544189,   -252.761459,   0.454785,   613.917114,   564.318237
-0.008335,   0.047787,   0.051378,   0.000000,   673.352173,   0.517473,   4.089216,   20.738867,   480.384918,   349.141907,   -250.123871,   0.452969,   610.436829,   562.795227
-0.008515,   0.047057,   0.050309,   0.000000,   668.378662,   0.517472,   4.089216,   19.882755,   484.589203,   336.318848,   -247.040649,   0.451046,   606.669434,   561.043213
-0.008707,   0.046271,   0.049165,   0.000000,   663.036194,   0.517473,   4.089216,   19.026642,   488.659790,   323.087982,   -243.472656,   0.449023,   602.603455,   559.037170
-0.008912,   0.045427,   0.047946,   0.000000,   657.303589,   0.517473,   4.089216,   18.170528,   492.598694,   309.422729,   -239.369354,   0.446893,   598.220459,   556.755127
-0.009128,   0.044523,   0.046651,   0.000000,   651.143372,   0.517473,   4.089216,   17.314415,   496.403809,   295.247955,   -234.672348,   0.444625,   593.497437,   554.190796
-0.009353,   0.043560,   0.045282,   0.000000,   644.514771,   0.517472,   4.089216,   16.458302,   500.060822,   280.474823,   -229.318588,   0.442168,   588.416138,   551.353394
-0.009588,   0.042540,   0.043848,   0.000000,   637.380188,   0.517473,   4.089216,   15.602188,   503.555145,   265.007629,   -223.232529,   0.439456,   582.965820,   548.261658
-0.009833,   0.041467,   0.042354,   0.000000,   629.695923,   0.517473,   4.089216,   14.746075,   506.847870,   248.741211,   -216.332031,   0.436398,   577.140930,   544.947754
-0.010087,   0.040342,   0.040806,   0.000000,   621.403992,   0.517473,   4.089216,   13.889962,   509.876282,   231.553940,   -208.516403,   0.432876,   570.932983,   541.444153
-0.010346,   0.039171,   0.039217,   0.000000,   612.472107,   0.517473,   4.089216,   13.033849,   512.570740,   213.375763,   -199.675385,   0.428775,   564.356812,   537.783630
-0.010609,   0.037959,   0.037599,   0.000000,   602.863159,   0.517473,   4.089216,   12.177735,   514.826904,   194.136307,   -189.691299,   0.423941,   557.438293,   534.007202
-0.010871,   0.036710,   0.035964,   0.000000,   592.547119,   0.517473,   4.089216,   11.321622,   516.509277,   173.807877,   -178.437775,   0.418210,   550.216125,   530.141785
-0.011124,   0.035430,   0.034327,   0.000000,   581.531006,   0.517473,   4.089216,   10.465509,   517.468933,   152.459976,   -165.792587,   0.411435,   542.758118,   526.195923
-0.011360,   0.034128,   0.032704,   0.000000,   569.855469,   0.517473,   4.089216,   9.609395,   517.532471,   130.250778,   -151.662231,   0.403480,   535.163940,   522.170044
-0.011570,   0.032816,   0.031117,   0.000000,   557.641052,   0.517473,   4.089216,   8.753282,   516.549438,   107.501350,   -136.003525,   0.394285,   527.580322,   518.051636
-0.011742,   0.031506,   0.029583,   0.000000,   545.078064,   0.517473,   4.089216,   7.897169,   514.385864,   84.702629,   -118.869354,   0.383898,   520.180054,   513.814880
-0.011869,   0.030218,   0.028124,   0.000000,   532.449463,   0.517473,   4.089216,   7.041056,   510.965851,   62.496284,   -100.480232,   0.372494,   513.173706,   509.466888
-0.011948,   0.028976,   0.026764,   0.000000,   520.131165,   0.517473,   4.089216,   6.184943,   506.331024,   41.626350,   -81.261520,   0.360410,   506.791321,   505.068237
-0.011985,   0.027796,   0.025511,   0.000000,   508.447296,   0.517473,   4.089216,   5.328829,   500.592316,   22.713949,   -61.769154,   0.348047,   501.183044,   500.687103
-0.011987,   0.026680,   0.024362,   0.000000,   497.594940,   0.517473,   4.089216,   4.472716,   493.904358,   6.095393,   -42.590141,   0.335753,   496.396912,   496.383850
-0.018475,   0.035252,   0.035471,   0.000000,   575.986145,   0.523154,   4.859001,   53.488712,   11.567204,   566.333130,   -73.812813,   0.334996,   575.031433,   575.024292
-0.018235,   0.036679,   0.037085,   0.000000,   589.816345,   0.523154,   4.859001,   52.654621,   33.461163,   573.039795,   -96.611176,   0.347573,   581.653503,   581.114746
-0.017886,   0.038143,   0.038798,   0.000000,   603.770386,   0.523154,   4.859001,   51.820526,   57.361012,   578.142517,   -118.335625,   0.359929,   588.545776,   586.616333
-0.017442,   0.039607,   0.040567,   0.000000,   617.198730,   0.523154,   4.859001,   50.986435,   82.042885,   581.473328,   -138.270279,   0.371473,   595.392761,   591.319031
-0.016921,   0.041042,   0.042359,   0.000000,   629.697083,   0.523155,   4.859001,   50.152340,   106.522285,   583.127930,   -156.089127,   0.381889,   601.963867,   595.191284
-0.016352,   0.042426,   0.044135,   0.000000,   641.027832,   0.523154,   4.859001,   49.318245,   130.071213,   583.294495,   -171.753433,   0.391039,   608.094482,   598.299622
-0.015758,   0.043743,   0.045868,   0.000000,   651.131348,   0.523154,   4.859001,   48.484154,   152.289948,   582.210693,   -185.419769,   0.398941,   613.708557,   600.770447
-0.015162,   0.044991,   0.047540,   0.000000,   660.073975,   0.523155,   4.859001,   47.650059,   173.044464,   580.133484,   -197.315445,   0.405721,   618.797607,   602.736877
-0.014579,   0.046171,   0.049141,   0.000000,   667.959900,   0.523154,   4.859001,   46.815964,   192.329636,   577.287720,   -207.669006,   0.411530,   623.379089,   604.307251
-0.014021,   0.047283,   0.050665,   0.000000,   674.926758,   0.523155,   4.859001,   45.981869,   210.272171,   573.881592,   -216.682022,   0.416560,   627.484192,   605.539368
-0.013491,   0.048329,   0.052104,   0.000000,   681.093628,   0.523152,   4.859001,   45.147778,   227.069885,   570.002747,   -224.583862,   0.420965,   631.147461,   606.473755
-0.012996,   0.049312,   0.053457,   0.000000,   686.565247,   0.523154,   4.859001,   44.313686,   242.851227,   565.792236,   -231.492264,   0.424888,   634.397583,   607.121216
-0.012534,   0.050233,   0.054726,   0.000000,   691.424255,   0.523155,   4.859001,   43.479591,   257.739655,   561.322021,   -237.535934,   0.428425,   637.265381,   607.499939
-0.012105,   0.051097,   0.055910,   0.000000,   695.751099,   0.523154,   4.859001,   42.645496,   271.865875,   556.620300,   -242.848694,   0.431641,   639.794983,   607.646301
-0.011710,   0.051904,   0.057010,   0.000000,   699.540039,   0.523155,   4.859001,   41.811405,   285.279846,   551.686890,   -247.486725,   0.434592,   641.955505,   607.522400
-0.011347,   0.052655,   0.058028,   0.000000,   702.899841,   0.523154,   4.859001,   40.977310,   298.063721,   546.630493,   -251.522308,   0.437333,   643.821838,   607.181152
-0.011015,   0.053353,   0.058966,   0.000000,   705.906799,   0.523154,   4.859001,   40.143215,   310.335266,   541.460632,   -255.049469,   0.439899,   645.448669,   606.665833
-0.010711,   0.053996,   0.059823,   0.000000,   708.511169,   0.523154,   4.859001,   39.309124,   322.063568,   536.161316,   -258.077850,   0.442304,   646.783081,   605.929260
-0.010435,   0.054584,   0.060600,   0.000000,   710.747131,   0.523154,   4.859001,   38.475029,   333.229858,   530.758484,   -260.669952,   0.444531,   647.864624,   605.038757
-0.010186,   0.055118,   0.061296,   0.000000,   712.661560,   0.523155,   4.859001,   37.640938,   343.910706,   525.219116,   -262.906006,   0.446575,   648.737183,   604.054382
-0.009963,   0.055597,   0.061913,   0.000000,   714.207520,   0.523154,   4.859001,   36.806843,   354.150482,   519.452393,   -264.807404,   0.448449,   649.351929,   602.933228
-0.009764,   0.056020,   0.062451,   0.000000,   715.112793,   0.523154,   4.859001,   35.972748,   363.856628,   513.277832,   -266.262573,   0.450200,   649.440918,   601.394836
-0.009588,   0.056379,   0.062899,   0.000000,   715.925476,   0.523155,   4.859001,   35.138653,   373.207306,   507.002380,   -267.584991,   0.451698,   649.556274,   600.085022
-0.009435,   0.056671,   0.063254,   0.000000,   716.315063,   0.523154,   4.859001,   34.304562,   381.985138,   500.455505,   -268.641571,   0.452959,   649.389465,   598.717407
-0.009302,   0.056897,   0.063516,   0.000000,   716.453857,   0.523154,   4.859001,   33.470467,   390.390015,   493.645050,   -269.536438,   0.453983,   649.095825,   597.447510
-0.009191,   0.057058,   0.063688,   0.000000,   716.354858,   0.523154,   4.859001,   32.636375,   398.550690,   486.537964,   -270.253143,   0.454828,   648.661743,   596.213562
-0.009100,   0.057154,   0.063769,   0.000000,   715.878723,   0.523154,   4.859001,   31.802280,   406.297394,   479.182709,   -270.696655,   0.455532,   647.945190,   594.853455
-0.009029,   0.057182,   0.063757,   0.000000,   715.339844,   0.523154,   4.859001,   30.968187,   413.773804,   471.710571,   -271.054108,   0.456015,   647.262817,   593.743225
-0.008978,   0.057144,   0.063653,   0.000000,   714.506592,   0.523154,   4.859001,   30.134094,   420.936920,   463.943481,   -271.215302,   0.456323,   646.385132,   592.628601
-0.008946,   0.057040,   0.063458,   0.000000,   713.430176,   0.523154,   4.859001,   29.300001,   427.787720,   455.941864,   -271.200256,   0.456454,   645.358582,   591.554932
-0.008933,   0.056868,   0.063170,   0.000000,   712.077393,   0.523154,   4.859001,   28.465906,   434.271637,   447.656647,   -271.030640,   0.456363,   644.171204,   590.557800
-0.008938,   0.056629,   0.062790,   0.000000,   710.428223,   0.523154,   4.859001,   27.631813,   440.425903,   438.999847,   -270.714417,   0.456030,   642.812439,   589.645447
-0.008961,   0.056327,   0.062321,   0.000000,   708.539551,   0.523154,   4.859001,   26.797718,   446.312012,   430.033783,   -270.244141,   0.455491,   641.318909,   588.810608
-0.009003,   0.055965,   0.061772,   0.000000,   706.108398,   0.523154,   4.859001,   25.963625,   451.794373,   420.649231,   -269.436951,   0.454839,   639.379211,   587.670898
-0.009064,   0.055547,   0.061143,   0.000000,   703.354370,   0.523154,   4.859001,   25.129532,   457.045654,   410.896790,   -268.393066,   0.454035,   637.207092,   586.454590
-0.009143,   0.055073,   0.060434,   0.000000,   700.298462,   0.523154,   4.859001,   24.295439,   462.130951,   400.728577,   -267.110107,   0.453070,   634.824951,   585.184631
-0.009240,   0.054545,   0.059650,   0.000000,   696.942444,   0.523154,   4.859001,   23.461344,   467.093750,   390.098572,   -265.570465,   0.451936,   632.237183,   583.863464
-0.009355,   0.053967,   0.058796,   0.000000,   693.248047,   0.523153,   4.859001,   22.627251,   471.916962,   379.013275,   -263.723175,   0.450657,   629.399414,   582.419678
-0.009489,   0.053342,   0.057872,   0.000000,   689.238953,   0.523154,   4.859001,   21.793158,   476.609436,   367.487457,   -261.560425,   0.449225,   626.336304,   580.874512
-0.009642,   0.052669,   0.056881,   0.000000,   684.905762,   0.523154,   4.859001,   20.959064,   481.186310,   355.508575,   -259.045563,   0.447644,   623.036560,   579.202148
-0.009812,   0.051951,   0.055824,   0.000000,   680.241638,   0.523154,   4.859001,   20.124969,   485.664459,   343.066315,   -256.137909,   0.445920,   619.491089,   577.378235
-0.010002,   0.051190,   0.054705,   0.000000,   675.243774,   0.523154,   4.859001,   19.290876,   490.029388,   330.182953,   -252.804703,   0.444057,   615.695435,   575.385498
-0.010210,   0.050384,   0.053524,   0.000000,   669.895813,   0.523154,   4.859001,   18.456783,   494.277618,   316.845978,   -249.001953,   0.442052,   611.635315,   573.201904
-0.010436,   0.049533,   0.052278,   0.000000,   664.176331,   0.523154,   4.859001,   17.622690,   498.405182,   303.030579,   -244.678452,   0.439895,   607.293884,   570.806763
-0.010679,   0.048633,   0.050969,   0.000000,   658.051636,   0.523154,   4.859001,   16.788595,   502.396606,   288.676025,   -239.781479,   0.437549,   602.653992,   568.197449
-0.010941,   0.047686,   0.049597,   0.000000,   651.482239,   0.523154,   4.859001,   15.954503,   506.232910,   273.703461,   -234.247971,   0.434966,   597.698914,   565.377014
-0.011221,   0.046687,   0.048162,   0.000000,   644.414001,   0.523154,   4.859001,   15.120409,   509.872955,   258.004150,   -228.008713,   0.432063,   592.411316,   562.361755
-0.011517,   0.045638,   0.046671,   0.000000,   636.795227,   0.523154,   4.859001,   14.286316,   513.272339,   241.466492,   -220.979965,   0.428745,   586.781860,   559.172180
-0.011827,   0.044539,   0.045127,   0.000000,   628.574768,   0.523154,   4.859001,   13.452222,   516.369263,   223.994324,   -213.063766,   0.424906,   580.805847,   555.822998
-0.012148,   0.043387,   0.043533,   0.000000,   619.681458,   0.523154,   4.859001,   12.618128,   519.072327,   205.465439,   -204.141876,   0.420405,   574.475769,   552.327026
-0.012476,   0.042185,   0.041902,   0.000000,   610.081116,   0.523154,   4.859001,   11.784035,   521.288879,   185.833801,   -194.087250,   0.415114,   567.814026,   548.690491
-0.012802,   0.040937,   0.040245,   0.000000,   599.736023,   0.523154,   4.859001,   10.949941,   522.895081,   165.064285,   -182.758255,   0.408877,   560.852844,   544.912964
-0.013120,   0.039644,   0.038572,   0.000000,   588.631226,   0.523154,   4.859001,   10.115848,   523.736633,   143.209229,   -170.016144,   0.401549,   553.643799,   540.971558
-0.013416,   0.038310,   0.036898,   0.000000,   576.809814,   0.523154,   4.859001,   9.281754,   523.659729,   120.457809,   -155.740631,   0.393036,   546.274719,   536.826843
-0.013679,   0.036950,   0.035244,   0.000000,   564.384399,   0.523154,   4.859001,   8.447660,   522.513367,   97.130951,   -139.872772,   0.383289,   538.883667,   532.453308
-0.013896,   0.035579,   0.033636,   0.000000,   551.585632,   0.523154,   4.859001,   7.613567,   520.193237,   73.795876,   -122.470200,   0.372416,   531.653625,   527.828918
-0.014059,   0.034216,   0.032095,   0.000000,   538.706909,   0.523154,   4.859001,   6.779473,   516.630676,   51.121811,   -103.749969,   0.360624,   524.787292,   522.974243
-0.014161,   0.032892,   0.030648,   0.000000,   526.175354,   0.523154,   4.859001,   5.945380,   511.898529,   29.946411,   -84.169937,   0.348329,   518.518188,   517.985046
-0.014210,   0.031639,   0.029322,   0.000000,   514.436707,   0.523154,   4.859001,   5.111286,   506.199402,   11.032953,   -64.394798,   0.336054,   513.044617,   513.027527
-0.022151,   0.042344,   0.043211,   0.000000,   596.826538,   0.527610,   5.656495,   52.883896,   18.718754,   578.789246,   -102.115158,   0.333904,   596.486145,   596.485291
-0.021745,   0.043965,   0.045087,   0.000000,   611.498413,   0.527611,   5.656495,   52.070660,   43.539818,   584.248169,   -124.406616,   0.346738,   603.518555,   603.023621
-0.021196,   0.045553,   0.046993,   0.000000,   625.667847,   0.527611,   5.656495,   51.257420,   69.375809,   587.996765,   -144.762253,   0.358965,   610.433228,   608.576660
-0.020538,   0.047071,   0.048881,   0.000000,   638.785950,   0.527610,   5.656495,   50.444183,   95.000458,   590.028564,   -162.829803,   0.370107,   616.965515,   613.048218
-0.019816,   0.048496,   0.050716,   0.000000,   650.585876,   0.527612,   5.656495,   49.630943,   119.590195,   590.510437,   -178.605148,   0.379958,   622.964294,   616.519714
-0.019058,   0.049822,   0.052475,   0.000000,   661.034729,   0.527610,   5.656495,   48.817707,   142.740372,   589.710693,   -192.267639,   0.388541,   628.377686,   619.148621
-0.018297,   0.051050,   0.054146,   0.000000,   670.204468,   0.527611,   5.656495,   48.004471,   164.290451,   587.874878,   -204.087509,   0.395951,   633.214905,   621.112915
-0.017551,   0.052188,   0.055723,   0.000000,   678.238831,   0.527611,   5.656495,   47.191231,   184.294128,   585.232117,   -214.336563,   0.402357,   637.515930,   622.556580
-0.016834,   0.053241,   0.057203,   0.000000,   685.282104,   0.527611,   5.656495,   46.377995,   202.905548,   581.945435,   -223.264832,   0.407934,   641.321106,   623.575195
-0.016157,   0.054213,   0.058581,   0.000000,   691.456726,   0.527611,   5.656495,   45.564754,   220.223679,   578.188660,   -231.031754,   0.412829,   644.667908,   624.236938
-0.015525,   0.055116,   0.059867,   0.000000,   696.881897,   0.527610,   5.656495,   44.751518,   236.409592,   574.026428,   -237.847733,   0.417139,   647.614929,   624.625122
-0.014939,   0.055958,   0.061065,   0.000000,   701.670166,   0.527611,   5.656495,   43.938282,   251.655457,   569.513428,   -243.869766,   0.420977,   650.209351,   624.783081
-0.014401,   0.056745,   0.062181,   0.000000,   705.907715,   0.527611,   5.656495,   43.125042,   266.062408,   564.755066,   -249.169281,   0.424439,   652.482483,   624.727112
-0.013910,   0.057485,   0.063222,   0.000000,   709.671082,   0.527611,   5.656495,   42.311806,   279.734680,   559.816467,   -253.826645,   0.427599,   654.469055,   624.478516
-0.013464,   0.058183,   0.064194,   0.000000,   712.970764,   0.527611,   5.656495,   41.498566,   292.774780,   554.671692,   -257.908173,   0.430514,   656.150696,   624.006409
-0.013061,   0.058838,   0.065096,   0.000000,   715.922302,   0.527611,   5.656495,   40.685329,   305.208649,   549.427734,   -261.498718,   0.433190,   657.630432,   623.427368
-0.012697,   0.059452,   0.065931,   0.000000,   718.506042,   0.527610,   5.656495,   39.872089,   317.041046,   544.058472,   -264.640472,   0.435635,   658.885071,   622.733093
-0.012370,   0.060022,   0.066698,   0.000000,   720.735779,   0.527611,   5.656495,   39.058853,   328.289917,   538.564880,   -267.380280,   0.437857,   659.922424,   621.943542
-0.012077,   0.060546,   0.067393,   0.000000,   722.632446,   0.527611,   5.656495,   38.245617,   339.005920,   532.959167,   -269.747498,   0.439889,   660.746033,   621.051880
-0.011813,   0.061021,   0.068014,   0.000000,   724.238953,   0.527611,   5.656495,   37.432377,   349.226440,   527.264343,   -271.786560,   0.441742,   661.389404,   620.094421
-0.011579,   0.061443,   0.068558,   0.000000,   725.544495,   0.527611,   5.656495,   36.619141,   358.946045,   521.446289,   -273.536255,   0.443401,   661.848633,   619.092896
-0.011372,   0.061813,   0.069026,   0.000000,   726.536743,   0.527610,   5.656495,   35.805901,   368.250122,   515.407959,   -275.035675,   0.444870,   662.109009,   618.040222
-0.011190,   0.062130,   0.069417,   0.000000,   727.258423,   0.527612,   5.656495,   34.992664,   377.187958,   509.205261,   -276.286011,   0.446192,   662.190735,   616.929138
-0.011032,   0.062391,   0.069732,   0.000000,   727.284241,   0.527610,   5.656495,   34.179428,   385.616211,   502.592316,   -277.074066,   0.447461,   661.665527,   615.281616
-0.010895,   0.062591,   0.069958,   0.000000,   727.437927,   0.527611,   5.656495,   33.366188,   393.870575,   496.030334,   -277.830933,   0.448530,   661.345947,   613.993713
-0.010778,   0.062726,   0.070095,   0.000000,   727.269348,   0.527611,   5.656495,   32.552952,   401.724579,   489.166016,   -278.412079,   0.449380,   660.829651,   612.718018
-0.010681,   0.062796,   0.070143,   0.000000,   726.805908,   0.527610,   5.656495,   31.739714,   409.168945,   482.022186,   -278.841095,   0.449997,   660.146301,   611.501160
-0.010604,   0.062801,   0.070101,   0.000000,   726.164062,   0.527610,   5.656495,   30.926476,   416.291290,   474.685699,   -279.152802,   0.450404,   659.390869,   610.414124
-0.010545,   0.062740,   0.069970,   0.000000,   725.329468,   0.527611,   5.656495,   30.113239,   423.140747,   467.101105,   -279.345123,   0.450610,   658.546204,   609.436340
-0.010504,   0.062614,   0.069748,   0.000000,   724.273010,   0.527611,   5.656495,   29.299999,   429.696075,   459.248505,   -279.410278,   0.450609,   657.587219,   608.549316
-0.010481,   0.062425,   0.069439,   0.000000,   723.018921,   0.527611,   5.656495,   28.486761,   436.019806,   451.174683,   -279.318939,   0.450459,   656.511963,   607.697388
-0.010476,   0.062176,   0.069048,   0.000000,   721.354248,   0.527611,   5.656495,   27.673523,   442.031769,   442.811218,   -278.932495,   0.450238,   655.093323,   606.593262
-0.010489,   0.061868,   0.068576,   0.000000,   719.347717,   0.527610,   5.656495,   26.860287,   447.740723,   434.167725,   -278.310791,   0.449898,   653.413757,   605.357483
-0.010521,   0.061502,   0.068023,   0.000000,   717.037170,   0.527610,   5.656495,   26.047049,   453.190979,   425.184509,   -277.496307,   0.449394,   651.526489,   604.079285
-0.010570,   0.061080,   0.067390,   0.000000,   714.495911,   0.527611,   5.656495,   25.233810,   458.503052,   415.835663,   -276.504791,   0.448726,   649.497559,   602.814392
-0.010638,   0.060605,   0.066683,   0.000000,   711.632446,   0.527611,   5.656495,   24.420572,   463.662476,   406.082672,   -275.258362,   0.447934,   647.226562,   601.427246
-0.010725,   0.060080,   0.065904,   0.000000,   708.489319,   0.527611,   5.656495,   23.607334,   468.694397,   395.929932,   -273.770233,   0.447001,   644.759827,   599.972595
-0.010833,   0.059509,   0.065056,   0.000000,   705.052063,   0.527610,   5.656495,   22.794098,   473.612671,   385.319061,   -272.027252,   0.445902,   642.093628,   598.460571
-0.010961,   0.058895,   0.064145,   0.000000,   701.316101,   0.527611,   5.656495,   21.980860,   478.437683,   374.227966,   -270.001648,   0.444636,   639.223816,   596.879517
-0.011112,   0.058242,   0.063175,   0.000000,   697.283691,   0.527611,   5.656495,   21.167622,   483.165222,   362.676636,   -267.666840,   0.443209,   636.150024,   595.215149
-0.011285,   0.057552,   0.062147,   0.000000,   692.947083,   0.527610,   5.656495,   20.354383,   487.798706,   350.648438,   -264.994385,   0.441612,   632.868164,   593.459900
-0.011484,   0.056829,   0.061065,   0.000000,   688.294312,   0.527610,   5.656495,   19.541147,   492.332397,   338.126770,   -261.953247,   0.439835,   629.371643,   591.605103
-0.011707,   0.056070,   0.059929,   0.000000,   683.315918,   0.527611,   5.656495,   18.727909,   496.758423,   325.114624,   -258.505585,   0.437875,   625.652039,   589.631165
-0.011955,   0.055277,   0.058738,   0.000000,   677.995056,   0.527611,   5.656495,   17.914671,   501.068726,   311.598907,   -254.607788,   0.435726,   621.696594,   587.517822
-0.012229,   0.054448,   0.057494,   0.000000,   672.315857,   0.527611,   5.656495,   17.101433,   505.249603,   297.562988,   -250.216995,   0.433369,   617.497314,   585.254028
-0.012529,   0.053580,   0.056194,   0.000000,   666.242615,   0.527610,   5.656495,   16.288195,   509.282318,   282.949432,   -245.279068,   0.430770,   613.036011,   582.830078
-0.012854,   0.052668,   0.054835,   0.000000,   659.725098,   0.527610,   5.656495,   15.474957,   513.130859,   267.676331,   -239.733368,   0.427870,   608.290344,   580.240356
-0.013203,   0.051707,   0.053414,   0.000000,   652.710144,   0.527610,   5.656495,   14.661719,   516.755188,   251.651108,   -233.507919,   0.424599,   603.241272,   577.482666
-0.013574,   0.050692,   0.051929,   0.000000,   645.128296,   0.527611,   5.656495,   13.848482,   520.098145,   234.749588,   -226.516464,   0.420856,   597.867676,   574.558105
-0.013963,   0.049620,   0.050384,   0.000000,   636.920593,   0.527611,   5.656495,   13.035244,   523.101379,   216.867416,   -218.655243,   0.416537,   592.159790,   571.462646
-0.014367,   0.048487,   0.048781,   0.000000,   628.017395,   0.527610,   5.656495,   12.222006,   525.683960,   197.897049,   -209.799133,   0.411517,   586.108032,   568.182556
-0.014778,   0.047288,   0.047123,   0.000000,   618.345642,   0.527611,   5.656495,   11.408768,   527.741699,   177.739731,   -199.801453,   0.405652,   579.710205,   564.694641
-0.015187,   0.046026,   0.045424,   0.000000,   607.875122,   0.527610,   5.656495,   10.595531,   529.166870,   156.388336,   -188.509247,   0.398812,   572.997864,   560.968140
-0.015583,   0.044701,   0.043692,   0.000000,   596.579285,   0.527611,   5.656495,   9.782292,   529.816772,   133.881561,   -175.757935,   0.390862,   566.012329,   556.953491
-0.015950,   0.043313,   0.041939,   0.000000,   584.481812,   0.527611,   5.656495,   8.969054,   529.531372,   110.400063,   -161.403259,   0.381713,   558.824097,   552.583984
-0.016271,   0.041871,   0.040184,   0.000000,   571.700012,   0.527610,   5.656495,   8.155817,   528.165405,   86.316330,   -145.364975,   0.371363,   551.554932,   547.803223
-0.016527,   0.040392,   0.038453,   0.000000,   558.477051,   0.527611,   5.656495,   7.342579,   525.626648,   62.239075,   -127.677765,   0.359962,   544.377991,   542.588806
-0.016709,   0.038904,   0.036776,   0.000000,   545.184021,   0.527611,   5.656495,   6.529341,   521.888733,   38.970516,   -108.592728,   0.347808,   537.517822,   537.003235
-0.016819,   0.037448,   0.035191,   0.000000,   532.269592,   0.527611,   5.656495,   5.716104,   517.025513,   17.343504,   -88.597755,   0.335307,   531.222961,   531.213684
-0.026600,   0.051090,   0.052831,   -1.032835,   619.580811,   0.530988,   6.480167,   52.313992,   28.702637,   589.845337,   -132.552032,   0.332500,   620.097839,   620.095886
-0.025919,   0.052834,   0.054904,   0.000000,   634.705933,   0.530988,   6.480167,   51.520405,   56.056087,   594.078674,   -153.326355,   0.345559,   627.133911,   626.706604
-0.025088,   0.054453,   0.056910,   0.000000,   648.646057,   0.530986,   6.480167,   50.726818,   83.182137,   596.577026,   -171.590103,   0.357582,   633.662659,   631.940735
-0.024160,   0.055926,   0.058809,   0.000000,   661.079773,   0.530986,   6.480167,   49.933235,   109.119720,   597.475220,   -187.369064,   0.368284,   639.538086,   635.878723
-0.023186,   0.057256,   0.060590,   0.000000,   671.978027,   0.530988,   6.480167,   49.139648,   133.406158,   597.025391,   -200.916397,   0.377635,   644.741699,   638.739441
-0.022205,   0.058455,   0.062251,   0.000000,   681.466858,   0.530986,   6.480167,   48.346062,   155.935516,   595.505798,   -212.544693,   0.385762,   649.313721,   640.748596
-0.021241,   0.059534,   0.063787,   0.000000,   689.705261,   0.530988,   6.480167,   47.552475,   176.779846,   593.133423,   -222.562653,   0.392830,   653.304504,   642.087036
-0.020317,   0.060501,   0.065196,   0.000000,   696.847656,   0.530988,   6.480167,   46.758888,   196.081802,   590.070862,   -231.236176,   0.399003,   656.764832,   642.891724
-0.019442,   0.061373,   0.066488,   0.000000,   703.052124,   0.530988,   6.480167,   45.965305,   213.992813,   586.463623,   -238.785889,   0.404415,   659.764832,   643.289612
-0.018626,   0.062168,   0.067678,   0.000000,   708.471069,   0.530986,   6.480167,   45.171719,   230.705688,   582.434021,   -245.389740,   0.409208,   662.368530,   643.367065
-0.017872,   0.062898,   0.068773,   0.000000,   713.230835,   0.530986,   6.480167,   44.378132,   246.412277,   578.076538,   -251.182266,   0.413512,   664.623169,   643.169800
-0.017180,   0.063573,   0.069785,   0.000000,   717.426697,   0.530988,   6.480167,   43.584549,   261.239288,   573.452148,   -256.279846,   0.417403,   666.575745,   642.752075
-0.016550,   0.064205,   0.070724,   0.000000,   721.134888,   0.530986,   6.480167,   42.790962,   275.291748,   568.607178,   -260.774658,   0.420941,   668.264221,   642.155029
-0.015980,   0.064800,   0.071598,   0.000000,   724.405945,   0.530989,   6.480167,   41.997375,   288.584167,   563.607666,   -264.725159,   0.424154,   669.719604,   641.425232
-0.015466,   0.065362,   0.072413,   0.000000,   727.284546,   0.530986,   6.480167,   41.203789,   301.189972,   558.446655,   -268.218048,   0.427061,   670.971191,   640.606995
-0.015004,   0.065893,   0.073170,   0.000000,   729.808777,   0.530988,   6.480167,   40.410202,   313.184387,   553.129333,   -271.309723,   0.429696,   672.035706,   639.718628
-0.014591,   0.066392,   0.073870,   0.000000,   732.008484,   0.530986,   6.480167,   39.616615,   324.584900,   547.712463,   -274.019226,   0.432094,   672.922485,   638.765564
-0.014222,   0.066858,   0.074511,   0.000000,   733.912292,   0.530986,   6.480167,   38.823032,   335.443756,   542.208740,   -276.383484,   0.434281,   673.643677,   637.755920
-0.013894,   0.067287,   0.075093,   0.000000,   735.430542,   0.530988,   6.480167,   38.029446,   345.760773,   536.535950,   -278.393982,   0.436280,   674.105225,   636.598389
-0.013602,   0.067676,   0.075610,   0.000000,   736.762268,   0.530986,   6.480167,   37.235859,   355.597351,   530.831848,   -280.166809,   0.438068,   674.499695,   635.507568
-0.013343,   0.068020,   0.076058,   0.000000,   737.809387,   0.530989,   6.480167,   36.442272,   364.972534,   524.993103,   -281.683777,   0.439669,   674.723572,   634.376282
-0.013114,   0.068316,   0.076436,   0.000000,   738.569275,   0.530986,   6.480167,   35.648685,   373.890289,   518.999634,   -282.970703,   0.441080,   674.776184,   633.219849
-0.012913,   0.068562,   0.076740,   0.000000,   739.070374,   0.530988,   6.480167,   34.855103,   382.328735,   512.844604,   -284.084747,   0.442256,   674.701477,   632.125977
-0.012738,   0.068755,   0.076969,   0.000000,   739.305115,   0.530986,   6.480167,   34.061516,   390.450958,   506.389313,   -285.050262,   0.443226,   674.479675,   631.063416
-0.012587,   0.068896,   0.077123,   0.000000,   739.296570,   0.530986,   6.480167,   33.267929,   398.284607,   499.719147,   -285.829956,   0.444048,   674.103638,   629.977783
-0.012458,   0.068984,   0.077202,   0.000000,   739.067078,   0.530988,   6.480167,   32.474346,   405.789703,   492.946686,   -286.402435,   0.444757,   673.578552,   628.849060
-0.012351,   0.069018,   0.077206,   0.000000,   738.376648,   0.530987,   6.480167,   31.680758,   412.896027,   485.871765,   -286.680023,   0.445368,   672.678467,   627.454834
-0.012264,   0.068994,   0.077128,   0.000000,   737.801575,   0.530987,   6.480167,   30.887173,   419.885590,   478.786591,   -286.958221,   0.445792,   671.967224,   626.404724
-0.012197,   0.068914,   0.076971,   0.000000,   736.998291,   0.530987,   6.480167,   30.093586,   426.623871,   471.471680,   -287.076050,   0.446074,   671.111328,   625.348572
-0.012149,   0.068777,   0.076736,   0.000000,   735.892090,   0.530988,   6.480167,   29.299999,   433.100342,   463.897583,   -286.980286,   0.446250,   670.026672,   624.176636
-0.012120,   0.068584,   0.076423,   0.000000,   734.526672,   0.530987,   6.480167,   28.506414,   439.311371,   456.095551,   -286.700439,   0.446301,   668.760864,   622.950195
-0.012109,   0.068334,   0.076031,   0.000000,   732.842285,   0.530987,   6.480167,   27.712828,   445.157227,   448.003754,   -286.258240,   0.446166,   667.286682,   621.701172
-0.012118,   0.068028,   0.075560,   0.000000,   730.972168,   0.530988,   6.480167,   26.919241,   450.753601,   439.648621,   -285.717133,   0.445826,   665.732239,   620.561279
-0.012145,   0.067669,   0.075014,   0.000000,   728.806274,   0.530986,   6.480167,   26.125656,   456.167389,   430.947754,   -284.969879,   0.445365,   663.960693,   619.325378
-0.012192,   0.067260,   0.074396,   0.000000,   726.397461,   0.530987,   6.480167,   25.332071,   461.442291,   421.921783,   -284.028900,   0.444782,   662.020935,   618.037109
-0.012259,   0.066802,   0.073707,   0.000000,   723.734436,   0.530988,   6.480167,   24.538485,   466.586365,   412.523193,   -282.891113,   0.444055,   659.911133,   616.708801
-0.012348,   0.066299,   0.072952,   0.000000,   720.811707,   0.530987,   6.480167,   23.744898,   471.624512,   402.718231,   -281.540100,   0.443180,   657.627808,   615.335632
-0.012459,   0.065755,   0.072134,   0.000000,   717.629456,   0.530987,   6.480167,   22.951313,   476.565887,   392.503387,   -279.957245,   0.442159,   655.170532,   613.910156
-0.012594,   0.065175,   0.071259,   0.000000,   714.178345,   0.530987,   6.480167,   22.157726,   481.418121,   381.839661,   -278.128082,   0.440974,   652.538208,   612.439148
-0.012756,   0.064561,   0.070329,   0.000000,   710.447937,   0.530988,   6.480167,   21.364141,   486.180145,   370.693909,   -276.036011,   0.439605,   649.729736,   610.929199
-0.012945,   0.063918,   0.069348,   0.000000,   706.435608,   0.530986,   6.480167,   20.570555,   490.852386,   359.062897,   -273.656250,   0.438048,   646.744629,   609.372620
-0.013164,   0.063248,   0.068320,   0.000000,   702.130493,   0.530987,   6.480167,   19.776970,   495.434814,   346.925964,   -270.959869,   0.436291,   643.577332,   607.760986
-0.013413,   0.062552,   0.067245,   0.000000,   697.520386,   0.530988,   6.480167,   18.983383,   499.920166,   334.268127,   -267.915497,   0.434322,   640.221924,   606.083862
-0.013695,   0.061830,   0.066123,   0.000000,   692.591858,   0.530987,   6.480167,   18.189796,   504.298615,   321.078308,   -264.487244,   0.432132,   636.670654,   604.326538
-0.014010,   0.061081,   0.064954,   0.000000,   687.325623,   0.530987,   6.480167,   17.396212,   508.552124,   307.339386,   -260.636658,   0.429702,   632.913147,   602.473755
-0.014359,   0.060299,   0.063733,   0.000000,   681.692505,   0.530987,   6.480167,   16.602625,   512.661255,   293.020844,   -256.315521,   0.427011,   628.931885,   600.503357
-0.014741,   0.059483,   0.062459,   0.000000,   675.661804,   0.530987,   6.480167,   15.809039,   516.602661,   278.081085,   -251.473358,   0.424026,   624.713135,   598.400879
-0.015155,   0.058625,   0.061126,   0.000000,   669.186523,   0.530987,   6.480167,   15.015453,   520.344055,   262.448029,   -246.048676,   0.420695,   620.236633,   596.150635
-0.015599,   0.057716,   0.059728,   0.000000,   662.198914,   0.530987,   6.480167,   14.221868,   523.838989,   246.014618,   -239.965088,   0.416944,   615.473938,   593.734680
-0.016071,   0.056748,   0.058260,   0.000000,   654.632324,   0.530987,   6.480167,   13.428282,   527.035522,   228.679474,   -233.131332,   0.412688,   610.400818,   591.129272
-0.016566,   0.055710,   0.056717,   0.000000,   646.399475,   0.530987,   6.480167,   12.634696,   529.864685,   210.299896,   -225.434601,   0.407810,   604.991272,   588.310059
-0.017076,   0.054598,   0.055101,   0.000000,   637.429626,   0.530987,   6.480167,   11.841109,   532.255005,   190.775589,   -216.740997,   0.402198,   599.232361,   585.239502
-0.017594,   0.053402,   0.053412,   0.000000,   627.640198,   0.530987,   6.480167,   11.047523,   534.108154,   170.004669,   -206.890274,   0.395716,   593.112976,   581.866394
-0.018106,   0.052118,   0.051655,   0.000000,   616.961609,   0.530987,   6.480167,   10.253938,   535.305359,   147.931061,   -195.701981,   0.388221,   586.638672,   578.126160
-0.018597,   0.050745,   0.049843,   0.000000,   605.378113,   0.530987,   6.480167,   9.460352,   535.722046,   124.624565,   -182.995636,   0.379607,   579.851257,   573.945557
-0.019048,   0.049282,   0.047987,   0.000000,   592.899231,   0.530987,   6.480167,   8.666766,   535.200500,   100.251930,   -168.597504,   0.369787,   572.809326,   569.236755
-0.019437,   0.047734,   0.046101,   0.000000,   579.630432,   0.530987,   6.480167,   7.873180,   533.596497,   75.194054,   -152.385056,   0.358778,   565.614441,   563.919556
-0.019744,   0.046119,   0.044216,   0.000000,   565.827454,   0.530987,   6.480167,   7.079594,   530.805786,   50.093803,   -134.394440,   0.346737,   558.444031,   557.986145
-0.019952,   0.044474,   0.042368,   0.000000,   551.940308,   0.530987,   6.480167,   6.286008,   526.851929,   25.910393,   -114.879288,   0.334078,   551.529846,   551.528442
-0.031974,   0.061917,   0.064836,   -2.900663,   644.447266,   0.533427,   7.328438,   51.780094,   41.986031,   599.560547,   -164.446014,   0.331085,   645.902405,   645.887817
-0.030881,   0.063616,   0.066930,   0.000000,   659.396362,   0.533425,   7.328438,   51.004917,   71.081551,   602.595154,   -182.803162,   0.344218,   652.373413,   652.021667
-0.029656,   0.065107,   0.068861,   0.000000,   672.599426,   0.533425,   7.328438,   50.229740,   98.728554,   603.964111,   -198.463593,   0.355937,   658.069031,   656.518188
-0.028371,   0.066404,   0.070625,   0.000000,   684.056519,   0.533425,   7.328438,   49.454567,   124.459702,   603.935181,   -211.744293,   0.366212,   663.000183,   659.652222
-0.027079,   0.067527,   0.072224,   0.000000,   693.916870,   0.533425,   7.328438,   48.679390,   148.179947,   602.776245,   -223.021973,   0.375162,   667.228271,   661.709656
-0.025821,   0.068495,   0.073662,   0.000000,   702.371887,   0.533425,   7.328438,   47.904217,   169.979660,   600.712219,   -232.643112,   0.382957,   670.826233,   662.931274
-0.024617,   0.069331,   0.074951,   0.000000,   709.642334,   0.533425,   7.328438,   47.129040,   190.083969,   597.938232,   -240.908249,   0.389794,   673.879761,   663.508362
-0.023482,   0.070059,   0.076110,   0.000000,   715.912781,   0.533426,   7.328438,   46.353867,   208.685455,   594.604248,   -248.054459,   0.395824,   676.469971,   663.596069
-0.022424,   0.070698,   0.077152,   0.000000,   721.345520,   0.533426,   7.328438,   45.578690,   225.995239,   590.827332,   -254.268021,   0.401192,   678.662903,   663.300354
-0.021446,   0.071269,   0.078095,   0.000000,   726.082092,   0.533425,   7.328438,   44.803513,   242.216721,   586.693848,   -259.702026,   0.406018,   680.519653,   662.702515
-0.020549,   0.071786,   0.078954,   0.000000,   730.227600,   0.533425,   7.328438,   44.028336,   257.480530,   582.274353,   -264.470154,   0.410382,   682.091431,   661.872253
-0.019733,   0.072264,   0.079742,   0.000000,   733.864929,   0.533425,   7.328438,   43.253162,   271.886108,   577.623901,   -268.663422,   0.414342,   683.420532,   660.867371
-0.018994,   0.072711,   0.080471,   0.000000,   737.058777,   0.533425,   7.328438,   42.477985,   285.489349,   572.797546,   -272.351532,   0.417936,   684.543396,   659.741455
-0.018326,   0.073132,   0.081148,   0.000000,   739.863586,   0.533426,   7.328438,   41.702808,   298.373474,   567.825928,   -275.595551,   0.421211,   685.483459,   658.522217
-0.017726,   0.073530,   0.081772,   0.000000,   742.318604,   0.533425,   7.328438,   40.927635,   310.600403,   562.733643,   -278.442291,   0.424203,   686.255615,   657.228516
-0.017189,   0.073904,   0.082348,   0.000000,   744.454102,   0.533426,   7.328438,   40.152458,   322.210541,   557.526917,   -280.942719,   0.426926,   686.877930,   655.891846
-0.016708,   0.074256,   0.082876,   0.000000,   746.290100,   0.533425,   7.328438,   39.377281,   333.233246,   552.204346,   -283.140350,   0.429389,   687.362000,   654.538696
-0.016280,   0.074583,   0.083356,   0.000000,   747.844421,   0.533425,   7.328438,   38.602108,   343.684845,   546.778931,   -285.065857,   0.431604,   687.716858,   653.189392
-0.015899,   0.074883,   0.083785,   0.000000,   749.136169,   0.533425,   7.328438,   37.826931,   353.628448,   541.235840,   -286.751099,   0.433591,   687.947266,   651.848816
-0.015561,   0.075153,   0.084163,   0.000000,   750.184509,   0.533425,   7.328438,   37.051758,   363.114563,   535.585327,   -288.209808,   0.435382,   688.054993,   650.509033
-0.015263,   0.075390,   0.084486,   0.000000,   751.002991,   0.533426,   7.328438,   36.276581,   372.162048,   529.850647,   -289.450439,   0.436995,   688.041199,   649.165955
-0.014999,   0.075592,   0.084752,   0.000000,   751.490906,   0.533425,   7.328438,   35.501404,   380.760681,   523.948975,   -290.442230,   0.438454,   687.802429,   647.713623
-0.014768,   0.075753,   0.084955,   0.000000,   751.876831,   0.533425,   7.328438,   34.726231,   389.049377,   518.006653,   -291.298004,   0.439753,   687.549072,   646.362183
-0.014566,   0.075871,   0.085095,   0.000000,   752.032410,   0.533426,   7.328438,   33.951054,   397.027710,   511.859772,   -291.997314,   0.440887,   687.165344,   645.014771
-0.014392,   0.075945,   0.085169,   0.000000,   751.889343,   0.533425,   7.328438,   33.175877,   404.613495,   505.443817,   -292.548431,   0.441813,   686.607544,   643.674805
-0.014244,   0.075973,   0.085177,   0.000000,   751.522156,   0.533425,   7.328438,   32.400703,   411.816467,   498.830383,   -292.986053,   0.442527,   685.944946,   642.418762
-0.014121,   0.075956,   0.085118,   0.000000,   750.988464,   0.533425,   7.328438,   31.625526,   418.810272,   491.987518,   -293.316315,   0.443077,   685.206299,   641.233398
-0.014021,   0.075893,   0.084993,   0.000000,   750.237305,   0.533425,   7.328438,   30.850351,   425.563843,   484.930450,   -293.492950,   0.443497,   684.330017,   640.035278
-0.013944,   0.075784,   0.084801,   0.000000,   749.356934,   0.533425,   7.328438,   30.075176,   432.023376,   477.794800,   -293.557129,   0.443768,   683.403870,   638.923767
-0.013889,   0.075628,   0.084541,   0.000000,   748.266357,   0.533426,   7.328438,   29.300001,   438.245270,   470.365784,   -293.521759,   0.443849,   682.372559,   637.886230
-0.013856,   0.075423,   0.084213,   0.000000,   746.845947,   0.533425,   7.328438,   28.524824,   444.121918,   462.612549,   -293.333038,   0.443744,   681.124878,   636.814941
-0.013844,   0.075172,   0.083817,   0.000000,   745.229309,   0.533425,   7.328438,   27.749649,   449.721832,   454.700867,   -293.007355,   0.443501,   679.760010,   635.757080
-0.013853,   0.074876,   0.083355,   0.000000,   743.410095,   0.533426,   7.328438,   26.974474,   455.185760,   446.532776,   -292.518860,   0.443155,   678.256653,   634.660278
-0.013884,   0.074535,   0.082827,   0.000000,   741.378052,   0.533425,   7.328438,   26.199297,   460.506683,   438.077301,   -291.870697,   0.442687,   676.613708,   633.538208
-0.013937,   0.074151,   0.082235,   0.000000,   739.123169,   0.533425,   7.328438,   25.424122,   465.701111,   429.286774,   -291.060303,   0.442082,   674.828613,   632.398254
-0.014014,   0.073726,   0.081582,   0.000000,   736.646545,   0.533425,   7.328438,   24.648947,   470.777618,   420.161346,   -290.075104,   0.441342,   672.900635,   631.233093
-0.014115,   0.073264,   0.080870,   0.000000,   733.940247,   0.533425,   7.328438,   23.873770,   475.748749,   410.665497,   -288.906189,   0.440458,   670.827698,   630.045715
-0.014242,   0.072769,   0.080103,   0.000000,   730.998108,   0.533425,   7.328438,   23.098595,   480.620697,   400.768982,   -287.544617,   0.439414,   668.610413,   628.842896
-0.014397,   0.072243,   0.079284,   0.000000,   727.814331,   0.533425,   7.328438,   22.323420,   485.399963,   390.450562,   -285.975189,   0.438201,   666.247314,   627.623047
-0.014583,   0.071689,   0.078417,   0.000000,   724.379456,   0.533425,   7.328438,   21.548244,   490.092377,   379.679443,   -284.180878,   0.436806,   663.735901,   626.385925
-0.014800,   0.071112,   0.077504,   0.000000,   720.683044,   0.533425,   7.328438,   20.773067,   494.700134,   368.423187,   -282.143066,   0.435213,   661.074097,   625.132874
-0.015052,   0.070513,   0.076549,   0.000000,   716.715698,   0.533425,   7.328438,   19.997892,   499.223236,   356.661499,   -279.837585,   0.433408,   658.258911,   623.857361
-0.015340,   0.069896,   0.075552,   0.000000,   712.464905,   0.533425,   7.328438,   19.222717,   503.657684,   344.370544,   -277.237762,   0.431378,   655.285889,   622.552795
-0.015667,   0.069260,   0.074516,   0.000000,   707.916077,   0.533425,   7.328438,   18.447540,   507.994659,   331.529999,   -274.313049,   0.429107,   652.148926,   621.207581
-0.016034,   0.068604,   0.073438,   0.000000,   703.049927,   0.533425,   7.328438,   17.672365,   512.218689,   318.119659,   -271.028992,   0.426577,   648.838501,   619.806274
-0.016443,   0.067924,   0.072314,   0.000000,   697.840576,   0.533425,   7.328438,   16.897190,   516.314392,   304.109497,   -267.343445,   0.423768,   645.340698,   618.327454
-0.016892,   0.067217,   0.071141,   0.000000,   692.260803,   0.533425,   7.328438,   16.122015,   520.257324,   289.477417,   -263.211212,   0.420659,   641.640503,   616.746033
-0.017383,   0.066473,   0.069911,   0.000000,   686.266846,   0.533425,   7.328438,   15.346839,   524.019531,   274.166046,   -258.577362,   0.417210,   637.716125,   615.036072
-0.017914,   0.065688,   0.068620,   0.000000,   679.815002,   0.533425,   7.328438,   14.571663,   527.571716,   258.114838,   -253.379181,   0.413379,   633.548828,   613.171448
-0.018482,   0.064849,   0.067260,   0.000000,   672.841797,   0.533425,   7.328438,   13.796487,   530.873352,   241.227707,   -247.539032,   0.409095,   629.112610,   611.122314
-0.019085,   0.063946,   0.065821,   0.000000,   665.262451,   0.533425,   7.328438,   13.021312,   533.867615,   223.376602,   -240.959549,   0.404269,   624.373901,   608.850464
-0.019715,   0.062964,   0.064297,   0.000000,   656.992188,   0.533425,   7.328438,   12.246136,   536.491760,   204.440475,   -233.522354,   0.398799,   619.303406,   606.307007
-0.020366,   0.061891,   0.062681,   0.000000,   647.929016,   0.533425,   7.328438,   11.470961,   538.665039,   184.269257,   -225.080658,   0.392554,   613.872681,   603.434448
-0.021026,   0.060716,   0.060974,   0.000000,   637.981079,   0.533425,   7.328438,   10.695785,   540.294495,   162.749390,   -215.461731,   0.385399,   608.065918,   600.159729
-0.021681,   0.059429,   0.059175,   0.000000,   627.062073,   0.533425,   7.328438,   9.920609,   541.261169,   139.812637,   -204.466217,   0.377195,   601.876587,   596.387573
-0.022308,   0.058021,   0.057290,   0.000000,   615.114990,   0.533425,   7.328438,   9.145433,   541.429565,   115.477150,   -191.874985,   0.367817,   595.320251,   592.006348
-0.022881,   0.056489,   0.055329,   0.000000,   602.149963,   0.533425,   7.328438,   8.370258,   540.653381,   89.933182,   -177.481186,   0.357204,   588.447205,   586.898315
-0.023369,   0.054831,   0.053306,   0.000000,   588.283997,   0.533425,   7.328438,   7.595082,   538.787048,   63.622383,   -161.149490,   0.345408,   581.350037,   580.963684
-0.023738,   0.053064,   0.051246,   -0.774791,   573.794128,   0.533425,   7.328438,   6.819907,   535.753174,   37.266186,   -142.863739,   0.332658,   574.181946,   574.180725
-0.038329,   0.075055,   0.079518,   -4.639046,   671.002869,   0.535065,   8.199678,   51.283226,   58.781876,   607.581970,   -197.047256,   0.329883,   673.334412,   673.298462
-0.036662,   0.076533,   0.081440,   0.000000,   685.247192,   0.535064,   8.199678,   50.525185,   88.691689,   609.619263,   -212.405884,   0.342910,   678.809631,   678.526611
-0.034935,   0.077743,   0.083124,   0.000000,   697.389893,   0.535065,   8.199678,   49.767139,   116.190552,   610.113708,   -225.221786,   0.354265,   683.391602,   682.013245
-0.033218,   0.078723,   0.084586,   0.000000,   707.667175,   0.535064,   8.199678,   49.009098,   141.271225,   609.380554,   -235.943100,   0.364120,   687.183899,   684.149292
-0.031553,   0.079508,   0.085847,   0.000000,   716.372253,   0.535064,   8.199678,   48.251057,   164.169662,   607.693298,   -244.975082,   0.372718,   690.301697,   685.256775
-0.029966,   0.080137,   0.086933,   0.000000,   723.773193,   0.535065,   8.199678,   47.493015,   185.160400,   605.265320,   -252.645691,   0.380274,   692.855591,   685.586975
-0.028478,   0.080642,   0.087871,   0.000000,   730.097351,   0.535064,   8.199678,   46.734970,   204.508270,   602.259827,   -259.210327,   0.386972,   694.941284,   685.328979
-0.027094,   0.081053,   0.088685,   0.000000,   735.539856,   0.535064,   8.199678,   45.976933,   222.474594,   598.803650,   -264.867157,   0.392972,   696.639038,   684.617920
-0.025819,   0.081393,   0.089396,   0.000000,   740.248718,   0.535066,   8.199678,   45.218887,   239.253143,   594.988037,   -269.768341,   0.398387,   698.015015,   683.559814
-0.024652,   0.081684,   0.090027,   0.000000,   744.342529,   0.535064,   8.199678,   44.460846,   254.993896,   590.883911,   -274.034271,   0.403302,   699.126770,   682.242676
-0.023588,   0.081942,   0.090594,   0.000000,   747.914551,   0.535064,   8.199678,   43.702801,   269.806000,   586.552917,   -277.755951,   0.407778,   700.020874,   680.737183
-0.022623,   0.082176,   0.091108,   0.000000,   751.029541,   0.535065,   8.199678,   42.944759,   283.767975,   582.029236,   -281.011261,   0.411855,   700.730347,   679.101013
-0.021752,   0.082392,   0.091574,   0.000000,   753.743042,   0.535064,   8.199678,   42.186718,   296.958557,   577.348083,   -283.856415,   0.415578,   701.277527,   677.370056
-0.020966,   0.082595,   0.092000,   0.000000,   756.104004,   0.535064,   8.199678,   41.428677,   309.451263,   572.529846,   -286.345795,   0.418982,   701.685242,   675.578918
-0.020259,   0.082786,   0.092388,   0.000000,   758.146179,   0.535065,   8.199678,   40.670635,   321.283264,   567.594666,   -288.521912,   0.422087,   701.970581,   673.760559
-0.019626,   0.082967,   0.092742,   0.000000,   759.899719,   0.535065,   8.199678,   39.912590,   332.500732,   562.555298,   -290.421783,   0.424914,   702.146423,   671.938232
-0.019060,   0.083137,   0.093062,   0.000000,   761.388672,   0.535064,   8.199678,   39.154549,   343.144775,   557.421143,   -292.075653,   0.427484,   702.221497,   670.128418
-0.018554,   0.083294,   0.093345,   0.000000,   762.631897,   0.535065,   8.199678,   38.396507,   353.261871,   552.189575,   -293.511139,   0.429816,   702.200867,   668.341248
-0.018104,   0.083434,   0.093592,   0.000000,   763.644592,   0.535064,   8.199678,   37.638466,   362.897034,   546.851807,   -294.752716,   0.431925,   702.088135,   666.584778
-0.017704,   0.083557,   0.093798,   0.000000,   764.434082,   0.535064,   8.199678,   36.880424,   372.066864,   541.397339,   -295.824799,   0.433813,   701.887268,   664.876953
-0.017350,   0.083657,   0.093963,   0.000000,   765.006653,   0.535065,   8.199678,   36.122379,   380.784546,   535.823792,   -296.744232,   0.435485,   701.599609,   663.228699
-0.017038,   0.083733,   0.094083,   0.000000,   765.375732,   0.535064,   8.199678,   35.364338,   389.131592,   530.103394,   -297.522827,   0.436968,   701.222168,   661.625549
-0.016765,   0.083783,   0.094157,   0.000000,   765.549988,   0.535064,   8.199678,   34.606297,   397.136169,   524.238098,   -298.165466,   0.438277,   700.754395,   660.063660
-0.016527,   0.083805,   0.094184,   0.000000,   765.536621,   0.535065,   8.199678,   33.848255,   404.779297,   518.257996,   -298.676361,   0.439416,   700.200134,   658.551697
-0.016323,   0.083797,   0.094163,   0.000000,   765.268860,   0.535065,   8.199678,   33.090210,   412.086029,   512.090088,   -299.029114,   0.440407,   699.486389,   657.007324
-0.016149,   0.083757,   0.094089,   0.000000,   764.881653,   0.535064,   8.199678,   32.332169,   419.137482,   505.764771,   -299.312775,   0.441217,   698.751526,   655.596069
-0.016005,   0.083682,   0.093962,   0.000000,   764.289062,   0.535064,   8.199678,   31.574127,   425.887085,   499.202454,   -299.509308,   0.441830,   697.922974,   654.268005
-0.015889,   0.083571,   0.093779,   0.000000,   763.503052,   0.535064,   8.199678,   30.816084,   432.327148,   492.386841,   -299.645050,   0.442221,   697.022827,   653.071106
-0.015801,   0.083423,   0.093541,   0.000000,   762.494629,   0.535064,   8.199678,   30.058043,   438.465240,   485.312805,   -299.691589,   0.442415,   696.011963,   651.948364
-0.015738,   0.083242,   0.093250,   0.000000,   761.359741,   0.535065,   8.199678,   29.300001,   444.373444,   478.068604,   -299.665497,   0.442441,   694.963745,   650.942566
-0.015702,   0.083028,   0.092908,   0.000000,   760.010437,   0.535064,   8.199678,   28.541958,   450.068634,   470.627625,   -299.485931,   0.442366,   693.767151,   649.890076
-0.015691,   0.082781,   0.092513,   0.000000,   758.474121,   0.535064,   8.199678,   27.783916,   455.571564,   462.926178,   -299.202637,   0.442135,   692.471436,   648.883850
-0.015706,   0.082498,   0.092063,   0.000000,   756.744263,   0.535065,   8.199678,   27.025873,   460.917938,   454.928894,   -298.805847,   0.441754,   691.068420,   647.909851
-0.015747,   0.082182,   0.091560,   0.000000,   754.825623,   0.535064,   8.199678,   26.267830,   466.108246,   446.656403,   -298.284790,   0.441232,   689.557861,   646.956726
-0.015814,   0.081834,   0.091005,   0.000000,   752.716553,   0.535064,   8.199678,   25.509789,   471.163574,   438.088257,   -297.631561,   0.440569,   687.938110,   646.019287
-0.015909,   0.081455,   0.090400,   0.000000,   750.409180,   0.535064,   8.199678,   24.751747,   476.095490,   429.189362,   -296.841705,   0.439753,   686.207153,   645.101074
-0.016033,   0.081050,   0.089747,   0.000000,   747.899597,   0.535065,   8.199678,   23.993704,   480.915131,   419.941681,   -295.904846,   0.438781,   684.363281,   644.198120
-0.016188,   0.080619,   0.089049,   0.000000,   745.180969,   0.535064,   8.199678,   23.235661,   485.633148,   410.317322,   -294.810333,   0.437644,   682.404236,   643.309265
-0.016375,   0.080166,   0.088306,   0.000000,   742.245178,   0.535064,   8.199678,   22.477619,   490.257141,   400.288147,   -293.545685,   0.436332,   680.327637,   642.432861
-0.016597,   0.079693,   0.087523,   0.000000,   739.085571,   0.535064,   8.199678,   21.719578,   494.794342,   389.830292,   -292.095856,   0.434834,   678.132202,   641.566223
-0.016856,   0.079203,   0.086702,   0.000000,   735.692322,   0.535065,   8.199678,   20.961535,   499.249542,   378.914368,   -290.443726,   0.433138,   675.815125,   640.706299
-0.017155,   0.078699,   0.085844,   0.000000,   732.051208,   0.535064,   8.199678,   20.203493,   503.624756,   367.504181,   -288.569183,   0.431227,   673.371765,   639.848999
-0.017496,   0.078181,   0.084950,   0.000000,   728.148376,   0.535064,   8.199678,   19.445450,   507.916840,   355.571411,   -286.449280,   0.429085,   670.797607,   638.987061
-0.017881,   0.077651,   0.084021,   0.000000,   723.968567,   0.535064,   8.199678,   18.687408,   512.120483,   343.089630,   -284.057159,   0.426696,   668.086914,   638.109802
-0.018313,   0.077109,   0.083056,   0.000000,   719.492371,   0.535065,   8.199678,   17.929365,   516.225159,   330.029053,   -281.362976,   0.424040,   665.232056,   637.203857
-0.018794,   0.076552,   0.082053,   0.000000,   714.696411,   0.535064,   8.199678,   17.171324,   520.218933,   316.358154,   -278.330414,   0.421096,   662.222168,   636.249634
-0.019326,   0.075976,   0.081007,   0.000000,   709.553955,   0.535065,   8.199678,   16.413282,   524.082214,   302.048248,   -274.919617,   0.417843,   659.044434,   635.223389
-0.019908,   0.075375,   0.079913,   0.000000,   704.029785,   0.535064,   8.199678,   15.655239,   527.792908,   287.059113,   -271.082306,   0.414252,   655.680847,   634.094666
-0.020542,   0.074740,   0.078761,   0.000000,   698.082825,   0.535064,   8.199678,   14.897197,   531.322876,   271.344391,   -266.763702,   0.410292,   652.111145,   632.829285
-0.021226,   0.074061,   0.077544,   0.000000,   691.657288,   0.535064,   8.199678,   14.139154,   534.639038,   254.829529,   -261.896790,   0.405911,   648.309326,   631.388550
-0.021958,   0.073328,   0.076254,   0.000000,   684.692017,   0.535064,   8.199678,   13.381112,   537.704712,   237.425323,   -256.403076,   0.401049,   644.251526,   629.732727
-0.022733,   0.072527,   0.074880,   0.000000,   677.105042,   0.535064,   8.199678,   12.623070,   540.468567,   219.011337,   -250.184555,   0.395620,   639.906555,   627.811768
-0.023546,   0.071640,   0.073410,   0.000000,   668.790833,   0.535064,   8.199678,   11.865027,   542.865356,   199.433151,   -243.113297,   0.389514,   635.234802,   625.558838
-0.024388,   0.070647,   0.071831,   0.000000,   659.634705,   0.535064,   8.199678,   11.106986,   544.809082,   178.535095,   -235.037384,   0.382600,   630.199890,   622.892883
-0.025242,   0.069529,   0.070136,   0.000000,   649.513672,   0.535065,   8.199678,   10.348944,   546.199402,   156.162811,   -225.765808,   0.374732,   624.768127,   619.709290
-0.026089,   0.068267,   0.068318,   0.000000,   638.309326,   0.535064,   8.199678,   9.590901,   546.912964,   132.201538,   -215.073013,   0.365755,   618.916382,   615.879028
-0.026905,   0.066848,   0.066377,   0.000000,   625.926819,   0.535064,   8.199678,   8.832859,   546.800537,   106.615219,   -202.709656,   0.355516,   612.645081,   611.255249
-0.027657,   0.065259,   0.064320,   0.000000,   612.337402,   0.535064,   8.199678,   8.074817,   545.696838,   79.551895,   -188.428055,   0.343930,   605.984924,   605.675293
-0.028299,   0.063490,   0.062151,   -2.735560,   597.629639,   0.535064,   8.199678,   7.316774,   543.455750,   51.438328,   -172.015427,   0.331047,   599.002075,   598.988037
-0.045668,   0.090820,   0.097270,   -5.703901,   699.137268,   0.536039,   9.092217,   50.824341,   79.492180,   613.941162,   -229.763641,   0.329263,   702.006531,   701.954407
-0.043298,   0.091832,   0.098739,   0.000000,   712.042603,   0.536039,   9.092217,   50.082123,   109.019859,   615.087585,   -241.797607,   0.341840,   706.087463,   705.855530
-0.040970,   0.092559,   0.099937,   0.000000,   722.791992,   0.536040,   9.092217,   49.339905,   135.664062,   614.896240,   -251.691513,   0.352716,   709.315674,   708.091125
-0.038739,   0.093058,   0.100902,   0.000000,   731.769592,   0.536039,   9.092217,   48.597683,   159.772263,   613.681580,   -259.896179,   0.362183,   711.843445,   709.089600
-0.036636,   0.093378,   0.101670,   0.000000,   739.309448,   0.536039,   9.092217,   47.855469,   181.728607,   611.682861,   -266.762299,   0.370512,   713.797791,   709.162842
-0.034674,   0.093560,   0.102274,   0.000000,   745.686523,   0.536040,   9.092217,   47.113247,   201.880447,   609.084534,   -272.552704,   0.377922,   715.284790,   708.536682
-0.032859,   0.093643,   0.102748,   0.000000,   751.122986,   0.536039,   9.092217,   46.371029,   220.520889,   606.024475,   -277.469971,   0.384585,   716.395691,   707.380737
-0.031191,   0.093661,   0.103126,   0.000000,   755.795044,   0.536039,   9.092217,   45.628811,   237.881973,   602.607056,   -281.670135,   0.390630,   717.208435,   705.826416
-0.029667,   0.093637,   0.103430,   0.000000,   759.830505,   0.536040,   9.092217,   44.886593,   254.126511,   598.908752,   -285.269623,   0.396145,   717.781067,   703.973511
-0.028277,   0.093587,   0.103677,   0.000000,   763.319214,   0.536039,   9.092217,   44.144371,   269.369049,   594.976746,   -288.362274,   0.401188,   718.155334,   701.901062
-0.027017,   0.093522,   0.103878,   0.000000,   766.335449,   0.536039,   9.092217,   43.402153,   283.701904,   590.853760,   -291.021240,   0.405808,   718.365295,   699.672668
-0.025876,   0.093452,   0.104045,   0.000000,   768.945312,   0.536040,   9.092217,   42.659935,   297.222443,   586.565918,   -293.313049,   0.410049,   718.441223,   697.340942
-0.024845,   0.093382,   0.104185,   0.000000,   771.196777,   0.536039,   9.092217,   41.917717,   309.990356,   582.137207,   -295.288818,   0.413938,   718.406067,   694.951355
-0.023916,   0.093316,   0.104306,   0.000000,   773.131958,   0.536039,   9.092217,   41.175499,   322.067688,   577.584229,   -296.992584,   0.417504,   718.278259,   692.540100
-0.023081,   0.093256,   0.104408,   0.000000,   774.782166,   0.536040,   9.092217,   40.433281,   333.497589,   572.920532,   -298.460083,   0.420765,   718.071167,   690.137695
-0.022331,   0.093201,   0.104492,   0.000000,   776.175110,   0.536039,   9.092217,   39.691059,   344.333557,   568.151489,   -299.721924,   0.423745,   717.793701,   687.764038
-0.021658,   0.093150,   0.104560,   0.000000,   777.333984,   0.536039,   9.092217,   38.948841,   354.623413,   563.282227,   -300.802155,   0.426465,   717.452026,   685.433350
-0.021057,   0.093100,   0.104608,   0.000000,   778.275757,   0.536040,   9.092217,   38.206623,   364.402863,   558.314087,   -301.722015,   0.428941,   717.050415,   683.158997
-0.020520,   0.093050,   0.104636,   0.000000,   779.013794,   0.536039,   9.092217,   37.464405,   373.705658,   553.242249,   -302.501282,   0.431183,   716.592102,   680.952820
-0.020042,   0.092995,   0.104640,   0.000000,   779.558716,   0.536039,   9.092217,   36.722187,   382.562927,   548.062073,   -303.155396,   0.433205,   716.078064,   678.822815
-0.019619,   0.092934,   0.104620,   0.000000,   779.923950,   0.536040,   9.092217,   35.979969,   391.026611,   542.764587,   -303.694977,   0.435025,   715.507996,   676.765869
-0.019246,   0.092865,   0.104574,   0.000000,   780.113647,   0.536039,   9.092217,   35.237751,   399.116180,   537.333191,   -304.136047,   0.436644,   714.883606,   674.795166
-0.018919,   0.092785,   0.104499,   0.000000,   780.127502,   0.536039,   9.092217,   34.495529,   406.838745,   531.748291,   -304.494965,   0.438056,   714.205688,   672.927979
-0.018636,   0.092691,   0.104393,   0.000000,   779.966431,   0.536039,   9.092217,   33.753311,   414.168762,   526.024780,   -304.780670,   0.439255,   713.476379,   671.182068
-0.018392,   0.092580,   0.104252,   0.000000,   779.631836,   0.536040,   9.092217,   33.011093,   421.173523,   520.111206,   -305.003815,   0.440249,   712.690491,   669.551819
-0.018187,   0.092452,   0.104078,   0.000000,   779.129883,   0.536039,   9.092217,   32.268875,   427.901825,   513.986023,   -305.165466,   0.441054,   711.845459,   668.029053
-0.018017,   0.092307,   0.103868,   0.000000,   778.469299,   0.536040,   9.092217,   31.526657,   434.342896,   507.687988,   -305.258911,   0.441682,   710.942505,   666.609009
-0.017882,   0.092142,   0.103621,   0.000000,   777.649475,   0.536040,   9.092217,   30.784437,   440.529236,   501.190338,   -305.286713,   0.442136,   709.977966,   665.287903
-0.017780,   0.091957,   0.103338,   0.000000,   776.668335,   0.536039,   9.092217,   30.042219,   446.500671,   494.454437,   -305.250549,   0.442418,   708.948181,   664.062378
-0.017710,   0.091750,   0.103015,   0.000000,   775.517212,   0.536040,   9.092217,   29.299999,   452.125885,   487.531921,   -305.175293,   0.442483,   707.866699,   662.989441
-0.017671,   0.091520,   0.102652,   0.000000,   774.189026,   0.536040,   9.092217,   28.557781,   457.511108,   480.326019,   -305.057220,   0.442342,   706.721130,   662.046570
-0.017664,   0.091270,   0.102249,   0.000000,   772.684998,   0.536039,   9.092217,   27.815563,   462.787720,   472.761017,   -304.869873,   0.442029,   705.495850,   661.185425
-0.017688,   0.091000,   0.101810,   0.000000,   771.024841,   0.536040,   9.092217,   27.073343,   467.898499,   464.948944,   -304.597534,   0.441564,   704.199219,   660.393066
-0.017744,   0.090711,   0.101333,   0.000000,   769.202637,   0.536040,   9.092217,   26.331125,   472.863312,   456.858002,   -304.236755,   0.440943,   702.828247,   659.667114
-0.017832,   0.090405,   0.100821,   0.000000,   767.215576,   0.536039,   9.092217,   25.588907,   477.693756,   448.474335,   -303.780426,   0.440164,   701.380615,   659.002075
-0.017954,   0.090082,   0.100273,   0.000000,   765.059875,   0.536040,   9.092217,   24.846687,   482.402222,   439.781525,   -303.220062,   0.439227,   699.853821,   658.391357
-0.018111,   0.089744,   0.099691,   0.000000,   762.728882,   0.536040,   9.092217,   24.104469,   486.999390,   430.753662,   -302.548126,   0.438124,   698.245239,   657.832336
-0.018303,   0.089392,   0.099076,   0.000000,   760.216187,   0.536039,   9.092217,   23.362249,   491.494354,   421.367828,   -301.754761,   0.436848,   696.552551,   657.320984
-0.018534,   0.089030,   0.098429,   0.000000,   757.513977,   0.536040,   9.092217,   22.620031,   495.895386,   411.598419,   -300.828766,   0.435391,   694.773010,   656.852905
-0.018806,   0.088657,   0.097751,   0.000000,   754.613281,   0.536039,   9.092217,   21.877813,   500.208954,   401.417877,   -299.757294,   0.433743,   692.903870,   656.423706
-0.019120,   0.088276,   0.097044,   0.000000,   751.502258,   0.536040,   9.092217,   21.135595,   504.438843,   390.796631,   -298.524994,   0.431892,   690.940735,   656.026917
-0.019480,   0.087888,   0.096307,   0.000000,   748.168457,   0.536040,   9.092217,   20.393375,   508.589111,   379.703400,   -297.113831,   0.429825,   688.879089,   655.654846
-0.019887,   0.087495,   0.095543,   0.000000,   744.598389,   0.536039,   9.092217,   19.651157,   512.660706,   368.106079,   -295.504242,   0.427526,   686.715271,   655.299988
-0.020346,   0.087098,   0.094752,   0.000000,   740.776184,   0.536040,   9.092217,   18.908939,   516.651855,   355.971710,   -293.673340,   0.424979,   684.444031,   654.951904
-0.020860,   0.086697,   0.093932,   0.000000,   736.681824,   0.536040,   9.092217,   18.166719,   520.555420,   343.266144,   -291.594788,   0.422164,   682.057983,   654.596375
-0.021430,   0.086291,   0.093082,   0.000000,   732.291138,   0.536039,   9.092217,   17.424501,   524.364197,   329.949402,   -289.236389,   0.419060,   679.546814,   654.214172
-0.022061,   0.085876,   0.092198,   0.000000,   727.579956,   0.536040,   9.092217,   16.682283,   528.063599,   315.990875,   -286.563721,   0.415647,   676.900574,   653.782776
-0.022753,   0.085448,   0.091275,   0.000000,   722.516541,   0.536040,   9.092217,   15.940063,   531.638794,   301.347290,   -283.534576,   0.411897,   674.105042,   653.273560
-0.023510,   0.085001,   0.090307,   0.000000,   717.062988,   0.536039,   9.092217,   15.197845,   535.065308,   285.973663,   -280.102234,   0.407781,   671.143066,   652.652954
-0.024330,   0.084525,   0.089284,   0.000000,   711.172363,   0.536039,   9.092217,   14.455626,   538.317566,   269.813690,   -276.208221,   0.403264,   667.991577,   651.877869
-0.025215,   0.084006,   0.088193,   0.000000,   704.789612,   0.536039,   9.092217,   13.713408,   541.361572,   252.800873,   -271.786041,   0.398301,   664.625427,   650.900208
-0.026164,   0.083431,   0.087023,   0.000000,   697.837585,   0.536040,   9.092217,   12.971189,   544.153198,   234.824966,   -266.754211,   0.392820,   661.012939,   649.666992
-0.027170,   0.082782,   0.085760,   0.000000,   690.231323,   0.536040,   9.092217,   12.228970,   546.646912,   215.767044,   -261.008972,   0.386745,   657.120178,   648.110718
-0.028226,   0.082038,   0.084389,   0.000000,   681.861145,   0.536039,   9.092217,   11.486752,   548.772583,   195.468689,   -254.427338,   0.379961,   652.909851,   646.154480
-0.029322,   0.081175,   0.082895,   0.000000,   672.589905,   0.536040,   9.092217,   10.744533,   550.443298,   173.735855,   -246.846756,   0.372327,   648.336487,   643.694275
-0.030445,   0.080168,   0.081261,   0.000000,   662.262451,   0.536039,   9.092217,   10.002314,   551.545105,   150.360580,   -238.068069,   0.363668,   643.357483,   640.600830
-0.031571,   0.078989,   0.079476,   0.000000,   650.720459,   0.536039,   9.092217,   9.260096,   551.941345,   125.161942,   -227.846878,   0.353798,   637.938293,   636.709106
-0.032666,   0.077612,   0.077530,   0.000000,   637.818359,   0.536039,   9.092217,   8.517877,   551.466919,   98.042389,   -215.894470,   0.342539,   632.053955,   631.810608
-0.033680,   0.076009,   0.075416,   -4.419025,   623.484497,   0.536039,   9.092217,   7.775658,   549.954773,   69.110703,   -201.898376,   0.329796,   625.705688,   625.670593
-0.053990,   0.109434,   0.118375,   -5.841841,   728.424805,   0.536478,   10.004342,   50.404324,   104.045349,   618.537598,   -261.937592,   0.329332,   731.363220,   731.310730
-0.050795,   0.109740,   0.119105,   0.000000,   739.620911,   0.536478,   10.004342,   49.676586,   132.303711,   619.005005,   -270.651306,   0.341265,   733.846863,   733.637451
-0.047776,   0.109781,   0.119570,   0.000000,   748.811279,   0.536478,   10.004342,   48.948853,   157.613464,   618.348938,   -277.721191,   0.351618,   735.611633,   734.482971
-0.044962,   0.109627,   0.119829,   0.000000,   756.434326,   0.536478,   10.004342,   48.221115,   180.518784,   616.862122,   -283.516846,   0.360733,   736.814880,   734.248413
-0.042362,   0.109339,   0.119929,   0.000000,   762.821655,   0.536476,   10.004342,   47.493382,   201.453476,   614.753174,   -288.307037,   0.368867,   737.579590,   733.214050
-0.039973,   0.108962,   0.119912,   0.000000,   768.228149,   0.536478,   10.004342,   46.765648,   220.764267,   612.178345,   -292.286865,   0.376215,   738.001953,   731.577454
-0.037788,   0.108531,   0.119810,   0.000000,   772.835388,   0.536478,   10.004342,   46.037910,   238.697556,   609.242737,   -295.602783,   0.382910,   738.154114,   729.483643
-0.035797,   0.108069,   0.119647,   0.000000,   776.773193,   0.536478,   10.004342,   45.310177,   255.423523,   606.018555,   -298.367004,   0.389041,   738.090027,   727.043762
-0.033987,   0.107595,   0.119441,   0.000000,   780.146729,   0.536478,   10.004342,   44.582439,   271.080170,   602.563110,   -300.669067,   0.394677,   737.854675,   724.347656
-0.032343,   0.107124,   0.119209,   0.000000,   783.039246,   0.536478,   10.004342,   43.854706,   285.776184,   598.916138,   -302.584869,   0.399869,   737.485901,   721.471497
-0.030854,   0.106666,   0.118963,   0.000000,   785.518677,   0.536478,   10.004342,   43.126968,   299.601807,   595.110779,   -304.174957,   0.404657,   737.013611,   718.476501
-0.029507,   0.106229,   0.118714,   0.000000,   787.639587,   0.536476,   10.004342,   42.399235,   312.636017,   591.161926,   -305.495636,   0.409071,   736.463135,   715.417175
-0.028291,   0.105818,   0.118466,   0.000000,   789.445190,   0.536478,   10.004342,   41.671501,   324.938904,   587.089050,   -306.587189,   0.413139,   735.851807,   712.335327
-0.027193,   0.105432,   0.118222,   0.000000,   790.971069,   0.536478,   10.004342,   40.943764,   336.570129,   582.899780,   -307.486237,   0.416884,   735.192688,   709.264832
-0.026204,   0.105072,   0.117984,   0.000000,   792.246033,   0.536478,   10.004342,   40.216030,   347.579193,   578.601196,   -308.221924,   0.420325,   734.495178,   706.233154
-0.025315,   0.104737,   0.117751,   0.000000,   793.294922,   0.536478,   10.004342,   39.488293,   358.017212,   574.195007,   -308.819244,   0.423483,   733.765991,   703.261536
-0.024515,   0.104424,   0.117521,   0.000000,   794.137268,   0.536478,   10.004342,   38.760559,   367.923340,   569.682312,   -309.298920,   0.426372,   733.009949,   700.368286
-0.023799,   0.104131,   0.117294,   0.000000,   794.788635,   0.536478,   10.004342,   38.032822,   377.332336,   565.062622,   -309.678162,   0.429007,   732.229980,   697.568726
-0.023159,   0.103856,   0.117068,   0.000000,   795.264221,   0.536476,   10.004342,   37.305088,   386.282623,   560.332458,   -309.972229,   0.431400,   731.428955,   694.874573
-0.022588,   0.103596,   0.116840,   0.000000,   795.574829,   0.536478,   10.004342,   36.577354,   394.808441,   555.485229,   -310.193207,   0.433563,   730.607117,   692.293762
-0.022082,   0.103348,   0.116607,   0.000000,   795.724609,   0.536478,   10.004342,   35.849617,   402.923431,   550.511658,   -310.354523,   0.435499,   729.764404,   689.841064
-0.021636,   0.103108,   0.116368,   0.000000,   795.718201,   0.536478,   10.004342,   35.121883,   410.640564,   545.402405,   -310.469055,   0.437207,   728.902039,   687.531250
-0.021245,   0.102874,   0.116118,   0.000000,   795.560486,   0.536478,   10.004342,   34.394146,   417.978088,   540.147705,   -310.546906,   0.438690,   728.020264,   685.374878
-0.020906,   0.102644,   0.115857,   0.000000,   795.258606,   0.536478,   10.004342,   33.666412,   424.980927,   534.732971,   -310.591095,   0.439964,   727.115723,   683.366089
-0.020616,   0.102416,   0.115583,   0.000000,   794.817627,   0.536476,   10.004342,   32.938675,   431.675262,   529.151550,   -310.603607,   0.441038,   726.186646,   681.503174
-0.020372,   0.102188,   0.115293,   0.000000,   794.233948,   0.536479,   10.004342,   32.210941,   438.064697,   523.377563,   -310.597351,   0.441900,   725.233521,   679.804443
-0.020171,   0.101959,   0.114987,   0.000000,   793.506897,   0.536477,   10.004342,   31.483206,   444.168915,   517.387756,   -310.578339,   0.442550,   724.254944,   678.276062
-0.020013,   0.101727,   0.114663,   0.000000,   792.638367,   0.536479,   10.004342,   30.755470,   449.999359,   511.179108,   -310.546173,   0.442991,   723.249573,   676.917419
-0.019895,   0.101491,   0.114319,   0.000000,   791.625610,   0.536478,   10.004342,   30.027735,   455.550537,   504.742859,   -310.506287,   0.443215,   722.217590,   675.738403
-0.019817,   0.101250,   0.113954,   0.000000,   790.476990,   0.536477,   10.004342,   29.299999,   460.895508,   498.067932,   -310.439362,   0.443257,   721.149658,   674.699768
-0.019776,   0.101004,   0.113568,   0.000000,   789.201294,   0.536478,   10.004342,   28.572264,   466.079529,   491.164581,   -310.325867,   0.443144,   720.039917,   673.768188
-0.019774,   0.100753,   0.113161,   0.000000,   787.786621,   0.536478,   10.004342,   27.844528,   471.090363,   483.990692,   -310.179016,   0.442850,   718.890015,   672.969727
-0.019811,   0.100498,   0.112734,   0.000000,   786.219421,   0.536478,   10.004342,   27.116795,   475.936493,   476.486298,   -310.007904,   0.442350,   717.699280,   672.323242
-0.019886,   0.100239,   0.112286,   0.000000,   784.505371,   0.536477,   10.004342,   26.389059,   480.630066,   468.670288,   -309.797516,   0.441659,   716.466064,   671.809448
-0.020001,   0.099978,   0.111820,   0.000000,   782.644104,   0.536478,   10.004342,   25.661324,   485.185059,   460.537903,   -309.537415,   0.440781,   715.187927,   671.415771
-0.020157,   0.099716,   0.111334,   0.000000,   780.633667,   0.536478,   10.004342,   24.933588,   489.613922,   452.081116,   -309.217224,   0.439718,   713.862549,   671.131042
-0.020354,   0.099453,   0.110831,   0.000000,   778.470886,   0.536477,   10.004342,   24.205853,   493.928314,   443.288452,   -308.826294,   0.438472,   712.487305,   670.944214
-0.020594,   0.099191,   0.110310,   0.000000,   776.150085,   0.536478,   10.004342,   23.478117,   498.138062,   434.142242,   -308.354187,   0.437038,   711.059143,   670.846558
-0.020880,   0.098931,   0.109771,   0.000000,   773.664246,   0.536478,   10.004342,   22.750381,   502.251648,   424.621704,   -307.789764,   0.435412,   709.575195,   670.829224
-0.021213,   0.098674,   0.109216,   0.000000,   771.004822,   0.536477,   10.004342,   22.022648,   506.275146,   414.704865,   -307.120789,   0.433587,   708.032104,   670.883545
-0.021595,   0.098421,   0.108644,   0.000000,   768.160095,   0.536478,   10.004342,   21.294912,   510.215149,   404.360291,   -306.333649,   0.431551,   706.425415,   671.000854
-0.022030,   0.098174,   0.108055,   0.000000,   765.118652,   0.536478,   10.004342,   20.567177,   514.075989,   393.562073,   -305.412109,   0.429295,   704.751099,   671.169861
-0.022521,   0.097932,   0.107451,   0.000000,   761.866760,   0.536478,   10.004342,   19.839441,   517.859375,   382.279877,   -304.338623,   0.426806,   703.004272,   671.379272
-0.023071,   0.097696,   0.106828,   0.000000,   758.386414,   0.536477,   10.004342,   19.111706,   521.565308,   370.476318,   -303.092896,   0.424068,   701.178589,   671.615967
-0.023683,   0.097467,   0.106188,   0.000000,   754.658386,   0.536478,   10.004342,   18.383970,   525.191101,   358.114899,   -301.651733,   0.421063,   699.267090,   671.864197
-0.024362,   0.097243,   0.105528,   0.000000,   750.662781,   0.536478,   10.004342,   17.656237,   528.734253,   345.159149,   -299.988037,   0.417773,   697.263062,   672.105164
-0.025111,   0.097025,   0.104847,   0.000000,   746.374878,   0.536477,   10.004342,   16.928501,   532.186401,   331.567688,   -298.071991,   0.414176,   695.157837,   672.318054
-0.025934,   0.096808,   0.104140,   0.000000,   741.764282,   0.536478,   10.004342,   16.200766,   535.536926,   317.295166,   -295.866760,   0.410249,   692.938782,   672.473999
-0.026836,   0.096588,   0.103401,   0.000000,   736.795166,   0.536477,   10.004342,   15.473030,   538.767090,   302.292908,   -293.331970,   0.405961,   690.591370,   672.540771
-0.027817,   0.096357,   0.102623,   0.000000,   731.427917,   0.536478,   10.004342,   14.745295,   541.858826,   286.509796,   -290.418182,   0.401284,   688.098206,   672.477478
-0.028882,   0.096105,   0.101795,   0.000000,   725.612854,   0.536477,   10.004342,   14.017559,   544.783997,   269.884552,   -287.069397,   0.396179,   685.437866,   672.237244
-0.030032,   0.095818,   0.100903,   0.000000,   719.283142,   0.536478,   10.004342,   13.289824,   547.506287,   252.327408,   -283.217590,   0.390592,   682.581909,   671.764099
-0.031264,   0.095476,   0.099930,   0.000000,   712.365845,   0.536478,   10.004342,   12.562089,   549.986450,   233.747528,   -278.779022,   0.384467,   679.498535,   670.988708
-0.032577,   0.095061,   0.098861,   0.000000,   704.761047,   0.536478,   10.004342,   11.834353,   552.162659,   214.003433,   -273.658234,   0.377708,   676.153015,   669.836792
-0.033967,   0.094547,   0.097675,   0.000000,   696.341919,   0.536478,   10.004342,   11.106618,   553.964294,   192.904556,   -267.727844,   0.370193,   672.503479,   668.212952
-0.035423,   0.093907,   0.096354,   0.000000,   686.955322,   0.536478,   10.004342,   10.378882,   555.295837,   170.230453,   -260.828918,   0.361766,   668.504883,   665.994446
-0.036925,   0.093103,   0.094874,   0.000000,   676.414307,   0.536478,   10.004342,   9.651148,   556.034790,   145.726349,   -252.752731,   0.352235,   664.103760,   663.014160
-0.038447,   0.092096,   0.093211,   0.000000,   664.502136,   0.536478,   10.004342,   8.923412,   556.025391,   119.118919,   -243.231140,   0.341372,   659.245422,   659.052185
-0.039946,   0.090843,   0.091343,   -5.714191,   651.007324,   0.536478,   10.004342,   8.195677,   555.082214,   90.210922,   -231.936325,   0.328954,   653.883179,   653.826965
-0.063180,   0.130944,   0.142908,   -4.564762,   758.440063,   0.536501,   10.934303,   50.023975,   132.488907,   621.386414,   -292.897430,   0.330329,   760.732727,   760.701965
-0.059084,   0.130331,   0.142633,   0.000000,   767.774902,   0.536499,   10.934303,   49.309357,   158.897141,   621.411377,   -298.525543,   0.341528,   761.585449,   761.353333
-0.055312,   0.129516,   0.142153,   0.000000,   775.415344,   0.536501,   10.934303,   48.594734,   182.651611,   620.543396,   -302.989258,   0.351397,   761.905457,   760.764771
-0.051861,   0.128573,   0.141530,   0.000000,   781.750977,   0.536501,   10.934303,   47.880116,   204.283386,   619.022034,   -306.546356,   0.360234,   761.824158,   759.268005
-0.048717,   0.127556,   0.140811,   0.000000,   787.055786,   0.536499,   10.934303,   47.165497,   224.169800,   617.010437,   -309.380249,   0.368242,   761.437683,   757.091553
-0.045860,   0.126506,   0.140031,   0.000000,   791.528381,   0.536499,   10.934303,   46.450878,   242.583939,   614.625305,   -311.624725,   0.375565,   760.817261,   754.399170
-0.043267,   0.125449,   0.139218,   0.000000,   795.311401,   0.536501,   10.934303,   45.736256,   259.713104,   611.946289,   -313.384827,   0.382297,   760.018982,   751.318787
-0.040916,   0.124407,   0.138394,   0.000000,   798.518127,   0.536501,   10.934303,   45.021637,   275.703339,   609.036499,   -314.744049,   0.388510,   759.088806,   747.953003
-0.038784,   0.123399,   0.137578,   0.000000,   801.241394,   0.536501,   10.934303,   44.307014,   290.680206,   605.941650,   -315.772797,   0.394259,   758.064880,   744.385620
-0.036854,   0.122433,   0.136783,   0.000000,   803.553345,   0.536499,   10.934303,   43.592396,   304.745728,   602.691406,   -316.530334,   0.399588,   756.976624,   740.684692
-0.035106,   0.121518,   0.136016,   0.000000,   805.510437,   0.536501,   10.934303,   42.877777,   317.979492,   599.309204,   -317.063812,   0.404531,   755.845764,   736.906067
-0.033525,   0.120654,   0.135282,   0.000000,   807.156006,   0.536499,   10.934303,   42.163158,   330.450958,   595.801025,   -317.417694,   0.409110,   754.689148,   733.099121
-0.032095,   0.119844,   0.134582,   0.000000,   808.528015,   0.536501,   10.934303,   41.448536,   342.220886,   592.178406,   -317.624573,   0.413349,   753.518860,   729.301819
-0.030803,   0.119086,   0.133917,   0.000000,   809.657410,   0.536499,   10.934303,   40.733917,   353.347992,   588.443115,   -317.713989,   0.417270,   752.343933,   725.546387
-0.029638,   0.118378,   0.133285,   0.000000,   810.569092,   0.536501,   10.934303,   40.019299,   363.878021,   584.597839,   -317.709534,   0.420888,   751.170776,   721.860962
-0.028587,   0.117719,   0.132686,   0.000000,   811.284424,   0.536501,   10.934303,   39.304676,   373.854065,   580.641663,   -317.632111,   0.424218,   750.004578,   718.269409
-0.027641,   0.117106,   0.132118,   0.000000,   811.821167,   0.536499,   10.934303,   38.590057,   383.313324,   576.573303,   -317.498932,   0.427272,   748.848694,   714.793030
-0.026792,   0.116534,   0.131577,   0.000000,   812.192627,   0.536501,   10.934303,   37.875439,   392.289032,   572.387207,   -317.324982,   0.430061,   747.704468,   711.448975
-0.026032,   0.116000,   0.131060,   0.000000,   812.408936,   0.536499,   10.934303,   37.160820,   400.808350,   568.076843,   -317.123352,   0.432593,   746.572388,   708.253906
-0.025353,   0.115502,   0.130565,   0.000000,   812.480103,   0.536501,   10.934303,   36.446198,   408.893188,   563.637390,   -316.906403,   0.434871,   745.454407,   705.225403
-0.024751,   0.115037,   0.130089,   0.000000,   812.413757,   0.536499,   10.934303,   35.731579,   416.563904,   559.062927,   -316.684204,   0.436903,   744.350769,   702.377441
-0.024219,   0.114602,   0.129628,   0.000000,   812.216858,   0.536501,   10.934303,   35.016960,   423.847321,   554.344971,   -316.464203,   0.438694,   743.260376,   699.718567
-0.023754,   0.114193,   0.129182,   0.000000,   811.897217,   0.536501,   10.934303,   34.302338,   430.779297,   549.474060,   -316.250183,   0.440258,   742.181274,   697.249634
-0.023351,   0.113808,   0.128746,   0.000000,   811.458069,   0.536501,   10.934303,   33.587719,   437.377441,   544.438843,   -316.048584,   0.441596,   741.112366,   694.979675
-0.023006,   0.113445,   0.128319,   0.000000,   810.900513,   0.536498,   10.934303,   32.873100,   443.654785,   539.226379,   -315.865723,   0.442708,   740.052551,   692.918030
-0.022716,   0.113101,   0.127898,   0.000000,   810.227112,   0.536502,   10.934303,   32.158482,   449.632782,   533.826599,   -315.703125,   0.443600,   738.999268,   691.065308
-0.022480,   0.112775,   0.127480,   0.000000,   809.439026,   0.536500,   10.934303,   31.443859,   455.333496,   528.224304,   -315.562500,   0.444275,   737.950134,   689.422363
-0.022294,   0.112464,   0.127065,   0.000000,   808.536499,   0.536500,   10.934303,   30.729240,   460.780914,   522.401001,   -315.444458,   0.444736,   736.902344,   687.988220
-0.022158,   0.112168,   0.126651,   0.000000,   807.523315,   0.536501,   10.934303,   30.014620,   466.017395,   516.343811,   -315.340332,   0.445000,   735.850891,   686.745544
-0.022069,   0.111886,   0.126237,   0.000000,   806.398376,   0.536499,   10.934303,   29.299999,   471.058136,   510.037262,   -315.248779,   0.445066,   734.793823,   685.693726
-0.022028,   0.111618,   0.125823,   0.000000,   805.157654,   0.536501,   10.934303,   28.585381,   475.903351,   503.465027,   -315.172333,   0.444926,   733.730957,   684.840088
-0.022034,   0.111363,   0.125407,   0.000000,   803.802673,   0.536500,   10.934303,   27.870760,   480.569183,   496.626251,   -315.102722,   0.444588,   732.659729,   684.172852
-0.022086,   0.111121,   0.124991,   0.000000,   802.331055,   0.536501,   10.934303,   27.156141,   485.072144,   489.504944,   -315.034729,   0.444053,   731.577393,   683.684998
-0.022185,   0.110893,   0.124573,   0.000000,   800.734070,   0.536499,   10.934303,   26.441521,   489.424286,   482.062653,   -314.969086,   0.443309,   730.481995,   683.381042
-0.022331,   0.110680,   0.124154,   0.000000,   799.008179,   0.536501,   10.934303,   25.726900,   493.636841,   474.283966,   -314.899109,   0.442354,   729.371582,   683.254089
-0.022526,   0.110481,   0.123734,   0.000000,   797.150269,   0.536500,   10.934303,   25.012281,   497.721283,   466.157501,   -314.815552,   0.441189,   728.243958,   683.293152
-0.022771,   0.110299,   0.123315,   0.000000,   795.157043,   0.536500,   10.934303,   24.297661,   501.688324,   457.672974,   -314.707855,   0.439814,   727.096741,   683.485657
-0.023068,   0.110134,   0.122895,   0.000000,   793.024597,   0.536500,   10.934303,   23.583042,   505.548126,   448.820160,   -314.564270,   0.438230,   725.927185,   683.817383
-0.023417,   0.109986,   0.122475,   0.000000,   790.747192,   0.536501,   10.934303,   22.868422,   509.309235,   439.585205,   -314.372864,   0.436434,   724.732483,   684.274841
-0.023823,   0.109858,   0.122056,   0.000000,   788.317444,   0.536499,   10.934303,   22.153801,   512.979004,   429.951355,   -314.120911,   0.434425,   723.509094,   684.843689
-0.024286,   0.109749,   0.121637,   0.000000,   785.726196,   0.536501,   10.934303,   21.439182,   516.564270,   419.897491,   -313.794800,   0.432194,   722.253418,   685.510254
-0.024811,   0.109661,   0.121218,   0.000000,   782.962646,   0.536500,   10.934303,   20.724562,   520.070251,   409.398621,   -313.380188,   0.429736,   720.961609,   686.260681
-0.025400,   0.109594,   0.120800,   0.000000,   780.013672,   0.536501,   10.934303,   20.009941,   523.499512,   398.427917,   -312.861237,   0.427038,   719.629211,   687.080261
-0.026058,   0.109549,   0.120380,   0.000000,   776.863037,   0.536499,   10.934303,   19.295322,   526.854187,   386.951630,   -312.219940,   0.424089,   718.250427,   687.952759
-0.026789,   0.109526,   0.119958,   0.000000,   773.493225,   0.536501,   10.934303,   18.580702,   530.134766,   374.936462,   -311.435669,   0.420874,   716.819275,   688.859497
-0.027597,   0.109524,   0.119532,   0.000000,   769.883972,   0.536500,   10.934303,   17.866083,   533.339783,   362.345428,   -310.484924,   0.417377,   715.328552,   689.779236
-0.028488,   0.109541,   0.119100,   0.000000,   766.008911,   0.536500,   10.934303,   17.151463,   536.463318,   349.132050,   -309.341614,   0.413577,   713.769043,   690.689270
-0.029466,   0.109577,   0.118657,   0.000000,   761.840454,   0.536500,   10.934303,   16.436844,   539.499939,   335.250732,   -307.974335,   0.409452,   712.130615,   691.561157
-0.030537,   0.109628,   0.118201,   0.000000,   757.348328,   0.536500,   10.934303,   15.722223,   542.438782,   320.654541,   -306.348938,   0.404978,   710.403198,   692.364197
-0.031706,   0.109690,   0.117726,   0.000000,   752.494812,   0.536501,   10.934303,   15.007604,   545.266602,   305.286621,   -304.424316,   0.400125,   708.572876,   693.061035
-0.032979,   0.109756,   0.117222,   0.000000,   747.234558,   0.536500,   10.934303,   14.292984,   547.961243,   289.085510,   -302.153748,   0.394858,   706.622253,   693.606873
-0.034362,   0.109814,   0.116680,   0.000000,   741.511597,   0.536501,   10.934303,   13.578364,   550.496399,   271.974121,   -299.480865,   0.389135,   704.529480,   693.948608
-0.035856,   0.109850,   0.116083,   0.000000,   735.263428,   0.536500,   10.934303,   12.863744,   552.838440,   253.874466,   -296.339935,   0.382907,   702.269958,   694.021973
-0.037465,   0.109845,   0.115415,   0.000000,   728.403687,   0.536500,   10.934303,   12.149125,   554.935913,   234.671158,   -292.654541,   0.376104,   699.812134,   693.752441
-0.039191,   0.109772,   0.114652,   0.000000,   720.820374,   0.536500,   10.934303,   11.434505,   556.726379,   214.205307,   -288.327026,   0.368629,   697.116821,   693.047180
-0.041030,   0.109601,   0.113769,   0.000000,   712.374451,   0.536500,   10.934303,   10.719885,   558.124817,   192.279327,   -283.239288,   0.360351,   694.141418,   691.791687
-0.042972,   0.109295,   0.112740,   0.000000,   702.886169,   0.536500,   10.934303,   10.005265,   559.025269,   168.627686,   -277.234406,   0.351098,   690.835876,   689.835938
-0.045001,   0.108812,   0.111535,   0.000000,   692.124512,   0.536500,   10.934303,   9.290645,   559.290955,   142.911499,   -270.099792,   0.340640,   687.140930,   686.974548
-0.047088,   0.108096,   0.110119,   -6.309546,   679.813477,   0.536500,   10.934303,   8.576026,   558.741028,   114.762894,   -261.556976,   0.328704,   682.990112,   682.924561
-0.072979,   0.155229,   0.170744,   -0.922173,   788.973145,   0.536220,   11.880316,   49.684025,   165.298096,   622.752869,   -321.974274,   0.332749,   789.434631,   789.433411
-0.067960,   0.153496,   0.169205,   0.000000,   796.440186,   0.536219,   11.880316,   48.981129,   189.571793,   622.557617,   -324.844330,   0.343230,   788.712646,   788.361389
-0.063418,   0.151666,   0.167571,   0.000000,   802.575378,   0.536220,   11.880316,   48.278233,   211.637711,   621.677612,   -326.954620,   0.352656,   787.655457,   786.304199
-0.059313,   0.149801,   0.165895,   0.000000,   807.669128,   0.536220,   11.880316,   47.575333,   231.898453,   620.289673,   -328.462494,   0.361240,   786.355408,   783.512512
-0.055606,   0.147945,   0.164212,   0.000000,   811.928162,   0.536220,   11.880316,   46.872437,   250.617447,   618.521973,   -329.485931,   0.369114,   784.887939,   780.176025
-0.052257,   0.146128,   0.162553,   0.000000,   815.490112,   0.536219,   11.880316,   46.169540,   267.996399,   616.455872,   -330.106049,   0.376384,   783.289185,   776.415161
-0.049232,   0.144373,   0.160939,   0.000000,   818.478882,   0.536220,   11.880316,   45.466640,   284.183899,   614.162476,   -330.401611,   0.383117,   781.611572,   772.351013
-0.046497,   0.142692,   0.159382,   0.000000,   820.988037,   0.536220,   11.880316,   44.763744,   299.310089,   611.690063,   -330.433228,   0.389372,   779.887573,   768.070679
-0.044022,   0.141095,   0.157893,   0.000000,   823.091187,   0.536220,   11.880316,   44.060844,   313.484161,   609.071167,   -330.251556,   0.395196,   778.141418,   763.643311
-0.041781,   0.139584,   0.156475,   0.000000,   824.845703,   0.536219,   11.880316,   43.357948,   326.796051,   606.323364,   -329.901489,   0.400622,   776.392029,   759.127563
-0.039750,   0.138160,   0.155130,   0.000000,   826.298096,   0.536220,   11.880316,   42.655052,   339.319580,   603.459778,   -329.419922,   0.405678,   774.653625,   754.573242
-0.037911,   0.136822,   0.153858,   0.000000,   827.484924,   0.536219,   11.880316,   41.952156,   351.119781,   600.483032,   -328.840088,   0.410384,   772.936584,   750.023376
-0.036246,   0.135569,   0.152658,   0.000000,   828.439331,   0.536220,   11.880316,   41.249256,   362.255920,   597.398621,   -328.187988,   0.414762,   771.249207,   745.513733
-0.034739,   0.134397,   0.151526,   0.000000,   829.186279,   0.536219,   11.880316,   40.546360,   372.777588,   594.203064,   -327.487976,   0.418825,   769.597290,   741.077393
-0.033376,   0.133303,   0.150461,   0.000000,   829.746399,   0.536220,   11.880316,   39.843464,   382.725555,   590.895020,   -326.759186,   0.422587,   767.984253,   736.742676
-0.032145,   0.132282,   0.149456,   0.000000,   830.136414,   0.536220,   11.880316,   39.140564,   392.135498,   587.469177,   -326.019104,   0.426056,   766.412537,   732.536072
-0.031035,   0.131331,   0.148510,   0.000000,   830.371643,   0.536219,   11.880316,   38.437668,   401.040131,   583.921692,   -325.282532,   0.429242,   764.884216,   728.481567
-0.030036,   0.130446,   0.147619,   0.000000,   830.466003,   0.536220,   11.880316,   37.734772,   409.469147,   580.248535,   -324.562439,   0.432153,   763.401489,   724.601257
-0.029141,   0.129624,   0.146779,   0.000000,   830.428955,   0.536220,   11.880316,   37.031872,   417.443329,   576.442688,   -323.871399,   0.434791,   761.965210,   720.917725
-0.028341,   0.128861,   0.145988,   0.000000,   830.270569,   0.536220,   11.880316,   36.328976,   424.992950,   572.496826,   -323.218109,   0.437165,   760.575012,   717.445496
-0.027630,   0.128154,   0.145242,   0.000000,   829.999878,   0.536219,   11.880316,   35.626076,   432.146271,   568.404419,   -322.609192,   0.439283,   759.230042,   714.196594
-0.027002,   0.127499,   0.144537,   0.000000,   829.623474,   0.536220,   11.880316,   34.923180,   438.929657,   564.157227,   -322.049713,   0.441153,   757.928284,   711.179810
-0.026452,   0.126893,   0.143870,   0.000000,   829.146423,   0.536220,   11.880316,   34.220284,   445.364410,   559.745850,   -321.544861,   0.442779,   756.668518,   708.405579
-0.025976,   0.126333,   0.143238,   0.000000,   828.572876,   0.536220,   11.880316,   33.517384,   451.471313,   555.161682,   -321.097809,   0.444166,   755.448669,   705.880066
-0.025569,   0.125815,   0.142637,   0.000000,   827.907043,   0.536219,   11.880316,   32.814487,   457.275970,   550.395264,   -320.709381,   0.445321,   754.266052,   703.605164
-0.025228,   0.125339,   0.142067,   0.000000,   827.151672,   0.536220,   11.880316,   32.111591,   462.803314,   545.434937,   -320.379486,   0.446251,   753.117615,   701.580505
-0.024950,   0.124900,   0.141523,   0.000000,   826.309265,   0.536220,   11.880316,   31.408693,   468.079285,   540.269653,   -320.106201,   0.446963,   752.000305,   699.802979
-0.024734,   0.124499,   0.141004,   0.000000,   825.381348,   0.536220,   11.880316,   30.705795,   473.127594,   534.886841,   -319.887146,   0.447463,   750.910950,   698.268799
-0.024576,   0.124133,   0.140510,   0.000000,   824.365784,   0.536220,   11.880316,   30.002897,   477.957642,   529.269104,   -319.724701,   0.447747,   749.848511,   696.984009
-0.024477,   0.123801,   0.140037,   0.000000,   823.260254,   0.536220,   11.880316,   29.299999,   482.579193,   523.400452,   -319.619415,   0.447812,   748.811218,   695.951843
-0.024434,   0.123503,   0.139587,   0.000000,   822.063293,   0.536220,   11.880316,   28.597103,   487.009033,   517.265137,   -319.568329,   0.447659,   747.796753,   695.168396
-0.024448,   0.123238,   0.139156,   0.000000,   820.771729,   0.536220,   11.880316,   27.894205,   491.260895,   510.844910,   -319.568817,   0.447287,   746.802734,   694.630859
-0.024518,   0.123005,   0.138746,   0.000000,   819.383789,   0.536220,   11.880316,   27.191309,   495.347565,   504.129242,   -319.615204,   0.446697,   745.827026,   694.331604
-0.024644,   0.122806,   0.138354,   0.000000,   817.897095,   0.536220,   11.880316,   26.488411,   499.282440,   497.106659,   -319.700714,   0.445891,   744.867065,   694.260681
-0.024826,   0.122639,   0.137982,   0.000000,   816.306030,   0.536220,   11.880316,   25.785513,   503.077911,   489.753662,   -319.820862,   0.444864,   743.920654,   694.412659
-0.025066,   0.122505,   0.137629,   0.000000,   814.604553,   0.536220,   11.880316,   25.082615,   506.744720,   482.048401,   -319.969788,   0.443613,   742.985474,   694.780273
-0.025365,   0.122406,   0.137296,   0.000000,   812.787048,   0.536220,   11.880316,   24.379717,   510.293121,   473.972687,   -320.139465,   0.442133,   742.059326,   695.352783
-0.025725,   0.122341,   0.136982,   0.000000,   810.847717,   0.536220,   11.880316,   23.676821,   513.732483,   465.510529,   -320.320068,   0.440422,   741.139709,   696.116882
-0.026148,   0.122313,   0.136688,   0.000000,   808.780823,   0.536220,   11.880316,   22.973923,   517.071350,   456.648193,   -320.500244,   0.438480,   740.224243,   697.056885
-0.026636,   0.122321,   0.136414,   0.000000,   806.579529,   0.536220,   11.880316,   22.271025,   520.317078,   447.372009,   -320.667450,   0.436303,   739.309875,   698.155151
-0.027192,   0.122368,   0.136161,   0.000000,   804.236084,   0.536220,   11.880316,   21.568127,   523.477600,   437.665466,   -320.808075,   0.433889,   738.393677,   699.393494
-0.027820,   0.122454,   0.135928,   0.000000,   801.741272,   0.536220,   11.880316,   20.865231,   526.558167,   427.511047,   -320.907806,   0.431234,   737.472168,   700.752747
-0.028523,   0.122580,   0.135716,   0.000000,   799.083679,   0.536220,   11.880316,   20.162333,   529.563171,   416.886780,   -320.951538,   0.428331,   736.541565,   702.214050
-0.029306,   0.122746,   0.135523,   0.000000,   796.249329,   0.536219,   11.880316,   19.459436,   532.496521,   405.764740,   -320.922729,   0.425170,   735.597351,   703.757263
-0.030173,   0.122955,   0.135350,   0.000000,   793.222839,   0.536220,   11.880316,   18.756538,   535.360352,   394.116302,   -320.803040,   0.421741,   734.634521,   705.360901
-0.031131,   0.123205,   0.135195,   0.000000,   789.985596,   0.536220,   11.880316,   18.053640,   538.154785,   381.907928,   -320.572174,   0.418031,   733.647217,   707.001587
-0.032184,   0.123497,   0.135056,   0.000000,   786.514465,   0.536220,   11.880316,   17.350744,   540.877747,   369.097900,   -320.207458,   0.414024,   732.627869,   708.654541
-0.033341,   0.123829,   0.134931,   0.000000,   782.783752,   0.536220,   11.880316,   16.647846,   543.525330,   355.641907,   -319.683075,   0.409698,   731.568420,   710.291504
-0.034607,   0.124199,   0.134815,   0.000000,   778.763550,   0.536220,   11.880316,   15.944948,   546.089355,   341.491882,   -318.969940,   0.405033,   730.459229,   711.880615
-0.035992,   0.124604,   0.134703,   0.000000,   774.415894,   0.536220,   11.880316,   15.242051,   548.558655,   326.586060,   -318.033966,   0.400000,   729.287476,   713.385193
-0.037504,   0.125039,   0.134589,   0.000000,   769.700928,   0.536220,   11.880316,   14.539153,   550.917908,   310.864807,   -316.836761,   0.394567,   728.040588,   714.763428
-0.039149,   0.125498,   0.134465,   0.000000,   764.571045,   0.536220,   11.880316,   13.836256,   553.149719,   294.257965,   -315.331909,   0.388700,   726.702332,   715.964783
-0.040939,   0.125971,   0.134322,   0.000000,   758.968933,   0.536220,   11.880316,   13.133358,   555.224182,   276.684265,   -313.469238,   0.382352,   725.255249,   716.933716
-0.042881,   0.126445,   0.134145,   0.000000,   752.825500,   0.536220,   11.880316,   12.430461,   557.102112,   258.050720,   -311.189667,   0.375468,   723.677673,   717.601807
-0.044985,   0.126902,   0.133918,   0.000000,   746.052979,   0.536220,   11.880316,   11.727564,   558.734741,   238.237015,   -308.420502,   0.367976,   721.941650,   717.884888
-0.047257,   0.127313,   0.133615,   0.000000,   738.536743,   0.536220,   11.880316,   11.024666,   560.052002,   217.085526,   -305.075531,   0.359779,   720.012817,   717.679199
-0.049698,   0.127643,   0.133207,   0.000000,   730.120667,   0.536220,   11.880316,   10.321769,   560.959717,   194.372559,   -301.044281,   0.350740,   717.846985,   716.849854
-0.052306,   0.127845,   0.132657,   0.000000,   720.597168,   0.536220,   11.880316,   9.618871,   561.338806,   169.790222,   -296.176666,   0.340667,   715.389404,   715.214966
-0.055068,   0.127861,   0.131923,   -5.739308,   709.688782,   0.536220,   11.880316,   8.915974,   561.023193,   142.926254,   -290.272400,   0.329298,   712.575745,   712.523682
-0.082952,   0.181671,   0.201164,   0.000000,   819.513489,   0.535738,   12.840565,   49.385132,   202.790192,   622.671021,   -348.421234,   0.336969,   816.555908,   816.507263
-0.077065,   0.178711,   0.198205,   0.000000,   825.298767,   0.535738,   12.840565,   48.692539,   224.988464,   622.513977,   -348.903717,   0.346872,   814.423950,   813.742493
-0.071789,   0.175782,   0.195295,   0.000000,   830.055664,   0.535738,   12.840565,   47.999950,   245.348434,   621.825928,   -348.931824,   0.355925,   812.132751,   810.220825
-0.067055,   0.172927,   0.192468,   0.000000,   833.981934,   0.535738,   12.840565,   47.307358,   264.120575,   620.740417,   -348.594452,   0.364256,   809.742126,   806.134033
-0.062800,   0.170181,   0.189753,   0.000000,   837.230774,   0.535738,   12.840565,   46.614769,   281.495728,   619.356812,   -347.965790,   0.371960,   807.302307,   801.632874
-0.058971,   0.167564,   0.187166,   0.000000,   839.925293,   0.535738,   12.840565,   45.922176,   297.640533,   617.749268,   -347.106110,   0.379114,   804.850769,   796.832947
-0.055519,   0.165085,   0.184715,   0.000000,   842.159668,   0.535738,   12.840565,   45.229588,   312.693939,   615.967407,   -346.065125,   0.385778,   802.413452,   791.821655
-0.052400,   0.162745,   0.182400,   0.000000,   844.006348,   0.535738,   12.840565,   44.536995,   326.771606,   614.042908,   -344.884125,   0.392002,   800.007324,   786.667664
-0.049578,   0.160541,   0.180217,   0.000000,   845.522705,   0.535738,   12.840565,   43.844406,   339.971863,   611.997253,   -343.597107,   0.397825,   797.644409,   781.424988
-0.047020,   0.158468,   0.178160,   0.000000,   846.760376,   0.535738,   12.840565,   43.151814,   352.374664,   609.846069,   -342.238281,   0.403274,   795.340759,   776.149414
-0.044700,   0.156522,   0.176223,   0.000000,   847.738342,   0.535739,   12.840565,   42.459225,   364.042999,   607.583557,   -340.825073,   0.408374,   793.084961,   770.863159
-0.042595,   0.154694,   0.174398,   0.000000,   848.494995,   0.535737,   12.840565,   41.766632,   375.036835,   605.216919,   -339.384705,   0.413144,   790.890320,   765.611938
-0.040683,   0.152980,   0.172680,   0.000000,   849.054321,   0.535738,   12.840565,   41.074043,   385.401550,   602.744324,   -337.938354,   0.417594,   788.760742,   760.431396
-0.038950,   0.151375,   0.171064,   0.000000,   849.436829,   0.535738,   12.840565,   40.381451,   395.178314,   600.160583,   -336.505341,   0.421736,   786.699280,   755.354614
-0.037378,   0.149875,   0.169546,   0.000000,   849.662476,   0.535738,   12.840565,   39.688862,   404.405731,   597.464539,   -335.101196,   0.425580,   784.708984,   750.411133
-0.035955,   0.148476,   0.168119,   0.000000,   849.745972,   0.535738,   12.840565,   38.996269,   413.116119,   594.647705,   -333.741669,   0.429132,   782.791626,   745.630249
-0.034670,   0.147171,   0.166781,   0.000000,   849.699585,   0.535738,   12.840565,   38.303680,   421.335571,   591.702393,   -332.440521,   0.432397,   780.948303,   741.039856
-0.033511,   0.145958,   0.165526,   0.000000,   849.536011,   0.535738,   12.840565,   37.611088,   429.093292,   588.624207,   -331.207611,   0.435380,   779.179199,   736.662231
-0.032470,   0.144831,   0.164349,   0.000000,   849.265869,   0.535738,   12.840565,   36.918499,   436.418488,   585.405640,   -330.051514,   0.438090,   777.483765,   732.516602
-0.031539,   0.143786,   0.163246,   0.000000,   848.898682,   0.535738,   12.840565,   36.225906,   443.341919,   582.038818,   -328.978455,   0.440535,   775.860474,   728.617493
-0.030709,   0.142820,   0.162213,   0.000000,   848.441895,   0.535738,   12.840565,   35.533318,   449.887726,   578.515259,   -327.994476,   0.442719,   774.308167,   724.980408
-0.029976,   0.141928,   0.161247,   0.000000,   847.901672,   0.535738,   12.840565,   34.840725,   456.078857,   574.826660,   -327.103973,   0.444648,   772.824951,   721.617859
-0.029334,   0.141108,   0.160343,   0.000000,   847.283997,   0.535738,   12.840565,   34.148136,   461.941467,   570.964539,   -326.309143,   0.446329,   771.408569,   718.537354
-0.028777,   0.140355,   0.159498,   0.000000,   846.593933,   0.535738,   12.840565,   33.455544,   467.500549,   566.919983,   -325.611023,   0.447768,   770.056641,   715.744507
-0.028302,   0.139668,   0.158709,   0.000000,   845.835144,   0.535738,   12.840565,   32.762955,   472.778961,   562.683716,   -325.009857,   0.448971,   768.766602,   713.243347
-0.027904,   0.139044,   0.157974,   0.000000,   845.010437,   0.535738,   12.840565,   32.070362,   477.796997,   558.245911,   -324.505463,   0.449943,   767.536072,   711.036560
-0.027581,   0.138480,   0.157291,   0.000000,   844.120972,   0.535738,   12.840565,   31.377773,   482.571106,   553.594971,   -324.098206,   0.450686,   766.362976,   709.128723
-0.027331,   0.137975,   0.156657,   0.000000,   843.166504,   0.535738,   12.840565,   30.685183,   487.112396,   548.718750,   -323.789032,   0.451198,   765.245789,   707.524292
-0.027150,   0.137527,   0.156069,   0.000000,   842.146729,   0.535739,   12.840565,   29.992590,   491.435272,   543.605530,   -323.576630,   0.451481,   764.182007,   706.224243
-0.027038,   0.137135,   0.155527,   0.000000,   841.060730,   0.535738,   12.840565,   29.299999,   495.555725,   538.241150,   -323.458954,   0.451537,   763.169434,   705.226013
-0.026994,   0.136797,   0.155029,   0.000000,   839.906311,   0.535737,   12.840565,   28.607409,   499.487152,   532.609863,   -323.434082,   0.451364,   762.205811,   704.528198
-0.027016,   0.136513,   0.154574,   0.000000,   838.680725,   0.535738,   12.840565,   27.914818,   503.242706,   526.695557,   -323.499146,   0.450962,   761.288940,   704.127075
-0.027105,   0.136282,   0.154161,   0.000000,   837.380371,   0.535738,   12.840565,   27.222227,   506.835022,   520.480103,   -323.650909,   0.450330,   760.416626,   704.017639
-0.027260,   0.136103,   0.153790,   0.000000,   836.001282,   0.535738,   12.840565,   26.529636,   510.275787,   513.946960,   -323.884735,   0.449465,   759.586792,   704.192932
-0.027482,   0.135978,   0.153459,   0.000000,   834.539917,   0.535738,   12.840565,   25.837046,   513.576416,   507.082855,   -324.194000,   0.448367,   758.797241,   704.641846
-0.027771,   0.135906,   0.153169,   0.000000,   832.990723,   0.535738,   12.840565,   25.144455,   516.747681,   499.869537,   -324.572449,   0.447034,   758.045593,   705.353882
-0.028130,   0.135888,   0.152920,   0.000000,   831.347351,   0.535738,   12.840565,   24.451864,   519.799561,   492.286652,   -325.013275,   0.445463,   757.329651,   706.317749
-0.028560,   0.135924,   0.152711,   0.000000,   829.602661,   0.535738,   12.840565,   23.759274,   522.741089,   484.313629,   -325.508728,   0.443648,   756.647278,   707.520386
-0.029064,   0.136015,   0.152544,   0.000000,   827.749146,   0.535738,   12.840565,   23.066683,   525.581116,   475.930634,   -326.049561,   0.441586,   755.996216,   708.946655
-0.029643,   0.136164,   0.152419,   0.000000,   825.779114,   0.535738,   12.840565,   22.374092,   528.327332,   467.120148,   -326.624786,   0.439274,   755.374023,   710.578247
-0.030301,   0.136370,   0.152336,   0.000000,   823.684448,   0.535739,   12.840565,   21.681501,   530.987610,   457.864960,   -327.221985,   0.436708,   754.778259,   712.394836
-0.031043,   0.136636,   0.152297,   0.000000,   821.456238,   0.535738,   12.840565,   20.988911,   533.568237,   448.147980,   -327.827667,   0.433885,   754.206238,   714.374512
-0.031872,   0.136964,   0.152301,   0.000000,   819.084656,   0.535738,   12.840565,   20.296320,   536.074402,   437.952362,   -328.427063,   0.430801,   753.655090,   716.493835
-0.032793,   0.137354,   0.152350,   0.000000,   816.557922,   0.535737,   12.840565,   19.603729,   538.511414,   427.256714,   -329.004333,   0.427451,   753.121338,   718.728333
-0.033812,   0.137808,   0.152443,   0.000000,   813.862610,   0.535738,   12.840565,   18.911140,   540.882690,   416.036835,   -329.542816,   0.423827,   752.601501,   721.053345
-0.034936,   0.138329,   0.152582,   0.000000,   810.982971,   0.535738,   12.840565,   18.218550,   543.190063,   404.265167,   -330.024475,   0.419920,   752.091370,   723.442993
-0.036171,   0.138917,   0.152765,   0.000000,   807.899780,   0.535738,   12.840565,   17.525959,   545.433472,   391.907257,   -330.430084,   0.415717,   751.586182,   725.870667
-0.037527,   0.139574,   0.152992,   0.000000,   804.592163,   0.535738,   12.840565,   16.833368,   547.611450,   378.927856,   -330.737854,   0.411203,   751.080505,   728.306824
-0.039012,   0.140300,   0.153262,   0.000000,   801.033691,   0.535738,   12.840565,   16.140778,   549.721558,   365.281738,   -330.922607,   0.406361,   750.566833,   730.718567
-0.040637,   0.141092,   0.153571,   0.000000,   797.191040,   0.535738,   12.840565,   15.448186,   551.755005,   350.911621,   -330.957794,   0.401166,   750.036316,   733.072144
-0.042412,   0.141951,   0.153915,   0.000000,   793.027588,   0.535738,   12.840565,   14.755594,   553.698975,   335.759735,   -330.813080,   0.395590,   749.479309,   735.328064
-0.044350,   0.142871,   0.154290,   0.000000,   788.500183,   0.535738,   12.840565,   14.063004,   555.539124,   319.757599,   -330.452393,   0.389601,   748.883911,   737.440186
-0.046468,   0.143848,   0.154687,   0.000000,   783.553772,   0.535738,   12.840565,   13.370413,   557.246399,   302.820923,   -329.838440,   0.383153,   748.236816,   739.358521
-0.048779,   0.144872,   0.155096,   0.000000,   778.117859,   0.535738,   12.840565,   12.677823,   558.784790,   284.856964,   -328.920105,   0.376199,   747.512878,   741.010559
-0.051298,   0.145929,   0.155502,   0.000000,   772.129700,   0.535738,   12.840565,   11.985232,   560.123962,   265.758789,   -327.648468,   0.368678,   746.705627,   742.333923
-0.054041,   0.146999,   0.155887,   0.000000,   765.487732,   0.535738,   12.840565,   11.292642,   561.199097,   245.397751,   -325.957764,   0.360514,   745.783386,   743.227783
-0.057026,   0.148054,   0.156225,   0.000000,   758.072144,   0.535738,   12.840565,   10.600051,   561.933838,   223.610870,   -323.772034,   0.351608,   744.716003,   743.574585
-0.060260,   0.149055,   0.156486,   0.000000,   749.725952,   0.535738,   12.840565,   9.907460,   562.232971,   200.177795,   -320.992889,   0.341828,   743.464722,   743.221252
-0.063752,   0.149949,   0.156628,   -3.499627,   740.224121,   0.535738,   12.840565,   9.214869,   561.955261,   174.769226,   -317.494873,   0.330972,   741.980103,   741.961548
-0.092379,   0.208869,   0.232523,   0.000000,   849.110413,   0.535148,   13.813208,   49.127861,   245.202347,   620.672302,   -371.423737,   0.343252,   840.853577,   840.477478
-0.085769,   0.204707,   0.228142,   0.000000,   853.448425,   0.535147,   13.813208,   48.444141,   265.391022,   620.822021,   -369.861694,   0.352702,   837.546875,   836.103210
-0.079881,   0.200734,   0.223998,   0.000000,   856.993774,   0.535148,   13.813208,   47.760422,   283.947235,   620.562012,   -368.084747,   0.361406,   834.251465,   831.198792
-0.074617,   0.196970,   0.220099,   0.000000,   859.894165,   0.535148,   13.813208,   47.076702,   301.059998,   620.002197,   -366.141846,   0.369459,   831.000305,   825.912598
-0.069897,   0.193421,   0.216441,   0.000000,   862.270508,   0.535148,   13.813208,   46.392986,   316.909180,   619.220337,   -364.074402,   0.376948,   827.815918,   820.353760
-0.065653,   0.190084,   0.213013,   0.000000,   864.212646,   0.535148,   13.813208,   45.709267,   331.644836,   618.262024,   -361.919037,   0.383935,   824.711426,   814.604614
-0.061824,   0.186950,   0.209804,   0.000000,   865.793579,   0.535148,   13.813208,   45.025547,   345.398376,   617.161499,   -359.703979,   0.390477,   821.694946,   808.726990
-0.058359,   0.184010,   0.206800,   0.000000,   867.069824,   0.535147,   13.813208,   44.341827,   358.275940,   615.941284,   -357.453033,   0.396618,   818.771240,   802.770874
-0.055218,   0.181253,   0.203986,   0.000000,   868.080872,   0.535148,   13.813208,   43.658108,   370.355774,   614.607605,   -355.190125,   0.402383,   815.942749,   796.781311
-0.052366,   0.178666,   0.201347,   0.000000,   868.860413,   0.535148,   13.813208,   42.974388,   381.705444,   613.168518,   -352.932831,   0.407797,   813.209473,   790.795166
-0.049775,   0.176239,   0.198871,   0.000000,   869.432861,   0.535150,   13.813208,   42.290668,   392.376099,   611.621155,   -350.700470,   0.412876,   810.571594,   784.849915
-0.047416,   0.173963,   0.196545,   0.000000,   869.821838,   0.535148,   13.813208,   41.606945,   402.416229,   609.965759,   -348.508545,   0.417634,   808.029419,   778.978455
-0.045269,   0.171828,   0.194360,   0.000000,   870.046082,   0.535147,   13.813208,   40.923229,   411.864258,   608.199463,   -346.371735,   0.422081,   805.582581,   773.213318
-0.043316,   0.169827,   0.192307,   0.000000,   870.121521,   0.535148,   13.813208,   40.239510,   420.753601,   606.315979,   -344.304718,   0.426224,   803.231140,   767.586792
-0.041540,   0.167953,   0.190377,   0.000000,   870.065002,   0.535148,   13.813208,   39.555790,   429.120392,   604.313477,   -342.318115,   0.430073,   800.974976,   762.125916
-0.039929,   0.166200,   0.188565,   0.000000,   869.897217,   0.535148,   13.813208,   38.872070,   436.997131,   602.188538,   -340.427826,   0.433633,   798.821716,   756.867188
-0.038469,   0.164563,   0.186863,   0.000000,   869.614441,   0.535148,   13.813208,   38.188351,   444.409454,   599.926208,   -338.633698,   0.436913,   796.753845,   751.815979
-0.037149,   0.163037,   0.185267,   0.000000,   869.237000,   0.535147,   13.813208,   37.504631,   451.392151,   597.524231,   -336.947723,   0.439920,   794.778992,   747.002502
-0.035961,   0.161616,   0.183770,   0.000000,   868.774109,   0.535148,   13.813208,   36.820915,   457.971161,   594.974792,   -335.376740,   0.442658,   792.895935,   742.447144
-0.034896,   0.160296,   0.182368,   0.000000,   868.234375,   0.535148,   13.813208,   36.137192,   464.172943,   592.269043,   -333.926544,   0.445134,   791.103455,   738.167786
-0.033946,   0.159074,   0.181058,   0.000000,   867.625488,   0.535148,   13.813208,   35.453476,   470.022308,   589.400024,   -332.600861,   0.447353,   789.399902,   734.179504
-0.033105,   0.157946,   0.179835,   0.000000,   866.954102,   0.535148,   13.813208,   34.769756,   475.543610,   586.358765,   -331.403015,   0.449321,   787.783630,   730.495605
-0.032366,   0.156910,   0.178696,   0.000000,   866.225586,   0.535148,   13.813208,   34.086037,   480.759827,   583.135864,   -330.335266,   0.451041,   786.252686,   727.126831
-0.031726,   0.155962,   0.177638,   0.000000,   865.444336,   0.535147,   13.813208,   33.402317,   485.689911,   579.722229,   -329.399780,   0.452516,   784.805664,   724.084778
-0.031180,   0.155100,   0.176658,   0.000000,   864.613281,   0.535148,   13.813208,   32.718597,   490.350281,   576.107910,   -328.598389,   0.453750,   783.440979,   721.378845
-0.030723,   0.154321,   0.175755,   0.000000,   863.734680,   0.535148,   13.813208,   32.034878,   494.755524,   572.282776,   -327.932434,   0.454742,   782.157043,   719.018066
-0.030353,   0.153624,   0.174924,   0.000000,   862.809753,   0.535148,   13.813208,   31.351158,   498.919678,   568.235901,   -327.402679,   0.455493,   780.952209,   717.009155
-0.030066,   0.153006,   0.174166,   0.000000,   861.839661,   0.535147,   13.813208,   30.667439,   502.858490,   563.956970,   -327.008087,   0.456007,   779.824646,   715.354187
-0.029861,   0.152466,   0.173476,   0.000000,   860.824341,   0.535149,   13.813208,   29.983719,   506.586609,   559.433777,   -326.747467,   0.456282,   778.772278,   714.054382
-0.029736,   0.152003,   0.172854,   0.000000,   859.762939,   0.535147,   13.813208,   29.299999,   510.117279,   554.654236,   -326.618927,   0.456322,   777.793030,   713.109009
-0.029690,   0.151615,   0.172299,   0.000000,   858.653992,   0.535148,   13.813208,   28.616280,   513.463501,   549.605347,   -326.620026,   0.456124,   776.885071,   712.515198
-0.029721,   0.151301,   0.171808,   0.000000,   857.494934,   0.535148,   13.813208,   27.932560,   516.637512,   544.272644,   -326.747833,   0.455690,   776.046265,   712.268738
-0.029829,   0.151061,   0.171382,   0.000000,   856.282593,   0.535147,   13.813208,   27.248842,   519.650940,   538.640503,   -326.999054,   0.455018,   775.274658,   712.363525
-0.030015,   0.150894,   0.171019,   0.000000,   855.012634,   0.535148,   13.813208,   26.565123,   522.514709,   532.691406,   -327.370026,   0.454105,   774.568298,   712.792786
-0.030278,   0.150800,   0.170719,   0.000000,   853.680054,   0.535148,   13.813208,   25.881403,   525.239258,   526.407166,   -327.856323,   0.452949,   773.925293,   713.547119
-0.030621,   0.150780,   0.170481,   0.000000,   852.279663,   0.535147,   13.813208,   25.197683,   527.834595,   519.770996,   -328.452118,   0.451548,   773.343689,   714.614868
-0.031043,   0.150834,   0.170306,   0.000000,   850.805481,   0.535148,   13.813208,   24.513964,   530.310120,   512.765381,   -329.150848,   0.449899,   772.821655,   715.982117
-0.031548,   0.150962,   0.170194,   0.000000,   849.250549,   0.535147,   13.813208,   23.830246,   532.675049,   505.371094,   -329.945160,   0.447999,   772.357117,   717.633057
-0.032137,   0.151166,   0.170146,   0.000000,   847.607056,   0.535148,   13.813208,   23.146526,   534.937622,   497.567932,   -330.827057,   0.445844,   771.948120,   719.551270
-0.032814,   0.151447,   0.170161,   0.000000,   845.866089,   0.535148,   13.813208,   22.462807,   537.105469,   489.333954,   -331.787689,   0.443429,   771.592712,   721.718628
-0.033582,   0.151807,   0.170242,   0.000000,   844.018677,   0.535148,   13.813208,   21.779087,   539.186584,   480.648529,   -332.816589,   0.440749,   771.288940,   724.113953
-0.034445,   0.152247,   0.170390,   0.000000,   842.055115,   0.535148,   13.813208,   21.095367,   541.187439,   471.491638,   -333.902039,   0.437801,   771.034729,   726.714172
-0.035409,   0.152771,   0.170606,   0.000000,   839.965332,   0.535148,   13.813208,   20.411648,   543.114197,   461.844147,   -335.030914,   0.434579,   770.828186,   729.494141
-0.036478,   0.153380,   0.170892,   0.000000,   837.738586,   0.535147,   13.813208,   19.727928,   544.973022,   451.686768,   -336.188477,   0.431081,   770.666931,   732.426453
-0.037659,   0.154078,   0.171249,   0.000000,   835.363342,   0.535148,   13.813208,   19.044209,   546.768494,   441.000214,   -337.359100,   0.427301,   770.548767,   735.482727
-0.038961,   0.154866,   0.171681,   0.000000,   832.826172,   0.535147,   13.813208,   18.360491,   548.504028,   429.762573,   -338.526062,   0.423233,   770.471069,   738.633362
-0.040390,   0.155750,   0.172187,   0.000000,   830.103333,   0.535148,   13.813208,   17.676771,   550.176392,   417.944733,   -339.667938,   0.418870,   770.422913,   741.840271
-0.041958,   0.156731,   0.172771,   0.000000,   827.191772,   0.535148,   13.813208,   16.993052,   551.795715,   405.520508,   -340.773529,   0.414199,   770.415955,   745.088440
-0.043675,   0.157812,   0.173433,   0.000000,   824.062805,   0.535147,   13.813208,   16.309332,   553.355408,   392.450714,   -341.819519,   0.409206,   770.439392,   748.338745
-0.045553,   0.158996,   0.174175,   0.000000,   820.690674,   0.535149,   13.813208,   15.625613,   554.850281,   378.690918,   -342.784760,   0.403874,   770.488831,   751.557800
-0.047608,   0.160286,   0.174997,   0.000000,   817.044250,   0.535148,   13.813208,   14.941894,   556.271301,   364.188416,   -343.645996,   0.398178,   770.558960,   754.709229
-0.049855,   0.161681,   0.175898,   0.000000,   813.086060,   0.535148,   13.813208,   14.258174,   557.606689,   348.880920,   -344.376007,   0.392092,   770.642151,   757.751038
-0.052314,   0.163181,   0.176873,   0.000000,   808.765747,   0.535148,   13.813208,   13.574455,   558.831360,   332.684662,   -344.947876,   0.385572,   770.729553,   760.638977
-0.055005,   0.164781,   0.177917,   0.000000,   804.027649,   0.535148,   13.813208,   12.890736,   559.922424,   315.511169,   -345.325073,   0.378578,   770.809204,   763.314880
-0.057951,   0.166474,   0.179023,   0.000000,   798.803467,   0.535148,   13.813208,   12.207016,   560.843262,   297.256958,   -345.467926,   0.371054,   770.867432,   765.711060
-0.061179,   0.168251,   0.180178,   0.000000,   793.011597,   0.535148,   13.813208,   11.523296,   561.542236,   277.804718,   -345.332581,   0.362935,   770.888977,   767.746582
-0.064717,   0.170094,   0.181368,   0.000000,   786.554199,   0.535148,   13.813208,   10.839578,   561.953979,   257.020935,   -344.867065,   0.354141,   770.855347,   769.319153
-0.068594,   0.171975,   0.182570,   0.000000,   779.313477,   0.535148,   13.813208,   10.155858,   562.000549,   234.751938,   -344.006165,   0.344583,   770.741882,   770.297852
-0.072838,   0.173854,   0.183753,   0.000000,   771.130615,   0.535148,   13.813208,   9.472138,   561.570679,   210.786453,   -342.674316,   0.334129,   770.518066,   770.515930
-0.100295,   0.234567,   0.262158,   0.000000,   875.995422,   0.534530,   14.796378,   48.912712,   292.025360,   614.947632,   -390.440918,   0.351162,   860.924744,   859.669434
-0.093208,   0.229345,   0.256500,   0.000000,   879.046265,   0.534527,   14.796378,   48.236412,   309.894012,   615.749084,   -387.112640,   0.360159,   856.698853,   853.840637
-0.086918,   0.224513,   0.251321,   0.000000,   881.566833,   0.534530,   14.796378,   47.560112,   326.362244,   616.296448,   -383.769928,   0.368515,   852.663940,   847.718933
-0.081305,   0.220047,   0.246580,   0.000000,   883.664062,   0.534529,   14.796378,   46.883808,   341.625488,   616.656494,   -380.431854,   0.376320,   848.818481,   841.392029
-0.076273,   0.215915,   0.242228,   0.000000,   885.409973,   0.534529,   14.796378,   46.207512,   355.837341,   616.860596,   -377.115875,   0.383638,   845.153442,   834.921936
-0.071742,   0.212083,   0.238219,   0.000000,   886.852356,   0.534530,   14.796378,   45.531208,   369.112701,   616.919312,   -373.838226,   0.390512,   841.656677,   828.356689
-0.067644,   0.208518,   0.234511,   0.000000,   888.027832,   0.534529,   14.796378,   44.854908,   381.541321,   616.841736,   -370.610443,   0.396980,   838.315674,   821.735779
-0.063928,   0.205192,   0.231068,   0.000000,   888.963440,   0.534527,   14.796378,   44.178608,   393.191040,   616.629944,   -367.444458,   0.403064,   835.119507,   815.095825
-0.060548,   0.202082,   0.227860,   0.000000,   889.682556,   0.534530,   14.796378,   43.502308,   404.119110,   616.285767,   -364.350800,   0.408787,   832.058899,   808.470886
-0.057468,   0.199169,   0.224862,   0.000000,   890.204651,   0.534529,   14.796378,   42.826008,   414.370605,   615.808533,   -361.340607,   0.414162,   829.126831,   801.895630
-0.054660,   0.196436,   0.222053,   0.000000,   890.547424,   0.534529,   14.796378,   42.149708,   423.986908,   615.195740,   -358.424652,   0.419202,   826.317444,   795.403198
-0.052096,   0.193868,   0.219417,   0.000000,   890.729187,   0.534530,   14.796378,   41.473408,   433.007843,   614.450623,   -355.610199,   0.423922,   823.625671,   789.021973
-0.049754,   0.191455,   0.216937,   0.000000,   890.764465,   0.534527,   14.796378,   40.797108,   441.467651,   613.568726,   -352.906708,   0.428329,   821.047485,   782.782349
-0.047617,   0.189186,   0.214602,   0.000000,   890.667297,   0.534530,   14.796378,   40.120808,   449.399994,   612.547546,   -350.321472,   0.432435,   818.578857,   776.711182
-0.045667,   0.187052,   0.212401,   0.000000,   890.450867,   0.534529,   14.796378,   39.444504,   456.838043,   611.382385,   -347.861572,   0.436249,   816.216736,   770.833801
-0.043891,   0.185047,   0.210325,   0.000000,   890.128418,   0.534529,   14.796378,   38.768208,   463.812897,   610.071716,   -345.532227,   0.439779,   813.958435,   765.173279
-0.042277,   0.183165,   0.208368,   0.000000,   889.710876,   0.534530,   14.796378,   38.091904,   470.352356,   608.608826,   -343.340271,   0.443031,   811.802368,   759.754272
-0.040814,   0.181400,   0.206524,   0.000000,   889.209229,   0.534527,   14.796378,   37.415604,   476.487793,   606.987305,   -341.290283,   0.446014,   809.746460,   754.596375
-0.039493,   0.179750,   0.204788,   0.000000,   888.633850,   0.534529,   14.796378,   36.739307,   482.245331,   605.203186,   -339.386139,   0.448734,   807.789490,   749.719177
-0.038305,   0.178211,   0.203158,   0.000000,   887.993530,   0.534530,   14.796378,   36.063004,   487.650909,   603.250000,   -337.631439,   0.451197,   805.930237,   745.140320
-0.037243,   0.176780,   0.201629,   0.000000,   887.296326,   0.534529,   14.796378,   35.386703,   492.727051,   601.121765,   -336.029327,   0.453408,   804.167603,   740.876831
-0.036301,   0.175455,   0.200199,   0.000000,   886.549072,   0.534530,   14.796378,   34.710403,   497.493866,   598.811829,   -334.582855,   0.455371,   802.500854,   736.945374
-0.035473,   0.174234,   0.198866,   0.000000,   885.757263,   0.534529,   14.796378,   34.034103,   501.968903,   596.311951,   -333.295288,   0.457086,   800.929382,   733.361755
-0.034755,   0.173114,   0.197627,   0.000000,   884.925415,   0.534527,   14.796378,   33.357803,   506.168121,   593.613525,   -332.169403,   0.458556,   799.452576,   730.140930
-0.034140,   0.172095,   0.196481,   0.000000,   884.057312,   0.534530,   14.796378,   32.681503,   510.106750,   590.707642,   -331.207306,   0.459782,   798.069702,   727.295349
-0.033627,   0.171174,   0.195427,   0.000000,   883.155884,   0.534529,   14.796378,   32.005203,   513.800110,   587.584595,   -330.410278,   0.460765,   796.779785,   724.834900
-0.033212,   0.170350,   0.194461,   0.000000,   882.223145,   0.534530,   14.796378,   31.328901,   517.263428,   584.233887,   -329.778839,   0.461506,   795.581604,   722.767090
-0.032891,   0.169622,   0.193584,   0.000000,   881.260315,   0.534528,   14.796378,   30.652601,   520.510254,   580.644592,   -329.313110,   0.462006,   794.474060,   721.097229
-0.032662,   0.168989,   0.192793,   0.000000,   880.267822,   0.534530,   14.796378,   29.976301,   523.553711,   576.805725,   -329.012482,   0.462264,   793.455872,   719.828308
-0.032525,   0.168449,   0.192087,   0.000000,   879.245361,   0.534529,   14.796378,   29.300001,   526.406250,   572.705383,   -328.875793,   0.462282,   792.525818,   718.961060
-0.032477,   0.168002,   0.191466,   0.000000,   878.191650,   0.534530,   14.796378,   28.623699,   529.079834,   568.331299,   -328.901093,   0.462059,   791.682434,   718.493286
-0.032517,   0.167647,   0.190929,   0.000000,   877.104858,   0.534529,   14.796378,   27.947399,   531.585632,   563.670349,   -329.086060,   0.461593,   790.924377,   718.421265
-0.032646,   0.167383,   0.190475,   0.000000,   875.981873,   0.534529,   14.796378,   27.271099,   533.934387,   558.708374,   -329.427704,   0.460885,   790.250061,   718.738464
-0.032863,   0.167212,   0.190103,   0.000000,   874.819275,   0.534530,   14.796378,   26.594799,   536.136292,   553.431091,   -329.922302,   0.459932,   789.658020,   719.436218
-0.033169,   0.167131,   0.189813,   0.000000,   873.612244,   0.534530,   14.796378,   25.918497,   538.200867,   547.821472,   -330.566101,   0.458733,   789.146606,   720.504395
-0.033565,   0.167143,   0.189606,   0.000000,   872.355164,   0.534528,   14.796378,   25.242197,   540.137207,   541.861572,   -331.354675,   0.457284,   788.714355,   721.931213
-0.034052,   0.167246,   0.189480,   0.000000,   871.041687,   0.534530,   14.796378,   24.565897,   541.953674,   535.532776,   -332.282928,   0.455582,   788.359680,   723.702698
-0.034633,   0.167442,   0.189438,   0.000000,   869.664734,   0.534529,   14.796378,   23.889597,   543.658508,   528.816101,   -333.344818,   0.453623,   788.081177,   725.802368
-0.035310,   0.167733,   0.189478,   0.000000,   868.216492,   0.534530,   14.796378,   23.213297,   545.259460,   521.691833,   -334.533356,   0.451403,   787.877258,   728.211792
-0.036086,   0.168119,   0.189604,   0.000000,   866.688354,   0.534529,   14.796378,   22.536997,   546.763855,   514.139465,   -335.840759,   0.448919,   787.746338,   730.910583
-0.036965,   0.168602,   0.189815,   0.000000,   865.070740,   0.534529,   14.796378,   21.860695,   548.178650,   506.136566,   -337.258667,   0.446165,   787.687134,   733.877136
-0.037951,   0.169185,   0.190114,   0.000000,   863.353394,   0.534530,   14.796378,   21.184395,   549.510193,   497.660858,   -338.777374,   0.443135,   787.698181,   737.087463
-0.039051,   0.169870,   0.190504,   0.000000,   861.525391,   0.534530,   14.796378,   20.508095,   550.764099,   488.689941,   -340.386292,   0.439825,   787.778259,   740.516113
-0.040269,   0.170661,   0.190986,   0.000000,   859.575256,   0.534528,   14.796378,   19.831795,   551.945862,   479.201141,   -342.073456,   0.436228,   787.926147,   744.135620
-0.041614,   0.171562,   0.191565,   0.000000,   857.490845,   0.534530,   14.796378,   19.155495,   553.059998,   469.172485,   -343.825684,   0.432339,   788.140808,   747.916199
-0.043093,   0.172576,   0.192243,   0.000000,   855.259827,   0.534529,   14.796378,   18.479193,   554.109924,   458.582977,   -345.628693,   0.428152,   788.421448,   751.826965
-0.044716,   0.173710,   0.193026,   0.000000,   852.868713,   0.534530,   14.796378,   17.802893,   555.101501,   447.408844,   -347.466034,   0.423662,   788.766724,   755.834229
-0.046493,   0.174967,   0.193918,   0.000000,   850.303162,   0.534529,   14.796378,   17.126593,   556.036438,   435.627411,   -349.321136,   0.418860,   789.176025,   759.904785
-0.048439,   0.176356,   0.194925,   0.000000,   847.547302,   0.534529,   14.796378,   16.450293,   556.914307,   423.213928,   -351.177002,   0.413740,   789.648987,   764.004211
-0.050566,   0.177881,   0.196052,   0.000000,   844.581177,   0.534530,   14.796378,   15.773993,   557.733826,   410.132355,   -353.016296,   0.408287,   790.185059,   768.099426
-0.052894,   0.179551,   0.197306,   0.000000,   841.382141,   0.534529,   14.796378,   15.097692,   558.489136,   396.345215,   -354.820862,   0.402484,   790.783630,   772.155090
-0.055440,   0.181373,   0.198692,   0.000000,   837.921997,   0.534529,   14.796378,   14.421391,   559.173889,   381.802155,   -356.570557,   0.396312,   791.443115,   776.133057
-0.058230,   0.183352,   0.200216,   0.000000,   834.163513,   0.534530,   14.796378,   13.745091,   559.770752,   366.437195,   -358.246704,   0.389738,   792.162109,   779.995178
-0.061288,   0.185494,   0.201881,   0.000000,   830.062073,   0.534529,   14.796378,   13.068790,   560.260681,   350.172791,   -359.826050,   0.382726,   792.937134,   783.694641
-0.064647,   0.187803,   0.203690,   0.000000,   825.559814,   0.534529,   14.796378,   12.392490,   560.613953,   332.909668,   -361.283295,   0.375227,   793.763123,   787.177002
-0.068341,   0.190278,   0.205642,   0.000000,   820.585144,   0.534529,   14.796378,   11.716190,   560.787720,   314.532013,   -362.589722,   0.367180,   794.632935,   790.375122
-0.072410,   0.192913,   0.207731,   0.000000,   815.049866,   0.534530,   14.796378,   11.039889,   560.723267,   294.906158,   -363.711945,   0.358512,   795.536682,   793.203064
-0.076900,   0.195696,   0.209948,   0.000000,   808.849915,   0.534529,   14.796378,   10.363589,   560.348877,   273.885986,   -364.608154,   0.349142,   796.460938,   795.549988
-0.081863,   0.198602,   0.212274,   0.000000,   801.862732,   0.534529,   14.796378,   9.687288,   559.568298,   251.316772,   -365.231750,   0.338975,   797.389893,   797.275024
-0.105850,   0.255820,   0.286561,   0.000000,   897.024841,   0.533953,   15.788191,   48.740093,   340.543915,   601.456970,   -405.558716,   0.358692,   875.403748,   872.798645
-0.098589,   0.249842,   0.279976,   0.000000,   899.130798,   0.533950,   15.788191,   48.069744,   355.705505,   603.690613,   -400.686523,   0.367347,   870.564026,   865.852234
-0.092150,   0.244486,   0.274152,   0.000000,   901.058289,   0.533951,   15.788191,   47.399399,   369.979523,   605.867615,   -395.941284,   0.375576,   866.089111,   858.779053
-0.086402,   0.239663,   0.268972,   0.000000,   902.805847,   0.533950,   15.788191,   46.729050,   383.437073,   607.948242,   -391.330841,   0.383395,   861.936584,   851.606140
-0.081241,   0.235293,   0.264331,   0.000000,   904.365845,   0.533950,   15.788191,   46.058701,   396.126404,   609.892090,   -386.863251,   0.390808,   858.067383,   844.361389
-0.076584,   0.231308,   0.260144,   0.000000,   905.730225,   0.533951,   15.788191,   45.388355,   408.078674,   611.664429,   -382.547119,   0.397818,   854.447937,   837.077820
-0.072364,   0.227651,   0.256338,   0.000000,   906.896790,   0.533950,   15.788191,   44.718006,   419.321289,   613.245789,   -378.387390,   0.404429,   851.049255,   829.788452
-0.068526,   0.224277,   0.252854,   0.000000,   907.865784,   0.533950,   15.788191,   44.047657,   429.877380,   614.622131,   -374.388916,   0.410648,   847.846680,   822.528687
-0.065025,   0.221145,   0.249643,   0.000000,   908.641785,   0.533951,   15.788191,   43.377312,   439.772736,   615.785950,   -370.555054,   0.416483,   844.819336,   815.332092
-0.061825,   0.218224,   0.246664,   0.000000,   909.232178,   0.533950,   15.788191,   42.706963,   449.034210,   616.733765,   -366.888519,   0.421944,   841.949707,   808.232178
-0.058897,   0.215488,   0.243884,   0.000000,   909.646057,   0.533950,   15.788191,   42.036613,   457.689178,   617.463684,   -363.392090,   0.427043,   839.223328,   801.261047
-0.056213,   0.212917,   0.241277,   0.000000,   909.896362,   0.533951,   15.788191,   41.366264,   465.770142,   617.981995,   -360.065002,   0.431794,   836.628052,   794.445374
-0.053753,   0.210494,   0.238822,   0.000000,   909.995178,   0.533950,   15.788191,   40.695919,   473.308777,   618.289917,   -356.908569,   0.436210,   834.153931,   787.812561
-0.051499,   0.208206,   0.236503,   0.000000,   909.955688,   0.533953,   15.788191,   40.025570,   480.336365,   618.391602,   -353.923096,   0.440305,   831.793213,   781.386719
-0.049435,   0.206043,   0.234306,   0.000000,   909.791382,   0.533950,   15.788191,   39.355221,   486.886078,   618.291870,   -351.107819,   0.444093,   829.539185,   775.189270
-0.047548,   0.203998,   0.232223,   0.000000,   909.514709,   0.533950,   15.788191,   38.684872,   492.988129,   617.992432,   -348.463470,   0.447586,   827.387085,   769.241638
-0.045827,   0.202065,   0.230245,   0.000000,   909.138733,   0.533951,   15.788191,   38.014526,   498.673157,   617.497681,   -345.989319,   0.450796,   825.333008,   763.561890
-0.044262,   0.200241,   0.228367,   0.000000,   908.674805,   0.533950,   15.788191,   37.344177,   503.968658,   616.808533,   -343.686005,   0.453733,   823.374268,   758.169006
-0.042844,   0.198521,   0.226587,   0.000000,   908.133728,   0.533950,   15.788191,   36.673828,   508.899109,   615.925720,   -341.554596,   0.456406,   821.509216,   753.081604
-0.041566,   0.196906,   0.224900,   0.000000,   907.524963,   0.533951,   15.788191,   36.003483,   513.487244,   614.847473,   -339.596802,   0.458820,   819.736694,   748.318604
-0.040420,   0.195392,   0.223306,   0.000000,   906.857483,   0.533950,   15.788191,   35.333134,   517.753113,   613.571960,   -337.814575,   0.460981,   818.056274,   743.898315
-0.039401,   0.193980,   0.221804,   0.000000,   906.138977,   0.533951,   15.788191,   34.662785,   521.715454,   612.095947,   -336.209869,   0.462893,   816.467896,   739.838257
-0.038504,   0.192669,   0.220393,   0.000000,   905.376404,   0.533950,   15.788191,   33.992435,   525.392090,   610.414734,   -334.784729,   0.464559,   814.971375,   736.154602
-0.037724,   0.191458,   0.219073,   0.000000,   904.575806,   0.533950,   15.788191,   33.322090,   528.800049,   608.523071,   -333.540741,   0.465982,   813.566895,   732.861816
-0.037056,   0.190348,   0.217843,   0.000000,   903.742310,   0.533951,   15.788191,   32.651741,   531.955811,   606.414307,   -332.479401,   0.467165,   812.254456,   729.972351
-0.036498,   0.189339,   0.216704,   0.000000,   902.880127,   0.533951,   15.788191,   31.981392,   534.874451,   604.080688,   -331.602020,   0.468108,   811.034241,   727.497498
-0.036047,   0.188430,   0.215656,   0.000000,   901.992432,   0.533951,   15.788191,   31.311045,   537.570129,   601.513855,   -330.909485,   0.468813,   809.906128,   725.446045
-0.035699,   0.187622,   0.214700,   0.000000,   901.081360,   0.533950,   15.788191,   30.640696,   540.055908,   598.703979,   -330.402679,   0.469280,   808.870239,   723.825562
-0.035454,   0.186916,   0.213835,   0.000000,   900.148254,   0.533951,   15.788191,   29.970348,   542.344238,   595.640869,   -330.081757,   0.469509,   807.926270,   722.640564
-0.035308,   0.186310,   0.213061,   0.000000,   899.193542,   0.533951,   15.788191,   29.299999,   544.446777,   592.313416,   -329.946564,   0.469498,   807.074097,   721.893494
-0.035262,   0.185805,   0.212379,   0.000000,   898.216614,   0.533951,   15.788191,   28.629652,   546.374390,   588.709473,   -329.996490,   0.469249,   806.313232,   721.584229
-0.035314,   0.185402,   0.211790,   0.000000,   897.215942,   0.533950,   15.788191,   27.959303,   548.137207,   584.816284,   -330.230347,   0.468757,   805.643311,   721.710144
-0.035464,   0.185101,   0.211292,   0.000000,   896.189331,   0.533951,   15.788191,   27.288956,   549.744934,   580.620605,   -330.646362,   0.468023,   805.063721,   722.265869
-0.035712,   0.184902,   0.210888,   0.000000,   895.133606,   0.533951,   15.788191,   26.618608,   551.206604,   576.108215,   -331.242249,   0.467044,   804.573792,   723.243286
-0.036060,   0.184805,   0.210576,   0.000000,   894.044495,   0.533951,   15.788191,   25.948259,   552.530640,   571.263977,   -332.015106,   0.465818,   804.172791,   724.632080
-0.036507,   0.184812,   0.210358,   0.000000,   892.917114,   0.533951,   15.788191,   25.277912,   553.724854,   566.071655,   -332.961609,   0.464342,   803.859863,   726.420166
-0.037056,   0.184922,   0.210234,   0.000000,   891.745239,   0.533951,   15.788191,   24.607563,   554.796631,   560.513611,   -334.077911,   0.462611,   803.634216,   728.592285
-0.037709,   0.185137,   0.210206,   0.000000,   890.521912,   0.533951,   15.788191,   23.937216,   555.752625,   554.570374,   -335.359894,   0.460622,   803.494934,   731.132935
-0.038468,   0.185459,   0.210273,   0.000000,   889.239197,   0.533951,   15.788191,   23.266867,   556.599182,   548.221741,   -336.802673,   0.458370,   803.441406,   734.023193
-0.039338,   0.185888,   0.210439,   0.000000,   887.888245,   0.533950,   15.788191,   22.596519,   557.342041,   541.446472,   -338.400665,   0.455850,   803.472839,   737.242798
-0.040321,   0.186427,   0.210704,   0.000000,   886.459717,   0.533951,   15.788191,   21.926172,   557.986877,   534.222595,   -340.147491,   0.453055,   803.588745,   740.769409
-0.041422,   0.187079,   0.211072,   0.000000,   884.942993,   0.533951,   15.788191,   21.255823,   558.538574,   526.526672,   -342.036072,   0.449979,   803.788696,   744.578796
-0.042647,   0.187847,   0.211545,   0.000000,   883.327087,   0.533951,   15.788191,   20.585474,   559.001831,   518.334839,   -344.058441,   0.446617,   804.072449,   748.644775
-0.044003,   0.188734,   0.212129,   0.000000,   881.600220,   0.533950,   15.788191,   19.915127,   559.381165,   509.622314,   -346.205688,   0.442960,   804.440308,   752.939819
-0.045497,   0.189747,   0.212826,   0.000000,   879.750183,   0.533951,   15.788191,   19.244780,   559.680847,   500.364441,   -348.467712,   0.439001,   804.892578,   757.433960
-0.047138,   0.190890,   0.213645,   0.000000,   877.764465,   0.533951,   15.788191,   18.574430,   559.904419,   490.537109,   -350.833466,   0.434733,   805.430359,   762.095764
-0.048937,   0.192170,   0.214591,   0.000000,   875.630249,   0.533951,   15.788191,   17.904083,   560.054626,   480.116577,   -353.290924,   0.430149,   806.055237,   766.892639
-0.050904,   0.193596,   0.215674,   0.000000,   873.334167,   0.533951,   15.788191,   17.233734,   560.133057,   469.079102,   -355.827393,   0.425240,   806.769470,   771.790405
-0.053055,   0.195178,   0.216904,   0.000000,   870.863037,   0.533951,   15.788191,   16.563387,   560.141785,   457.401947,   -358.428711,   0.419999,   807.575928,   776.753296
-0.055405,   0.196927,   0.218292,   0.000000,   868.203064,   0.533951,   15.788191,   15.893039,   560.080688,   445.062592,   -361.080383,   0.414418,   808.478333,   781.744934
-0.057974,   0.198856,   0.219851,   0.000000,   865.338440,   0.533950,   15.788191,   15.222691,   559.948120,   432.033478,   -363.767975,   0.408484,   809.481262,   786.729065
-0.060784,   0.200978,   0.221596,   0.000000,   862.251953,   0.533950,   15.788191,   14.552342,   559.741821,   418.284149,   -366.476135,   0.402187,   810.589661,   791.667847
-0.063863,   0.203310,   0.223544,   0.000000,   858.920776,   0.533951,   15.788191,   13.881994,   559.452820,   403.772705,   -369.191345,   0.395506,   811.809570,   796.524963
-0.067242,   0.205868,   0.225712,   0.000000,   855.317078,   0.533950,   15.788191,   13.211646,   559.072144,   388.446075,   -371.898041,   0.388416,   813.146423,   801.259583
-0.070957,   0.208670,   0.228117,   0.000000,   851.403687,   0.533951,   15.788191,   12.541299,   558.583557,   372.233337,   -374.580750,   0.380887,   814.605469,   805.827637
-0.075053,   0.211732,   0.230777,   0.000000,   847.129883,   0.533951,   15.788191,   11.870951,   557.960022,   355.039246,   -377.223785,   0.372870,   816.191101,   810.178711
-0.079581,   0.215067,   0.233707,   0.000000,   842.427307,   0.533951,   15.788191,   11.200602,   557.160095,   336.740814,   -379.810211,   0.364305,   817.906250,   814.250122
-0.084602,   0.218684,   0.236920,   0.000000,   837.205627,   0.533950,   15.788191,   10.530254,   556.125427,   317.182739,   -382.319427,   0.355111,   819.750854,   817.959290
-0.090189,   0.222584,   0.240420,   0.000000,   831.348267,   0.533951,   15.788191,   9.859906,   554.771240,   296.179657,   -384.727631,   0.345190,   821.722351,   821.195984
-0.108762,   0.270204,   0.302785,   0.000000,   909.010010,   0.533467,   16.786739,   48.610340,   386.730255,   575.549500,   -417.324432,   0.363023,   883.580322,   879.956604
-0.101573,   0.263853,   0.295741,   0.000000,   910.900208,   0.533467,   16.786739,   47.944466,   399.345398,   580.580627,   -411.067596,   0.371850,   878.423645,   872.290771
-0.095188,   0.258335,   0.289715,   0.000000,   912.902588,   0.533465,   16.786739,   47.278591,   411.658173,   585.638611,   -405.017609,   0.380458,   873.767639,   864.526794
-0.089479,   0.253502,   0.284519,   0.000000,   914.898621,   0.533467,   16.786739,   46.612720,   423.545532,   590.575745,   -399.195526,   0.388756,   869.543579,   856.668335
-0.084344,   0.249232,   0.280001,   0.000000,   916.808289,   0.533465,   16.786739,   45.946846,   434.927826,   595.289429,   -393.616119,   0.396683,   865.693237,   848.739136
-0.079704,   0.245429,   0.276041,   0.000000,   918.578979,   0.533467,   16.786739,   45.280972,   445.753113,   599.711243,   -388.289703,   0.404200,   862.167542,   840.775940
-0.075492,   0.242014,   0.272538,   0.000000,   920.180237,   0.533467,   16.786739,   44.615097,   455.993317,   603.803162,   -383.220673,   0.411288,   858.925049,   832.820312
-0.071655,   0.238924,   0.269413,   0.000000,   921.595398,   0.533465,   16.786739,   43.949223,   465.637238,   607.543274,   -378.410645,   0.417939,   855.929871,   824.915894
-0.068150,   0.236104,   0.266598,   0.000000,   922.817566,   0.533467,   16.786739,   43.283348,   474.685638,   610.922241,   -373.858582,   0.424156,   853.151306,   817.105042
-0.064939,   0.233513,   0.264040,   0.000000,   923.846802,   0.533465,   16.786739,   42.617477,   483.148468,   613.939758,   -369.561249,   0.429946,   850.562744,   809.427551
-0.061994,   0.231113,   0.261693,   0.000000,   924.687622,   0.533467,   16.786739,   41.951603,   491.041962,   616.599976,   -365.514557,   0.435321,   848.141479,   801.920654
-0.059289,   0.228878,   0.259521,   0.000000,   925.349121,   0.533465,   16.786739,   41.285728,   498.388519,   618.915283,   -361.711456,   0.440299,   845.867920,   794.615234
-0.056803,   0.226783,   0.257494,   0.000000,   925.840942,   0.533467,   16.786739,   40.619858,   505.212219,   620.895691,   -358.146240,   0.444895,   843.725647,   787.540955
-0.054518,   0.224810,   0.255588,   0.000000,   926.174866,   0.533468,   16.786739,   39.953979,   511.538696,   622.555481,   -354.812042,   0.449128,   841.701050,   780.723022
-0.052421,   0.222945,   0.253786,   0.000000,   926.363220,   0.533465,   16.786739,   39.288105,   517.395081,   623.908203,   -351.702209,   0.453015,   839.782959,   774.184143
-0.050499,   0.221178,   0.252073,   0.000000,   926.418213,   0.533467,   16.786739,   38.622231,   522.807007,   624.967468,   -348.810669,   0.456574,   837.962280,   767.944580
-0.048741,   0.219500,   0.250438,   0.000000,   926.351990,   0.533465,   16.786739,   37.956360,   527.798706,   625.745972,   -346.132202,   0.459818,   836.232117,   762.023804
-0.047137,   0.217905,   0.248874,   0.000000,   926.176086,   0.533467,   16.786739,   37.290485,   532.393982,   626.254456,   -343.662292,   0.462763,   834.586853,   756.439880
-0.045681,   0.216390,   0.247375,   0.000000,   925.901917,   0.533465,   16.786739,   36.624611,   536.615112,   626.503662,   -341.396851,   0.465421,   833.022644,   751.209229
-0.044365,   0.214952,   0.245938,   0.000000,   925.539978,   0.533467,   16.786739,   35.958740,   540.483765,   626.500916,   -339.332947,   0.467803,   831.536560,   746.347839
-0.043183,   0.213591,   0.244561,   0.000000,   925.100159,   0.533465,   16.786739,   35.292866,   544.020874,   626.252625,   -337.467957,   0.469918,   830.126770,   741.869751
-0.042130,   0.212306,   0.243244,   0.000000,   924.591614,   0.533467,   16.786739,   34.626991,   547.246521,   625.762634,   -335.800018,   0.471775,   828.791992,   737.788574
-0.041201,   0.211097,   0.241987,   0.000000,   924.022888,   0.533467,   16.786739,   33.961117,   550.180298,   625.033875,   -334.327423,   0.473381,   827.531799,   734.116333
-0.040392,   0.209967,   0.240792,   0.000000,   923.401428,   0.533465,   16.786739,   33.295242,   552.840271,   624.066772,   -333.049225,   0.474743,   826.346069,   730.863892
-0.039700,   0.208916,   0.239660,   0.000000,   922.733887,   0.533467,   16.786739,   32.629368,   555.243286,   622.860291,   -331.964966,   0.475866,   825.235291,   728.041870
-0.039123,   0.207946,   0.238593,   0.000000,   922.026001,   0.533467,   16.786739,   31.963495,   557.405151,   621.411682,   -331.074402,   0.476752,   824.200012,   725.658875
-0.038656,   0.207060,   0.237593,   0.000000,   921.282471,   0.533466,   16.786739,   31.297621,   559.340332,   619.716431,   -330.377777,   0.477404,   823.241211,   723.723511
-0.038299,   0.206260,   0.236665,   0.000000,   920.507141,   0.533466,   16.786739,   30.631748,   561.062500,   617.768616,   -329.875336,   0.477825,   822.359802,   722.241638
-0.038050,   0.205547,   0.235808,   0.000000,   919.702637,   0.533467,   16.786739,   29.965874,   562.583923,   615.560730,   -329.567566,   0.478013,   821.556763,   721.218262
-0.037908,   0.204923,   0.235027,   0.000000,   918.870728,   0.533466,   16.786739,   29.299999,   563.915955,   613.083740,   -329.454956,   0.477970,   820.833008,   720.656250
-0.037871,   0.204391,   0.234323,   0.000000,   918.012146,   0.533466,   16.786739,   28.634127,   565.069031,   610.327454,   -329.537872,   0.477693,   820.189697,   720.556946
-0.037940,   0.203952,   0.233699,   0.000000,   917.126587,   0.533466,   16.786739,   27.968252,   566.052551,   607.280273,   -329.816620,   0.477181,   819.627563,   720.919128
-0.038114,   0.203608,   0.233157,   0.000000,   916.212708,   0.533467,   16.786739,   27.302378,   566.875061,   603.929443,   -330.291229,   0.476432,   819.147400,   721.739319
-0.038393,   0.203361,   0.232699,   0.000000,   915.268066,   0.533466,   16.786739,   26.636505,   567.544189,   600.260925,   -330.961456,   0.475442,   818.749939,   723.011719
-0.038779,   0.203212,   0.232326,   0.000000,   914.289429,   0.533466,   16.786739,   25.970631,   568.066895,   596.259827,   -331.826813,   0.474208,   818.435974,   724.728943
-0.039273,   0.203164,   0.232042,   0.000000,   913.272583,   0.533467,   16.786739,   25.304758,   568.449341,   591.910095,   -332.886261,   0.472725,   818.206055,   726.879517
-0.039876,   0.203217,   0.231847,   0.000000,   912.212219,   0.533466,   16.786739,   24.638884,   568.696899,   587.194702,   -334.138458,   0.470988,   818.060791,   729.450867
-0.040592,   0.203374,   0.231745,   0.000000,   911.102112,   0.533466,   16.786739,   23.973009,   568.814392,   582.095276,   -335.581604,   0.468993,   818.000977,   732.427734
-0.041421,   0.203637,   0.231738,   0.000000,   909.934998,   0.533466,   16.786739,   23.307137,   568.805847,   576.591797,   -337.213684,   0.466732,   818.027283,   735.793091
-0.042369,   0.204009,   0.231829,   0.000000,   908.702576,   0.533466,   16.786739,   22.641262,   568.674805,   570.662903,   -339.032288,   0.464198,   818.140747,   739.528137
-0.043439,   0.204493,   0.232021,   0.000000,   907.395813,   0.533467,   16.786739,   21.975388,   568.424011,   564.285828,   -341.034607,   0.461384,   818.342590,   743.611633
-0.044635,   0.205092,   0.232318,   0.000000,   906.004517,   0.533467,   16.786739,   21.309513,   568.055969,   557.436523,   -343.217224,   0.458281,   818.634277,   748.020996
-0.045964,   0.205811,   0.232727,   0.000000,   904.518066,   0.533466,   16.786739,   20.643641,   567.572449,   550.090027,   -345.576294,   0.454879,   819.018005,   752.731445
-0.047433,   0.206655,   0.233252,   0.000000,   902.924866,   0.533466,   16.786739,   19.977766,   566.975037,   542.220337,   -348.107178,   0.451170,   819.496216,   757.716309
-0.049048,   0.207631,   0.233902,   0.000000,   901.212708,   0.533466,   16.786739,   19.311893,   566.264709,   533.800903,   -350.804596,   0.447142,   820.072021,   762.946655
-0.050820,   0.208746,   0.234686,   0.000000,   899.369141,   0.533466,   16.786739,   18.646019,   565.441772,   524.804871,   -353.662659,   0.442785,   820.749512,   768.392578
-0.052759,   0.210011,   0.235614,   0.000000,   897.381470,   0.533466,   16.786739,   17.980146,   564.507324,   515.205688,   -356.674133,   0.438088,   821.533569,   774.020447
-0.054878,   0.211437,   0.236699,   0.000000,   895.237183,   0.533467,   16.786739,   17.314272,   563.461853,   504.978668,   -359.830719,   0.433042,   822.429871,   779.794983
-0.057191,   0.213036,   0.237958,   0.000000,   892.924072,   0.533466,   16.786739,   16.648397,   562.306213,   494.099792,   -363.123169,   0.427636,   823.445679,   785.679138
-0.059717,   0.214827,   0.239407,   0.000000,   890.430664,   0.533466,   16.786739,   15.982523,   561.041382,   482.547333,   -366.541107,   0.421862,   824.589294,   791.633545
-0.062476,   0.216827,   0.241069,   0.000000,   887.746277,   0.533466,   16.786739,   15.316649,   559.668091,   470.302582,   -370.073181,   0.415711,   825.870422,   797.617310
-0.065493,   0.219058,   0.242969,   0.000000,   884.861267,   0.533466,   16.786739,   14.650777,   558.188477,   457.347809,   -373.707153,   0.409177,   827.300598,   803.588684
-0.068796,   0.221546,   0.245135,   0.000000,   881.766052,   0.533466,   16.786739,   13.984902,   556.603149,   443.664703,   -377.431183,   0.402251,   828.892700,   809.505859
-0.072421,   0.224321,   0.247600,   0.000000,   878.450745,   0.533466,   16.786739,   13.319029,   554.915283,   429.231812,   -381.232544,   0.394925,   830.661438,   815.326477
-0.076409,   0.227416,   0.250402,   0.000000,   874.903931,   0.533466,   16.786739,   12.653154,   553.126953,   414.021301,   -385.099243,   0.387189,   832.622986,   821.008911
-0.080811,   0.230868,   0.253583,   0.000000,   871.109192,   0.533466,   16.786739,   11.987281,   551.237244,   397.992523,   -389.020264,   0.379027,   834.794922,   826.511169
-0.085688,   0.234719,   0.257190,   0.000000,   867.040466,   0.533466,   16.786739,   11.321407,   549.238647,   381.082245,   -392.986542,   0.370411,   837.195862,   831.789673
-0.091114,   0.239010,   0.261272,   0.000000,   862.654419,   0.533466,   16.786739,   10.655534,   547.113586,   363.190491,   -396.990265,   0.361299,   839.843994,   836.794617
-0.097181,   0.243784,   0.265877,   0.000000,   857.878723,   0.533466,   16.786739,   9.989659,   544.822937,   344.161011,   -401.026581,   0.351617,   842.756775,   841.463806
-0.109430,   0.277076,   0.309952,   0.000000,   911.283936,   0.533122,   17.790113,   48.523701,   428.495239,   536.654175,   -425.284607,   0.363283,   885.580688,   881.883667
-0.102423,   0.270673,   0.302879,   0.000000,   913.674805,   0.533123,   17.790113,   47.860813,   439.027588,   545.538391,   -418.013062,   0.372784,   880.372498,   873.916260
-0.096186,   0.265229,   0.296969,   0.000000,   916.264099,   0.533122,   17.790113,   47.197926,   449.557739,   554.338318,   -410.990356,   0.382112,   875.742737,   865.796021
-0.090601,   0.260565,   0.292003,   0.000000,   918.897095,   0.533121,   17.790113,   46.535042,   459.898712,   562.877502,   -404.243042,   0.391143,   871.612610,   857.520081
-0.085573,   0.256544,   0.287808,   0.000000,   921.470642,   0.533122,   17.790113,   45.872154,   469.925201,   571.035767,   -397.790497,   0.399793,   867.916626,   849.115173
-0.081025,   0.253053,   0.284247,   0.000000,   923.918518,   0.533123,   17.790113,   45.209270,   479.554352,   578.736450,   -391.645966,   0.408008,   864.599548,   840.625061
-0.076894,   0.250005,   0.281211,   0.000000,   926.201538,   0.533122,   17.790113,   44.546383,   488.734894,   585.937622,   -385.816162,   0.415759,   861.614136,   832.101135
-0.073130,   0.247327,   0.278608,   0.000000,   928.297913,   0.533121,   17.790113,   43.883495,   497.437500,   592.618530,   -380.303772,   0.423034,   858.919678,   823.597778
-0.069689,   0.244959,   0.276364,   0.000000,   930.198120,   0.533123,   17.790113,   43.220608,   505.648407,   598.774048,   -375.107971,   0.429830,   856.480896,   815.169006
-0.066537,   0.242853,   0.274418,   0.000000,   931.900696,   0.533121,   17.790113,   42.557724,   513.364990,   604.409973,   -370.225037,   0.436154,   854.266846,   806.865601
-0.063645,   0.240967,   0.272718,   0.000000,   933.409058,   0.533122,   17.790113,   41.894836,   520.591248,   609.537964,   -365.649750,   0.442018,   852.250488,   798.735352
-0.060988,   0.239267,   0.271220,   0.000000,   934.730225,   0.533121,   17.790113,   41.231953,   527.336060,   614.176575,   -361.374695,   0.447437,   850.407959,   790.820801
-0.058546,   0.237722,   0.269886,   0.000000,   935.872192,   0.533123,   17.790113,   40.569065,   533.610657,   618.343567,   -357.392700,   0.452429,   848.718445,   783.162659
-0.056302,   0.236309,   0.268687,   0.000000,   936.844177,   0.533121,   17.790113,   39.906178,   539.427734,   622.059143,   -353.695831,   0.457010,   847.163574,   775.796875
-0.054240,   0.235007,   0.267594,   0.000000,   937.655701,   0.533122,   17.790113,   39.243294,   544.801331,   625.343201,   -350.276093,   0.461198,   845.727417,   768.756042
-0.052350,   0.233799,   0.266587,   0.000000,   938.316589,   0.533123,   17.790113,   38.580406,   549.746155,   628.215820,   -347.125336,   0.465012,   844.396057,   762.069702
-0.050620,   0.232669,   0.265646,   0.000000,   938.836487,   0.533120,   17.790113,   37.917519,   554.277954,   630.696289,   -344.235291,   0.468467,   843.157532,   755.762512
-0.049043,   0.231607,   0.264757,   0.000000,   939.224792,   0.533123,   17.790113,   37.254635,   558.413269,   632.802673,   -341.597809,   0.471581,   842.001404,   749.856567
-0.047609,   0.230603,   0.263907,   0.000000,   939.490784,   0.533121,   17.790113,   36.591747,   562.169250,   634.552429,   -339.204651,   0.474371,   840.918884,   744.369507
-0.046313,   0.229650,   0.263086,   0.000000,   939.643372,   0.533123,   17.790113,   35.928864,   565.563660,   635.961365,   -337.047882,   0.476851,   839.902588,   739.315735
-0.045149,   0.228742,   0.262288,   0.000000,   939.691040,   0.533120,   17.790113,   35.265976,   568.614197,   637.043701,   -335.120026,   0.479037,   838.946350,   734.706665
-0.044112,   0.227877,   0.261508,   0.000000,   939.641846,   0.533123,   17.790113,   34.603092,   571.338135,   637.811829,   -333.414337,   0.480940,   838.045532,   730.552612
-0.043199,   0.227051,   0.260742,   0.000000,   939.503296,   0.533123,   17.790113,   33.940201,   573.752502,   638.276184,   -331.924744,   0.482574,   837.196472,   726.860535
-0.042405,   0.226264,   0.259989,   0.000000,   939.282227,   0.533120,   17.790113,   33.277317,   575.873535,   638.445129,   -330.646088,   0.483948,   836.396667,   723.637329
-0.041728,   0.225517,   0.259249,   0.000000,   938.985291,   0.533123,   17.790113,   32.614429,   577.716858,   638.325073,   -329.574066,   0.485072,   835.644470,   720.887695
-0.041166,   0.224810,   0.258522,   0.000000,   938.618225,   0.533122,   17.790113,   31.951544,   579.297424,   637.920227,   -328.705078,   0.485951,   834.939087,   718.616028
-0.040715,   0.224145,   0.257812,   0.000000,   938.186157,   0.533121,   17.790113,   31.288658,   580.629211,   637.232849,   -328.036499,   0.486592,   834.280396,   716.825256
-0.040376,   0.223525,   0.257122,   0.000000,   937.693604,   0.533122,   17.790113,   30.625772,   581.725098,   636.262939,   -327.566498,   0.486999,   833.668945,   715.517639
-0.040146,   0.222953,   0.256453,   0.000000,   937.144409,   0.533122,   17.790113,   29.962887,   582.597107,   635.008728,   -327.294067,   0.487175,   833.105896,   714.694702
-0.040025,   0.222431,   0.255812,   0.000000,   936.541565,   0.533122,   17.790113,   29.300001,   583.256042,   633.466064,   -327.218842,   0.487122,   832.592590,   714.357361
-0.040012,   0.221964,   0.255201,   0.000000,   935.887085,   0.533122,   17.790113,   28.637114,   583.711426,   631.628967,   -327.341278,   0.486839,   832.131042,   714.505981
-0.040108,   0.221556,   0.254625,   0.000000,   935.182373,   0.533122,   17.790113,   27.974228,   583.971863,   629.489624,   -327.662201,   0.486324,   831.723328,   715.138733
-0.040312,   0.221209,   0.254090,   0.000000,   934.427734,   0.533123,   17.790113,   27.311340,   584.044678,   627.037964,   -328.183105,   0.485576,   831.371765,   716.253784
-0.040625,   0.220929,   0.253600,   0.000000,   933.622498,   0.533122,   17.790113,   26.648455,   583.936035,   624.262451,   -328.905823,   0.484590,   831.079224,   717.847778
-0.041049,   0.220718,   0.253160,   0.000000,   932.765198,   0.533121,   17.790113,   25.985569,   583.651001,   621.149658,   -329.832397,   0.483362,   830.848389,   719.915222
-0.041585,   0.220583,   0.252775,   0.000000,   931.853271,   0.533122,   17.790113,   25.322683,   583.193726,   617.684570,   -330.965149,   0.481884,   830.682373,   722.449463
-0.042234,   0.220525,   0.252452,   0.000000,   930.883240,   0.533121,   17.790113,   24.659798,   582.567261,   613.850708,   -332.306335,   0.480151,   830.584412,   725.441162
-0.042999,   0.220551,   0.252195,   0.000000,   929.850525,   0.533122,   17.790113,   23.996910,   581.773560,   609.630188,   -333.858246,   0.478154,   830.558044,   728.879395
-0.043884,   0.220666,   0.252010,   0.000000,   928.750000,   0.533121,   17.790113,   23.334024,   580.814087,   605.004211,   -335.622955,   0.475884,   830.607239,   732.750488
-0.044892,   0.220874,   0.251905,   0.000000,   927.575012,   0.533122,   17.790113,   22.671139,   579.689026,   599.952148,   -337.602417,   0.473332,   830.736084,   737.038635
-0.046026,   0.221181,   0.251887,   0.000000,   926.318176,   0.533123,   17.790113,   22.008251,   578.397949,   594.452148,   -339.798340,   0.470486,   830.949097,   741.725281
-0.047292,   0.221594,   0.251964,   0.000000,   924.971191,   0.533122,   17.790113,   21.345366,   576.939758,   588.480774,   -342.212280,   0.467336,   831.251404,   746.790100
-0.048697,   0.222121,   0.252145,   0.000000,   923.524719,   0.533122,   17.790113,   20.682480,   575.312500,   582.013428,   -344.845459,   0.463868,   831.648743,   752.210266
-0.050246,   0.222770,   0.252440,   0.000000,   921.968445,   0.533122,   17.790113,   20.019594,   573.514099,   575.024292,   -347.698456,   0.460070,   832.147522,   757.959717
-0.051949,   0.223550,   0.252862,   0.000000,   920.291626,   0.533121,   17.790113,   19.356709,   571.542053,   567.486633,   -350.771423,   0.455928,   832.754883,   764.010071
-0.053814,   0.224473,   0.253425,   0.000000,   918.482605,   0.533122,   17.790113,   18.693821,   569.393982,   559.373169,   -354.063599,   0.451428,   833.479004,   770.330139
-0.055852,   0.225554,   0.254144,   0.000000,   916.529663,   0.533121,   17.790113,   18.030935,   567.067993,   550.656799,   -357.573151,   0.446556,   834.328979,   776.884705
-0.058078,   0.226806,   0.255038,   0.000000,   914.420837,   0.533123,   17.790113,   17.368050,   564.562317,   541.310547,   -361.297394,   0.441300,   835.315247,   783.636719
-0.060507,   0.228248,   0.256129,   0.000000,   912.144714,   0.533122,   17.790113,   16.705162,   561.876465,   531.309814,   -365.231934,   0.435645,   836.449585,   790.544250
-0.063157,   0.229902,   0.257443,   0.000000,   909.690918,   0.533122,   17.790113,   16.042276,   559.011230,   520.632202,   -369.371063,   0.429583,   837.745300,   797.563477
-0.066050,   0.231793,   0.259010,   0.000000,   907.050720,   0.533122,   17.790113,   15.379390,   555.969299,   509.259186,   -373.707367,   0.423104,   839.217407,   804.647095
-0.069212,   0.233950,   0.260864,   0.000000,   904.218384,   0.533122,   17.790113,   14.716504,   552.756592,   497.178497,   -378.231354,   0.416203,   840.883179,   811.745544
-0.072673,   0.236408,   0.263046,   0.000000,   901.191895,   0.533122,   17.790113,   14.053617,   549.381897,   484.384277,   -382.932251,   0.408880,   842.762146,   818.807922
-0.076471,   0.239209,   0.265606,   0.000000,   897.974548,   0.533122,   17.790113,   13.390732,   545.859985,   470.877960,   -387.797516,   0.401139,   844.876587,   825.783569
-0.080651,   0.242402,   0.268601,   0.000000,   894.575317,   0.533122,   17.790113,   12.727845,   542.210327,   456.669098,   -392.813995,   0.392988,   847.252319,   832.623962
-0.085267,   0.246045,   0.272099,   0.000000,   891.010376,   0.533122,   17.790113,   12.064960,   538.458374,   441.774567,   -397.968567,   0.384442,   849.918762,   839.285522
-0.090387,   0.250208,   0.276181,   0.000000,   887.302734,   0.533122,   17.790113,   11.402073,   534.634949,   426.217468,   -403.249207,   0.375519,   852.909668,   845.730652
-0.096093,   0.254971,   0.280941,   0.000000,   883.481445,   0.533122,   17.790113,   10.739187,   530.778076,   410.020752,   -408.645569,   0.366242,   856.262817,   851.930603
-0.102488,   0.260430,   0.286492,   0.000000,   879.577698,   0.533122,   17.790113,   10.076301,   526.931396,   393.196075,   -414.150543,   0.356630,   860.020081,   857.865356
-0.108456,   0.277267,   0.308994,   0.000000,   906.103638,   0.532940,   18.796381,   48.480339,   466.402008,   490.226471,   -427.623535,   0.361567,   881.927368,   878.662292
-0.101646,   0.271017,   0.302198,   0.000000,   909.095581,   0.532942,   18.796381,   47.818947,   474.840790,   502.543243,   -420.175323,   0.371510,   876.947754,   870.935608
-0.095575,   0.265735,   0.296560,   0.000000,   912.266785,   0.532942,   18.796381,   47.157555,   483.347412,   514.682068,   -412.954956,   0.381268,   872.552307,   862.993408
-0.090133,   0.261248,   0.291872,   0.000000,   915.475586,   0.532939,   18.796381,   46.496166,   491.777008,   526.463135,   -405.985229,   0.390730,   868.664246,   854.828186
-0.085230,   0.257422,   0.287970,   0.000000,   918.624817,   0.532942,   18.796381,   45.834774,   500.025269,   537.761902,   -399.285675,   0.399816,   865.220032,   846.463135
-0.080794,   0.254150,   0.284723,   0.000000,   921.651611,   0.532942,   18.796381,   45.173382,   508.019409,   548.498413,   -392.871704,   0.408474,   862.166382,   837.940491
-0.076764,   0.251346,   0.282025,   0.000000,   924.517639,   0.532939,   18.796381,   44.511990,   515.709656,   558.627136,   -386.754395,   0.416672,   859.458069,   829.312866
-0.073091,   0.248942,   0.279792,   0.000000,   927.202087,   0.532942,   18.796381,   43.850601,   523.063843,   568.126282,   -380.941315,   0.424394,   857.056458,   820.637878
-0.069736,   0.246879,   0.277953,   0.000000,   929.696228,   0.532940,   18.796381,   43.189209,   530.062378,   576.991577,   -375.436707,   0.431636,   854.928101,   811.974487
-0.066664,   0.245111,   0.276448,   0.000000,   931.999146,   0.532942,   18.796381,   42.527821,   536.693726,   585.230530,   -370.242493,   0.438400,   853.043884,   803.380676
-0.063848,   0.243596,   0.275228,   0.000000,   934.114685,   0.532940,   18.796381,   41.866428,   542.952454,   592.857483,   -365.358643,   0.444695,   851.378174,   794.913025
-0.061264,   0.242301,   0.274250,   0.000000,   936.050049,   0.532940,   18.796381,   41.205036,   548.836670,   599.892944,   -360.783203,   0.450531,   849.907959,   786.624451
-0.058892,   0.241195,   0.273476,   0.000000,   937.813232,   0.532942,   18.796381,   40.543648,   554.347168,   606.358398,   -356.513245,   0.455923,   848.612549,   778.565491
-0.056715,   0.240253,   0.272874,   0.000000,   939.413330,   0.532940,   18.796381,   39.882256,   559.486816,   612.276855,   -352.544769,   0.460885,   847.473328,   770.782959
-0.054718,   0.239450,   0.272413,   0.000000,   940.858887,   0.532940,   18.796381,   39.220863,   564.260437,   617.670898,   -348.872589,   0.465434,   846.472778,   763.319275
-0.052891,   0.238767,   0.272069,   0.000000,   942.158447,   0.532942,   18.796381,   38.559475,   568.674377,   622.563232,   -345.490570,   0.469586,   845.595032,   756.213074
-0.051222,   0.238184,   0.271817,   0.000000,   943.320129,   0.532939,   18.796381,   37.898083,   572.736267,   626.975525,   -342.391876,   0.473357,   844.825500,   749.497742
-0.049702,   0.237686,   0.271637,   0.000000,   944.350952,   0.532942,   18.796381,   37.236691,   576.454346,   630.928467,   -339.568939,   0.476764,   844.150513,   743.202759
-0.048325,   0.237257,   0.271510,   0.000000,   945.257446,   0.532942,   18.796381,   36.575302,   579.837341,   634.442017,   -337.013641,   0.479825,   843.557617,   737.352844
-0.047083,   0.236885,   0.271419,   0.000000,   946.045349,   0.532940,   18.796381,   35.913910,   582.894165,   637.534607,   -334.717834,   0.482553,   843.035522,   731.968689
-0.045971,   0.236557,   0.271348,   0.000000,   946.719604,   0.532940,   18.796381,   35.252518,   585.633606,   640.223450,   -332.673218,   0.484965,   842.573914,   727.067261
-0.044984,   0.236263,   0.271286,   0.000000,   947.284729,   0.532942,   18.796381,   34.591129,   588.064575,   642.524414,   -330.871643,   0.487074,   842.163757,   722.662109
-0.044120,   0.235995,   0.271221,   0.000000,   947.744385,   0.532940,   18.796381,   33.929737,   590.195679,   644.451538,   -329.305267,   0.488894,   841.796936,   718.763245
-0.043373,   0.235746,   0.271144,   0.000000,   948.101807,   0.532940,   18.796381,   33.268345,   592.035217,   646.017273,   -327.966797,   0.490435,   841.466431,   715.378296
-0.042742,   0.235510,   0.271046,   0.000000,   948.360107,   0.532940,   18.796381,   32.606956,   593.591492,   647.232361,   -326.849609,   0.491708,   841.166443,   712.512756
-0.042224,   0.235281,   0.270923,   0.000000,   948.521729,   0.532942,   18.796381,   31.945564,   594.872009,   648.105469,   -325.948029,   0.492722,   840.892395,   710.169983
-0.041817,   0.235058,   0.270769,   0.000000,   948.588928,   0.532940,   18.796381,   31.284174,   595.884033,   648.643372,   -325.257233,   0.493484,   840.640564,   708.352722
-0.041520,   0.234837,   0.270583,   0.000000,   948.563965,   0.532941,   18.796381,   30.622782,   596.634277,   648.851135,   -324.773499,   0.494000,   840.408752,   707.061646
-0.041333,   0.234620,   0.270364,   0.000000,   948.448547,   0.532941,   18.796381,   29.961391,   597.128784,   648.731812,   -324.494110,   0.494274,   840.195557,   706.296936
-0.041253,   0.234405,   0.270113,   0.000000,   948.244629,   0.532940,   18.796381,   29.300001,   597.373169,   648.286499,   -324.417542,   0.494309,   840.000793,   706.058716
-0.041282,   0.234196,   0.269832,   0.000000,   947.953552,   0.532941,   18.796381,   28.638609,   597.372131,   647.514465,   -324.543304,   0.494105,   839.825256,   706.345642
-0.041419,   0.233996,   0.269524,   0.000000,   947.576660,   0.532941,   18.796381,   27.977219,   597.130005,   646.412842,   -324.872070,   0.493663,   839.670715,   707.156128
-0.041665,   0.233807,   0.269195,   0.000000,   947.114990,   0.532941,   18.796381,   27.315826,   596.650024,   644.977112,   -325.405487,   0.492979,   839.539917,   708.487976
-0.042021,   0.233636,   0.268850,   0.000000,   946.569031,   0.532940,   18.796381,   26.654436,   595.934814,   643.200439,   -326.146301,   0.492050,   839.436584,   710.338501
-0.042488,   0.233488,   0.268498,   0.000000,   945.938904,   0.532940,   18.796381,   25.993046,   594.986145,   641.074219,   -327.098022,   0.490871,   839.365051,   712.703369
-0.043067,   0.233370,   0.268146,   0.000000,   945.224304,   0.532942,   18.796381,   25.331656,   593.804932,   638.587891,   -328.265076,   0.489435,   839.330688,   715.577637
-0.043761,   0.233288,   0.267804,   0.000000,   944.423950,   0.532940,   18.796381,   24.670263,   592.391174,   635.728943,   -329.652496,   0.487733,   839.339417,   718.954773
-0.044573,   0.233252,   0.267482,   0.000000,   943.536133,   0.532941,   18.796381,   24.008873,   590.744080,   632.483032,   -331.265839,   0.485756,   839.397949,   722.826233
-0.045506,   0.233269,   0.267190,   0.000000,   942.558105,   0.532941,   18.796381,   23.347481,   588.862000,   628.834229,   -333.110962,   0.483493,   839.513611,   727.180603
-0.046563,   0.233350,   0.266942,   0.000000,   941.486389,   0.532940,   18.796381,   22.686090,   586.742554,   624.765076,   -335.193878,   0.480932,   839.694458,   732.005249
-0.047750,   0.233505,   0.266751,   0.000000,   940.316467,   0.532941,   18.796381,   22.024700,   584.382507,   620.256714,   -337.520569,   0.478060,   839.949158,   737.282654
-0.049070,   0.233745,   0.266629,   0.000000,   939.042969,   0.532940,   18.796381,   21.363308,   581.778320,   615.288940,   -340.096863,   0.474864,   840.287109,   742.993286
-0.050532,   0.234081,   0.266593,   0.000000,   937.659302,   0.532942,   18.796381,   20.701918,   578.925659,   609.840271,   -342.928162,   0.471330,   840.718201,   749.113953
-0.052141,   0.234528,   0.266659,   0.000000,   936.158020,   0.532940,   18.796381,   20.040525,   575.820312,   603.887817,   -346.019470,   0.467441,   841.253296,   755.617126
-0.053907,   0.235100,   0.266846,   0.000000,   934.530579,   0.532940,   18.796381,   19.379135,   572.457703,   597.407715,   -349.375214,   0.463182,   841.903931,   762.472656
-0.055839,   0.235812,   0.267172,   0.000000,   932.767700,   0.532941,   18.796381,   18.717745,   568.833374,   590.375122,   -352.999176,   0.458539,   842.682861,   769.646423
-0.057950,   0.236683,   0.267661,   0.000000,   930.859253,   0.532941,   18.796381,   18.056355,   564.943420,   582.764465,   -356.894073,   0.453494,   843.603394,   777.099976
-0.060252,   0.237732,   0.268338,   0.000000,   928.794739,   0.532941,   18.796381,   17.394962,   560.784851,   574.550415,   -361.061493,   0.448034,   844.680359,   784.791443
-0.062764,   0.238984,   0.269230,   0.000000,   926.563843,   0.532940,   18.796381,   16.733572,   556.356628,   565.707947,   -365.501678,   0.442142,   845.929810,   792.674622
-0.065502,   0.240463,   0.270371,   0.000000,   924.157104,   0.532941,   18.796381,   16.072182,   551.659729,   556.214661,   -370.212891,   0.435809,   847.369263,   800.699280
-0.068491,   0.242201,   0.271797,   0.000000,   921.566650,   0.532941,   18.796381,   15.410790,   546.698486,   546.051086,   -375.191742,   0.429025,   849.018433,   808.812317
-0.071757,   0.244233,   0.273552,   0.000000,   918.787964,   0.532941,   18.796381,   14.749399,   541.481079,   535.203979,   -380.432495,   0.421783,   850.898865,   816.957092
-0.075333,   0.246601,   0.275687,   0.000000,   915.821411,   0.532941,   18.796381,   14.088008,   536.020691,   523.668518,   -385.927368,   0.414086,   853.035461,   825.076050
-0.079257,   0.249356,   0.278263,   0.000000,   912.674927,   0.532940,   18.796381,   13.426618,   530.337952,   511.451843,   -391.666199,   0.405939,   855.456726,   833.111450
-0.083576,   0.252559,   0.281354,   0.000000,   909.367065,   0.532940,   18.796381,   12.765226,   524.461853,   498.577667,   -397.636719,   0.397361,   858.195679,   841.008301
-0.088347,   0.256285,   0.285050,   0.000000,   905.930786,   0.532941,   18.796381,   12.103836,   518.433044,   485.090851,   -403.824860,   0.388380,   861.291138,   848.717896
-0.093641,   0.260627,   0.289462,   0.000000,   902.419189,   0.532940,   18.796381,   11.442445,   512.307129,   471.065918,   -410.214722,   0.379042,   864.788757,   856.201721
-0.099545,   0.265697,   0.294726,   0.000000,   898.912231,   0.532941,   18.796381,   10.781054,   506.161285,   456.615295,   -416.788391,   0.369414,   868.742493,   863.437317
-0.106165,   0.271638,   0.301010,   0.000000,   895.527161,   0.532941,   18.796381,   10.119662,   500.103088,   441.903412,   -423.525360,   0.359593,   873.215698,   870.426025
-0.106165,   0.271638,   0.301010,   0.000000,   895.527039,   0.532941,   19.803617,   48.480339,   500.102966,   441.903412,   -423.525330,   0.359593,   873.215637,   870.426025
-0.099545,   0.265697,   0.294726,   0.000000,   898.912170,   0.532943,   19.803617,   47.818947,   506.161102,   456.615234,   -416.788422,   0.369414,   868.742432,   863.437317
-0.093641,   0.260627,   0.289462,   0.000000,   902.419067,   0.532943,   19.803617,   47.157555,   512.306946,   471.065826,   -410.214752,   0.379042,   864.788757,   856.201721
-0.088347,   0.256285,   0.285050,   0.000000,   905.930725,   0.532940,   19.803617,   46.496166,   518.432983,   485.090851,   -403.824860,   0.388380,   861.291077,   848.717896
-0.083576,   0.252559,   0.281354,   0.000000,   909.366943,   0.532943,   19.803617,   45.834774,   524.461670,   498.577545,   -397.636749,   0.397361,   858.195618,   841.008423
-0.079257,   0.249356,   0.278263,   0.000000,   912.674866,   0.532943,   19.803617,   45.173382,   530.337830,   511.451813,   -391.666199,   0.405939,   855.456726,   833.111450
-0.075333,   0.246601,   0.275686,   0.000000,   915.821350,   0.532940,   19.803617,   44.511990,   536.020630,   523.668518,   -385.927368,   0.414086,   853.035461,   825.075989
-0.071757,   0.244233,   0.273552,   0.000000,   918.787903,   0.532943,   19.803617,   43.850601,   541.480957,   535.203918,   -380.432526,   0.421783,   850.898865,   816.957275
-0.068491,   0.242201,   0.271797,   0.000000,   921.566650,   0.532941,   19.803617,   43.189209,   546.698425,   546.051086,   -375.191742,   0.429025,   849.018372,   808.812256
-0.065502,   0.240463,   0.270371,   0.000000,   924.157043,   0.532943,   19.803617,   42.527821,   551.659668,   556.214600,   -370.212921,   0.435809,   847.369263,   800.699402
-0.062764,   0.238984,   0.269230,   0.000000,   926.563782,   0.532941,   19.803617,   41.866428,   556.356567,   565.707886,   -365.501678,   0.442142,   845.929810,   792.674561
-0.060252,   0.237732,   0.268338,   0.000000,   928.794739,   0.532941,   19.803617,   41.205036,   560.784851,   574.550415,   -361.061493,   0.448034,   844.680359,   784.791443
-0.057950,   0.236683,   0.267661,   0.000000,   930.859192,   0.532943,   19.803617,   40.543648,   564.943359,   582.764465,   -356.894073,   0.453494,   843.603394,   777.100159
-0.055839,   0.235812,   0.267172,   0.000000,   932.767700,   0.532941,   19.803617,   39.882256,   568.833374,   590.375061,   -352.999176,   0.458539,   842.682800,   769.646362
-0.053907,   0.235100,   0.266845,   0.000000,   934.530579,   0.532941,   19.803617,   39.220863,   572.457703,   597.407715,   -349.375214,   0.463182,   841.903931,   762.472656
-0.052141,   0.234528,   0.266659,   0.000000,   936.158020,   0.532943,   19.803617,   38.559475,   575.820312,   603.887817,   -346.019470,   0.467441,   841.253296,   755.617126
-0.050532,   0.234081,   0.266593,   0.000000,   937.659302,   0.532940,   19.803617,   37.898083,   578.925659,   609.840271,   -342.928131,   0.471330,   840.718140,   749.113892
-0.049070,   0.233745,   0.266629,   0.000000,   939.042969,   0.532943,   19.803617,   37.236691,   581.778259,   615.288940,   -340.096863,   0.474864,   840.287048,   742.993469
-0.047750,   0.233505,   0.266751,   0.000000,   940.316467,   0.532943,   19.803617,   36.575302,   584.382507,   620.256714,   -337.520599,   0.478060,   839.949158,   737.282715
-0.046563,   0.233350,   0.266942,   0.000000,   941.486389,   0.532941,   19.803617,   35.913910,   586.742554,   624.765137,   -335.193848,   0.480932,   839.694458,   732.005005
-0.045506,   0.233269,   0.267190,   0.000000,   942.558044,   0.532941,   19.803617,   35.252518,   588.862000,   628.834167,   -333.110962,   0.483493,   839.513611,   727.180847
-0.044573,   0.233252,   0.267482,   0.000000,   943.536072,   0.532943,   19.803617,   34.591129,   590.744080,   632.483032,   -331.265808,   0.485756,   839.397888,   722.826172
-0.043761,   0.233288,   0.267804,   0.000000,   944.423950,   0.532941,   19.803617,   33.929737,   592.391174,   635.729004,   -329.652466,   0.487733,   839.339417,   718.954773
-0.043067,   0.233370,   0.268146,   0.000000,   945.224243,   0.532941,   19.803617,   33.268345,   593.804932,   638.587830,   -328.265076,   0.489435,   839.330688,   715.577576
-0.042488,   0.233488,   0.268498,   0.000000,   945.938965,   0.532941,   19.803617,   32.606956,   594.986145,   641.074280,   -327.098022,   0.490871,   839.365112,   712.703369
-0.042021,   0.233636,   0.268850,   0.000000,   946.569031,   0.532943,   19.803617,   31.945564,   595.934814,   643.200439,   -326.146301,   0.492050,   839.436584,   710.338501
-0.041665,   0.233807,   0.269195,   0.000000,   947.114990,   0.532941,   19.803617,   31.284174,   596.650024,   644.977112,   -325.405487,   0.492979,   839.539917,   708.487976
-0.041419,   0.233996,   0.269524,   0.000000,   947.576660,   0.532942,   19.803617,   30.622782,   597.130005,   646.412842,   -324.872070,   0.493663,   839.670715,   707.156128
-0.041282,   0.234196,   0.269832,   0.000000,   947.953552,   0.532942,   19.803617,   29.961391,   597.372131,   647.514465,   -324.543304,   0.494105,   839.825256,   706.345642
-0.041253,   0.234405,   0.270113,   0.000000,   948.244629,   0.532941,   19.803617,   29.300001,   597.373169,   648.286499,   -324.417542,   0.494309,   840.000793,   706.058716
-0.041333,   0.234620,   0.270364,   0.000000,   948.448547,   0.532942,   19.803617,   28.638609,   597.128784,   648.731812,   -324.494110,   0.494274,   840.195557,   706.296936
-0.041520,   0.234837,   0.270583,   0.000000,   948.563965,   0.532942,   19.803617,   27.977219,   596.634277,   648.851135,   -324.773499,   0.494000,   840.408752,   707.061646
-0.041817,   0.235058,   0.270769,   0.000000,   948.588928,   0.532942,   19.803617,   27.315826,   595.884033,   648.643372,   -325.257233,   0.493484,   840.640564,   708.352722
-0.042224,   0.235281,   0.270923,   0.000000,   948.521667,   0.532941,   19.803617,   26.654436,   594.872009,   648.105408,   -325.948029,   0.492722,   840.892334,   710.170044
-0.042742,   0.235510,   0.271046,   0.000000,   948.360107,   0.532941,   19.803617,   25.993046,   593.591492,   647.232361,   -326.849609,   0.491708,   841.166443,   712.512756
-0.043373,   0.235746,   0.271144,   0.000000,   948.101807,   0.532943,   19.803617,   25.331656,   592.035217,   646.017273,   -327.966797,   0.490435,   841.466431,   715.378296
-0.044120,   0.235995,   0.271221,   0.000000,   947.744324,   0.532941,   19.803617,   24.670263,   590.195618,   644.451477,   -329.305267,   0.488894,   841.796875,   718.763184
-0.044984,   0.236263,   0.271286,   0.000000,   947.284668,   0.532942,   19.803617,   24.008873,   588.064575,   642.524353,   -330.871643,   0.487074,   842.163757,   722.662109
-0.045971,   0.236557,   0.271348,   0.000000,   946.719666,   0.532942,   19.803617,   23.347481,   585.633667,   640.223450,   -332.673248,   0.484965,   842.573975,   727.067261
-0.047083,   0.236885,   0.271419,   0.000000,   946.045349,   0.532941,   19.803617,   22.686090,   582.894165,   637.534607,   -334.717834,   0.482553,   843.035522,   731.968689
-0.048325,   0.237257,   0.271510,   0.000000,   945.257446,   0.532942,   19.803617,   22.024700,   579.837341,   634.442017,   -337.013641,   0.479825,   843.557617,   737.352844
-0.049702,   0.237686,   0.271637,   0.000000,   944.350952,   0.532941,   19.803617,   21.363308,   576.454346,   630.928467,   -339.568939,   0.476764,   844.150513,   743.202759
-0.051222,   0.238184,   0.271817,   0.000000,   943.320129,   0.532943,   19.803617,   20.701918,   572.736267,   626.975464,   -342.391907,   0.473357,   844.825500,   749.497864
-0.052891,   0.238767,   0.272069,   0.000000,   942.158508,   0.532941,   19.803617,   20.040525,   568.674438,   622.563232,   -345.490601,   0.469586,   845.595093,   756.213074
-0.054718,   0.239450,   0.272413,   0.000000,   940.858887,   0.532941,   19.803617,   19.379135,   564.260437,   617.670898,   -348.872589,   0.465434,   846.472778,   763.319275
-0.056715,   0.240253,   0.272874,   0.000000,   939.413269,   0.532942,   19.803617,   18.717745,   559.486816,   612.276733,   -352.544769,   0.460885,   847.473267,   770.782898
-0.058892,   0.241195,   0.273476,   0.000000,   937.813293,   0.532942,   19.803617,   18.056355,   554.347229,   606.358398,   -356.513245,   0.455923,   848.612610,   778.565552
-0.061264,   0.242301,   0.274250,   0.000000,   936.050049,   0.532942,   19.803617,   17.394962,   548.836670,   599.892944,   -360.783203,   0.450531,   849.907959,   786.624451
-0.063848,   0.243596,   0.275228,   0.000000,   934.114685,   0.532941,   19.803617,   16.733572,   542.952454,   592.857483,   -365.358643,   0.444695,   851.378174,   794.913025
-0.066664,   0.245111,   0.276448,   0.000000,   931.999146,   0.532942,   19.803617,   16.072182,   536.693787,   585.230530,   -370.242493,   0.438400,   853.043945,   803.380737
-0.069736,   0.246879,   0.277953,   0.000000,   929.696289,   0.532942,   19.803617,   15.410790,   530.062378,   576.991638,   -375.436707,   0.431636,   854.928101,   811.974548
-0.073091,   0.248942,   0.279792,   0.000000,   927.202148,   0.532942,   19.803617,   14.749399,   523.063904,   568.126343,   -380.941284,   0.424395,   857.056458,   820.637939
-0.076764,   0.251347,   0.282025,   0.000000,   924.517639,   0.532942,   19.803617,   14.088008,   515.709656,   558.627136,   -386.754395,   0.416672,   859.458069,   829.312866
-0.080794,   0.254150,   0.284723,   0.000000,   921.651611,   0.532942,   19.803617,   13.426618,   508.019470,   548.498474,   -392.871674,   0.408474,   862.166382,   837.940491
-0.085230,   0.257422,   0.287970,   0.000000,   918.624939,   0.532942,   19.803617,   12.765226,   500.025360,   537.762085,   -399.285645,   0.399816,   865.220093,   846.463013
-0.090133,   0.261248,   0.291872,   0.000000,   915.475586,   0.532942,   19.803617,   12.103836,   491.777039,   526.463196,   -405.985229,   0.390730,   868.664307,   854.828125
-0.095575,   0.265735,   0.296560,   0.000000,   912.266846,   0.532942,   19.803617,   11.442445,   483.347473,   514.682190,   -412.954926,   0.381268,   872.552307,   862.993408
-0.101646,   0.271018,   0.302198,   0.000000,   909.095703,   0.532942,   19.803617,   10.781054,   474.840881,   502.543427,   -420.175293,   0.371510,   876.947815,   870.935608
-0.108456,   0.277267,   0.308994,   0.000000,   906.103760,   0.532942,   19.803617,   10.119662,   466.402100,   490.226593,   -427.623535,   0.361567,   881.927429,   878.662354
-0.102488,   0.260430,   0.286492,   0.000000,   879.577881,   0.533120,   20.809887,   48.523701,   526.931702,   393.196228,   -414.150513,   0.356630,   860.020142,   857.865295
-0.096093,   0.254971,   0.280942,   0.000000,   883.481628,   0.533122,   20.809887,   47.860813,   530.778198,   410.020966,   -408.645538,   0.366242,   856.262817,   851.930542
-0.090387,   0.250208,   0.276181,   0.000000,   887.302856,   0.533120,   20.809887,   47.197926,   534.635071,   426.217621,   -403.249176,   0.375520,   852.909668,   845.730774
-0.085267,   0.246045,   0.272099,   0.000000,   891.010559,   0.533120,   20.809887,   46.535042,   538.458679,   441.774780,   -397.968475,   0.384442,   849.918823,   839.285461
-0.080651,   0.242402,   0.268601,   0.000000,   894.575378,   0.533120,   20.809887,   45.872154,   542.210388,   456.669189,   -392.813965,   0.392988,   847.252319,   832.623901
-0.076471,   0.239209,   0.265606,   0.000000,   897.974609,   0.533122,   20.809887,   45.209270,   545.860107,   470.878082,   -387.797455,   0.401139,   844.876587,   825.783447
-0.072673,   0.236408,   0.263046,   0.000000,   901.192017,   0.533120,   20.809887,   44.546383,   549.382080,   484.384460,   -382.932159,   0.408880,   842.762085,   818.807739
-0.069212,   0.233950,   0.260864,   0.000000,   904.218384,   0.533120,   20.809887,   43.883495,   552.756653,   497.178528,   -378.231323,   0.416203,   840.883179,   811.745483
-0.066050,   0.231793,   0.259010,   0.000000,   907.050720,   0.533122,   20.809887,   43.220608,   555.969360,   509.259277,   -373.707306,   0.423104,   839.217407,   804.647095
-0.063157,   0.229902,   0.257443,   0.000000,   909.690918,   0.533120,   20.809887,   42.557724,   559.011292,   520.632202,   -369.371063,   0.429583,   837.745300,   797.563354
-0.060507,   0.228248,   0.256129,   0.000000,   912.144775,   0.533120,   20.809887,   41.894836,   561.876587,   531.309937,   -365.231903,   0.435646,   836.449585,   790.544189
-0.058078,   0.226806,   0.255038,   0.000000,   914.420837,   0.533120,   20.809887,   41.231953,   564.562378,   541.310547,   -361.297394,   0.441300,   835.315308,   783.636658
-0.055852,   0.225554,   0.254144,   0.000000,   916.529724,   0.533122,   20.809887,   40.569065,   567.067993,   550.656860,   -357.573151,   0.446556,   834.329041,   776.884766
-0.053814,   0.224473,   0.253425,   0.000000,   918.482666,   0.533120,   20.809887,   39.906178,   569.394104,   559.373291,   -354.063538,   0.451428,   833.479004,   770.330139
-0.051949,   0.223550,   0.252862,   0.000000,   920.291626,   0.533120,   20.809887,   39.243294,   571.542053,   567.486572,   -350.771423,   0.455928,   832.754883,   764.010254
-0.050246,   0.222770,   0.252440,   0.000000,   921.968445,   0.533122,   20.809887,   38.580406,   573.514099,   575.024292,   -347.698456,   0.460070,   832.147522,   757.959717
-0.048697,   0.222121,   0.252145,   0.000000,   923.524719,   0.533119,   20.809887,   37.917519,   575.312561,   582.013489,   -344.845398,   0.463868,   831.648743,   752.210022
-0.047292,   0.221594,   0.251964,   0.000000,   924.971191,   0.533122,   20.809887,   37.254635,   576.939758,   588.480774,   -342.212280,   0.467336,   831.251404,   746.790100
-0.046026,   0.221181,   0.251887,   0.000000,   926.318176,   0.533120,   20.809887,   36.591747,   578.397949,   594.452087,   -339.798340,   0.470486,   830.949036,   741.725159
-0.044892,   0.220874,   0.251905,   0.000000,   927.574951,   0.533122,   20.809887,   35.928864,   579.689026,   599.952148,   -337.602386,   0.473332,   830.736084,   737.038635
-0.043884,   0.220666,   0.252010,   0.000000,   928.750000,   0.533119,   20.809887,   35.265976,   580.814087,   605.004211,   -335.622955,   0.475884,   830.607239,   732.750488
-0.042999,   0.220551,   0.252195,   0.000000,   929.850586,   0.533122,   20.809887,   34.603092,   581.773621,   609.630249,   -333.858246,   0.478154,   830.558105,   728.879517
-0.042234,   0.220525,   0.252452,   0.000000,   930.883240,   0.533122,   20.809887,   33.940201,   582.567200,   613.850708,   -332.306335,   0.480151,   830.584412,   725.441101
-0.041585,   0.220583,   0.252775,   0.000000,   931.853271,   0.533119,   20.809887,   33.277317,   583.193726,   617.684631,   -330.965118,   0.481884,   830.682312,   722.449158
-0.041049,   0.220718,   0.253160,   0.000000,   932.765259,   0.533122,   20.809887,   32.614429,   583.651001,   621.149719,   -329.832397,   0.483362,   830.848389,   719.915161
-0.040625,   0.220929,   0.253600,   0.000000,   933.622498,   0.533121,   20.809887,   31.951544,   583.936035,   624.262451,   -328.905823,   0.484590,   831.079224,   717.847778
-0.040312,   0.221209,   0.254090,   0.000000,   934.427734,   0.533120,   20.809887,   31.288658,   584.044678,   627.038025,   -328.183105,   0.485576,   831.371826,   716.253723
-0.040108,   0.221556,   0.254625,   0.000000,   935.182373,   0.533120,   20.809887,   30.625772,   583.971863,   629.489624,   -327.662201,   0.486324,   831.723328,   715.138733
-0.040012,   0.221964,   0.255201,   0.000000,   935.887085,   0.533121,   20.809887,   29.962887,   583.711426,   631.629028,   -327.341248,   0.486839,   832.131042,   714.505798
-0.040025,   0.222431,   0.255812,   0.000000,   936.541565,   0.533120,   20.809887,   29.300001,   583.256042,   633.466125,   -327.218842,   0.487122,   832.592651,   714.357422
-0.040146,   0.222953,   0.256453,   0.000000,   937.144409,   0.533121,   20.809887,   28.637114,   582.597107,   635.008728,   -327.294067,   0.487175,   833.105896,   714.694702
-0.040376,   0.223525,   0.257122,   0.000000,   937.693665,   0.533120,   20.809887,   27.974228,   581.725159,   636.263000,   -327.566498,   0.486999,   833.669006,   715.517517
-0.040715,   0.224145,   0.257813,   0.000000,   938.186157,   0.533122,   20.809887,   27.311340,   580.629211,   637.232849,   -328.036499,   0.486592,   834.280396,   716.825256
-0.041166,   0.224810,   0.258522,   0.000000,   938.618225,   0.533120,   20.809887,   26.648455,   579.297424,   637.920288,   -328.705078,   0.485951,   834.939087,   718.615967
-0.041728,   0.225517,   0.259249,   0.000000,   938.985291,   0.533120,   20.809887,   25.985569,   577.716858,   638.325073,   -329.574066,   0.485072,   835.644470,   720.887695
-0.042405,   0.226264,   0.259989,   0.000000,   939.282349,   0.533121,   20.809887,   25.322683,   575.873535,   638.445190,   -330.646118,   0.483948,   836.396729,   723.637207
-0.043199,   0.227051,   0.260742,   0.000000,   939.503296,   0.533120,   20.809887,   24.659798,   573.752502,   638.276245,   -331.924744,   0.482574,   837.196533,   726.860352
-0.044112,   0.227877,   0.261508,   0.000000,   939.641846,   0.533121,   20.809887,   23.996910,   571.338135,   637.811829,   -333.414337,   0.480940,   838.045532,   730.552612
-0.045149,   0.228742,   0.262288,   0.000000,   939.691101,   0.533120,   20.809887,   23.334024,   568.614197,   637.043701,   -335.120056,   0.479037,   838.946411,   734.706726
-0.046313,   0.229650,   0.263086,   0.000000,   939.643372,   0.533120,   20.809887,   22.671139,   565.563660,   635.961365,   -337.047882,   0.476851,   839.902588,   739.315735
-0.047609,   0.230603,   0.263907,   0.000000,   939.490784,   0.533122,   20.809887,   22.008251,   562.169250,   634.552429,   -339.204651,   0.474371,   840.918884,   744.369507
-0.049043,   0.231607,   0.264757,   0.000000,   939.224792,   0.533120,   20.809887,   21.345366,   558.413269,   632.802734,   -341.597809,   0.471581,   842.001465,   749.856567
-0.050620,   0.232669,   0.265646,   0.000000,   938.836487,   0.533121,   20.809887,   20.682480,   554.277954,   630.696228,   -344.235352,   0.468467,   843.157593,   755.762756
-0.052350,   0.233799,   0.266587,   0.000000,   938.316650,   0.533120,   20.809887,   20.019594,   549.746216,   628.215820,   -347.125366,   0.465012,   844.396118,   762.069580
-0.054240,   0.235007,   0.267594,   0.000000,   937.655762,   0.533120,   20.809887,   19.356709,   544.801392,   625.343201,   -350.276093,   0.461198,   845.727417,   768.756104
-0.056302,   0.236310,   0.268687,   0.000000,   936.844116,   0.533121,   20.809887,   18.693821,   539.427734,   622.059021,   -353.695862,   0.457010,   847.163574,   775.796753
-0.058546,   0.237722,   0.269886,   0.000000,   935.872131,   0.533120,   20.809887,   18.030935,   533.610596,   618.343567,   -357.392700,   0.452429,   848.718445,   783.162659
-0.060988,   0.239267,   0.271220,   0.000000,   934.730164,   0.533122,   20.809887,   17.368050,   527.335999,   614.176514,   -361.374725,   0.447437,   850.407959,   790.821045
-0.063645,   0.240967,   0.272718,   0.000000,   933.408997,   0.533120,   20.809887,   16.705162,   520.591187,   609.537903,   -365.649780,   0.442018,   852.250488,   798.735229
-0.066537,   0.242853,   0.274418,   0.000000,   931.900696,   0.533121,   20.809887,   16.042276,   513.364929,   604.409912,   -370.225067,   0.436154,   854.266846,   806.865540
-0.069689,   0.244959,   0.276364,   0.000000,   930.198059,   0.533121,   20.809887,   15.379390,   505.648346,   598.773926,   -375.108002,   0.429830,   856.480835,   815.169128
-0.073130,   0.247327,   0.278608,   0.000000,   928.297852,   0.533121,   20.809887,   14.716504,   497.437408,   592.618408,   -380.303833,   0.423034,   858.919678,   823.597961
-0.076894,   0.250005,   0.281211,   0.000000,   926.201477,   0.533121,   20.809887,   14.053617,   488.734772,   585.937500,   -385.816223,   0.415759,   861.614136,   832.101196
-0.081025,   0.253053,   0.284247,   0.000000,   923.918457,   0.533121,   20.809887,   13.390732,   479.554230,   578.736328,   -391.646027,   0.408008,   864.599548,   840.625061
-0.085573,   0.256544,   0.287808,   0.000000,   921.470581,   0.533121,   20.809887,   12.727845,   469.925049,   571.035645,   -397.790558,   0.399793,   867.916626,   849.115173
-0.090601,   0.260565,   0.292003,   0.000000,   918.896973,   0.533121,   20.809887,   12.064960,   459.898560,   562.877258,   -404.243073,   0.391143,   871.612549,   857.520142
-0.096186,   0.265229,   0.296969,   0.000000,   916.263916,   0.533121,   20.809887,   11.402073,   449.557526,   554.338074,   -410.990387,   0.382112,   875.742615,   865.795959
-0.102423,   0.270673,   0.302879,   0.000000,   913.674683,   0.533121,   20.809887,   10.739187,   439.027344,   545.538269,   -418.013092,   0.372784,   880.372437,   873.916260
-0.109430,   0.277076,   0.309951,   0.000000,   911.283691,   0.533121,   20.809887,   10.076301,   428.495026,   536.653809,   -425.284668,   0.363283,   885.580566,   881.883545
-0.097181,   0.243784,   0.265877,   0.000000,   857.878906,   0.533468,   21.813259,   48.610340,   544.823181,   344.161346,   -401.026489,   0.351618,   842.756775,   841.463806
-0.091114,   0.239010,   0.261272,   0.000000,   862.654541,   0.533468,   21.813259,   47.944466,   547.113586,   363.190735,   -396.990295,   0.361299,   839.844116,   836.794678
-0.085688,   0.234719,   0.257190,   0.000000,   867.040588,   0.533466,   21.813259,   47.278591,   549.238770,   381.082458,   -392.986481,   0.370412,   837.195862,   831.789612
-0.080811,   0.230868,   0.253583,   0.000000,   871.109253,   0.533468,   21.813259,   46.612720,   551.237305,   397.992523,   -389.020264,   0.379027,   834.794922,   826.511169
-0.076409,   0.227416,   0.250402,   0.000000,   874.903992,   0.533466,   21.813259,   45.946846,   553.127014,   414.021423,   -385.099213,   0.387189,   832.622986,   821.008911
-0.072421,   0.224321,   0.247600,   0.000000,   878.450745,   0.533468,   21.813259,   45.280972,   554.915344,   429.231873,   -381.232513,   0.394925,   830.661438,   815.326477
-0.068796,   0.221546,   0.245135,   0.000000,   881.765991,   0.533468,   21.813259,   44.615097,   556.603149,   443.664673,   -377.431152,   0.402251,   828.892700,   809.505737
-0.065492,   0.219058,   0.242969,   0.000000,   884.861267,   0.533466,   21.813259,   43.949223,   558.188477,   457.347870,   -373.707123,   0.409177,   827.300537,   803.588562
-0.062476,   0.216827,   0.241069,   0.000000,   887.746277,   0.533468,   21.813259,   43.283348,   559.668152,   470.302551,   -370.073151,   0.415711,   825.870422,   797.617310
-0.059717,   0.214827,   0.239407,   0.000000,   890.430664,   0.533466,   21.813259,   42.617477,   561.041382,   482.547394,   -366.541077,   0.421862,   824.589294,   791.633545
-0.057191,   0.213036,   0.237957,   0.000000,   892.924072,   0.533468,   21.813259,   41.951603,   562.306274,   494.099762,   -363.123169,   0.427636,   823.445740,   785.679138
-0.054878,   0.211437,   0.236699,   0.000000,   895.237183,   0.533466,   21.813259,   41.285728,   563.461914,   504.978699,   -359.830688,   0.433042,   822.429871,   779.794983
-0.052759,   0.210011,   0.235614,   0.000000,   897.381470,   0.533468,   21.813259,   40.619858,   564.507263,   515.205627,   -356.674164,   0.438088,   821.533508,   774.020447
-0.050820,   0.208746,   0.234686,   0.000000,   899.369202,   0.533469,   21.813259,   39.953979,   565.441833,   524.804932,   -353.662628,   0.442785,   820.749512,   768.392395
-0.049048,   0.207631,   0.233902,   0.000000,   901.212769,   0.533466,   21.813259,   39.288105,   566.264709,   533.800964,   -350.804596,   0.447142,   820.072021,   762.946716
-0.047433,   0.206655,   0.233252,   0.000000,   902.924866,   0.533468,   21.813259,   38.622231,   566.975037,   542.220337,   -348.107178,   0.451170,   819.496216,   757.716309
-0.045964,   0.205811,   0.232727,   0.000000,   904.518127,   0.533466,   21.813259,   37.956360,   567.572510,   550.090088,   -345.576263,   0.454879,   819.018005,   752.731445
-0.044635,   0.205092,   0.232318,   0.000000,   906.004517,   0.533468,   21.813259,   37.290485,   568.055908,   557.436523,   -343.217255,   0.458281,   818.634277,   748.020996
-0.043439,   0.204493,   0.232021,   0.000000,   907.395813,   0.533466,   21.813259,   36.624611,   568.424011,   564.285889,   -341.034576,   0.461384,   818.342529,   743.611511
-0.042369,   0.204009,   0.231829,   0.000000,   908.702576,   0.533468,   21.813259,   35.958740,   568.674744,   570.662903,   -339.032288,   0.464198,   818.140747,   739.528015
-0.041421,   0.203637,   0.231738,   0.000000,   909.934998,   0.533466,   21.813259,   35.292866,   568.805847,   576.591858,   -337.213654,   0.466732,   818.027222,   735.793091
-0.040592,   0.203374,   0.231745,   0.000000,   911.102051,   0.533468,   21.813259,   34.626991,   568.814331,   582.095215,   -335.581604,   0.468993,   818.000916,   732.427795
-0.039876,   0.203217,   0.231847,   0.000000,   912.212158,   0.533468,   21.813259,   33.961117,   568.696838,   587.194641,   -334.138458,   0.470988,   818.060791,   729.450928
-0.039273,   0.203164,   0.232042,   0.000000,   913.272583,   0.533466,   21.813259,   33.295242,   568.449280,   591.910156,   -332.886261,   0.472725,   818.206055,   726.879578
-0.038779,   0.203212,   0.232326,   0.000000,   914.289429,   0.533468,   21.813259,   32.629368,   568.066895,   596.259827,   -331.826813,   0.474208,   818.435974,   724.728943
-0.038393,   0.203361,   0.232699,   0.000000,   915.268066,   0.533468,   21.813259,   31.963495,   567.544189,   600.260986,   -330.961456,   0.475442,   818.749939,   723.011841
-0.038114,   0.203608,   0.233157,   0.000000,   916.212646,   0.533467,   21.813259,   31.297621,   566.875061,   603.929443,   -330.291199,   0.476432,   819.147339,   721.739258
-0.037940,   0.203952,   0.233699,   0.000000,   917.126587,   0.533467,   21.813259,   30.631748,   566.052551,   607.280273,   -329.816620,   0.477181,   819.627563,   720.919128
-0.037871,   0.204391,   0.234323,   0.000000,   918.012207,   0.533468,   21.813259,   29.965874,   565.069031,   610.327515,   -329.537872,   0.477693,   820.189697,   720.557007
-0.037908,   0.204923,   0.235027,   0.000000,   918.870789,   0.533467,   21.813259,   29.299999,   563.915955,   613.083801,   -329.454956,   0.477970,   820.833069,   720.656311
-0.038050,   0.205547,   0.235808,   0.000000,   919.702698,   0.533467,   21.813259,   28.634127,   562.583923,   615.560730,   -329.567596,   0.478013,   821.556763,   721.218262
-0.038299,   0.206260,   0.236665,   0.000000,   920.507141,   0.533467,   21.813259,   27.968252,   561.062500,   617.768677,   -329.875336,   0.477825,   822.359802,   722.241577
-0.038656,   0.207060,   0.237593,   0.000000,   921.282471,   0.533468,   21.813259,   27.302378,   559.340332,   619.716431,   -330.377777,   0.477404,   823.241211,   723.723511
-0.039123,   0.207946,   0.238593,   0.000000,   922.026001,   0.533467,   21.813259,   26.636505,   557.405090,   621.411682,   -331.074402,   0.476752,   824.200012,   725.658936
-0.039700,   0.208916,   0.239660,   0.000000,   922.733887,   0.533467,   21.813259,   25.970631,   555.243286,   622.860352,   -331.964935,   0.475866,   825.235291,   728.041748
-0.040392,   0.209967,   0.240792,   0.000000,   923.401428,   0.533468,   21.813259,   25.304758,   552.840271,   624.066833,   -333.049225,   0.474743,   826.346069,   730.863831
-0.041201,   0.211097,   0.241987,   0.000000,   924.022888,   0.533467,   21.813259,   24.638884,   550.180298,   625.033936,   -334.327393,   0.473381,   827.531799,   734.116211
-0.042130,   0.212306,   0.243244,   0.000000,   924.591614,   0.533467,   21.813259,   23.973009,   547.246521,   625.762695,   -335.799988,   0.471775,   828.791992,   737.788513
-0.043183,   0.213591,   0.244561,   0.000000,   925.100159,   0.533467,   21.813259,   23.307137,   544.020874,   626.252625,   -337.467957,   0.469918,   830.126770,   741.869751
-0.044365,   0.214952,   0.245938,   0.000000,   925.539978,   0.533467,   21.813259,   22.641262,   540.483765,   626.500977,   -339.332916,   0.467803,   831.536560,   746.347717
-0.045681,   0.216390,   0.247375,   0.000000,   925.901978,   0.533468,   21.813259,   21.975388,   536.615112,   626.503662,   -341.396881,   0.465421,   833.022644,   751.209290
-0.047137,   0.217905,   0.248874,   0.000000,   926.176147,   0.533468,   21.813259,   21.309513,   532.393982,   626.254578,   -343.662262,   0.462763,   834.586853,   756.439880
-0.048741,   0.219500,   0.250438,   0.000000,   926.351990,   0.533467,   21.813259,   20.643641,   527.798706,   625.745911,   -346.132233,   0.459818,   836.232117,   762.023804
-0.050499,   0.221178,   0.252073,   0.000000,   926.418274,   0.533467,   21.813259,   19.977766,   522.807007,   624.967529,   -348.810699,   0.456574,   837.962341,   767.944519
-0.052421,   0.222945,   0.253786,   0.000000,   926.363220,   0.533467,   21.813259,   19.311893,   517.395020,   623.908203,   -351.702240,   0.453015,   839.782959,   774.184082
-0.054518,   0.224810,   0.255588,   0.000000,   926.174866,   0.533467,   21.813259,   18.646019,   511.538696,   622.555420,   -354.812073,   0.449128,   841.701111,   780.723145
-0.056803,   0.226783,   0.257494,   0.000000,   925.840942,   0.533467,   21.813259,   17.980146,   505.212219,   620.895752,   -358.146210,   0.444895,   843.725586,   787.540955
-0.059289,   0.228878,   0.259521,   0.000000,   925.349121,   0.533468,   21.813259,   17.314272,   498.388489,   618.915161,   -361.711517,   0.440299,   845.867920,   794.615234
-0.061994,   0.231114,   0.261693,   0.000000,   924.687622,   0.533467,   21.813259,   16.648397,   491.041962,   616.599915,   -365.514587,   0.435321,   848.141479,   801.920715
-0.064939,   0.233513,   0.264040,   0.000000,   923.846802,   0.533467,   21.813259,   15.982523,   483.148407,   613.939697,   -369.561310,   0.429946,   850.562744,   809.427612
-0.068150,   0.236104,   0.266598,   0.000000,   922.817566,   0.533467,   21.813259,   15.316649,   474.685638,   610.922119,   -373.858643,   0.424156,   853.151306,   817.105042
-0.071655,   0.238924,   0.269413,   0.000000,   921.595337,   0.533467,   21.813259,   14.650777,   465.637177,   607.543091,   -378.410706,   0.417939,   855.929810,   824.915894
-0.075492,   0.242014,   0.272538,   0.000000,   920.180176,   0.533467,   21.813259,   13.984902,   455.993286,   603.802979,   -383.220734,   0.411288,   858.925049,   832.820435
-0.079704,   0.245429,   0.276041,   0.000000,   918.578857,   0.533467,   21.813259,   13.319029,   445.753052,   599.710999,   -388.289795,   0.404200,   862.167603,   840.776001
-0.084344,   0.249232,   0.280001,   0.000000,   916.808105,   0.533467,   21.813259,   12.653154,   434.927673,   595.289124,   -393.616211,   0.396683,   865.693176,   848.739136
-0.089479,   0.253502,   0.284519,   0.000000,   914.898499,   0.533467,   21.813259,   11.987281,   423.545502,   590.575378,   -399.195618,   0.388756,   869.543518,   856.668396
-0.095188,   0.258335,   0.289715,   0.000000,   912.902405,   0.533467,   21.813259,   11.321407,   411.657990,   585.638245,   -405.017700,   0.380458,   873.767578,   864.526733
-0.101573,   0.263853,   0.295741,   0.000000,   910.899963,   0.533467,   21.813259,   10.655534,   399.345154,   580.580322,   -411.067627,   0.371850,   878.423523,   872.290710
-0.108762,   0.270204,   0.302784,   0.000000,   909.009766,   0.533467,   21.813259,   9.989659,   386.730103,   575.549011,   -417.324524,   0.363023,   883.580200,   879.956543
-0.090189,   0.222584,   0.240420,   0.000000,   831.347717,   0.533953,   22.811810,   48.740093,   554.770813,   296.179016,   -384.727600,   0.345190,   821.722046,   821.195801
-0.084602,   0.218684,   0.236919,   0.000000,   837.205200,   0.533950,   22.811810,   48.069744,   556.124939,   317.182220,   -382.319489,   0.355111,   819.750671,   817.959167
-0.079581,   0.215066,   0.233707,   0.000000,   842.427063,   0.533951,   22.811810,   47.399399,   557.159851,   336.740448,   -379.810211,   0.364304,   817.906067,   814.250000
-0.075053,   0.211732,   0.230777,   0.000000,   847.129578,   0.533950,   22.811810,   46.729050,   557.959778,   355.038849,   -377.223785,   0.372870,   816.190979,   810.178589
-0.070957,   0.208670,   0.228117,   0.000000,   851.403442,   0.533950,   22.811810,   46.058701,   558.583252,   372.233063,   -374.580780,   0.380886,   814.605286,   805.827637
-0.067242,   0.205868,   0.225711,   0.000000,   855.316895,   0.533951,   22.811810,   45.388355,   559.071960,   388.445923,   -371.898041,   0.388416,   813.146301,   801.259460
-0.063863,   0.203310,   0.223544,   0.000000,   858.920593,   0.533950,   22.811810,   44.718006,   559.452576,   403.772491,   -369.191406,   0.395505,   811.809509,   796.524902
-0.060784,   0.200978,   0.221596,   0.000000,   862.251770,   0.533950,   22.811810,   44.047657,   559.741577,   418.283997,   -366.476166,   0.402187,   810.589600,   791.667847
-0.057974,   0.198856,   0.219851,   0.000000,   865.338318,   0.533951,   22.811810,   43.377312,   559.947998,   432.033386,   -363.767975,   0.408484,   809.481201,   786.729004
-0.055405,   0.196927,   0.218292,   0.000000,   868.202942,   0.533950,   22.811810,   42.706963,   560.080505,   445.062469,   -361.080414,   0.414418,   808.478271,   781.744995
-0.053055,   0.195178,   0.216904,   0.000000,   870.862915,   0.533950,   22.811810,   42.036613,   560.141602,   457.401794,   -358.428741,   0.419999,   807.575806,   776.753357
-0.050904,   0.193596,   0.215674,   0.000000,   873.334106,   0.533951,   22.811810,   41.366264,   560.133057,   469.079102,   -355.827332,   0.425240,   806.769348,   771.790283
-0.048937,   0.192170,   0.214591,   0.000000,   875.630127,   0.533950,   22.811810,   40.695919,   560.054382,   480.116486,   -353.290985,   0.430149,   806.055176,   766.892578
-0.047138,   0.190889,   0.213645,   0.000000,   877.764404,   0.533953,   22.811810,   40.025570,   559.904297,   490.536987,   -350.833496,   0.434733,   805.430359,   762.095825
-0.045497,   0.189747,   0.212826,   0.000000,   879.750122,   0.533950,   22.811810,   39.355221,   559.680725,   500.364380,   -348.467743,   0.439001,   804.892578,   757.433899
-0.044003,   0.188734,   0.212128,   0.000000,   881.600159,   0.533950,   22.811810,   38.684872,   559.381104,   509.622253,   -346.205688,   0.442959,   804.440247,   752.939697
-0.042647,   0.187847,   0.211545,   0.000000,   883.327087,   0.533951,   22.811810,   38.014526,   559.001831,   518.334839,   -344.058411,   0.446617,   804.072449,   748.644714
-0.041422,   0.187079,   0.211072,   0.000000,   884.942993,   0.533950,   22.811810,   37.344177,   558.538452,   526.526672,   -342.036102,   0.449979,   803.788635,   744.578735
-0.040321,   0.186427,   0.210704,   0.000000,   886.459656,   0.533950,   22.811810,   36.673828,   557.986816,   534.222534,   -340.147491,   0.453055,   803.588745,   740.769348
-0.039338,   0.185888,   0.210439,   0.000000,   887.888245,   0.533951,   22.811810,   36.003483,   557.342041,   541.446533,   -338.400665,   0.455850,   803.472839,   737.242920
-0.038468,   0.185459,   0.210273,   0.000000,   889.239136,   0.533950,   22.811810,   35.333134,   556.599121,   548.221741,   -336.802673,   0.458370,   803.441406,   734.023315
-0.037709,   0.185137,   0.210206,   0.000000,   890.521912,   0.533951,   22.811810,   34.662785,   555.752625,   554.570435,   -335.359863,   0.460622,   803.494934,   731.132935
-0.037056,   0.184922,   0.210234,   0.000000,   891.745178,   0.533950,   22.811810,   33.992435,   554.796570,   560.513550,   -334.077911,   0.462611,   803.634155,   728.592529
-0.036507,   0.184812,   0.210358,   0.000000,   892.917053,   0.533950,   22.811810,   33.322090,   553.724792,   566.071655,   -332.961578,   0.464342,   803.859802,   726.420105
-0.036060,   0.184805,   0.210576,   0.000000,   894.044495,   0.533951,   22.811810,   32.651741,   552.530640,   571.263977,   -332.015106,   0.465818,   804.172791,   724.632080
-0.035712,   0.184902,   0.210888,   0.000000,   895.133545,   0.533951,   22.811810,   31.981392,   551.206543,   576.108154,   -331.242279,   0.467044,   804.573792,   723.243286
-0.035464,   0.185101,   0.211292,   0.000000,   896.189331,   0.533951,   22.811810,   31.311045,   549.744934,   580.620605,   -330.646362,   0.468023,   805.063721,   722.265869
-0.035314,   0.185402,   0.211790,   0.000000,   897.215942,   0.533950,   22.811810,   30.640696,   548.137146,   584.816284,   -330.230347,   0.468757,   805.643311,   721.710205
-0.035262,   0.185805,   0.212379,   0.000000,   898.216553,   0.533951,   22.811810,   29.970348,   546.374329,   588.709412,   -329.996490,   0.469248,   806.313232,   721.584290
-0.035308,   0.186310,   0.213061,   0.000000,   899.193542,   0.533951,   22.811810,   29.299999,   544.446777,   592.313416,   -329.946564,   0.469498,   807.074097,   721.893494
-0.035454,   0.186916,   0.213835,   0.000000,   900.148254,   0.533951,   22.811810,   28.629652,   542.344238,   595.640930,   -330.081726,   0.469509,   807.926270,   722.640625
-0.035699,   0.187622,   0.214700,   0.000000,   901.081360,   0.533950,   22.811810,   27.959303,   540.055908,   598.703979,   -330.402679,   0.469280,   808.870239,   723.825562
-0.036047,   0.188430,   0.215656,   0.000000,   901.992432,   0.533951,   22.811810,   27.288956,   537.570129,   601.513855,   -330.909485,   0.468813,   809.906128,   725.446045
-0.036498,   0.189339,   0.216704,   0.000000,   902.880127,   0.533951,   22.811810,   26.618608,   534.874451,   604.080750,   -331.601959,   0.468108,   811.034180,   727.497375
-0.037056,   0.190348,   0.217843,   0.000000,   903.742310,   0.533951,   22.811810,   25.948259,   531.955750,   606.414307,   -332.479401,   0.467165,   812.254456,   729.972290
-0.037724,   0.191458,   0.219073,   0.000000,   904.575745,   0.533951,   22.811810,   25.277912,   528.800049,   608.523010,   -333.540741,   0.465982,   813.566833,   732.861877
-0.038504,   0.192669,   0.220393,   0.000000,   905.376404,   0.533951,   22.811810,   24.607563,   525.392090,   610.414856,   -334.784668,   0.464559,   814.971375,   736.154602
-0.039401,   0.193980,   0.221804,   0.000000,   906.138977,   0.533951,   22.811810,   23.937216,   521.715454,   612.095947,   -336.209839,   0.462893,   816.467834,   739.838196
-0.040420,   0.195392,   0.223306,   0.000000,   906.857483,   0.533951,   22.811810,   23.266867,   517.753113,   613.572021,   -337.814545,   0.460981,   818.056274,   743.898193
-0.041566,   0.196906,   0.224900,   0.000000,   907.524963,   0.533950,   22.811810,   22.596519,   513.487244,   614.847473,   -339.596802,   0.458820,   819.736694,   748.318604
-0.042844,   0.198521,   0.226587,   0.000000,   908.133728,   0.533951,   22.811810,   21.926172,   508.899109,   615.925781,   -341.554565,   0.456406,   821.509155,   753.081543
-0.044262,   0.200241,   0.228367,   0.000000,   908.674805,   0.533951,   22.811810,   21.255823,   503.968628,   616.808655,   -343.685974,   0.453733,   823.374329,   758.168945
-0.045827,   0.202065,   0.230245,   0.000000,   909.138733,   0.533951,   22.811810,   20.585474,   498.673187,   617.497681,   -345.989288,   0.450796,   825.333008,   763.561890
-0.047548,   0.203998,   0.232223,   0.000000,   909.514771,   0.533950,   22.811810,   19.915127,   492.988129,   617.992554,   -348.463440,   0.447586,   827.387085,   769.241638
-0.049435,   0.206043,   0.234306,   0.000000,   909.791443,   0.533951,   22.811810,   19.244780,   486.886108,   618.291992,   -351.107758,   0.444093,   829.539185,   775.189209
-0.051499,   0.208206,   0.236503,   0.000000,   909.955750,   0.533951,   22.811810,   18.574430,   480.336487,   618.391724,   -353.923035,   0.440305,   831.793213,   781.386658
-0.053753,   0.210494,   0.238822,   0.000000,   909.995300,   0.533951,   22.811810,   17.904083,   473.308868,   618.290222,   -356.908478,   0.436210,   834.153931,   787.812378
-0.056213,   0.212917,   0.241277,   0.000000,   909.896423,   0.533951,   22.811810,   17.233734,   465.770233,   617.982117,   -360.065002,   0.431794,   836.628052,   794.445496
-0.058897,   0.215488,   0.243884,   0.000000,   909.646179,   0.533951,   22.811810,   16.563387,   457.689331,   617.463928,   -363.392029,   0.427043,   839.223389,   801.260925
-0.061825,   0.218224,   0.246664,   0.000000,   909.232361,   0.533951,   22.811810,   15.893039,   449.034363,   616.734009,   -366.888458,   0.421945,   841.949768,   808.232117
-0.065025,   0.221145,   0.249643,   0.000000,   908.641968,   0.533950,   22.811810,   15.222691,   439.772949,   615.786194,   -370.554993,   0.416483,   844.819397,   815.332214
-0.068526,   0.224277,   0.252854,   0.000000,   907.866028,   0.533950,   22.811810,   14.552342,   429.877625,   614.622498,   -374.388824,   0.410648,   847.846741,   822.528564
-0.072364,   0.227652,   0.256338,   0.000000,   906.897034,   0.533951,   22.811810,   13.881994,   419.321594,   613.246155,   -378.387329,   0.404429,   851.049316,   829.788574
-0.076584,   0.231308,   0.260144,   0.000000,   905.730530,   0.533950,   22.811810,   13.211646,   408.079010,   611.664795,   -382.547058,   0.397818,   854.448059,   837.077881
-0.081241,   0.235293,   0.264331,   0.000000,   904.366211,   0.533951,   22.811810,   12.541299,   396.126831,   609.892517,   -386.863159,   0.390808,   858.067505,   844.361389
-0.086402,   0.239664,   0.268972,   0.000000,   902.806213,   0.533951,   22.811810,   11.870951,   383.437592,   607.948669,   -391.330780,   0.383395,   861.936768,   851.606201
-0.092150,   0.244487,   0.274153,   0.000000,   901.058777,   0.533951,   22.811810,   11.200602,   369.980042,   605.868164,   -395.941254,   0.375576,   866.089355,   858.779175
-0.098589,   0.249842,   0.279976,   0.000000,   899.131409,   0.533950,   22.811810,   10.530254,   355.706116,   603.691406,   -400.686401,   0.367347,   870.564331,   865.852417
-0.105850,   0.255820,   0.286562,   0.000000,   897.025513,   0.533951,   22.811810,   9.859906,   340.544678,   601.457642,   -405.558685,   0.358692,   875.404114,   872.798828
-0.081863,   0.198602,   0.212274,   0.000000,   801.862732,   0.534530,   23.803621,   48.912712,   559.568237,   251.316772,   -365.231781,   0.338975,   797.389893,   797.274963
-0.076900,   0.195696,   0.209948,   0.000000,   808.849915,   0.534527,   23.803621,   48.236412,   560.348755,   273.886017,   -364.608215,   0.349142,   796.460938,   795.550049
-0.072410,   0.192913,   0.207731,   0.000000,   815.049805,   0.534530,   23.803621,   47.560112,   560.723206,   294.906158,   -363.711945,   0.358512,   795.536621,   793.203003
-0.068341,   0.190278,   0.205642,   0.000000,   820.585144,   0.534528,   23.803621,   46.883808,   560.787781,   314.532043,   -362.589691,   0.367180,   794.632935,   790.375000
-0.064647,   0.187803,   0.203690,   0.000000,   825.559875,   0.534528,   23.803621,   46.207512,   560.614014,   332.909729,   -361.283295,   0.375227,   793.763184,   787.177063
-0.061288,   0.185494,   0.201881,   0.000000,   830.062012,   0.534530,   23.803621,   45.531208,   560.260620,   350.172760,   -359.826080,   0.382726,   792.937134,   783.694702
-0.058230,   0.183352,   0.200216,   0.000000,   834.163513,   0.534528,   23.803621,   44.854908,   559.770813,   366.437195,   -358.246704,   0.389738,   792.162109,   779.995239
-0.055440,   0.181373,   0.198692,   0.000000,   837.921997,   0.534527,   23.803621,   44.178608,   559.173828,   381.802063,   -356.570587,   0.396312,   791.443115,   776.133118
-0.052894,   0.179551,   0.197306,   0.000000,   841.382080,   0.534530,   23.803621,   43.502308,   558.489014,   396.345154,   -354.820892,   0.402484,   790.783569,   772.155090
-0.050566,   0.177881,   0.196052,   0.000000,   844.581177,   0.534528,   23.803621,   42.826008,   557.733826,   410.132355,   -353.016296,   0.408287,   790.185059,   768.099426
-0.048439,   0.176356,   0.194925,   0.000000,   847.547363,   0.534528,   23.803621,   42.149708,   556.914429,   423.213959,   -351.176971,   0.413740,   789.648987,   764.004150
-0.046493,   0.174967,   0.193918,   0.000000,   850.303101,   0.534530,   23.803621,   41.473408,   556.036377,   435.627289,   -349.321167,   0.418860,   789.176025,   759.904724
-0.044716,   0.173710,   0.193026,   0.000000,   852.868652,   0.534527,   23.803621,   40.797108,   555.101379,   447.408783,   -347.466064,   0.423661,   788.766724,   755.834351
-0.043093,   0.172576,   0.192243,   0.000000,   855.259827,   0.534530,   23.803621,   40.120808,   554.109924,   458.582947,   -345.628723,   0.428152,   788.421448,   751.826965
-0.041614,   0.171562,   0.191565,   0.000000,   857.490906,   0.534528,   23.803621,   39.444504,   553.059998,   469.172516,   -343.825684,   0.432339,   788.140808,   747.916199
-0.040269,   0.170661,   0.190986,   0.000000,   859.575195,   0.534528,   23.803621,   38.768208,   551.945862,   479.201172,   -342.073425,   0.436228,   787.926147,   744.135559
-0.039051,   0.169870,   0.190504,   0.000000,   861.525391,   0.534530,   23.803621,   38.091904,   550.764038,   488.689911,   -340.386322,   0.439825,   787.778259,   740.516235
-0.037951,   0.169185,   0.190114,   0.000000,   863.353394,   0.534527,   23.803621,   37.415604,   549.510132,   497.660828,   -338.777405,   0.443135,   787.698181,   737.087524
-0.036965,   0.168602,   0.189815,   0.000000,   865.070740,   0.534528,   23.803621,   36.739307,   548.178711,   506.136597,   -337.258636,   0.446165,   787.687134,   733.877014
-0.036086,   0.168119,   0.189604,   0.000000,   866.688354,   0.534530,   23.803621,   36.063004,   546.763794,   514.139465,   -335.840820,   0.448919,   787.746399,   730.910583
-0.035310,   0.167733,   0.189478,   0.000000,   868.216431,   0.534528,   23.803621,   35.386703,   545.259460,   521.691833,   -334.533325,   0.451403,   787.877197,   728.211731
-0.034633,   0.167442,   0.189438,   0.000000,   869.664734,   0.534530,   23.803621,   34.710403,   543.658508,   528.816101,   -333.344818,   0.453623,   788.081177,   725.802368
-0.034052,   0.167246,   0.189480,   0.000000,   871.041687,   0.534528,   23.803621,   34.034103,   541.953674,   535.532776,   -332.282928,   0.455582,   788.359680,   723.702698
-0.033565,   0.167143,   0.189606,   0.000000,   872.355164,   0.534527,   23.803621,   33.357803,   540.137146,   541.861572,   -331.354706,   0.457284,   788.714355,   721.931152
-0.033169,   0.167131,   0.189813,   0.000000,   873.612244,   0.534530,   23.803621,   32.681503,   538.200867,   547.821411,   -330.566101,   0.458733,   789.146606,   720.504395
-0.032863,   0.167212,   0.190103,   0.000000,   874.819275,   0.534528,   23.803621,   32.005203,   536.136292,   553.431091,   -329.922272,   0.459932,   789.657959,   719.436096
-0.032646,   0.167383,   0.190475,   0.000000,   875.981873,   0.534529,   23.803621,   31.328901,   533.934387,   558.708435,   -329.427673,   0.460885,   790.250061,   718.738464
-0.032517,   0.167647,   0.190929,   0.000000,   877.104858,   0.534528,   23.803621,   30.652601,   531.585632,   563.670349,   -329.086060,   0.461593,   790.924377,   718.421265
-0.032477,   0.168002,   0.191466,   0.000000,   878.191650,   0.534529,   23.803621,   29.976301,   529.079834,   568.331299,   -328.901093,   0.462059,   791.682434,   718.493286
-0.032525,   0.168449,   0.192087,   0.000000,   879.245361,   0.534528,   23.803621,   29.300001,   526.406250,   572.705383,   -328.875793,   0.462282,   792.525818,   718.961060
-0.032662,   0.168989,   0.192793,   0.000000,   880.267822,   0.534529,   23.803621,   28.623699,   523.553711,   576.805725,   -329.012482,   0.462264,   793.455872,   719.828308
-0.032891,   0.169622,   0.193584,   0.000000,   881.260315,   0.534528,   23.803621,   27.947399,   520.510315,   580.644653,   -329.313080,   0.462006,   794.474060,   721.097107
-0.033212,   0.170350,   0.194461,   0.000000,   882.223083,   0.534528,   23.803621,   27.271099,   517.263367,   584.233826,   -329.778839,   0.461506,   795.581543,   722.767090
-0.033627,   0.171174,   0.195427,   0.000000,   883.155823,   0.534529,   23.803621,   26.594799,   513.800110,   587.584534,   -330.410278,   0.460765,   796.779785,   724.835022
-0.034140,   0.172095,   0.196481,   0.000000,   884.057312,   0.534529,   23.803621,   25.918497,   510.106750,   590.707703,   -331.207275,   0.459782,   798.069702,   727.295349
-0.034755,   0.173114,   0.197627,   0.000000,   884.925415,   0.534528,   23.803621,   25.242197,   506.168121,   593.613525,   -332.169403,   0.458556,   799.452576,   730.140930
-0.035473,   0.174234,   0.198866,   0.000000,   885.757263,   0.534529,   23.803621,   24.565897,   501.968903,   596.311890,   -333.295319,   0.457086,   800.929443,   733.361816
-0.036301,   0.175455,   0.200199,   0.000000,   886.549072,   0.534528,   23.803621,   23.889597,   497.493866,   598.811829,   -334.582855,   0.455371,   802.500854,   736.945374
-0.037243,   0.176780,   0.201629,   0.000000,   887.296326,   0.534529,   23.803621,   23.213297,   492.727051,   601.121704,   -336.029327,   0.453408,   804.167542,   740.876953
-0.038305,   0.178211,   0.203158,   0.000000,   887.993530,   0.534528,   23.803621,   22.536997,   487.650970,   603.250061,   -337.631378,   0.451197,   805.930176,   745.140259
-0.039493,   0.179750,   0.204788,   0.000000,   888.633850,   0.534528,   23.803621,   21.860695,   482.245331,   605.203125,   -339.386169,   0.448734,   807.789490,   749.719177
-0.040814,   0.181400,   0.206524,   0.000000,   889.209290,   0.534529,   23.803621,   21.184395,   476.487823,   606.987427,   -341.290253,   0.446014,   809.746460,   754.596313
-0.042277,   0.183165,   0.208368,   0.000000,   889.710815,   0.534529,   23.803621,   20.508095,   470.352417,   608.608826,   -343.340210,   0.443031,   811.802307,   759.754211
-0.043891,   0.185047,   0.210325,   0.000000,   890.128418,   0.534528,   23.803621,   19.831795,   463.812897,   610.071716,   -345.532227,   0.439779,   813.958435,   765.173279
-0.045667,   0.187052,   0.212401,   0.000000,   890.450867,   0.534529,   23.803621,   19.155495,   456.838074,   611.382385,   -347.861572,   0.436249,   816.216736,   770.833862
-0.047617,   0.189186,   0.214602,   0.000000,   890.667297,   0.534528,   23.803621,   18.479193,   449.400055,   612.547607,   -350.321411,   0.432435,   818.578857,   776.711121
-0.049754,   0.191455,   0.216937,   0.000000,   890.764465,   0.534529,   23.803621,   17.802893,   441.467712,   613.568848,   -352.906616,   0.428330,   821.047424,   782.782227
-0.052096,   0.193868,   0.219417,   0.000000,   890.729248,   0.534528,   23.803621,   17.126593,   433.007935,   614.450806,   -355.610107,   0.423922,   823.625671,   789.021790
-0.054660,   0.196436,   0.222053,   0.000000,   890.547424,   0.534528,   23.803621,   16.450293,   423.986938,   615.195679,   -358.424683,   0.419202,   826.317444,   795.403198
-0.057468,   0.199169,   0.224862,   0.000000,   890.204712,   0.534529,   23.803621,   15.773993,   414.370667,   615.808594,   -361.340607,   0.414162,   829.126892,   801.895752
-0.060548,   0.202082,   0.227860,   0.000000,   889.682678,   0.534528,   23.803621,   15.097692,   404.119202,   616.285950,   -364.350739,   0.408787,   832.058960,   808.470947
-0.063928,   0.205192,   0.231068,   0.000000,   888.963501,   0.534528,   23.803621,   14.421391,   393.191132,   616.630127,   -367.444397,   0.403065,   835.119568,   815.095825
-0.067644,   0.208518,   0.234511,   0.000000,   888.027893,   0.534529,   23.803621,   13.745091,   381.541351,   616.841797,   -370.610443,   0.396980,   838.315735,   821.735718
-0.071742,   0.212083,   0.238219,   0.000000,   886.852417,   0.534528,   23.803621,   13.068790,   369.112732,   616.919556,   -373.838165,   0.390512,   841.656738,   828.356689
-0.076273,   0.215916,   0.242228,   0.000000,   885.410034,   0.534529,   23.803621,   12.392490,   355.837311,   616.860718,   -377.115875,   0.383638,   845.153503,   834.921997
-0.081305,   0.220047,   0.246580,   0.000000,   883.664124,   0.534528,   23.803621,   11.716190,   341.625427,   616.656616,   -380.431885,   0.376320,   848.818604,   841.392212
-0.086918,   0.224513,   0.251321,   0.000000,   881.566956,   0.534529,   23.803621,   11.039889,   326.362213,   616.296692,   -383.769867,   0.368515,   852.664001,   847.718994
-0.093208,   0.229345,   0.256500,   0.000000,   879.046387,   0.534528,   23.803621,   10.363589,   309.893890,   615.749390,   -387.112549,   0.360159,   856.698853,   853.840698
-0.100295,   0.234568,   0.262158,   0.000000,   875.995544,   0.534529,   23.803621,   9.687288,   292.025269,   614.947937,   -390.440857,   0.351162,   860.924866,   859.669556
-0.072838,   0.173854,   0.183753,   0.000000,   771.130676,   0.535148,   24.786791,   49.127861,   561.570618,   210.786636,   -342.674408,   0.334129,   770.518127,   770.515930
-0.068594,   0.171975,   0.182570,   0.000000,   779.313599,   0.535147,   24.786791,   48.444141,   562.000671,   234.752197,   -344.006165,   0.344583,   770.741943,   770.297852
-0.064717,   0.170094,   0.181368,   0.000000,   786.554260,   0.535148,   24.786791,   47.760422,   561.953979,   257.021027,   -344.867096,   0.354141,   770.855408,   769.319214
-0.061179,   0.168251,   0.180178,   0.000000,   793.011597,   0.535148,   24.786791,   47.076702,   561.542236,   277.804749,   -345.332611,   0.362935,   770.889038,   767.746582
-0.057951,   0.166474,   0.179023,   0.000000,   798.803406,   0.535148,   24.786791,   46.392986,   560.843201,   297.256927,   -345.467957,   0.371054,   770.867432,   765.711182
-0.055005,   0.164781,   0.177917,   0.000000,   804.027588,   0.535148,   24.786791,   45.709267,   559.922302,   315.511139,   -345.325134,   0.378578,   770.809265,   763.314819
-0.052314,   0.163181,   0.176873,   0.000000,   808.765747,   0.535148,   24.786791,   45.025547,   558.831421,   332.684692,   -344.947845,   0.385572,   770.729553,   760.638977
-0.049855,   0.161681,   0.175898,   0.000000,   813.086060,   0.535147,   24.786791,   44.341827,   557.606750,   348.880981,   -344.375977,   0.392092,   770.642151,   757.751038
-0.047608,   0.160286,   0.174997,   0.000000,   817.044250,   0.535148,   24.786791,   43.658108,   556.271179,   364.188416,   -343.646057,   0.398178,   770.558960,   754.709351
-0.045553,   0.158996,   0.174175,   0.000000,   820.690674,   0.535148,   24.786791,   42.974388,   554.850281,   378.690887,   -342.784790,   0.403874,   770.488892,   751.557800
-0.043675,   0.157812,   0.173433,   0.000000,   824.062866,   0.535150,   24.786791,   42.290668,   553.355469,   392.450775,   -341.819519,   0.409206,   770.439392,   748.338684
-0.041958,   0.156731,   0.172771,   0.000000,   827.191772,   0.535148,   24.786791,   41.606945,   551.795715,   405.520508,   -340.773560,   0.414199,   770.415955,   745.088501
-0.040390,   0.155750,   0.172187,   0.000000,   830.103394,   0.535147,   24.786791,   40.923229,   550.176453,   417.944855,   -339.667908,   0.418870,   770.422913,   741.840149
-0.038961,   0.154866,   0.171681,   0.000000,   832.826172,   0.535148,   24.786791,   40.239510,   548.503967,   429.762543,   -338.526123,   0.423233,   770.471130,   738.633484
-0.037659,   0.154078,   0.171249,   0.000000,   835.363342,   0.535148,   24.786791,   39.555790,   546.768494,   441.000214,   -337.359100,   0.427301,   770.548767,   735.482727
-0.036478,   0.153380,   0.170892,   0.000000,   837.738647,   0.535148,   24.786791,   38.872070,   544.973022,   451.686737,   -336.188507,   0.431081,   770.666992,   732.426453
-0.035409,   0.152771,   0.170606,   0.000000,   839.965393,   0.535148,   24.786791,   38.188351,   543.114197,   461.844116,   -335.030945,   0.434579,   770.828186,   729.494141
-0.034445,   0.152247,   0.170390,   0.000000,   842.055115,   0.535147,   24.786791,   37.504631,   541.187500,   471.491699,   -333.902008,   0.437801,   771.034729,   726.714172
-0.033582,   0.151807,   0.170242,   0.000000,   844.018616,   0.535148,   24.786791,   36.820915,   539.186523,   480.648468,   -332.816620,   0.440749,   771.288940,   724.114075
-0.032814,   0.151447,   0.170161,   0.000000,   845.866089,   0.535148,   24.786791,   36.137192,   537.105469,   489.333954,   -331.787720,   0.443429,   771.592712,   721.718689
-0.032137,   0.151166,   0.170146,   0.000000,   847.607056,   0.535148,   24.786791,   35.453476,   534.937622,   497.567932,   -330.827057,   0.445844,   771.948120,   719.551270
-0.031548,   0.150962,   0.170194,   0.000000,   849.250488,   0.535148,   24.786791,   34.769756,   532.674988,   505.371033,   -329.945190,   0.447999,   772.357117,   717.633118
-0.031043,   0.150834,   0.170306,   0.000000,   850.805481,   0.535148,   24.786791,   34.086037,   530.310120,   512.765381,   -329.150848,   0.449899,   772.821655,   715.982117
-0.030621,   0.150780,   0.170481,   0.000000,   852.279663,   0.535147,   24.786791,   33.402317,   527.834595,   519.770996,   -328.452118,   0.451548,   773.343689,   714.614868
-0.030278,   0.150800,   0.170719,   0.000000,   853.680054,   0.535148,   24.786791,   32.718597,   525.239258,   526.407166,   -327.856323,   0.452949,   773.925293,   713.547119
-0.030015,   0.150894,   0.171019,   0.000000,   855.012634,   0.535148,   24.786791,   32.034878,   522.514709,   532.691467,   -327.370026,   0.454105,   774.568359,   712.792786
-0.029829,   0.151061,   0.171382,   0.000000,   856.282593,   0.535148,   24.786791,   31.351158,   519.650940,   538.640503,   -326.999084,   0.455018,   775.274719,   712.363586
-0.029721,   0.151301,   0.171808,   0.000000,   857.494995,   0.535147,   24.786791,   30.667439,   516.637512,   544.272705,   -326.747833,   0.455690,   776.046265,   712.268799
-0.029690,   0.151615,   0.172299,   0.000000,   858.653992,   0.535149,   24.786791,   29.983719,   513.463501,   549.605408,   -326.619995,   0.456124,   776.885071,   712.515198
-0.029736,   0.152003,   0.172854,   0.000000,   859.762939,   0.535147,   24.786791,   29.299999,   510.117279,   554.654236,   -326.618927,   0.456322,   777.793030,   713.109009
-0.029861,   0.152466,   0.173476,   0.000000,   860.824341,   0.535148,   24.786791,   28.616280,   506.586609,   559.433716,   -326.747498,   0.456282,   778.772278,   714.054504
-0.030066,   0.153006,   0.174166,   0.000000,   861.839722,   0.535148,   24.786791,   27.932560,   502.858490,   563.956970,   -327.008118,   0.456007,   779.824646,   715.354248
-0.030353,   0.153624,   0.174924,   0.000000,   862.809814,   0.535147,   24.786791,   27.248842,   498.919708,   568.235962,   -327.402649,   0.455493,   780.952209,   717.009094
-0.030723,   0.154321,   0.175755,   0.000000,   863.734680,   0.535148,   24.786791,   26.565123,   494.755554,   572.282776,   -327.932434,   0.454742,   782.157043,   719.018127
-0.031180,   0.155100,   0.176658,   0.000000,   864.613281,   0.535148,   24.786791,   25.881403,   490.350281,   576.107910,   -328.598358,   0.453750,   783.440918,   721.378784
-0.031726,   0.155962,   0.177638,   0.000000,   865.444336,   0.535147,   24.786791,   25.197683,   485.689911,   579.722229,   -329.399780,   0.452516,   784.805664,   724.084778
-0.032366,   0.156910,   0.178696,   0.000000,   866.225586,   0.535148,   24.786791,   24.513964,   480.759827,   583.135864,   -330.335266,   0.451041,   786.252686,   727.126831
-0.033104,   0.157946,   0.179835,   0.000000,   866.954102,   0.535147,   24.786791,   23.830246,   475.543671,   586.358826,   -331.402985,   0.449321,   787.783630,   730.495483
-0.033946,   0.159074,   0.181058,   0.000000,   867.625488,   0.535148,   24.786791,   23.146526,   470.022339,   589.400024,   -332.600861,   0.447353,   789.399902,   734.179565
-0.034896,   0.160296,   0.182368,   0.000000,   868.234314,   0.535148,   24.786791,   22.462807,   464.172943,   592.269043,   -333.926514,   0.445134,   791.103394,   738.167664
-0.035961,   0.161615,   0.183770,   0.000000,   868.774109,   0.535148,   24.786791,   21.779087,   457.971222,   594.974854,   -335.376709,   0.442658,   792.895935,   742.446960
-0.037149,   0.163037,   0.185267,   0.000000,   869.236938,   0.535148,   24.786791,   21.095367,   451.392120,   597.524109,   -336.947754,   0.439919,   794.778931,   747.002502
-0.038469,   0.164563,   0.186863,   0.000000,   869.614441,   0.535148,   24.786791,   20.411648,   444.409454,   599.926208,   -338.633698,   0.436913,   796.753845,   751.815979
-0.039929,   0.166200,   0.188565,   0.000000,   869.897217,   0.535147,   24.786791,   19.727928,   436.997162,   602.188538,   -340.427826,   0.433633,   798.821716,   756.867249
-0.041540,   0.167953,   0.190377,   0.000000,   870.064941,   0.535148,   24.786791,   19.044209,   429.120422,   604.313416,   -342.318115,   0.430073,   800.974976,   762.125854
-0.043316,   0.169827,   0.192307,   0.000000,   870.121521,   0.535147,   24.786791,   18.360491,   420.753632,   606.316040,   -344.304657,   0.426224,   803.231079,   767.586670
-0.045269,   0.171828,   0.194360,   0.000000,   870.046082,   0.535148,   24.786791,   17.676771,   411.864166,   608.199341,   -346.371796,   0.422081,   805.582581,   773.213440
-0.047416,   0.173963,   0.196545,   0.000000,   869.821838,   0.535148,   24.786791,   16.993052,   402.416199,   609.965820,   -348.508514,   0.417634,   808.029419,   778.978516
-0.049775,   0.176239,   0.198871,   0.000000,   869.432800,   0.535147,   24.786791,   16.309332,   392.376038,   611.621033,   -350.700500,   0.412876,   810.571594,   784.849915
-0.052366,   0.178666,   0.201347,   0.000000,   868.860413,   0.535149,   24.786791,   15.625613,   381.705444,   613.168518,   -352.932831,   0.407797,   813.209473,   790.795166
-0.055218,   0.181253,   0.203986,   0.000000,   868.080872,   0.535148,   24.786791,   14.941894,   370.355743,   614.607666,   -355.190094,   0.402383,   815.942688,   796.781311
-0.058359,   0.184010,   0.206800,   0.000000,   867.069763,   0.535148,   24.786791,   14.258174,   358.275848,   615.941162,   -357.453064,   0.396618,   818.771240,   802.770874
-0.061824,   0.186950,   0.209804,   0.000000,   865.793579,   0.535148,   24.786791,   13.574455,   345.398315,   617.161438,   -359.704010,   0.390477,   821.694946,   808.727112
-0.065653,   0.190084,   0.213013,   0.000000,   864.212585,   0.535148,   24.786791,   12.890736,   331.644745,   618.262085,   -361.918976,   0.383935,   824.711426,   814.604492
-0.069897,   0.193421,   0.216441,   0.000000,   862.270447,   0.535148,   24.786791,   12.207016,   316.909119,   619.220337,   -364.074371,   0.376948,   827.815857,   820.353699
-0.074617,   0.196970,   0.220099,   0.000000,   859.894104,   0.535148,   24.786791,   11.523296,   301.059875,   620.002136,   -366.141815,   0.369459,   831.000244,   825.912537
-0.079881,   0.200734,   0.223998,   0.000000,   856.993652,   0.535148,   24.786791,   10.839578,   283.947021,   620.562012,   -368.084717,   0.361405,   834.251404,   831.198792
-0.085769,   0.204707,   0.228142,   0.000000,   853.448181,   0.535148,   24.786791,   10.155858,   265.390686,   620.821838,   -369.861694,   0.352702,   837.546814,   836.103088
-0.092379,   0.208869,   0.232523,   0.000000,   849.110229,   0.535148,   24.786791,   9.472138,   245.202072,   620.672302,   -371.423645,   0.343252,   840.853516,   840.477417
-0.063752,   0.149949,   0.156628,   -3.499514,   740.224243,   0.535738,   25.759434,   49.385132,   561.955322,   174.769424,   -317.494934,   0.330972,   741.980225,   741.961670
-0.060260,   0.149055,   0.156486,   0.000000,   749.726074,   0.535738,   25.759434,   48.692539,   562.233032,   200.177917,   -320.992920,   0.341828,   743.464783,   743.221313
-0.057026,   0.148054,   0.156225,   0.000000,   758.072205,   0.535738,   25.759434,   47.999950,   561.933838,   223.610977,   -323.772095,   0.351608,   744.716125,   743.574707
-0.054041,   0.147000,   0.155887,   0.000000,   765.487793,   0.535738,   25.759434,   47.307358,   561.199097,   245.397842,   -325.957794,   0.360514,   745.783447,   743.227844
-0.051298,   0.145929,   0.155502,   0.000000,   772.129761,   0.535738,   25.759434,   46.614769,   560.124023,   265.758881,   -327.648499,   0.368678,   746.705688,   742.333923
-0.048779,   0.144872,   0.155096,   0.000000,   778.117859,   0.535738,   25.759434,   45.922176,   558.784729,   284.857056,   -328.920135,   0.376199,   747.512878,   741.010498
-0.046468,   0.143848,   0.154687,   0.000000,   783.553772,   0.535738,   25.759434,   45.229588,   557.246399,   302.820953,   -329.838440,   0.383153,   748.236816,   739.358582
-0.044350,   0.142871,   0.154290,   0.000000,   788.500183,   0.535738,   25.759434,   44.536995,   555.539124,   319.757599,   -330.452362,   0.389601,   748.883911,   737.440186
-0.042412,   0.141951,   0.153915,   0.000000,   793.027588,   0.535738,   25.759434,   43.844406,   553.698914,   335.759735,   -330.813110,   0.395590,   749.479309,   735.328125
-0.040637,   0.141092,   0.153571,   0.000000,   797.191101,   0.535738,   25.759434,   43.151814,   551.755005,   350.911591,   -330.957825,   0.401166,   750.036377,   733.072144
-0.039012,   0.140300,   0.153262,   0.000000,   801.033630,   0.535739,   25.759434,   42.459225,   549.721436,   365.281616,   -330.922668,   0.406361,   750.566895,   730.718689
-0.037527,   0.139574,   0.152992,   0.000000,   804.592102,   0.535737,   25.759434,   41.766632,   547.611328,   378.927734,   -330.737915,   0.411203,   751.080505,   728.306885
-0.036171,   0.138917,   0.152765,   0.000000,   807.899780,   0.535738,   25.759434,   41.074043,   545.433472,   391.907227,   -330.430084,   0.415717,   751.586182,   725.870605
-0.034936,   0.138329,   0.152582,   0.000000,   810.982971,   0.535738,   25.759434,   40.381451,   543.190002,   404.265137,   -330.024506,   0.419920,   752.091370,   723.442932
-0.033812,   0.137808,   0.152443,   0.000000,   813.862671,   0.535738,   25.759434,   39.688862,   540.882690,   416.036835,   -329.542847,   0.423827,   752.601501,   721.053406
-0.032793,   0.137354,   0.152350,   0.000000,   816.557983,   0.535738,   25.759434,   38.996269,   538.511475,   427.256775,   -329.004333,   0.427451,   753.121399,   718.728271
-0.031872,   0.136964,   0.152301,   0.000000,   819.084656,   0.535738,   25.759434,   38.303680,   536.074402,   437.952362,   -328.427063,   0.430801,   753.655090,   716.493835
-0.031043,   0.136636,   0.152297,   0.000000,   821.456238,   0.535738,   25.759434,   37.611088,   533.568237,   448.148010,   -327.827637,   0.433885,   754.206238,   714.374512
-0.030301,   0.136370,   0.152336,   0.000000,   823.684509,   0.535738,   25.759434,   36.918499,   530.987610,   457.864990,   -327.221985,   0.436708,   754.778259,   712.394836
-0.029643,   0.136164,   0.152419,   0.000000,   825.779175,   0.535738,   25.759434,   36.225906,   528.327332,   467.120178,   -326.624817,   0.439274,   755.374084,   710.578308
-0.029064,   0.136015,   0.152544,   0.000000,   827.749146,   0.535738,   25.759434,   35.533318,   525.581116,   475.930634,   -326.049561,   0.441586,   755.996216,   708.946655
-0.028560,   0.135924,   0.152711,   0.000000,   829.602661,   0.535738,   25.759434,   34.840725,   522.741089,   484.313629,   -325.508728,   0.443648,   756.647278,   707.520386
-0.028130,   0.135888,   0.152920,   0.000000,   831.347412,   0.535738,   25.759434,   34.148136,   519.799561,   492.286652,   -325.013306,   0.445463,   757.329712,   706.317810
-0.027771,   0.135906,   0.153169,   0.000000,   832.990784,   0.535738,   25.759434,   33.455544,   516.747681,   499.869568,   -324.572449,   0.447034,   758.045593,   705.353943
-0.027482,   0.135978,   0.153459,   0.000000,   834.539917,   0.535738,   25.759434,   32.762955,   513.576416,   507.082825,   -324.194031,   0.448367,   758.797241,   704.641907
-0.027260,   0.136103,   0.153790,   0.000000,   836.001343,   0.535738,   25.759434,   32.070362,   510.275787,   513.947021,   -323.884735,   0.449465,   759.586853,   704.192993
-0.027105,   0.136282,   0.154161,   0.000000,   837.380371,   0.535738,   25.759434,   31.377773,   506.835022,   520.480103,   -323.650909,   0.450330,   760.416626,   704.017639
-0.027016,   0.136513,   0.154574,   0.000000,   838.680725,   0.535738,   25.759434,   30.685183,   503.242706,   526.695557,   -323.499146,   0.450962,   761.288940,   704.127075
-0.026994,   0.136797,   0.155029,   0.000000,   839.906311,   0.535739,   25.759434,   29.992590,   499.487183,   532.609863,   -323.434082,   0.451364,   762.205811,   704.528259
-0.027038,   0.137135,   0.155527,   0.000000,   841.060791,   0.535738,   25.759434,   29.299999,   495.555756,   538.241150,   -323.458954,   0.451537,   763.169434,   705.226074
-0.027150,   0.137527,   0.156069,   0.000000,   842.146790,   0.535737,   25.759434,   28.607409,   491.435303,   543.605530,   -323.576660,   0.451481,   764.182068,   706.224365
-0.027331,   0.137975,   0.156657,   0.000000,   843.166504,   0.535738,   25.759434,   27.914818,   487.112396,   548.718750,   -323.789032,   0.451198,   765.245789,   707.524292
-0.027581,   0.138480,   0.157291,   0.000000,   844.120972,   0.535738,   25.759434,   27.222227,   482.571136,   553.594971,   -324.098206,   0.450685,   766.363037,   709.128601
-0.027904,   0.139044,   0.157974,   0.000000,   845.010498,   0.535738,   25.759434,   26.529636,   477.796997,   558.245911,   -324.505493,   0.449943,   767.536133,   711.036621
-0.028302,   0.139668,   0.158709,   0.000000,   845.835144,   0.535738,   25.759434,   25.837046,   472.778961,   562.683777,   -325.009827,   0.448971,   768.766602,   713.243103
-0.028777,   0.140355,   0.159498,   0.000000,   846.593933,   0.535738,   25.759434,   25.144455,   467.500580,   566.919983,   -325.611023,   0.447768,   770.056641,   715.744507
-0.029334,   0.141108,   0.160343,   0.000000,   847.284058,   0.535738,   25.759434,   24.451864,   461.941498,   570.964539,   -326.309143,   0.446329,   771.408630,   718.537354
-0.029976,   0.141928,   0.161247,   0.000000,   847.901611,   0.535738,   25.759434,   23.759274,   456.078857,   574.826660,   -327.103943,   0.444648,   772.824890,   721.617798
-0.030709,   0.142820,   0.162213,   0.000000,   848.441833,   0.535738,   25.759434,   23.066683,   449.887756,   578.515198,   -327.994446,   0.442719,   774.308105,   724.980347
-0.031539,   0.143786,   0.163246,   0.000000,   848.898682,   0.535738,   25.759434,   22.374092,   443.341919,   582.038818,   -328.978455,   0.440535,   775.860474,   728.617493
-0.032470,   0.144831,   0.164349,   0.000000,   849.265869,   0.535739,   25.759434,   21.681501,   436.418457,   585.405640,   -330.051514,   0.438090,   777.483765,   732.516541
-0.033511,   0.145958,   0.165526,   0.000000,   849.536011,   0.535738,   25.759434,   20.988911,   429.093323,   588.624146,   -331.207611,   0.435380,   779.179199,   736.662231
-0.034670,   0.147171,   0.166781,   0.000000,   849.699585,   0.535738,   25.759434,   20.296320,   421.335571,   591.702454,   -332.440491,   0.432397,   780.948303,   741.039795
-0.035955,   0.148476,   0.168119,   0.000000,   849.745911,   0.535737,   25.759434,   19.603729,   413.116119,   594.647644,   -333.741699,   0.429132,   782.791626,   745.630188
-0.037378,   0.149875,   0.169546,   0.000000,   849.662476,   0.535738,   25.759434,   18.911140,   404.405762,   597.464539,   -335.101196,   0.425580,   784.708984,   750.411133
-0.038950,   0.151375,   0.171064,   0.000000,   849.436829,   0.535738,   25.759434,   18.218550,   395.178314,   600.160645,   -336.505310,   0.421736,   786.699219,   755.354553
-0.040683,   0.152980,   0.172680,   0.000000,   849.054321,   0.535738,   25.759434,   17.525959,   385.401581,   602.744263,   -337.938354,   0.417594,   788.760681,   760.431396
-0.042595,   0.154694,   0.174398,   0.000000,   848.495056,   0.535738,   25.759434,   16.833368,   375.036926,   605.217041,   -339.384644,   0.413144,   790.890320,   765.611877
-0.044700,   0.156522,   0.176223,   0.000000,   847.738342,   0.535738,   25.759434,   16.140778,   364.043060,   607.583679,   -340.825012,   0.408374,   793.084961,   770.863037
-0.047020,   0.158468,   0.178160,   0.000000,   846.760376,   0.535738,   25.759434,   15.448186,   352.374634,   609.846069,   -342.238281,   0.403274,   795.340759,   776.149414
-0.049578,   0.160541,   0.180217,   0.000000,   845.522644,   0.535738,   25.759434,   14.755594,   339.971802,   611.997253,   -343.597107,   0.397825,   797.644409,   781.424988
-0.052400,   0.162745,   0.182400,   0.000000,   844.006287,   0.535738,   25.759434,   14.063004,   326.771576,   614.042847,   -344.884155,   0.392002,   800.007324,   786.667603
-0.055519,   0.165085,   0.184715,   0.000000,   842.159607,   0.535738,   25.759434,   13.370413,   312.693878,   615.967346,   -346.065125,   0.385778,   802.413391,   791.821716
-0.058971,   0.167564,   0.187166,   0.000000,   839.925171,   0.535738,   25.759434,   12.677823,   297.640381,   617.749268,   -347.106079,   0.379114,   804.850708,   796.832886
-0.062800,   0.170181,   0.189753,   0.000000,   837.230652,   0.535738,   25.759434,   11.985232,   281.495575,   619.356750,   -347.965759,   0.371960,   807.302246,   801.632874
-0.067055,   0.172927,   0.192468,   0.000000,   833.981812,   0.535738,   25.759434,   11.292642,   264.120422,   620.740356,   -348.594452,   0.364256,   809.742065,   806.134033
-0.071789,   0.175782,   0.195295,   0.000000,   830.055542,   0.535738,   25.759434,   10.600051,   245.348267,   621.825867,   -348.931793,   0.355925,   812.132690,   810.220825
-0.077065,   0.178711,   0.198205,   0.000000,   825.298645,   0.535738,   25.759434,   9.907460,   224.988312,   622.513855,   -348.903687,   0.346872,   814.423889,   813.742432
-0.082952,   0.181671,   0.201164,   0.000000,   819.513306,   0.535738,   25.759434,   9.214869,   202.789963,   622.670959,   -348.421143,   0.336969,   816.555786,   816.507019
-0.055068,   0.127861,   0.131924,   -5.739139,   709.688965,   0.536220,   26.719685,   49.684025,   561.023315,   142.926498,   -290.272461,   0.329298,   712.575867,   712.523804
-0.052306,   0.127845,   0.132657,   0.000000,   720.597229,   0.536219,   26.719685,   48.981129,   561.338806,   169.790298,   -296.176727,   0.340667,   715.389465,   715.215027
-0.049698,   0.127643,   0.133207,   0.000000,   730.120850,   0.536220,   26.719685,   48.278233,   560.959839,   194.372726,   -301.044312,   0.350740,   717.847046,   716.849915
-0.047257,   0.127313,   0.133615,   0.000000,   738.536804,   0.536220,   26.719685,   47.575333,   560.052063,   217.085724,   -305.075531,   0.359780,   720.012817,   717.679199
-0.044985,   0.126902,   0.133918,   0.000000,   746.053101,   0.536220,   26.719685,   46.872437,   558.734802,   238.237152,   -308.420502,   0.367976,   721.941650,   717.884949
-0.042881,   0.126445,   0.134145,   0.000000,   752.825623,   0.536219,   26.719685,   46.169540,   557.102112,   258.050751,   -311.189758,   0.375468,   723.677795,   717.601929
-0.040939,   0.125971,   0.134322,   0.000000,   758.968994,   0.536220,   26.719685,   45.466640,   555.224304,   276.684387,   -313.469208,   0.382352,   725.255249,   716.933716
-0.039149,   0.125498,   0.134465,   0.000000,   764.571106,   0.536220,   26.719685,   44.763744,   553.149841,   294.258087,   -315.331879,   0.388700,   726.702393,   715.964783
-0.037504,   0.125039,   0.134589,   0.000000,   769.700989,   0.536220,   26.719685,   44.060844,   550.918030,   310.864929,   -316.836731,   0.394567,   728.040588,   714.763367
-0.035992,   0.124604,   0.134703,   0.000000,   774.415894,   0.536219,   26.719685,   43.357948,   548.558655,   326.586060,   -318.033997,   0.400000,   729.287537,   713.385254
-0.034607,   0.124199,   0.134815,   0.000000,   778.763611,   0.536220,   26.719685,   42.655052,   546.089417,   341.491974,   -318.969940,   0.405033,   730.459290,   711.880554
-0.033341,   0.123829,   0.134931,   0.000000,   782.783813,   0.536219,   26.719685,   41.952156,   543.525452,   355.642059,   -319.683014,   0.409699,   731.568420,   710.291443
-0.032184,   0.123497,   0.135056,   0.000000,   786.514465,   0.536220,   26.719685,   41.249256,   540.877808,   369.097931,   -320.207428,   0.414024,   732.627869,   708.654602
-0.031131,   0.123205,   0.135195,   0.000000,   789.985535,   0.536219,   26.719685,   40.546360,   538.154724,   381.907867,   -320.572205,   0.418031,   733.647217,   707.001709
-0.030173,   0.122955,   0.135350,   0.000000,   793.222778,   0.536220,   26.719685,   39.843464,   535.360352,   394.116272,   -320.803040,   0.421741,   734.634521,   705.360962
-0.029306,   0.122746,   0.135523,   0.000000,   796.249329,   0.536220,   26.719685,   39.140564,   532.496521,   405.764709,   -320.922729,   0.425170,   735.597351,   703.757202
-0.028523,   0.122580,   0.135716,   0.000000,   799.083618,   0.536219,   26.719685,   38.437668,   529.563110,   416.886688,   -320.951569,   0.428331,   736.541565,   702.214050
-0.027820,   0.122454,   0.135928,   0.000000,   801.741272,   0.536220,   26.719685,   37.734772,   526.558228,   427.511047,   -320.907806,   0.431234,   737.472229,   700.752747
-0.027192,   0.122368,   0.136161,   0.000000,   804.236145,   0.536220,   26.719685,   37.031872,   523.477600,   437.665466,   -320.808105,   0.433889,   738.393738,   699.393555
-0.026636,   0.122321,   0.136414,   0.000000,   806.579529,   0.536220,   26.719685,   36.328976,   520.317139,   447.372009,   -320.667450,   0.436303,   739.309937,   698.155151
-0.026148,   0.122313,   0.136688,   0.000000,   808.780762,   0.536219,   26.719685,   35.626076,   517.071289,   456.648132,   -320.500275,   0.438480,   740.224182,   697.056885
-0.025725,   0.122341,   0.136982,   0.000000,   810.847717,   0.536220,   26.719685,   34.923180,   513.732483,   465.510559,   -320.320068,   0.440422,   741.139709,   696.116882
-0.025365,   0.122406,   0.137296,   0.000000,   812.787048,   0.536220,   26.719685,   34.220284,   510.293121,   473.972687,   -320.139465,   0.442133,   742.059326,   695.352783
-0.025066,   0.122505,   0.137629,   0.000000,   814.604553,   0.536220,   26.719685,   33.517384,   506.744751,   482.048431,   -319.969788,   0.443613,   742.985474,   694.780090
-0.024826,   0.122639,   0.137982,   0.000000,   816.305969,   0.536219,   26.719685,   32.814487,   503.077850,   489.753571,   -319.820892,   0.444864,   743.920654,   694.412598
-0.024644,   0.122806,   0.138354,   0.000000,   817.897156,   0.536220,   26.719685,   32.111591,   499.282501,   497.106689,   -319.700684,   0.445891,   744.867065,   694.260620
-0.024518,   0.123005,   0.138746,   0.000000,   819.383789,   0.536220,   26.719685,   31.408693,   495.347595,   504.129242,   -319.615204,   0.446697,   745.827026,   694.331665
-0.024448,   0.123238,   0.139156,   0.000000,   820.771729,   0.536220,   26.719685,   30.705795,   491.260925,   510.844910,   -319.568817,   0.447287,   746.802795,   694.630920
-0.024434,   0.123503,   0.139587,   0.000000,   822.063293,   0.536220,   26.719685,   30.002897,   487.009033,   517.265076,   -319.568359,   0.447659,   747.796753,   695.168457
-0.024477,   0.123801,   0.140037,   0.000000,   823.260254,   0.536220,   26.719685,   29.299999,   482.579193,   523.400452,   -319.619415,   0.447812,   748.811218,   695.951843
-0.024576,   0.124133,   0.140510,   0.000000,   824.365784,   0.536220,   26.719685,   28.597103,   477.957672,   529.269104,   -319.724701,   0.447747,   749.848511,   696.983948
-0.024734,   0.124499,   0.141004,   0.000000,   825.381409,   0.536220,   26.719685,   27.894205,   473.127594,   534.886841,   -319.887177,   0.447463,   750.911011,   698.268860
-0.024950,   0.124900,   0.141523,   0.000000,   826.309326,   0.536220,   26.719685,   27.191309,   468.079315,   540.269653,   -320.106201,   0.446963,   752.000305,   699.802917
-0.025228,   0.125339,   0.142067,   0.000000,   827.151672,   0.536220,   26.719685,   26.488411,   462.803314,   545.434875,   -320.379517,   0.446251,   753.117615,   701.580688
-0.025569,   0.125815,   0.142637,   0.000000,   827.907043,   0.536220,   26.719685,   25.785513,   457.276031,   550.395325,   -320.709320,   0.445321,   754.265991,   703.605042
-0.025976,   0.126333,   0.143238,   0.000000,   828.572937,   0.536220,   26.719685,   25.082615,   451.471313,   555.161682,   -321.097839,   0.444166,   755.448730,   705.880127
-0.026452,   0.126893,   0.143870,   0.000000,   829.146423,   0.536220,   26.719685,   24.379717,   445.364410,   559.745850,   -321.544861,   0.442779,   756.668518,   708.405579
-0.027002,   0.127499,   0.144537,   0.000000,   829.623474,   0.536220,   26.719685,   23.676821,   438.929657,   564.157227,   -322.049744,   0.441153,   757.928345,   711.179871
-0.027630,   0.128154,   0.145242,   0.000000,   829.999878,   0.536220,   26.719685,   22.973923,   432.146332,   568.404480,   -322.609131,   0.439283,   759.229980,   714.196411
-0.028341,   0.128861,   0.145988,   0.000000,   830.270569,   0.536220,   26.719685,   22.271025,   424.992950,   572.496765,   -323.218140,   0.437165,   760.575012,   717.445435
-0.029141,   0.129624,   0.146779,   0.000000,   830.428955,   0.536220,   26.719685,   21.568127,   417.443359,   576.442627,   -323.871399,   0.434791,   761.965210,   720.917603
-0.030036,   0.130446,   0.147619,   0.000000,   830.466003,   0.536220,   26.719685,   20.865231,   409.469177,   580.248474,   -324.562469,   0.432153,   763.401489,   724.601257
-0.031035,   0.131331,   0.148510,   0.000000,   830.371643,   0.536220,   26.719685,   20.162333,   401.040192,   583.921753,   -325.282501,   0.429242,   764.884216,   728.481506
-0.032145,   0.132282,   0.149456,   0.000000,   830.136414,   0.536219,   26.719685,   19.459436,   392.135529,   587.469177,   -326.019104,   0.426056,   766.412537,   732.536011
-0.033376,   0.133303,   0.150461,   0.000000,   829.746399,   0.536220,   26.719685,   18.756538,   382.725555,   590.895020,   -326.759186,   0.422587,   767.984253,   736.742676
-0.034739,   0.134397,   0.151526,   0.000000,   829.186279,   0.536220,   26.719685,   18.053640,   372.777588,   594.203125,   -327.487976,   0.418825,   769.597290,   741.077393
-0.036246,   0.135569,   0.152658,   0.000000,   828.439270,   0.536220,   26.719685,   17.350744,   362.255890,   597.398499,   -328.188019,   0.414762,   771.249146,   745.513733
-0.037911,   0.136822,   0.153858,   0.000000,   827.484863,   0.536220,   26.719685,   16.647846,   351.119629,   600.482849,   -328.840179,   0.410384,   772.936584,   750.023438
-0.039750,   0.138160,   0.155130,   0.000000,   826.298035,   0.536220,   26.719685,   15.944948,   339.319458,   603.459717,   -329.419922,   0.405678,   774.653564,   754.573181
-0.041781,   0.139584,   0.156475,   0.000000,   824.845703,   0.536220,   26.719685,   15.242051,   326.795990,   606.323364,   -329.901459,   0.400622,   776.391968,   759.127441
-0.044022,   0.141095,   0.157893,   0.000000,   823.091064,   0.536220,   26.719685,   14.539153,   313.484009,   609.071045,   -330.251587,   0.395196,   778.141418,   763.643311
-0.046497,   0.142692,   0.159382,   0.000000,   820.987854,   0.536220,   26.719685,   13.836256,   299.309937,   611.689880,   -330.433258,   0.389372,   779.887512,   768.070679
-0.049232,   0.144373,   0.160939,   0.000000,   818.478699,   0.536220,   26.719685,   13.133358,   284.183746,   614.162292,   -330.401642,   0.383117,   781.611511,   772.350952
-0.052257,   0.146128,   0.162553,   0.000000,   815.490051,   0.536220,   26.719685,   12.430461,   267.996307,   616.455872,   -330.105988,   0.376384,   783.289124,   776.415100
-0.055606,   0.147945,   0.164212,   0.000000,   811.927979,   0.536220,   26.719685,   11.727564,   250.617264,   618.521790,   -329.485901,   0.369114,   784.887756,   780.175903
-0.059313,   0.149801,   0.165894,   0.000000,   807.668945,   0.536220,   26.719685,   11.024666,   231.898239,   620.289490,   -328.462494,   0.361239,   786.355286,   783.512390
-0.063418,   0.151666,   0.167571,   0.000000,   802.575195,   0.536220,   26.719685,   10.321769,   211.637497,   621.677429,   -326.954590,   0.352656,   787.655334,   786.304016
-0.067960,   0.153496,   0.169204,   0.000000,   796.440002,   0.536220,   26.719685,   9.618871,   189.571671,   622.557495,   -324.844238,   0.343230,   788.712463,   788.361267
-0.072979,   0.155229,   0.170744,   -0.922391,   788.972900,   0.536220,   26.719685,   8.915974,   165.297806,   622.752686,   -321.974213,   0.332749,   789.434509,   789.433228
-0.047088,   0.108096,   0.110119,   -6.309742,   679.813293,   0.536501,   27.665697,   50.023975,   558.740845,   114.762695,   -261.556976,   0.328703,   682.989990,   682.924438
-0.045001,   0.108812,   0.111535,   0.000000,   692.124451,   0.536499,   27.665697,   49.309357,   559.290955,   142.911514,   -270.099731,   0.340640,   687.140869,   686.974548
-0.042972,   0.109295,   0.112740,   0.000000,   702.886169,   0.536501,   27.665697,   48.594734,   559.025208,   168.627609,   -277.234436,   0.351098,   690.835815,   689.835876
-0.041030,   0.109601,   0.113769,   0.000000,   712.374451,   0.536501,   27.665697,   47.880116,   558.124756,   192.279312,   -283.239319,   0.360351,   694.141357,   691.791687
-0.039191,   0.109772,   0.114652,   0.000000,   720.820251,   0.536499,   27.665697,   47.165497,   556.726196,   214.205170,   -288.327118,   0.368628,   697.116821,   693.047180
-0.037465,   0.109845,   0.115415,   0.000000,   728.403687,   0.536499,   27.665697,   46.450878,   554.935913,   234.671265,   -292.654541,   0.376104,   699.812134,   693.752441
-0.035856,   0.109850,   0.116083,   0.000000,   735.263367,   0.536501,   27.665697,   45.736256,   552.838379,   253.874496,   -296.339966,   0.382907,   702.269958,   694.021973
-0.034362,   0.109814,   0.116680,   0.000000,   741.511597,   0.536501,   27.665697,   45.021637,   550.496338,   271.974152,   -299.480896,   0.389135,   704.529480,   693.948608
-0.032979,   0.109756,   0.117222,   0.000000,   747.234619,   0.536501,   27.665697,   44.307014,   547.961243,   289.085571,   -302.153778,   0.394858,   706.622253,   693.606934
-0.031706,   0.109690,   0.117726,   0.000000,   752.494873,   0.536499,   27.665697,   43.592396,   545.266602,   305.286713,   -304.424316,   0.400125,   708.572876,   693.060913
-0.030537,   0.109628,   0.118201,   0.000000,   757.348328,   0.536501,   27.665697,   42.877777,   542.438721,   320.654572,   -306.348969,   0.404978,   710.403259,   692.364258
-0.029466,   0.109577,   0.118657,   0.000000,   761.840454,   0.536499,   27.665697,   42.163158,   539.499878,   335.250671,   -307.974396,   0.409452,   712.130676,   691.561218
-0.028488,   0.109541,   0.119100,   0.000000,   766.008972,   0.536501,   27.665697,   41.448536,   536.463379,   349.132080,   -309.341614,   0.413577,   713.769043,   690.689270
-0.027597,   0.109524,   0.119532,   0.000000,   769.884033,   0.536499,   27.665697,   40.733917,   533.339844,   362.345490,   -310.484924,   0.417377,   715.328613,   689.779297
-0.026789,   0.109526,   0.119958,   0.000000,   773.493286,   0.536501,   27.665697,   40.019299,   530.134766,   374.936493,   -311.435669,   0.420874,   716.819336,   688.859436
-0.026058,   0.109549,   0.120380,   0.000000,   776.863037,   0.536501,   27.665697,   39.304676,   526.854187,   386.951660,   -312.219940,   0.424089,   718.250427,   687.952698
-0.025400,   0.109594,   0.120800,   0.000000,   780.013733,   0.536499,   27.665697,   38.590057,   523.499573,   398.427979,   -312.861237,   0.427038,   719.629211,   687.080322
-0.024811,   0.109661,   0.121218,   0.000000,   782.962646,   0.536501,   27.665697,   37.875439,   520.070190,   409.398590,   -313.380219,   0.429736,   720.961609,   686.260803
-0.024286,   0.109749,   0.121637,   0.000000,   785.726196,   0.536499,   27.665697,   37.160820,   516.564209,   419.897430,   -313.794830,   0.432194,   722.253418,   685.510193
-0.023823,   0.109858,   0.122056,   0.000000,   788.317383,   0.536501,   27.665697,   36.446198,   512.979004,   429.951324,   -314.120911,   0.434425,   723.509094,   684.843811
-0.023417,   0.109986,   0.122475,   0.000000,   790.747192,   0.536499,   27.665697,   35.731579,   509.309265,   439.585236,   -314.372833,   0.436434,   724.732422,   684.274658
-0.023068,   0.110134,   0.122895,   0.000000,   793.024597,   0.536501,   27.665697,   35.016960,   505.548096,   448.820129,   -314.564301,   0.438230,   725.927246,   683.817444
-0.022771,   0.110299,   0.123315,   0.000000,   795.157104,   0.536501,   27.665697,   34.302338,   501.688354,   457.673004,   -314.707855,   0.439814,   727.096741,   683.485657
-0.022526,   0.110481,   0.123734,   0.000000,   797.150269,   0.536501,   27.665697,   33.587719,   497.721252,   466.157471,   -314.815552,   0.441189,   728.243958,   683.293152
-0.022331,   0.110680,   0.124154,   0.000000,   799.008179,   0.536498,   27.665697,   32.873100,   493.636841,   474.283966,   -314.899109,   0.442354,   729.371582,   683.254089
-0.022185,   0.110893,   0.124573,   0.000000,   800.734070,   0.536502,   27.665697,   32.158482,   489.424316,   482.062683,   -314.969086,   0.443309,   730.481995,   683.381042
-0.022086,   0.111121,   0.124991,   0.000000,   802.331055,   0.536500,   27.665697,   31.443859,   485.072113,   489.504913,   -315.034729,   0.444053,   731.577393,   683.684998
-0.022034,   0.111363,   0.125407,   0.000000,   803.802673,   0.536500,   27.665697,   30.729240,   480.569183,   496.626251,   -315.102722,   0.444588,   732.659729,   684.172852
-0.022028,   0.111618,   0.125823,   0.000000,   805.157654,   0.536501,   27.665697,   30.014620,   475.903381,   503.464996,   -315.172333,   0.444926,   733.730957,   684.840088
-0.022069,   0.111886,   0.126237,   0.000000,   806.398376,   0.536499,   27.665697,   29.299999,   471.058136,   510.037262,   -315.248779,   0.445066,   734.793823,   685.693726
-0.022158,   0.112168,   0.126651,   0.000000,   807.523315,   0.536501,   27.665697,   28.585381,   466.017395,   516.343811,   -315.340332,   0.445000,   735.850891,   686.745544
-0.022294,   0.112464,   0.127065,   0.000000,   808.536499,   0.536500,   27.665697,   27.870760,   460.780945,   522.401001,   -315.444489,   0.444736,   736.902405,   687.988220
-0.022480,   0.112775,   0.127480,   0.000000,   809.439087,   0.536501,   27.665697,   27.156141,   455.333527,   528.224365,   -315.562500,   0.444275,   737.950134,   689.422363
-0.022716,   0.113101,   0.127898,   0.000000,   810.227112,   0.536499,   27.665697,   26.441521,   449.632782,   533.826599,   -315.703125,   0.443600,   738.999268,   691.065308
-0.023006,   0.113445,   0.128319,   0.000000,   810.900513,   0.536501,   27.665697,   25.726900,   443.654816,   539.226379,   -315.865723,   0.442708,   740.052551,   692.917969
-0.023351,   0.113808,   0.128746,   0.000000,   811.458069,   0.536500,   27.665697,   25.012281,   437.377472,   544.438843,   -316.048584,   0.441596,   741.112366,   694.979675
-0.023754,   0.114193,   0.129182,   0.000000,   811.897217,   0.536500,   27.665697,   24.297661,   430.779297,   549.473999,   -316.250183,   0.440258,   742.181274,   697.249634
-0.024219,   0.114602,   0.129628,   0.000000,   812.216919,   0.536500,   27.665697,   23.583042,   423.847382,   554.345032,   -316.464172,   0.438694,   743.260437,   699.718567
-0.024751,   0.115037,   0.130089,   0.000000,   812.413757,   0.536501,   27.665697,   22.868422,   416.563873,   559.062866,   -316.684265,   0.436903,   744.350830,   702.377625
-0.025353,   0.115502,   0.130565,   0.000000,   812.480103,   0.536499,   27.665697,   22.153801,   408.893219,   563.637390,   -316.906403,   0.434872,   745.454407,   705.225342
-0.026032,   0.116000,   0.131060,   0.000000,   812.408936,   0.536501,   27.665697,   21.439182,   400.808411,   568.076904,   -317.123322,   0.432593,   746.572388,   708.253906
-0.026792,   0.116534,   0.131577,   0.000000,   812.192627,   0.536500,   27.665697,   20.724562,   392.289062,   572.387207,   -317.324982,   0.430061,   747.704468,   711.449036
-0.027641,   0.117106,   0.132118,   0.000000,   811.821167,   0.536501,   27.665697,   20.009941,   383.313263,   576.573242,   -317.498993,   0.427272,   748.848755,   714.793091
-0.028587,   0.117719,   0.132686,   0.000000,   811.284424,   0.536499,   27.665697,   19.295322,   373.854004,   580.641663,   -317.632111,   0.424218,   750.004578,   718.269470
-0.029638,   0.118378,   0.133285,   0.000000,   810.569031,   0.536501,   27.665697,   18.580702,   363.877991,   584.597778,   -317.709534,   0.420888,   751.170776,   721.860840
-0.030803,   0.119086,   0.133917,   0.000000,   809.657410,   0.536500,   27.665697,   17.866083,   353.347900,   588.443115,   -317.714020,   0.417270,   752.343994,   725.546570
-0.032095,   0.119844,   0.134582,   0.000000,   808.527954,   0.536500,   27.665697,   17.151463,   342.220856,   592.178345,   -317.624573,   0.413349,   753.518860,   729.301758
-0.033525,   0.120654,   0.135282,   0.000000,   807.156067,   0.536500,   27.665697,   16.436844,   330.451019,   595.801147,   -317.417633,   0.409110,   754.689148,   733.098938
-0.035106,   0.121518,   0.136016,   0.000000,   805.510376,   0.536500,   27.665697,   15.722223,   317.979431,   599.309265,   -317.063782,   0.404531,   755.845764,   736.906067
-0.036854,   0.122433,   0.136783,   0.000000,   803.553284,   0.536501,   27.665697,   15.007604,   304.745636,   602.691345,   -316.530365,   0.399588,   756.976624,   740.684631
-0.038784,   0.123399,   0.137578,   0.000000,   801.241333,   0.536500,   27.665697,   14.292984,   290.680115,   605.941650,   -315.772766,   0.394259,   758.064880,   744.385498
-0.040916,   0.124407,   0.138394,   0.000000,   798.518188,   0.536501,   27.665697,   13.578364,   275.703308,   609.036560,   -314.744049,   0.388510,   759.088867,   747.953003
-0.043267,   0.125449,   0.139218,   0.000000,   795.311401,   0.536500,   27.665697,   12.863744,   259.713074,   611.946289,   -313.384827,   0.382297,   760.018982,   751.318726
-0.045860,   0.126506,   0.140031,   0.000000,   791.528320,   0.536500,   27.665697,   12.149125,   242.583847,   614.625244,   -311.624725,   0.375565,   760.817261,   754.399170
-0.048717,   0.127556,   0.140811,   0.000000,   787.055847,   0.536500,   27.665697,   11.434505,   224.169922,   617.010620,   -309.380127,   0.368242,   761.437622,   757.091431
-0.051861,   0.128573,   0.141530,   0.000000,   781.750977,   0.536500,   27.665697,   10.719885,   204.283417,   619.022095,   -306.546326,   0.360234,   761.824219,   759.267944
-0.055312,   0.129516,   0.142153,   0.000000,   775.415405,   0.536500,   27.665697,   10.005265,   182.651703,   620.543457,   -302.989227,   0.351398,   761.905457,   760.764771
-0.059084,   0.130331,   0.142633,   0.000000,   767.774902,   0.536500,   27.665697,   9.290645,   158.897171,   621.411316,   -298.525574,   0.341528,   761.585449,   761.353394
-0.063180,   0.130944,   0.142909,   -4.564566,   758.440247,   0.536500,   27.665697,   8.576026,   132.489105,   621.386597,   -292.897430,   0.330329,   760.732788,   760.701965
-0.039946,   0.090843,   0.091343,   -5.714113,   651.007446,   0.536478,   28.595657,   50.404324,   555.082214,   90.211090,   -231.936417,   0.328954,   653.883179,   653.826965
-0.038447,   0.092096,   0.093211,   0.000000,   664.502197,   0.536478,   28.595657,   49.676586,   556.025391,   119.119019,   -243.231186,   0.341372,   659.245422,   659.052124
-0.036925,   0.093103,   0.094874,   0.000000,   676.414307,   0.536478,   28.595657,   48.948853,   556.034790,   145.726425,   -252.752777,   0.352235,   664.103760,   663.014160
-0.035423,   0.093907,   0.096354,   0.000000,   686.955322,   0.536478,   28.595657,   48.221115,   555.295776,   170.230484,   -260.828979,   0.361766,   668.504883,   665.994446
-0.033967,   0.094547,   0.097675,   0.000000,   696.341919,   0.536477,   28.595657,   47.493382,   553.964294,   192.904663,   -267.727875,   0.370193,   672.503540,   668.213013
-0.032577,   0.095061,   0.098861,   0.000000,   704.761047,   0.536478,   28.595657,   46.765648,   552.162598,   214.003433,   -273.658264,   0.377708,   676.152954,   669.836792
-0.031264,   0.095476,   0.099930,   0.000000,   712.365784,   0.536478,   28.595657,   46.037910,   549.986328,   233.747452,   -278.779114,   0.384467,   679.498596,   670.988770
-0.030032,   0.095818,   0.100903,   0.000000,   719.283142,   0.536478,   28.595657,   45.310177,   547.506226,   252.327362,   -283.217621,   0.390592,   682.581909,   671.764160
-0.028882,   0.096105,   0.101795,   0.000000,   725.612854,   0.536478,   28.595657,   44.582439,   544.783936,   269.884521,   -287.069458,   0.396179,   685.437866,   672.237244
-0.027817,   0.096357,   0.102623,   0.000000,   731.427917,   0.536478,   28.595657,   43.854706,   541.858765,   286.509827,   -290.418213,   0.401284,   688.098206,   672.477600
-0.026836,   0.096588,   0.103401,   0.000000,   736.795166,   0.536478,   28.595657,   43.126968,   538.767029,   302.292877,   -293.332031,   0.405961,   690.591431,   672.540894
-0.025934,   0.096808,   0.104140,   0.000000,   741.764343,   0.536477,   28.595657,   42.399235,   535.536926,   317.295197,   -295.866791,   0.410249,   692.938843,   672.474060
-0.025111,   0.097025,   0.104847,   0.000000,   746.374878,   0.536478,   28.595657,   41.671501,   532.186340,   331.567657,   -298.072052,   0.414176,   695.157898,   672.318115
-0.024362,   0.097243,   0.105528,   0.000000,   750.662781,   0.536478,   28.595657,   40.943764,   528.734253,   345.159149,   -299.988068,   0.417773,   697.263123,   672.105164
-0.023683,   0.097467,   0.106188,   0.000000,   754.658386,   0.536478,   28.595657,   40.216030,   525.191101,   358.114868,   -301.651733,   0.421063,   699.267090,   671.864136
-0.023071,   0.097696,   0.106828,   0.000000,   758.386414,   0.536478,   28.595657,   39.488293,   521.565247,   370.476288,   -303.092957,   0.424068,   701.178589,   671.616089
-0.022521,   0.097932,   0.107451,   0.000000,   761.866760,   0.536478,   28.595657,   38.760559,   517.859375,   382.279877,   -304.338623,   0.426806,   703.004272,   671.379272
-0.022030,   0.098174,   0.108055,   0.000000,   765.118652,   0.536478,   28.595657,   38.032822,   514.075989,   393.562073,   -305.412109,   0.429295,   704.751099,   671.169861
-0.021595,   0.098421,   0.108644,   0.000000,   768.160095,   0.536477,   28.595657,   37.305088,   510.215210,   404.360321,   -306.333649,   0.431551,   706.425476,   671.000793
-0.021213,   0.098674,   0.109216,   0.000000,   771.004822,   0.536478,   28.595657,   36.577354,   506.275146,   414.704803,   -307.120819,   0.433587,   708.032104,   670.883545
-0.020880,   0.098931,   0.109771,   0.000000,   773.664246,   0.536478,   28.595657,   35.849617,   502.251678,   424.621704,   -307.789734,   0.435412,   709.575195,   670.829224
-0.020594,   0.099191,   0.110310,   0.000000,   776.150085,   0.536478,   28.595657,   35.121883,   498.138062,   434.142212,   -308.354187,   0.437038,   711.059143,   670.846497
-0.020354,   0.099453,   0.110831,   0.000000,   778.470886,   0.536478,   28.595657,   34.394146,   493.928284,   443.288422,   -308.826294,   0.438472,   712.487305,   670.944397
-0.020157,   0.099716,   0.111334,   0.000000,   780.633728,   0.536478,   28.595657,   33.666412,   489.613953,   452.081085,   -309.217255,   0.439718,   713.862671,   671.131104
-0.020001,   0.099978,   0.111820,   0.000000,   782.644165,   0.536477,   28.595657,   32.938675,   485.185120,   460.537964,   -309.537384,   0.440781,   715.187927,   671.415771
-0.019886,   0.100239,   0.112286,   0.000000,   784.505371,   0.536479,   28.595657,   32.210941,   480.630035,   468.670227,   -309.797546,   0.441659,   716.466064,   671.809387
-0.019811,   0.100498,   0.112734,   0.000000,   786.219421,   0.536478,   28.595657,   31.483206,   475.936554,   476.486328,   -310.007874,   0.442350,   717.699280,   672.323303
-0.019774,   0.100753,   0.113161,   0.000000,   787.786621,   0.536479,   28.595657,   30.755470,   471.090393,   483.990723,   -310.178986,   0.442850,   718.890015,   672.969604
-0.019776,   0.101004,   0.113568,   0.000000,   789.201294,   0.536478,   28.595657,   30.027735,   466.079529,   491.164581,   -310.325867,   0.443144,   720.039917,   673.768188
-0.019817,   0.101250,   0.113954,   0.000000,   790.476990,   0.536478,   28.595657,   29.299999,   460.895538,   498.067932,   -310.439362,   0.443257,   721.149658,   674.699707
-0.019895,   0.101491,   0.114319,   0.000000,   791.625610,   0.536478,   28.595657,   28.572264,   455.550537,   504.742859,   -310.506287,   0.443215,   722.217590,   675.738403
-0.020013,   0.101727,   0.114663,   0.000000,   792.638367,   0.536478,   28.595657,   27.844528,   449.999329,   511.179047,   -310.546204,   0.442991,   723.249573,   676.917480
-0.020171,   0.101959,   0.114987,   0.000000,   793.506897,   0.536478,   28.595657,   27.116795,   444.168915,   517.387756,   -310.578339,   0.442550,   724.254944,   678.276062
-0.020372,   0.102188,   0.115293,   0.000000,   794.233948,   0.536478,   28.595657,   26.389059,   438.064758,   523.377625,   -310.597321,   0.441900,   725.233521,   679.804321
-0.020616,   0.102416,   0.115583,   0.000000,   794.817566,   0.536478,   28.595657,   25.661324,   431.675201,   529.151428,   -310.603668,   0.441038,   726.186646,   681.503296
-0.020906,   0.102644,   0.115857,   0.000000,   795.258606,   0.536478,   28.595657,   24.933588,   424.980927,   534.732971,   -310.591095,   0.439964,   727.115723,   683.366089
-0.021245,   0.102874,   0.116118,   0.000000,   795.560486,   0.536478,   28.595657,   24.205853,   417.978119,   540.147705,   -310.546906,   0.438690,   728.020264,   685.374939
-0.021636,   0.103108,   0.116368,   0.000000,   795.718201,   0.536478,   28.595657,   23.478117,   410.640564,   545.402405,   -310.469055,   0.437207,   728.902039,   687.531250
-0.022082,   0.103348,   0.116607,   0.000000,   795.724609,   0.536478,   28.595657,   22.750381,   402.923401,   550.511597,   -310.354553,   0.435499,   729.764404,   689.841003
-0.022588,   0.103596,   0.116840,   0.000000,   795.574829,   0.536478,   28.595657,   22.022648,   394.808441,   555.485229,   -310.193207,   0.433563,   730.607117,   692.293762
-0.023159,   0.103856,   0.117068,   0.000000,   795.264160,   0.536478,   28.595657,   21.294912,   386.282562,   560.332336,   -309.972260,   0.431400,   731.428955,   694.874573
-0.023799,   0.104131,   0.117294,   0.000000,   794.788574,   0.536478,   28.595657,   20.567177,   377.332306,   565.062561,   -309.678162,   0.429007,   732.229980,   697.568726
-0.024515,   0.104424,   0.117521,   0.000000,   794.137207,   0.536478,   28.595657,   19.839441,   367.923309,   569.682251,   -309.298920,   0.426372,   733.009888,   700.368286
-0.025315,   0.104737,   0.117751,   0.000000,   793.294983,   0.536478,   28.595657,   19.111706,   358.017212,   574.195068,   -308.819214,   0.423483,   733.765991,   703.261414
-0.026204,   0.105072,   0.117984,   0.000000,   792.245972,   0.536478,   28.595657,   18.383970,   347.579163,   578.601135,   -308.221924,   0.420325,   734.495117,   706.233154
-0.027193,   0.105432,   0.118222,   0.000000,   790.971069,   0.536478,   28.595657,   17.656237,   336.570099,   582.899780,   -307.486237,   0.416884,   735.192688,   709.264832
-0.028291,   0.105818,   0.118466,   0.000000,   789.445190,   0.536478,   28.595657,   16.928501,   324.938904,   587.089050,   -306.587158,   0.413139,   735.851746,   712.335266
-0.029507,   0.106229,   0.118714,   0.000000,   787.639526,   0.536479,   28.595657,   16.200766,   312.635925,   591.161865,   -305.495667,   0.409071,   736.463135,   715.417236
-0.030854,   0.106666,   0.118963,   0.000000,   785.518677,   0.536478,   28.595657,   15.473030,   299.601746,   595.110840,   -304.174927,   0.404657,   737.013611,   718.476501
-0.032343,   0.107124,   0.119209,   0.000000,   783.039124,   0.536478,   28.595657,   14.745295,   285.776123,   598.916077,   -302.584839,   0.399869,   737.485779,   721.471436
-0.033987,   0.107595,   0.119441,   0.000000,   780.146729,   0.536478,   28.595657,   14.017559,   271.080139,   602.563110,   -300.669067,   0.394677,   737.854675,   724.347778
-0.035797,   0.108069,   0.119647,   0.000000,   776.773132,   0.536478,   28.595657,   13.289824,   255.423508,   606.018555,   -298.366974,   0.389041,   738.089966,   727.043762
-0.037788,   0.108531,   0.119810,   0.000000,   772.835388,   0.536478,   28.595657,   12.562089,   238.697586,   609.242798,   -295.602722,   0.382910,   738.154053,   729.483582
-0.039973,   0.108962,   0.119912,   0.000000,   768.228088,   0.536478,   28.595657,   11.834353,   220.764252,   612.178284,   -292.286865,   0.376215,   738.001953,   731.577515
-0.042362,   0.109339,   0.119928,   0.000000,   762.821594,   0.536478,   28.595657,   11.106618,   201.453369,   614.753113,   -288.307037,   0.368867,   737.579590,   733.214050
-0.044962,   0.109627,   0.119829,   0.000000,   756.434326,   0.536478,   28.595657,   10.378882,   180.518753,   616.862122,   -283.516815,   0.360733,   736.814819,   734.248474
-0.047776,   0.109781,   0.119570,   0.000000,   748.811218,   0.536478,   28.595657,   9.651148,   157.613434,   618.348877,   -277.721161,   0.351618,   735.611572,   734.482971
-0.050795,   0.109740,   0.119105,   0.000000,   739.620850,   0.536478,   28.595657,   8.923412,   132.303696,   619.004944,   -270.651306,   0.341265,   733.846802,   733.637329
-0.053990,   0.109434,   0.118375,   -5.841806,   728.424744,   0.536478,   28.595657,   8.195677,   104.045364,   618.537598,   -261.937561,   0.329332,   731.363220,   731.310730
-0.033681,   0.076009,   0.075416,   -4.418868,   623.484863,   0.536039,   29.507784,   50.824341,   549.955017,   69.110992,   -201.898575,   0.329796,   625.705994,   625.670837
-0.032666,   0.077612,   0.077530,   0.000000,   637.818604,   0.536039,   29.507784,   50.082123,   551.467102,   98.042587,   -215.894608,   0.342539,   632.054138,   631.810852
-0.031571,   0.078989,   0.079476,   0.000000,   650.720764,   0.536040,   29.507784,   49.339905,   551.941589,   125.162254,   -227.846954,   0.353798,   637.938538,   636.709290
-0.030445,   0.080168,   0.081261,   0.000000,   662.262634,   0.536039,   29.507784,   48.597683,   551.545227,   150.360703,   -238.068146,   0.363668,   643.357666,   640.601013
-0.029322,   0.081176,   0.082895,   0.000000,   672.590027,   0.536039,   29.507784,   47.855469,   550.443420,   173.735916,   -246.846802,   0.372327,   648.336609,   643.694397
-0.028226,   0.082038,   0.084389,   0.000000,   681.861328,   0.536040,   29.507784,   47.113247,   548.772766,   195.468842,   -254.427322,   0.379961,   652.909973,   646.154602
-0.027170,   0.082782,   0.085760,   0.000000,   690.231445,   0.536039,   29.507784,   46.371029,   546.646973,   215.767105,   -261.009003,   0.386745,   657.120300,   648.110840
-0.026164,   0.083431,   0.087023,   0.000000,   697.837646,   0.536039,   29.507784,   45.628811,   544.153320,   234.824966,   -266.754211,   0.392820,   661.013062,   649.667114
-0.025215,   0.084006,   0.088193,   0.000000,   704.789734,   0.536040,   29.507784,   44.886593,   541.361694,   252.800980,   -271.786011,   0.398301,   664.625427,   650.900269
-0.024330,   0.084525,   0.089284,   0.000000,   711.172424,   0.536039,   29.507784,   44.144371,   538.317627,   269.813721,   -276.208221,   0.403264,   667.991577,   651.877930
-0.023510,   0.085001,   0.090307,   0.000000,   717.063049,   0.536039,   29.507784,   43.402153,   535.065369,   285.973663,   -280.102234,   0.407781,   671.143127,   652.652954
-0.022753,   0.085448,   0.091275,   0.000000,   722.516602,   0.536040,   29.507784,   42.659935,   531.638916,   301.347382,   -283.534515,   0.411897,   674.105103,   653.273376
-0.022061,   0.085876,   0.092198,   0.000000,   727.580017,   0.536039,   29.507784,   41.917717,   528.063660,   315.990875,   -286.563721,   0.415647,   676.900635,   653.782715
-0.021430,   0.086291,   0.093082,   0.000000,   732.291199,   0.536039,   29.507784,   41.175499,   524.364258,   329.949402,   -289.236389,   0.419060,   679.546814,   654.214233
-0.020860,   0.086697,   0.093932,   0.000000,   736.681824,   0.536040,   29.507784,   40.433281,   520.555481,   343.266174,   -291.594757,   0.422164,   682.057983,   654.596313
-0.020347,   0.087098,   0.094752,   0.000000,   740.776184,   0.536039,   29.507784,   39.691059,   516.651855,   355.971680,   -293.673370,   0.424979,   684.444092,   654.951965
-0.019887,   0.087495,   0.095543,   0.000000,   744.598450,   0.536039,   29.507784,   38.948841,   512.660767,   368.106079,   -295.504242,   0.427526,   686.715271,   655.299988
-0.019480,   0.087888,   0.096307,   0.000000,   748.168518,   0.536040,   29.507784,   38.206623,   508.589172,   379.703430,   -297.113800,   0.429825,   688.879089,   655.654846
-0.019120,   0.088276,   0.097044,   0.000000,   751.502258,   0.536039,   29.507784,   37.464405,   504.438843,   390.796600,   -298.524994,   0.431892,   690.940735,   656.026855
-0.018806,   0.088657,   0.097751,   0.000000,   754.613281,   0.536039,   29.507784,   36.722187,   500.208954,   401.417847,   -299.757294,   0.433743,   692.903870,   656.423706
-0.018534,   0.089030,   0.098429,   0.000000,   757.514038,   0.536040,   29.507784,   35.979969,   495.895447,   411.598450,   -300.828766,   0.435391,   694.773071,   656.852905
-0.018303,   0.089392,   0.099076,   0.000000,   760.216125,   0.536039,   29.507784,   35.237751,   491.494354,   421.367798,   -301.754761,   0.436848,   696.552551,   657.320984
-0.018111,   0.089744,   0.099691,   0.000000,   762.728882,   0.536039,   29.507784,   34.495529,   486.999359,   430.753601,   -302.548126,   0.438124,   698.245239,   657.832458
-0.017954,   0.090082,   0.100273,   0.000000,   765.059875,   0.536039,   29.507784,   33.753311,   482.402222,   439.781494,   -303.220062,   0.439227,   699.853821,   658.391357
-0.017832,   0.090405,   0.100821,   0.000000,   767.215576,   0.536040,   29.507784,   33.011093,   477.693787,   448.474396,   -303.780396,   0.440164,   701.380615,   659.001892
-0.017744,   0.090711,   0.101333,   0.000000,   769.202576,   0.536039,   29.507784,   32.268875,   472.863281,   456.857941,   -304.236755,   0.440943,   702.828247,   659.667114
-0.017688,   0.091000,   0.101810,   0.000000,   771.024841,   0.536040,   29.507784,   31.526657,   467.898499,   464.948944,   -304.597534,   0.441564,   704.199219,   660.393066
-0.017664,   0.091270,   0.102249,   0.000000,   772.684998,   0.536040,   29.507784,   30.784437,   462.787720,   472.761017,   -304.869873,   0.442029,   705.495850,   661.185425
-0.017671,   0.091520,   0.102652,   0.000000,   774.188965,   0.536039,   29.507784,   30.042219,   457.511078,   480.325989,   -305.057220,   0.442342,   706.721130,   662.046753
-0.017710,   0.091750,   0.103015,   0.000000,   775.517212,   0.536040,   29.507784,   29.299999,   452.125885,   487.531921,   -305.175293,   0.442483,   707.866699,   662.989441
-0.017780,   0.091957,   0.103338,   0.000000,   776.668335,   0.536040,   29.507784,   28.557781,   446.500671,   494.454468,   -305.250519,   0.442418,   708.948120,   664.062317
-0.017882,   0.092142,   0.103621,   0.000000,   777.649475,   0.536039,   29.507784,   27.815563,   440.529236,   501.190338,   -305.286713,   0.442136,   709.977966,   665.287903
-0.018017,   0.092307,   0.103868,   0.000000,   778.469299,   0.536040,   29.507784,   27.073343,   434.342926,   507.687988,   -305.258911,   0.441682,   710.942505,   666.609070
-0.018187,   0.092452,   0.104078,   0.000000,   779.129883,   0.536040,   29.507784,   26.331125,   427.901855,   513.986084,   -305.165436,   0.441055,   711.845398,   668.028931
-0.018392,   0.092580,   0.104252,   0.000000,   779.631836,   0.536039,   29.507784,   25.588907,   421.173492,   520.111145,   -305.003845,   0.440249,   712.690491,   669.551758
-0.018636,   0.092691,   0.104393,   0.000000,   779.966431,   0.536040,   29.507784,   24.846687,   414.168793,   526.024780,   -304.780670,   0.439255,   713.476379,   671.182068
-0.018919,   0.092785,   0.104499,   0.000000,   780.127563,   0.536040,   29.507784,   24.104469,   406.838776,   531.748352,   -304.494934,   0.438056,   714.205688,   672.927856
-0.019246,   0.092865,   0.104574,   0.000000,   780.113647,   0.536039,   29.507784,   23.362249,   399.116180,   537.333191,   -304.136047,   0.436644,   714.883606,   674.795166
-0.019619,   0.092934,   0.104620,   0.000000,   779.923950,   0.536040,   29.507784,   22.620031,   391.026581,   542.764587,   -303.695007,   0.435025,   715.508057,   676.765991
-0.020042,   0.092995,   0.104640,   0.000000,   779.558716,   0.536039,   29.507784,   21.877813,   382.562897,   548.062073,   -303.155396,   0.433205,   716.078064,   678.822815
-0.020520,   0.093050,   0.104636,   0.000000,   779.013794,   0.536040,   29.507784,   21.135595,   373.705658,   553.242249,   -302.501282,   0.431183,   716.592102,   680.952820
-0.021057,   0.093100,   0.104608,   0.000000,   778.275757,   0.536040,   29.507784,   20.393375,   364.402802,   558.314026,   -301.722046,   0.428941,   717.050415,   683.158997
-0.021658,   0.093150,   0.104560,   0.000000,   777.333984,   0.536039,   29.507784,   19.651157,   354.623383,   563.282166,   -300.802185,   0.426465,   717.452026,   685.433411
-0.022331,   0.093201,   0.104492,   0.000000,   776.175110,   0.536040,   29.507784,   18.908939,   344.333527,   568.151489,   -299.721924,   0.423745,   717.793701,   687.764160
-0.023081,   0.093256,   0.104408,   0.000000,   774.782104,   0.536040,   29.507784,   18.166719,   333.497528,   572.920471,   -298.460114,   0.420765,   718.071167,   690.137756
-0.023916,   0.093316,   0.104306,   0.000000,   773.131836,   0.536039,   29.507784,   17.424501,   322.067627,   577.584106,   -296.992584,   0.417504,   718.278198,   692.540039
-0.024845,   0.093382,   0.104185,   0.000000,   771.196716,   0.536040,   29.507784,   16.682283,   309.990295,   582.137146,   -295.288788,   0.413938,   718.406006,   694.951233
-0.025876,   0.093452,   0.104045,   0.000000,   768.945251,   0.536040,   29.507784,   15.940063,   297.222321,   586.565735,   -293.313110,   0.410049,   718.441223,   697.340820
-0.027017,   0.093522,   0.103878,   0.000000,   766.335388,   0.536039,   29.507784,   15.197845,   283.701843,   590.853699,   -291.021240,   0.405808,   718.365234,   699.672607
-0.028277,   0.093587,   0.103677,   0.000000,   763.319153,   0.536039,   29.507784,   14.455626,   269.368988,   594.976624,   -288.362274,   0.401188,   718.155273,   701.901001
-0.029667,   0.093637,   0.103430,   0.000000,   759.830322,   0.536039,   29.507784,   13.713408,   254.126373,   598.908569,   -285.269653,   0.396144,   717.781006,   703.973511
-0.031191,   0.093661,   0.103126,   0.000000,   755.794922,   0.536040,   29.507784,   12.971189,   237.881927,   602.606934,   -281.670105,   0.390630,   717.208313,   705.826233
-0.032859,   0.093643,   0.102748,   0.000000,   751.122864,   0.536040,   29.507784,   12.228970,   220.520798,   606.024353,   -277.469940,   0.384585,   716.395630,   707.380615
-0.034674,   0.093560,   0.102274,   0.000000,   745.686218,   0.536039,   29.507784,   11.486752,   201.880280,   609.084229,   -272.552734,   0.377922,   715.284668,   708.536560
-0.036636,   0.093377,   0.101670,   0.000000,   739.309265,   0.536040,   29.507784,   10.744533,   181.728546,   611.682739,   -266.762268,   0.370512,   713.797729,   709.162720
-0.038739,   0.093058,   0.100902,   0.000000,   731.769470,   0.536039,   29.507784,   10.002314,   159.772141,   613.681458,   -259.896149,   0.362183,   711.843323,   709.089539
-0.040970,   0.092559,   0.099937,   0.000000,   722.791687,   0.536039,   29.507784,   9.260096,   135.663803,   614.895935,   -251.691513,   0.352716,   709.315430,   708.091003
-0.043298,   0.091832,   0.098739,   0.000000,   712.042358,   0.536039,   29.507784,   8.517877,   109.019699,   615.087402,   -241.797531,   0.341840,   706.087341,   705.855408
-0.045668,   0.090820,   0.097270,   -5.704079,   699.136902,   0.536039,   29.507784,   7.775658,   79.491920,   613.940918,   -229.763519,   0.329262,   702.006348,   701.954163
-0.028299,   0.063490,   0.062151,   -2.735523,   597.629761,   0.535065,   30.400322,   51.283226,   543.455872,   51.438347,   -172.015411,   0.331047,   599.002197,   598.988037
-0.027657,   0.065259,   0.064320,   0.000000,   612.337463,   0.535064,   30.400322,   50.525185,   545.696899,   79.551903,   -188.428055,   0.343930,   605.984985,   605.675354
-0.026905,   0.066848,   0.066377,   0.000000,   625.926819,   0.535065,   30.400322,   49.767139,   546.800537,   106.615166,   -202.709671,   0.355516,   612.645081,   611.255249
-0.026089,   0.068267,   0.068318,   0.000000,   638.309387,   0.535064,   30.400322,   49.009098,   546.913025,   132.201675,   -215.073013,   0.365755,   618.916382,   615.879028
-0.025242,   0.069529,   0.070136,   0.000000,   649.513794,   0.535064,   30.400322,   48.251057,   546.199463,   156.162949,   -225.765808,   0.374732,   624.768127,   619.709290
-0.024388,   0.070647,   0.071831,   0.000000,   659.634705,   0.535065,   30.400322,   47.493015,   544.809082,   178.535110,   -235.037369,   0.382600,   630.199829,   622.892883
-0.023546,   0.071640,   0.073410,   0.000000,   668.790833,   0.535064,   30.400322,   46.734970,   542.865417,   199.433228,   -243.113266,   0.389514,   635.234802,   625.558899
-0.022733,   0.072527,   0.074880,   0.000000,   677.105103,   0.535064,   30.400322,   45.976933,   540.468628,   219.011444,   -250.184525,   0.395620,   639.906555,   627.811707
-0.021958,   0.073328,   0.076254,   0.000000,   684.692078,   0.535066,   30.400322,   45.218887,   537.704773,   237.425400,   -256.403046,   0.401049,   644.251526,   629.732666
-0.021226,   0.074061,   0.077544,   0.000000,   691.657349,   0.535064,   30.400322,   44.460846,   534.639099,   254.829605,   -261.896759,   0.405912,   648.309326,   631.388550
-0.020542,   0.074740,   0.078761,   0.000000,   698.082825,   0.535064,   30.400322,   43.702801,   531.322876,   271.344421,   -266.763672,   0.410292,   652.111084,   632.829224
-0.019908,   0.075375,   0.079912,   0.000000,   704.029785,   0.535065,   30.400322,   42.944759,   527.792908,   287.059113,   -271.082306,   0.414252,   655.680847,   634.094666
-0.019326,   0.075976,   0.081007,   0.000000,   709.553955,   0.535064,   30.400322,   42.186718,   524.082214,   302.048279,   -274.919617,   0.417843,   659.044434,   635.223389
-0.018794,   0.076552,   0.082053,   0.000000,   714.696411,   0.535064,   30.400322,   41.428677,   520.218933,   316.358185,   -278.330383,   0.421096,   662.222107,   636.249634
-0.018313,   0.077109,   0.083056,   0.000000,   719.492371,   0.535065,   30.400322,   40.670635,   516.225098,   330.029022,   -281.363007,   0.424040,   665.232056,   637.203857
-0.017881,   0.077651,   0.084021,   0.000000,   723.968628,   0.535065,   30.400322,   39.912590,   512.120544,   343.089722,   -284.057129,   0.426696,   668.086853,   638.109741
-0.017496,   0.078181,   0.084950,   0.000000,   728.148376,   0.535064,   30.400322,   39.154549,   507.916870,   355.571442,   -286.449249,   0.429085,   670.797607,   638.987061
-0.017155,   0.078699,   0.085844,   0.000000,   732.051208,   0.535065,   30.400322,   38.396507,   503.624756,   367.504181,   -288.569214,   0.431227,   673.371826,   639.849060
-0.016856,   0.079203,   0.086702,   0.000000,   735.692261,   0.535064,   30.400322,   37.638466,   499.249542,   378.914368,   -290.443695,   0.433138,   675.815063,   640.706238
-0.016597,   0.079693,   0.087523,   0.000000,   739.085510,   0.535064,   30.400322,   36.880424,   494.794342,   389.830261,   -292.095825,   0.434834,   678.132141,   641.566101
-0.016375,   0.080166,   0.088306,   0.000000,   742.245117,   0.535065,   30.400322,   36.122379,   490.257141,   400.288116,   -293.545685,   0.436332,   680.327637,   642.432861
-0.016188,   0.080619,   0.089049,   0.000000,   745.180969,   0.535064,   30.400322,   35.364338,   485.633148,   410.317322,   -294.810333,   0.437644,   682.404236,   643.309265
-0.016033,   0.081050,   0.089747,   0.000000,   747.899658,   0.535064,   30.400322,   34.606297,   480.915161,   419.941681,   -295.904846,   0.438781,   684.363281,   644.198181
-0.015909,   0.081455,   0.090400,   0.000000,   750.409180,   0.535065,   30.400322,   33.848255,   476.095551,   429.189423,   -296.841644,   0.439753,   686.207153,   645.101013
-0.015814,   0.081834,   0.091005,   0.000000,   752.716553,   0.535065,   30.400322,   33.090210,   471.163544,   438.088196,   -297.631561,   0.440569,   687.938110,   646.019348
-0.015747,   0.082182,   0.091560,   0.000000,   754.825623,   0.535064,   30.400322,   32.332169,   466.108246,   446.656403,   -298.284760,   0.441232,   689.557861,   646.956726
-0.015706,   0.082498,   0.092063,   0.000000,   756.744263,   0.535064,   30.400322,   31.574127,   460.917908,   454.928864,   -298.805847,   0.441754,   691.068420,   647.909790
-0.015691,   0.082781,   0.092513,   0.000000,   758.474060,   0.535064,   30.400322,   30.816084,   455.571533,   462.926147,   -299.202637,   0.442135,   692.471436,   648.883850
-0.015702,   0.083028,   0.092908,   0.000000,   760.010437,   0.535064,   30.400322,   30.058043,   450.068665,   470.627625,   -299.485931,   0.442366,   693.767151,   649.890137
-0.015738,   0.083242,   0.093250,   0.000000,   761.359741,   0.535065,   30.400322,   29.300001,   444.373444,   478.068604,   -299.665497,   0.442441,   694.963745,   650.942566
-0.015801,   0.083423,   0.093541,   0.000000,   762.494629,   0.535064,   30.400322,   28.541958,   438.465240,   485.312775,   -299.691620,   0.442415,   696.011963,   651.948486
-0.015889,   0.083571,   0.093779,   0.000000,   763.503052,   0.535064,   30.400322,   27.783916,   432.327179,   492.386871,   -299.645050,   0.442221,   697.022827,   653.071167
-0.016005,   0.083682,   0.093962,   0.000000,   764.289062,   0.535065,   30.400322,   27.025873,   425.887115,   499.202484,   -299.509308,   0.441830,   697.923035,   654.268066
-0.016149,   0.083757,   0.094089,   0.000000,   764.881592,   0.535064,   30.400322,   26.267830,   419.137482,   505.764740,   -299.312775,   0.441217,   698.751526,   655.596008
-0.016323,   0.083797,   0.094163,   0.000000,   765.268921,   0.535064,   30.400322,   25.509789,   412.086060,   512.090149,   -299.029083,   0.440407,   699.486389,   657.007263
-0.016527,   0.083805,   0.094184,   0.000000,   765.536560,   0.535064,   30.400322,   24.751747,   404.779236,   518.257935,   -298.676392,   0.439416,   700.200134,   658.551758
-0.016765,   0.083783,   0.094157,   0.000000,   765.549988,   0.535065,   30.400322,   23.993704,   397.136139,   524.238098,   -298.165466,   0.438277,   700.754395,   660.063599
-0.017038,   0.083733,   0.094083,   0.000000,   765.375732,   0.535064,   30.400322,   23.235661,   389.131592,   530.103394,   -297.522827,   0.436968,   701.222168,   661.625549
-0.017350,   0.083657,   0.093963,   0.000000,   765.006653,   0.535064,   30.400322,   22.477619,   380.784546,   535.823792,   -296.744232,   0.435485,   701.599609,   663.228699
-0.017704,   0.083557,   0.093798,   0.000000,   764.434082,   0.535064,   30.400322,   21.719578,   372.066864,   541.397339,   -295.824799,   0.433813,   701.887268,   664.876953
-0.018104,   0.083434,   0.093592,   0.000000,   763.644531,   0.535065,   30.400322,   20.961535,   362.897003,   546.851807,   -294.752716,   0.431925,   702.088135,   666.584778
-0.018554,   0.083294,   0.093345,   0.000000,   762.631897,   0.535064,   30.400322,   20.203493,   353.261841,   552.189575,   -293.511108,   0.429816,   702.200867,   668.341125
-0.019060,   0.083137,   0.093062,   0.000000,   761.388672,   0.535064,   30.400322,   19.445450,   343.144714,   557.421143,   -292.075653,   0.427484,   702.221497,   670.128357
-0.019626,   0.082967,   0.092742,   0.000000,   759.899658,   0.535064,   30.400322,   18.687408,   332.500610,   562.555237,   -290.421814,   0.424914,   702.146423,   671.938293
-0.020259,   0.082786,   0.092388,   0.000000,   758.146179,   0.535065,   30.400322,   17.929365,   321.283264,   567.594727,   -288.521881,   0.422087,   701.970581,   673.760498
-0.020966,   0.082595,   0.092000,   0.000000,   756.104004,   0.535064,   30.400322,   17.171324,   309.451202,   572.529846,   -286.345795,   0.418982,   701.685242,   675.578857
-0.021752,   0.082392,   0.091574,   0.000000,   753.742981,   0.535065,   30.400322,   16.413282,   296.958527,   577.348022,   -283.856415,   0.415578,   701.277466,   677.369995
-0.022623,   0.082176,   0.091108,   0.000000,   751.029480,   0.535064,   30.400322,   15.655239,   283.767944,   582.029236,   -281.011261,   0.411855,   700.730347,   679.101074
-0.023588,   0.081942,   0.090594,   0.000000,   747.914490,   0.535064,   30.400322,   14.897197,   269.805939,   586.552856,   -277.755951,   0.407778,   700.020874,   680.737183
-0.024652,   0.081684,   0.090027,   0.000000,   744.342468,   0.535064,   30.400322,   14.139154,   254.993805,   590.883850,   -274.034271,   0.403302,   699.126709,   682.242615
-0.025819,   0.081393,   0.089396,   0.000000,   740.248657,   0.535064,   30.400322,   13.381112,   239.253052,   594.987976,   -269.768372,   0.398387,   698.015015,   683.559875
-0.027094,   0.081053,   0.088685,   0.000000,   735.539856,   0.535064,   30.400322,   12.623070,   222.474503,   598.803589,   -264.867188,   0.392972,   696.639099,   684.617981
-0.028478,   0.080642,   0.087871,   0.000000,   730.097290,   0.535064,   30.400322,   11.865027,   204.508209,   602.259766,   -259.210358,   0.386972,   694.941284,   685.329102
-0.029966,   0.080137,   0.086933,   0.000000,   723.773193,   0.535064,   30.400322,   11.106986,   185.160416,   605.265320,   -252.645691,   0.380274,   692.855591,   685.587036
-0.031553,   0.079508,   0.085847,   0.000000,   716.372131,   0.535065,   30.400322,   10.348944,   164.169586,   607.693176,   -244.975098,   0.372718,   690.301575,   685.256714
-0.033218,   0.078723,   0.084586,   0.000000,   707.667114,   0.535064,   30.400322,   9.590901,   141.271164,   609.380493,   -235.943115,   0.364120,   687.183899,   684.149353
-0.034935,   0.077743,   0.083124,   0.000000,   697.389954,   0.535064,   30.400322,   8.832859,   116.190674,   610.113770,   -225.221771,   0.354265,   683.391602,   682.013245
-0.036662,   0.076533,   0.081440,   0.000000,   685.247253,   0.535064,   30.400322,   8.074817,   88.691750,   609.619263,   -212.405930,   0.342910,   678.809631,   678.526733
-0.038329,   0.075055,   0.079518,   -4.639111,   671.002869,   0.535064,   30.400322,   7.316774,   58.781860,   607.581909,   -197.047333,   0.329883,   673.334412,   673.298401
-0.023738,   0.053064,   0.051246,   -0.774944,   573.793884,   0.533428,   31.271563,   51.780094,   535.752991,   37.265938,   -142.863556,   0.332658,   574.181763,   574.180603
-0.023369,   0.054831,   0.053306,   0.000000,   588.283875,   0.533425,   31.271563,   51.004917,   538.786926,   63.622330,   -161.149399,   0.345408,   581.349854,   580.963562
-0.022881,   0.056489,   0.055329,   0.000000,   602.149780,   0.533425,   31.271563,   50.229740,   540.653259,   89.933167,   -177.481140,   0.357204,   588.447021,   586.898071
-0.022308,   0.058021,   0.057290,   0.000000,   615.114868,   0.533425,   31.271563,   49.454567,   541.429504,   115.477158,   -191.874954,   0.367817,   595.320251,   592.006348
-0.021681,   0.059429,   0.059175,   0.000000,   627.062012,   0.533425,   31.271563,   48.679390,   541.261108,   139.812729,   -204.466202,   0.377195,   601.876465,   596.387451
-0.021026,   0.060716,   0.060974,   0.000000,   637.981018,   0.533425,   31.271563,   47.904217,   540.294434,   162.749374,   -215.461731,   0.385399,   608.065857,   600.159668
-0.020366,   0.061890,   0.062681,   0.000000,   647.928955,   0.533425,   31.271563,   47.129040,   538.664978,   184.269318,   -225.080658,   0.392554,   613.872681,   603.434387
-0.019715,   0.062964,   0.064297,   0.000000,   656.992249,   0.533426,   31.271563,   46.353867,   536.491760,   204.440598,   -233.522339,   0.398799,   619.303406,   606.306885
-0.019085,   0.063946,   0.065821,   0.000000,   665.262390,   0.533426,   31.271563,   45.578690,   533.867554,   223.376572,   -240.959579,   0.404269,   624.373840,   608.850403
-0.018482,   0.064849,   0.067260,   0.000000,   672.841736,   0.533425,   31.271563,   44.803513,   530.873291,   241.227753,   -247.539032,   0.409095,   629.112610,   611.122192
-0.017914,   0.065688,   0.068619,   0.000000,   679.815002,   0.533425,   31.271563,   44.028336,   527.571716,   258.114868,   -253.379166,   0.413379,   633.548828,   613.171326
-0.017383,   0.066473,   0.069911,   0.000000,   686.266846,   0.533425,   31.271563,   43.253162,   524.019531,   274.166046,   -258.577362,   0.417210,   637.716125,   615.036072
-0.016892,   0.067217,   0.071141,   0.000000,   692.260803,   0.533425,   31.271563,   42.477985,   520.257324,   289.477448,   -263.211212,   0.420659,   641.640503,   616.746094
-0.016443,   0.067924,   0.072314,   0.000000,   697.840637,   0.533426,   31.271563,   41.702808,   516.314453,   304.109589,   -267.343414,   0.423768,   645.340698,   618.327393
-0.016034,   0.068604,   0.073438,   0.000000,   703.049927,   0.533425,   31.271563,   40.927635,   512.218689,   318.119690,   -271.028992,   0.426577,   648.838501,   619.806335
-0.015667,   0.069260,   0.074516,   0.000000,   707.916077,   0.533426,   31.271563,   40.152458,   507.994598,   331.529968,   -274.313080,   0.429107,   652.148926,   621.207581
-0.015340,   0.069896,   0.075552,   0.000000,   712.464905,   0.533425,   31.271563,   39.377281,   503.657623,   344.370514,   -277.237793,   0.431378,   655.285889,   622.552734
-0.015052,   0.070513,   0.076549,   0.000000,   716.715698,   0.533425,   31.271563,   38.602108,   499.223236,   356.661469,   -279.837585,   0.433408,   658.258911,   623.857422
-0.014800,   0.071112,   0.077504,   0.000000,   720.683044,   0.533425,   31.271563,   37.826931,   494.700165,   368.423218,   -282.143036,   0.435213,   661.074097,   625.132751
-0.014583,   0.071689,   0.078417,   0.000000,   724.379456,   0.533425,   31.271563,   37.051758,   490.092377,   379.679413,   -284.180878,   0.436806,   663.735901,   626.385986
-0.014397,   0.072243,   0.079284,   0.000000,   727.814331,   0.533426,   31.271563,   36.276581,   485.399994,   390.450592,   -285.975159,   0.438201,   666.247314,   627.622925
-0.014242,   0.072769,   0.080103,   0.000000,   730.998108,   0.533425,   31.271563,   35.501404,   480.620697,   400.768982,   -287.544617,   0.439414,   668.610413,   628.842896
-0.014115,   0.073264,   0.080870,   0.000000,   733.940247,   0.533425,   31.271563,   34.726231,   475.748749,   410.665497,   -288.906189,   0.440458,   670.827698,   630.045715
-0.014014,   0.073726,   0.081582,   0.000000,   736.646484,   0.533426,   31.271563,   33.951054,   470.777557,   420.161255,   -290.075134,   0.441342,   672.900635,   631.233093
-0.013937,   0.074151,   0.082235,   0.000000,   739.123108,   0.533425,   31.271563,   33.175877,   465.701080,   429.286743,   -291.060303,   0.442082,   674.828552,   632.398376
-0.013884,   0.074535,   0.082827,   0.000000,   741.378052,   0.533425,   31.271563,   32.400703,   460.506683,   438.077301,   -291.870667,   0.442687,   676.613647,   633.538147
-0.013853,   0.074876,   0.083355,   0.000000,   743.410156,   0.533426,   31.271563,   31.625526,   455.185791,   446.532776,   -292.518860,   0.443155,   678.256653,   634.660339
-0.013844,   0.075172,   0.083817,   0.000000,   745.229248,   0.533425,   31.271563,   30.850351,   449.721832,   454.700836,   -293.007355,   0.443501,   679.760010,   635.757141
-0.013856,   0.075423,   0.084213,   0.000000,   746.845947,   0.533425,   31.271563,   30.075176,   444.121918,   462.612549,   -293.333038,   0.443744,   681.124878,   636.814941
-0.013889,   0.075628,   0.084541,   0.000000,   748.266357,   0.533426,   31.271563,   29.300001,   438.245270,   470.365784,   -293.521759,   0.443849,   682.372559,   637.886230
-0.013944,   0.075784,   0.084801,   0.000000,   749.356934,   0.533425,   31.271563,   28.524824,   432.023376,   477.794769,   -293.557098,   0.443768,   683.403870,   638.923767
-0.014021,   0.075893,   0.084993,   0.000000,   750.237305,   0.533425,   31.271563,   27.749649,   425.563843,   484.930420,   -293.492920,   0.443497,   684.330017,   640.035156
-0.014121,   0.075956,   0.085118,   0.000000,   750.988403,   0.533426,   31.271563,   26.974474,   418.810242,   491.987488,   -293.316315,   0.443077,   685.206299,   641.233398
-0.014244,   0.075973,   0.085177,   0.000000,   751.522156,   0.533425,   31.271563,   26.199297,   411.816467,   498.830383,   -292.986053,   0.442527,   685.944946,   642.418762
-0.014392,   0.075945,   0.085169,   0.000000,   751.889343,   0.533425,   31.271563,   25.424122,   404.613495,   505.443817,   -292.548401,   0.441813,   686.607483,   643.674744
-0.014566,   0.075871,   0.085095,   0.000000,   752.032471,   0.533426,   31.271563,   24.648947,   397.027740,   511.859833,   -291.997284,   0.440887,   687.165344,   645.014709
-0.014768,   0.075753,   0.084955,   0.000000,   751.876770,   0.533426,   31.271563,   23.873770,   389.049316,   518.006592,   -291.298004,   0.439753,   687.549072,   646.362244
-0.014999,   0.075592,   0.084752,   0.000000,   751.490906,   0.533425,   31.271563,   23.098595,   380.760651,   523.948975,   -290.442200,   0.438454,   687.802368,   647.713623
-0.015263,   0.075390,   0.084486,   0.000000,   751.002930,   0.533425,   31.271563,   22.323420,   372.161957,   529.850586,   -289.450439,   0.436995,   688.041138,   649.165894
-0.015561,   0.075153,   0.084163,   0.000000,   750.184509,   0.533426,   31.271563,   21.548244,   363.114563,   535.585327,   -288.209778,   0.435382,   688.054993,   650.508972
-0.015899,   0.074883,   0.083785,   0.000000,   749.136169,   0.533426,   31.271563,   20.773067,   353.628387,   541.235779,   -286.751129,   0.433591,   687.947266,   651.848816
-0.016280,   0.074583,   0.083356,   0.000000,   747.844421,   0.533425,   31.271563,   19.997892,   343.684814,   546.778992,   -285.065826,   0.431604,   687.716858,   653.189392
-0.016708,   0.074256,   0.082876,   0.000000,   746.290100,   0.533426,   31.271563,   19.222717,   333.233246,   552.204346,   -283.140320,   0.429389,   687.362000,   654.538635
-0.017189,   0.073904,   0.082348,   0.000000,   744.454163,   0.533425,   31.271563,   18.447540,   322.210541,   557.527039,   -280.942657,   0.426926,   686.877930,   655.891785
-0.017726,   0.073530,   0.081772,   0.000000,   742.318604,   0.533426,   31.271563,   17.672365,   310.600342,   562.733643,   -278.442261,   0.424202,   686.255615,   657.228516
-0.018326,   0.073132,   0.081148,   0.000000,   739.863464,   0.533425,   31.271563,   16.897190,   298.373383,   567.825867,   -275.595551,   0.421211,   685.483398,   658.522278
-0.018994,   0.072711,   0.080471,   0.000000,   737.058777,   0.533426,   31.271563,   16.122015,   285.489319,   572.797546,   -272.351501,   0.417936,   684.543396,   659.741394
-0.019733,   0.072264,   0.079742,   0.000000,   733.864868,   0.533425,   31.271563,   15.346839,   271.886078,   577.623962,   -268.663361,   0.414342,   683.420471,   660.867371
-0.020549,   0.071786,   0.078954,   0.000000,   730.227600,   0.533426,   31.271563,   14.571663,   257.480499,   582.274414,   -264.470123,   0.410382,   682.091492,   661.872314
-0.021446,   0.071269,   0.078095,   0.000000,   726.082092,   0.533425,   31.271563,   13.796487,   242.216675,   586.693909,   -259.701996,   0.406018,   680.519653,   662.702576
-0.022424,   0.070698,   0.077152,   0.000000,   721.345581,   0.533426,   31.271563,   13.021312,   225.995270,   590.827454,   -254.267944,   0.401192,   678.662903,   663.300293
-0.023482,   0.070059,   0.076110,   0.000000,   715.912781,   0.533425,   31.271563,   12.246136,   208.685379,   594.604248,   -248.054474,   0.395824,   676.469971,   663.596069
-0.024617,   0.069331,   0.074951,   0.000000,   709.642395,   0.533426,   31.271563,   11.470961,   190.083954,   597.938354,   -240.908234,   0.389794,   673.879822,   663.508423
-0.025821,   0.068495,   0.073662,   0.000000,   702.372009,   0.533425,   31.271563,   10.695785,   169.979736,   600.712341,   -232.643082,   0.382957,   670.826233,   662.931335
-0.027079,   0.067527,   0.072224,   0.000000,   693.916931,   0.533425,   31.271563,   9.920609,   148.179947,   602.776306,   -223.021988,   0.375162,   667.228333,   661.709778
-0.028371,   0.066405,   0.070625,   0.000000,   684.056641,   0.533425,   31.271563,   9.145433,   124.459785,   603.935303,   -211.744293,   0.366212,   663.000305,   659.652344
-0.029656,   0.065107,   0.068861,   0.000000,   672.599670,   0.533425,   31.271563,   8.370258,   98.728668,   603.964355,   -198.463623,   0.355937,   658.069214,   656.518372
-0.030881,   0.063616,   0.066930,   0.000000,   659.396667,   0.533425,   31.271563,   7.595082,   71.081726,   602.595398,   -182.803268,   0.344218,   652.373718,   652.021912
-0.031974,   0.061917,   0.064836,   -2.900366,   644.447754,   0.533425,   31.271563,   6.819907,   41.986435,   599.560974,   -164.446228,   0.331086,   645.902832,   645.888245
-0.019952,   0.044473,   0.042368,   0.000000,   551.940186,   0.530986,   32.119831,   52.313992,   526.851807,   25.910236,   -114.879234,   0.334078,   551.529724,   551.528259
-0.019744,   0.046119,   0.044216,   0.000000,   565.827454,   0.530986,   32.119831,   51.520405,   530.805725,   50.093811,   -134.394455,   0.346737,   558.443909,   557.986023
-0.019437,   0.047734,   0.046101,   0.000000,   579.630371,   0.530985,   32.119831,   50.726818,   533.596375,   75.193924,   -152.385071,   0.358778,   565.614380,   563.919434
-0.019048,   0.049282,   0.047987,   0.000000,   592.899170,   0.530985,   32.119831,   49.933235,   535.200439,   100.251823,   -168.597519,   0.369787,   572.809265,   569.236816
-0.018597,   0.050745,   0.049843,   0.000000,   605.378174,   0.530986,   32.119831,   49.139648,   535.722046,   124.624573,   -182.995682,   0.379607,   579.851318,   573.945618
-0.018106,   0.052118,   0.051655,   0.000000,   616.961548,   0.530985,   32.119831,   48.346062,   535.305298,   147.931015,   -195.702011,   0.388221,   586.638672,   578.126221
-0.017594,   0.053402,   0.053412,   0.000000,   627.640259,   0.530986,   32.119831,   47.552475,   534.108215,   170.004761,   -206.890289,   0.395716,   593.112976,   581.866394
-0.017076,   0.054598,   0.055101,   0.000000,   637.429565,   0.530986,   32.119831,   46.758888,   532.254944,   190.775497,   -216.741043,   0.402198,   599.232422,   585.239563
-0.016566,   0.055710,   0.056717,   0.000000,   646.399536,   0.530986,   32.119831,   45.965305,   529.864746,   210.299988,   -225.434616,   0.407810,   604.991333,   588.309998
-0.016071,   0.056748,   0.058260,   0.000000,   654.632385,   0.530985,   32.119831,   45.171719,   527.035522,   228.679504,   -233.131378,   0.412688,   610.400879,   591.129211
-0.015599,   0.057716,   0.059728,   0.000000,   662.198975,   0.530985,   32.119831,   44.378132,   523.838989,   246.014664,   -239.965103,   0.416944,   615.473938,   593.734680
-0.015155,   0.058625,   0.061126,   0.000000,   669.186584,   0.530986,   32.119831,   43.584549,   520.344116,   262.448120,   -246.048691,   0.420695,   620.236694,   596.150635
-0.014741,   0.059483,   0.062459,   0.000000,   675.661804,   0.530985,   32.119831,   42.790962,   516.602661,   278.081116,   -251.473373,   0.424026,   624.713196,   598.400818
-0.014359,   0.060299,   0.063733,   0.000000,   681.692505,   0.530987,   32.119831,   41.997375,   512.661255,   293.020844,   -256.315552,   0.427011,   628.931885,   600.503418
-0.014010,   0.061081,   0.064954,   0.000000,   687.325623,   0.530985,   32.119831,   41.203789,   508.552094,   307.339386,   -260.636688,   0.429702,   632.913147,   602.473755
-0.013695,   0.061830,   0.066123,   0.000000,   692.591919,   0.530986,   32.119831,   40.410202,   504.298645,   321.078369,   -264.487244,   0.432132,   636.670654,   604.326538
-0.013413,   0.062552,   0.067245,   0.000000,   697.520386,   0.530985,   32.119831,   39.616615,   499.920166,   334.268158,   -267.915527,   0.434322,   640.221985,   606.083923
-0.013164,   0.063248,   0.068320,   0.000000,   702.130554,   0.530985,   32.119831,   38.823032,   495.434814,   346.925964,   -270.959900,   0.436291,   643.577393,   607.761047
-0.012945,   0.063918,   0.069348,   0.000000,   706.435669,   0.530986,   32.119831,   38.029446,   490.852448,   359.062958,   -273.656250,   0.438048,   646.744690,   609.372559
-0.012756,   0.064561,   0.070329,   0.000000,   710.447937,   0.530985,   32.119831,   37.235859,   486.180176,   370.693909,   -276.036011,   0.439605,   649.729736,   610.929138
-0.012594,   0.065175,   0.071259,   0.000000,   714.178345,   0.530987,   32.119831,   36.442272,   481.418121,   381.839661,   -278.128082,   0.440974,   652.538208,   612.439148
-0.012459,   0.065755,   0.072134,   0.000000,   717.629456,   0.530985,   32.119831,   35.648685,   476.565857,   392.503357,   -279.957245,   0.442159,   655.170532,   613.910217
-0.012348,   0.066299,   0.072952,   0.000000,   720.811707,   0.530986,   32.119831,   34.855103,   471.624542,   402.718262,   -281.540070,   0.443180,   657.627808,   615.335693
-0.012259,   0.066802,   0.073707,   0.000000,   723.734436,   0.530985,   32.119831,   34.061516,   466.586365,   412.523193,   -282.891113,   0.444055,   659.911133,   616.708801
-0.012192,   0.067260,   0.074396,   0.000000,   726.397522,   0.530985,   32.119831,   33.267929,   461.442291,   421.921783,   -284.028931,   0.444782,   662.020935,   618.037170
-0.012145,   0.067669,   0.075014,   0.000000,   728.806335,   0.530986,   32.119831,   32.474346,   456.167419,   430.947784,   -284.969879,   0.445365,   663.960754,   619.325378
-0.012118,   0.068028,   0.075560,   0.000000,   730.972168,   0.530985,   32.119831,   31.680758,   450.753601,   439.648590,   -285.717133,   0.445826,   665.732178,   620.561279
-0.012109,   0.068334,   0.076031,   0.000000,   732.842285,   0.530985,   32.119831,   30.887173,   445.157227,   448.003754,   -286.258240,   0.446166,   667.286682,   621.701172
-0.012120,   0.068584,   0.076423,   0.000000,   734.526672,   0.530985,   32.119831,   30.093586,   439.311371,   456.095551,   -286.700439,   0.446301,   668.760864,   622.950195
-0.012149,   0.068777,   0.076736,   0.000000,   735.892090,   0.530986,   32.119831,   29.299999,   433.100372,   463.897583,   -286.980286,   0.446250,   670.026672,   624.176697
-0.012197,   0.068914,   0.076971,   0.000000,   736.998230,   0.530985,   32.119831,   28.506414,   426.623871,   471.471649,   -287.076050,   0.446074,   671.111328,   625.348633
-0.012264,   0.068994,   0.077128,   0.000000,   737.801636,   0.530985,   32.119831,   27.712828,   419.885620,   478.786591,   -286.958221,   0.445792,   671.967224,   626.404785
-0.012351,   0.069018,   0.077206,   0.000000,   738.376587,   0.530986,   32.119831,   26.919241,   412.896027,   485.871765,   -286.679993,   0.445368,   672.678406,   627.454834
-0.012458,   0.068984,   0.077202,   0.000000,   739.067017,   0.530985,   32.119831,   26.125656,   405.789673,   492.946655,   -286.402435,   0.444757,   673.578552,   628.849060
-0.012587,   0.068896,   0.077123,   0.000000,   739.296570,   0.530985,   32.119831,   25.332071,   398.284637,   499.719147,   -285.829926,   0.444048,   674.103577,   629.977722
-0.012738,   0.068755,   0.076969,   0.000000,   739.305115,   0.530986,   32.119831,   24.538485,   390.450958,   506.389313,   -285.050232,   0.443226,   674.479675,   631.063354
-0.012913,   0.068562,   0.076740,   0.000000,   739.070374,   0.530985,   32.119831,   23.744898,   382.328705,   512.844604,   -284.084747,   0.442256,   674.701477,   632.125916
-0.013114,   0.068316,   0.076436,   0.000000,   738.569275,   0.530985,   32.119831,   22.951313,   373.890289,   518.999634,   -282.970703,   0.441080,   674.776184,   633.219849
-0.013343,   0.068020,   0.076058,   0.000000,   737.809387,   0.530985,   32.119831,   22.157726,   364.972565,   524.993103,   -281.683777,   0.439669,   674.723572,   634.376221
-0.013602,   0.067676,   0.075610,   0.000000,   736.762268,   0.530986,   32.119831,   21.364141,   355.597351,   530.831848,   -280.166809,   0.438068,   674.499695,   635.507568
-0.013894,   0.067287,   0.075093,   0.000000,   735.430542,   0.530985,   32.119831,   20.570555,   345.760712,   536.535950,   -278.393982,   0.436280,   674.105225,   636.598450
-0.014222,   0.066858,   0.074511,   0.000000,   733.912231,   0.530985,   32.119831,   19.776970,   335.443726,   542.208740,   -276.383453,   0.434281,   673.643616,   637.755859
-0.014591,   0.066392,   0.073870,   0.000000,   732.008423,   0.530986,   32.119831,   18.983383,   324.584869,   547.712463,   -274.019196,   0.432094,   672.922485,   638.765503
-0.015004,   0.065893,   0.073170,   0.000000,   729.808716,   0.530985,   32.119831,   18.189796,   313.184357,   553.129333,   -271.309692,   0.429696,   672.035645,   639.718567
-0.015466,   0.065362,   0.072413,   0.000000,   727.284607,   0.530985,   32.119831,   17.396212,   301.190002,   558.446716,   -268.218018,   0.427061,   670.971191,   640.606934
-0.015980,   0.064800,   0.071598,   0.000000,   724.405945,   0.530985,   32.119831,   16.602625,   288.584198,   563.607727,   -264.725098,   0.424154,   669.719604,   641.425171
-0.016550,   0.064205,   0.070724,   0.000000,   721.134827,   0.530985,   32.119831,   15.809039,   275.291748,   568.607178,   -260.774628,   0.420941,   668.264221,   642.154968
-0.017180,   0.063573,   0.069785,   0.000000,   717.426636,   0.530986,   32.119831,   15.015453,   261.239258,   573.452148,   -256.279846,   0.417403,   666.575745,   642.752075
-0.017872,   0.062898,   0.068773,   0.000000,   713.230774,   0.530985,   32.119831,   14.221868,   246.412292,   578.076538,   -251.182220,   0.413512,   664.623108,   643.169739
-0.018626,   0.062168,   0.067678,   0.000000,   708.471069,   0.530985,   32.119831,   13.428282,   230.705719,   582.434082,   -245.389679,   0.409208,   662.368469,   643.367004
-0.019442,   0.061373,   0.066488,   0.000000,   703.052124,   0.530986,   32.119831,   12.634696,   213.992813,   586.463684,   -238.785828,   0.404415,   659.764832,   643.289673
-0.020316,   0.060501,   0.065196,   0.000000,   696.847717,   0.530985,   32.119831,   11.841109,   196.081955,   590.070984,   -231.236084,   0.399003,   656.764771,   642.891541
-0.021241,   0.059534,   0.063787,   0.000000,   689.705200,   0.530985,   32.119831,   11.047523,   176.779877,   593.133423,   -222.562622,   0.392830,   653.304443,   642.086914
-0.022205,   0.058455,   0.062251,   0.000000,   681.466980,   0.530986,   32.119831,   10.253938,   155.935654,   595.505920,   -212.544632,   0.385762,   649.313721,   640.748474
-0.023186,   0.057256,   0.060590,   0.000000,   671.978088,   0.530985,   32.119831,   9.460352,   133.406235,   597.025452,   -200.916367,   0.377635,   644.741699,   638.739380
-0.024160,   0.055926,   0.058809,   0.000000,   661.079895,   0.530985,   32.119831,   8.666766,   109.119881,   597.475403,   -187.369003,   0.368284,   639.538147,   635.878845
-0.025088,   0.054453,   0.056910,   0.000000,   648.646240,   0.530986,   32.119831,   7.873180,   83.182266,   596.577209,   -171.590057,   0.357582,   633.662720,   631.940735
-0.025919,   0.052834,   0.054904,   0.000000,   634.705994,   0.530986,   32.119831,   7.079594,   56.055973,   594.078735,   -153.326294,   0.345559,   627.133972,   626.706787
-0.026600,   0.051090,   0.052831,   -1.032930,   619.580811,   0.530985,   32.119831,   6.286008,   28.702486,   589.845398,   -132.551926,   0.332500,   620.097961,   620.096008
-0.016819,   0.037448,   0.035191,   0.000000,   532.269836,   0.527611,   32.943504,   52.883896,   517.025696,   17.343756,   -88.597916,   0.335308,   531.223083,   531.213745
-0.016709,   0.038904,   0.036776,   0.000000,   545.184021,   0.527612,   32.943504,   52.070660,   521.888733,   38.970428,   -108.592819,   0.347808,   537.517883,   537.003296
-0.016527,   0.040392,   0.038453,   0.000000,   558.477112,   0.527612,   32.943504,   51.257420,   525.626709,   62.239120,   -127.677834,   0.359962,   544.378113,   542.588989
-0.016271,   0.041871,   0.040184,   0.000000,   571.700012,   0.527611,   32.943504,   50.444183,   528.165405,   86.316231,   -145.365021,   0.371363,   551.554993,   547.803406
-0.015950,   0.043313,   0.041939,   0.000000,   584.481873,   0.527613,   32.943504,   49.630943,   529.531372,   110.399979,   -161.403305,   0.381713,   558.824158,   552.584106
-0.015583,   0.044701,   0.043692,   0.000000,   596.579285,   0.527611,   32.943504,   48.817707,   529.816772,   133.881500,   -175.757980,   0.390862,   566.012390,   556.953674
-0.015187,   0.046026,   0.045424,   0.000000,   607.875122,   0.527612,   32.943504,   48.004471,   529.166870,   156.388199,   -188.509293,   0.398812,   572.997925,   560.968140
-0.014778,   0.047288,   0.047123,   0.000000,   618.345703,   0.527612,   32.943504,   47.191231,   527.741760,   177.739777,   -199.801498,   0.405652,   579.710266,   564.694641
-0.014367,   0.048487,   0.048781,   0.000000,   628.017395,   0.527612,   32.943504,   46.377995,   525.683960,   197.897034,   -209.799194,   0.411517,   586.108093,   568.182617
-0.013963,   0.049620,   0.050384,   0.000000,   636.920654,   0.527612,   32.943504,   45.564754,   523.101379,   216.867523,   -218.655273,   0.416537,   592.159790,   571.462646
-0.013574,   0.050692,   0.051929,   0.000000,   645.128296,   0.527611,   32.943504,   44.751518,   520.098145,   234.749588,   -226.516495,   0.420856,   597.867676,   574.558167
-0.013203,   0.051707,   0.053414,   0.000000,   652.710144,   0.527612,   32.943504,   43.938282,   516.755188,   251.651077,   -233.507965,   0.424599,   603.241333,   577.482788
-0.012854,   0.052668,   0.054835,   0.000000,   659.725159,   0.527612,   32.943504,   43.125042,   513.130920,   267.676392,   -239.733368,   0.427870,   608.290405,   580.240417
-0.012529,   0.053580,   0.056194,   0.000000,   666.242615,   0.527612,   32.943504,   42.311806,   509.282288,   282.949402,   -245.279099,   0.430769,   613.036072,   582.830078
-0.012229,   0.054448,   0.057494,   0.000000,   672.315857,   0.527612,   32.943504,   41.498566,   505.249634,   297.563049,   -250.216995,   0.433369,   617.497375,   585.254150
-0.011955,   0.055277,   0.058738,   0.000000,   677.995056,   0.527612,   32.943504,   40.685329,   501.068726,   311.598877,   -254.607819,   0.435726,   621.696594,   587.517822
-0.011707,   0.056070,   0.059929,   0.000000,   683.315979,   0.527611,   32.943504,   39.872089,   496.758423,   325.114655,   -258.505615,   0.437876,   625.652039,   589.631226
-0.011484,   0.056829,   0.061065,   0.000000,   688.294373,   0.527612,   32.943504,   39.058853,   492.332458,   338.126831,   -261.953247,   0.439835,   629.371643,   591.605164
-0.011285,   0.057552,   0.062147,   0.000000,   692.947083,   0.527612,   32.943504,   38.245617,   487.798676,   350.648407,   -264.994415,   0.441612,   632.868225,   593.460022
-0.011112,   0.058242,   0.063175,   0.000000,   697.283691,   0.527612,   32.943504,   37.432377,   483.165253,   362.676666,   -267.666840,   0.443209,   636.150024,   595.215210
-0.010961,   0.058895,   0.064145,   0.000000,   701.316101,   0.527612,   32.943504,   36.619141,   478.437653,   374.227905,   -270.001678,   0.444636,   639.223816,   596.879639
-0.010833,   0.059509,   0.065056,   0.000000,   705.052124,   0.527611,   32.943504,   35.805901,   473.612701,   385.319092,   -272.027252,   0.445902,   642.093689,   598.460632
-0.010725,   0.060080,   0.065904,   0.000000,   708.489319,   0.527613,   32.943504,   34.992664,   468.694397,   395.929962,   -273.770233,   0.447001,   644.759827,   599.972534
-0.010638,   0.060605,   0.066683,   0.000000,   711.632446,   0.527611,   32.943504,   34.179428,   463.662476,   406.082672,   -275.258362,   0.447934,   647.226562,   601.427246
-0.010570,   0.061080,   0.067390,   0.000000,   714.495972,   0.527612,   32.943504,   33.366188,   458.503113,   415.835693,   -276.504791,   0.448726,   649.497620,   602.814453
-0.010521,   0.061502,   0.068023,   0.000000,   717.037109,   0.527612,   32.943504,   32.552952,   453.190948,   425.184448,   -277.496338,   0.449394,   651.526489,   604.079468
-0.010489,   0.061868,   0.068576,   0.000000,   719.347717,   0.527611,   32.943504,   31.739714,   447.740753,   434.167755,   -278.310760,   0.449898,   653.413696,   605.357361
-0.010476,   0.062176,   0.069048,   0.000000,   721.354248,   0.527611,   32.943504,   30.926476,   442.031738,   442.811188,   -278.932495,   0.450238,   655.093323,   606.593262
-0.010481,   0.062425,   0.069439,   0.000000,   723.018982,   0.527612,   32.943504,   30.113239,   436.019836,   451.174683,   -279.318939,   0.450459,   656.511963,   607.697327
-0.010504,   0.062614,   0.069748,   0.000000,   724.273010,   0.527612,   32.943504,   29.299999,   429.696075,   459.248505,   -279.410309,   0.450609,   657.587219,   608.549316
-0.010545,   0.062740,   0.069970,   0.000000,   725.329468,   0.527612,   32.943504,   28.486761,   423.140747,   467.101105,   -279.345123,   0.450610,   658.546204,   609.436340
-0.010604,   0.062801,   0.070101,   0.000000,   726.164001,   0.527612,   32.943504,   27.673523,   416.291290,   474.685730,   -279.152771,   0.450404,   659.390808,   610.414124
-0.010681,   0.062796,   0.070143,   0.000000,   726.805908,   0.527611,   32.943504,   26.860287,   409.168884,   482.022156,   -278.841125,   0.449997,   660.146301,   611.501221
-0.010778,   0.062726,   0.070095,   0.000000,   727.269409,   0.527611,   32.943504,   26.047049,   401.724609,   489.166077,   -278.412079,   0.449380,   660.829712,   612.718018
-0.010895,   0.062591,   0.069958,   0.000000,   727.437927,   0.527612,   32.943504,   25.233810,   393.870544,   496.030304,   -277.830963,   0.448530,   661.345947,   613.993713
-0.011032,   0.062391,   0.069732,   0.000000,   727.284241,   0.527612,   32.943504,   24.420572,   385.616211,   502.592316,   -277.074066,   0.447461,   661.665527,   615.281616
-0.011190,   0.062130,   0.069417,   0.000000,   727.258362,   0.527612,   32.943504,   23.607334,   377.187927,   509.205261,   -276.286011,   0.446192,   662.190674,   616.929077
-0.011372,   0.061813,   0.069026,   0.000000,   726.536682,   0.527611,   32.943504,   22.794098,   368.250092,   515.407898,   -275.035675,   0.444870,   662.108948,   618.040344
-0.011579,   0.061443,   0.068558,   0.000000,   725.544495,   0.527612,   32.943504,   21.980860,   358.946075,   521.446350,   -273.536224,   0.443401,   661.848633,   619.092896
-0.011813,   0.061021,   0.068014,   0.000000,   724.238892,   0.527612,   32.943504,   21.167622,   349.226379,   527.264282,   -271.786560,   0.441742,   661.389404,   620.094482
-0.012077,   0.060546,   0.067393,   0.000000,   722.632507,   0.527611,   32.943504,   20.354383,   339.005951,   532.959229,   -269.747467,   0.439889,   660.746033,   621.051880
-0.012370,   0.060022,   0.066698,   0.000000,   720.735718,   0.527611,   32.943504,   19.541147,   328.289825,   538.564819,   -267.380310,   0.437857,   659.922424,   621.943604
-0.012697,   0.059452,   0.065931,   0.000000,   718.505981,   0.527612,   32.943504,   18.727909,   317.041016,   544.058472,   -264.640472,   0.435635,   658.885071,   622.733093
-0.013061,   0.058838,   0.065096,   0.000000,   715.922241,   0.527612,   32.943504,   17.914671,   305.208679,   549.427734,   -261.498688,   0.433190,   657.630432,   623.427246
-0.013464,   0.058183,   0.064194,   0.000000,   712.970703,   0.527612,   32.943504,   17.101433,   292.774719,   554.671631,   -257.908173,   0.430514,   656.150696,   624.006348
-0.013910,   0.057485,   0.063222,   0.000000,   709.671143,   0.527612,   32.943504,   16.288195,   279.734711,   559.816528,   -253.826599,   0.427599,   654.469055,   624.478333
-0.014401,   0.056745,   0.062181,   0.000000,   705.907654,   0.527612,   32.943504,   15.474957,   266.062378,   564.755005,   -249.169281,   0.424439,   652.482422,   624.727173
-0.014939,   0.055958,   0.061065,   0.000000,   701.670105,   0.527612,   32.943504,   14.661719,   251.655502,   569.513428,   -243.869736,   0.420977,   650.209351,   624.783020
-0.015525,   0.055116,   0.059867,   0.000000,   696.881897,   0.527612,   32.943504,   13.848482,   236.409622,   574.026428,   -237.847702,   0.417139,   647.614929,   624.625122
-0.016157,   0.054213,   0.058581,   0.000000,   691.456665,   0.527612,   32.943504,   13.035244,   220.223633,   578.188599,   -231.031738,   0.412829,   644.667908,   624.236877
-0.016834,   0.053241,   0.057202,   0.000000,   685.282104,   0.527612,   32.943504,   12.222006,   202.905609,   581.945435,   -223.264786,   0.407935,   641.321045,   623.574951
-0.017551,   0.052188,   0.055723,   0.000000,   678.238708,   0.527612,   32.943504,   11.408768,   184.294128,   585.232056,   -214.336533,   0.402357,   637.515869,   622.556519
-0.018297,   0.051050,   0.054145,   0.000000,   670.204468,   0.527611,   32.943504,   10.595531,   164.290619,   587.874878,   -204.087463,   0.395951,   633.214844,   621.112793
-0.019058,   0.049822,   0.052475,   0.000000,   661.034729,   0.527612,   32.943504,   9.782292,   142.740479,   589.710693,   -192.267609,   0.388541,   628.377625,   619.148499
-0.019816,   0.048496,   0.050716,   0.000000,   650.585815,   0.527612,   32.943504,   8.969054,   119.590294,   590.510376,   -178.605118,   0.379958,   622.964233,   616.519653
-0.020538,   0.047071,   0.048881,   0.000000,   638.785889,   0.527611,   32.943504,   8.155817,   95.000534,   590.028564,   -162.829742,   0.370107,   616.965454,   613.048218
-0.021196,   0.045553,   0.046993,   0.000000,   625.667664,   0.527612,   32.943504,   7.342579,   69.375717,   587.996643,   -144.762146,   0.358965,   610.433105,   608.576477
-0.021745,   0.043965,   0.045087,   0.000000,   611.498291,   0.527612,   32.943504,   6.529341,   43.539871,   584.248108,   -124.406441,   0.346738,   603.518372,   603.023438
-0.022151,   0.042344,   0.043210,   0.000000,   596.826233,   0.527612,   32.943504,   5.716104,   18.718603,   578.789001,   -102.114906,   0.333904,   596.485840,   596.484985
-0.014210,   0.031639,   0.029322,   0.000000,   514.436890,   0.523154,   33.740997,   53.488712,   506.199554,   11.033009,   -64.394958,   0.336054,   513.044800,   513.027649
-0.014161,   0.032892,   0.030648,   0.000000,   526.175537,   0.523154,   33.740997,   52.654621,   511.898651,   29.946527,   -84.170036,   0.348329,   518.518311,   517.985168
-0.014059,   0.034216,   0.032095,   0.000000,   538.706970,   0.523154,   33.740997,   51.820526,   516.630737,   51.121719,   -103.749992,   0.360624,   524.787476,   522.974487
-0.013896,   0.035579,   0.033636,   0.000000,   551.585632,   0.523154,   33.740997,   50.986435,   520.193237,   73.795860,   -122.470215,   0.372416,   531.653625,   527.829041
-0.013679,   0.036950,   0.035244,   0.000000,   564.384460,   0.523155,   33.740997,   50.152340,   522.513428,   97.130890,   -139.872772,   0.383289,   538.883728,   532.453369
-0.013416,   0.038310,   0.036898,   0.000000,   576.809814,   0.523154,   33.740997,   49.318245,   523.659729,   120.457809,   -155.740662,   0.393036,   546.274780,   536.826904
-0.013120,   0.039644,   0.038572,   0.000000,   588.631287,   0.523154,   33.740997,   48.484154,   523.736694,   143.209198,   -170.016159,   0.401549,   553.643860,   540.971680
-0.012802,   0.040937,   0.040245,   0.000000,   599.736084,   0.523155,   33.740997,   47.650059,   522.895142,   165.064240,   -182.758270,   0.408877,   560.852966,   544.913086
-0.012476,   0.042185,   0.041902,   0.000000,   610.081177,   0.523154,   33.740997,   46.815964,   521.288940,   185.833832,   -194.087265,   0.415114,   567.814087,   548.690552
-0.012148,   0.043387,   0.043533,   0.000000,   619.681458,   0.523155,   33.740997,   45.981869,   519.072327,   205.465439,   -204.141891,   0.420405,   574.475830,   552.327026
-0.011827,   0.044539,   0.045127,   0.000000,   628.574829,   0.523152,   33.740997,   45.147778,   516.369263,   223.994308,   -213.063782,   0.424906,   580.805847,   555.822998
-0.011517,   0.045638,   0.046671,   0.000000,   636.795288,   0.523154,   33.740997,   44.313686,   513.272400,   241.466492,   -220.979965,   0.428745,   586.781860,   559.172119
-0.011221,   0.046687,   0.048162,   0.000000,   644.414001,   0.523155,   33.740997,   43.479591,   509.872955,   258.004150,   -228.008713,   0.432063,   592.411316,   562.361755
-0.010941,   0.047686,   0.049597,   0.000000,   651.482239,   0.523154,   33.740997,   42.645496,   506.232941,   273.703491,   -234.247971,   0.434966,   597.698914,   565.377075
-0.010679,   0.048633,   0.050969,   0.000000,   658.051636,   0.523155,   33.740997,   41.811405,   502.396637,   288.676086,   -239.781479,   0.437549,   602.653992,   568.197449
-0.010436,   0.049533,   0.052278,   0.000000,   664.176392,   0.523154,   33.740997,   40.977310,   498.405212,   303.030640,   -244.678452,   0.439895,   607.293945,   570.806763
-0.010210,   0.050384,   0.053524,   0.000000,   669.895813,   0.523154,   33.740997,   40.143215,   494.277618,   316.846008,   -249.001953,   0.442052,   611.635376,   573.201904
-0.010002,   0.051190,   0.054705,   0.000000,   675.243713,   0.523154,   33.740997,   39.309124,   490.029327,   330.182861,   -252.804733,   0.444057,   615.695435,   575.385620
-0.009812,   0.051951,   0.055824,   0.000000,   680.241699,   0.523154,   33.740997,   38.475029,   485.664490,   343.066345,   -256.137909,   0.445920,   619.491150,   577.378235
-0.009642,   0.052669,   0.056881,   0.000000,   684.905762,   0.523155,   33.740997,   37.640938,   481.186310,   355.508575,   -259.045563,   0.447644,   623.036560,   579.202148
-0.009489,   0.053342,   0.057872,   0.000000,   689.238953,   0.523154,   33.740997,   36.806843,   476.609467,   367.487457,   -261.560425,   0.449225,   626.336304,   580.874573
-0.009355,   0.053967,   0.058796,   0.000000,   693.248047,   0.523154,   33.740997,   35.972748,   471.916992,   379.013306,   -263.723175,   0.450657,   629.399414,   582.419678
-0.009240,   0.054545,   0.059650,   0.000000,   696.942444,   0.523155,   33.740997,   35.138653,   467.093719,   390.098541,   -265.570465,   0.451936,   632.237183,   583.863525
-0.009143,   0.055073,   0.060434,   0.000000,   700.298462,   0.523154,   33.740997,   34.304562,   462.130981,   400.728607,   -267.110077,   0.453070,   634.824951,   585.184509
-0.009064,   0.055547,   0.061143,   0.000000,   703.354309,   0.523154,   33.740997,   33.470467,   457.045624,   410.896729,   -268.393066,   0.454035,   637.207031,   586.454590
-0.009003,   0.055965,   0.061772,   0.000000,   706.108398,   0.523154,   33.740997,   32.636375,   451.794403,   420.649261,   -269.436920,   0.454839,   639.379211,   587.670898
-0.008961,   0.056327,   0.062321,   0.000000,   708.539551,   0.523154,   33.740997,   31.802280,   446.311981,   430.033752,   -270.244141,   0.455491,   641.318848,   588.810608
-0.008938,   0.056629,   0.062790,   0.000000,   710.428223,   0.523154,   33.740997,   30.968187,   440.425934,   438.999847,   -270.714417,   0.456030,   642.812439,   589.645447
-0.008933,   0.056868,   0.063170,   0.000000,   712.077393,   0.523154,   33.740997,   30.134094,   434.271667,   447.656647,   -271.030640,   0.456363,   644.171204,   590.557800
-0.008946,   0.057040,   0.063458,   0.000000,   713.430176,   0.523154,   33.740997,   29.300001,   427.787750,   455.941864,   -271.200256,   0.456454,   645.358643,   591.554932
-0.008978,   0.057144,   0.063653,   0.000000,   714.506592,   0.523154,   33.740997,   28.465906,   420.936920,   463.943481,   -271.215302,   0.456323,   646.385132,   592.628601
-0.009029,   0.057182,   0.063757,   0.000000,   715.339844,   0.523154,   33.740997,   27.631813,   413.773773,   471.710541,   -271.054108,   0.456015,   647.262756,   593.743225
-0.009100,   0.057154,   0.063769,   0.000000,   715.878784,   0.523154,   33.740997,   26.797718,   406.297424,   479.182709,   -270.696655,   0.455532,   647.945190,   594.853455
-0.009191,   0.057058,   0.063688,   0.000000,   716.354797,   0.523154,   33.740997,   25.963625,   398.550659,   486.537933,   -270.253143,   0.454828,   648.661743,   596.213501
-0.009302,   0.056897,   0.063516,   0.000000,   716.453857,   0.523154,   33.740997,   25.129532,   390.390076,   493.645111,   -269.536377,   0.453983,   649.095764,   597.447388
-0.009435,   0.056671,   0.063254,   0.000000,   716.315002,   0.523154,   33.740997,   24.295439,   381.985107,   500.455505,   -268.641571,   0.452959,   649.389465,   598.717346
-0.009588,   0.056379,   0.062899,   0.000000,   715.925476,   0.523154,   33.740997,   23.461344,   373.207306,   507.002380,   -267.584991,   0.451698,   649.556274,   600.085022
-0.009764,   0.056020,   0.062451,   0.000000,   715.112732,   0.523153,   33.740997,   22.627251,   363.856598,   513.277832,   -266.262573,   0.450200,   649.440918,   601.394836
-0.009963,   0.055597,   0.061913,   0.000000,   714.207520,   0.523154,   33.740997,   21.793158,   354.150452,   519.452393,   -264.807404,   0.448449,   649.351929,   602.933167
-0.010186,   0.055118,   0.061296,   0.000000,   712.661560,   0.523154,   33.740997,   20.959064,   343.910675,   525.219116,   -262.905975,   0.446575,   648.737122,   604.054260
-0.010435,   0.054584,   0.060600,   0.000000,   710.747131,   0.523154,   33.740997,   20.124969,   333.229797,   530.758484,   -260.669983,   0.444531,   647.864685,   605.038818
-0.010711,   0.053996,   0.059823,   0.000000,   708.511169,   0.523154,   33.740997,   19.290876,   322.063660,   536.161377,   -258.077789,   0.442304,   646.783081,   605.929077
-0.011015,   0.053353,   0.058966,   0.000000,   705.906799,   0.523154,   33.740997,   18.456783,   310.335236,   541.460632,   -255.049454,   0.439899,   645.448608,   606.665771
-0.011347,   0.052655,   0.058028,   0.000000,   702.899780,   0.523154,   33.740997,   17.622690,   298.063690,   546.630493,   -251.522293,   0.437333,   643.821838,   607.181091
-0.011710,   0.051904,   0.057010,   0.000000,   699.540039,   0.523154,   33.740997,   16.788595,   285.279785,   551.686890,   -247.486710,   0.434592,   641.955505,   607.522400
-0.012105,   0.051097,   0.055910,   0.000000,   695.751099,   0.523154,   33.740997,   15.954503,   271.865875,   556.620300,   -242.848663,   0.431642,   639.794922,   607.646301
-0.012534,   0.050233,   0.054726,   0.000000,   691.424194,   0.523154,   33.740997,   15.120409,   257.739685,   561.322021,   -237.535904,   0.428425,   637.265381,   607.499817
-0.012996,   0.049312,   0.053457,   0.000000,   686.565247,   0.523154,   33.740997,   14.286316,   242.851257,   565.792236,   -231.492249,   0.424888,   634.397522,   607.121216
-0.013491,   0.048329,   0.052104,   0.000000,   681.093628,   0.523154,   33.740997,   13.452222,   227.069931,   570.002747,   -224.583832,   0.420965,   631.147400,   606.473755
-0.014021,   0.047283,   0.050664,   0.000000,   674.926758,   0.523154,   33.740997,   12.618128,   210.272217,   573.881592,   -216.681976,   0.416560,   627.484131,   605.539246
-0.014579,   0.046171,   0.049141,   0.000000,   667.959839,   0.523154,   33.740997,   11.784035,   192.329651,   577.287720,   -207.668991,   0.411530,   623.379089,   604.307251
-0.015162,   0.044991,   0.047540,   0.000000,   660.073975,   0.523154,   33.740997,   10.949941,   173.044540,   580.133484,   -197.315414,   0.405721,   618.797607,   602.736877
-0.015758,   0.043743,   0.045868,   0.000000,   651.131348,   0.523154,   33.740997,   10.115848,   152.289978,   582.210693,   -185.419754,   0.398941,   613.708496,   600.770386
-0.016352,   0.042426,   0.044135,   0.000000,   641.027832,   0.523154,   33.740997,   9.281754,   130.071213,   583.294495,   -171.753418,   0.391039,   608.094482,   598.299622
-0.016921,   0.041042,   0.042359,   0.000000,   629.697083,   0.523154,   33.740997,   8.447660,   106.522316,   583.127930,   -156.089111,   0.381889,   601.963867,   595.191284
-0.017442,   0.039607,   0.040567,   0.000000,   617.198730,   0.523154,   33.740997,   7.613567,   82.042854,   581.473328,   -138.270248,   0.371473,   595.392761,   591.319031
-0.017886,   0.038143,   0.038798,   0.000000,   603.770386,   0.523154,   33.740997,   6.779473,   57.361092,   578.142517,   -118.335571,   0.359929,   588.545715,   586.616333
-0.018235,   0.036679,   0.037085,   0.000000,   589.816223,   0.523154,   33.740997,   5.945380,   33.461063,   573.039734,   -96.611084,   0.347573,   581.653503,   581.114685
-0.018475,   0.035252,   0.035471,   0.000000,   575.986084,   0.523154,   33.740997,   5.111286,   11.567191,   566.333130,   -73.812706,   0.334996,   575.031372,   575.024231
-0.011987,   0.026680,   0.024362,   0.000000,   497.594940,   0.517472,   34.510784,   54.127285,   493.904358,   6.095321,   -42.590130,   0.335753,   496.396912,   496.383850
-0.011985,   0.027796,   0.025511,   0.000000,   508.447388,   0.517472,   34.510784,   53.271168,   500.592407,   22.714025,   -61.769165,   0.348047,   501.183105,   500.687103
-0.011948,   0.028976,   0.026764,   0.000000,   520.131287,   0.517471,   34.510784,   52.415058,   506.331116,   41.626484,   -81.261536,   0.360410,   506.791382,   505.068329
-0.011869,   0.030218,   0.028124,   0.000000,   532.449463,   0.517472,   34.510784,   51.558945,   510.965881,   62.496342,   -100.480232,   0.372494,   513.173706,   509.466980
-0.011742,   0.031506,   0.029583,   0.000000,   545.078064,   0.517472,   34.510784,   50.702831,   514.385925,   84.702644,   -118.869324,   0.383898,   520.180115,   513.814941
-0.011570,   0.032816,   0.031117,   0.000000,   557.641052,   0.517472,   34.510784,   49.846718,   516.549438,   107.501358,   -136.003525,   0.394285,   527.580322,   518.051636
-0.011360,   0.034128,   0.032704,   0.000000,   569.855469,   0.517472,   34.510784,   48.990604,   517.532471,   130.250748,   -151.662216,   0.403480,   535.163940,   522.170044
-0.011124,   0.035430,   0.034327,   0.000000,   581.531067,   0.517472,   34.510784,   48.134491,   517.468994,   152.459961,   -165.792587,   0.411435,   542.758179,   526.196045
-0.010871,   0.036710,   0.035964,   0.000000,   592.547180,   0.517472,   34.510784,   47.278378,   516.509338,   173.807877,   -178.437775,   0.418210,   550.216125,   530.141846
-0.010609,   0.037959,   0.037599,   0.000000,   602.863281,   0.517472,   34.510784,   46.422264,   514.826965,   194.136322,   -189.691330,   0.423941,   557.438293,   534.007202
-0.010346,   0.039171,   0.039217,   0.000000,   612.472107,   0.517471,   34.510784,   45.566151,   512.570740,   213.375824,   -199.675400,   0.428775,   564.356812,   537.783691
-0.010087,   0.040342,   0.040806,   0.000000,   621.404053,   0.517472,   34.510784,   44.710037,   509.876312,   231.553925,   -208.516403,   0.432876,   570.933044,   541.444275
-0.009833,   0.041467,   0.042354,   0.000000,   629.695923,   0.517472,   34.510784,   43.853924,   506.847870,   248.741196,   -216.332031,   0.436398,   577.140930,   544.947754
-0.009588,   0.042540,   0.043848,   0.000000,   637.380188,   0.517472,   34.510784,   42.997814,   503.555145,   265.007629,   -223.232529,   0.439456,   582.965820,   548.261658
-0.009353,   0.043560,   0.045282,   0.000000,   644.514832,   0.517472,   34.510784,   42.141701,   500.060852,   280.474823,   -229.318604,   0.442168,   588.416138,   551.353455
-0.009128,   0.044523,   0.046651,   0.000000,   651.143433,   0.517472,   34.510784,   41.285587,   496.403839,   295.247955,   -234.672348,   0.444625,   593.497437,   554.190735
-0.008912,   0.045427,   0.047946,   0.000000,   657.303650,   0.517472,   34.510784,   40.429474,   492.598724,   309.422729,   -239.369354,   0.446893,   598.220459,   556.755188
-0.008707,   0.046271,   0.049165,   0.000000,   663.036194,   0.517471,   34.510784,   39.573360,   488.659851,   323.088013,   -243.472641,   0.449023,   602.603516,   559.037292
-0.008515,   0.047057,   0.050309,   0.000000,   668.378662,   0.517472,   34.510784,   38.717247,   484.589203,   336.318848,   -247.040649,   0.451046,   606.669434,   561.043213
-0.008335,   0.047787,   0.051378,   0.000000,   673.352173,   0.517472,   34.510784,   37.861134,   480.384949,   349.141907,   -250.123871,   0.452969,   610.436829,   562.795288
-0.008169,   0.048460,   0.052372,   0.000000,   677.966248,   0.517472,   34.510784,   37.005020,   476.057556,   361.544220,   -252.761459,   0.454785,   613.917114,   564.318176
-0.008018,   0.049078,   0.053289,   0.000000,   682.232727,   0.517473,   34.510784,   36.148907,   471.582031,   373.543060,   -255.001343,   0.456484,   617.126343,   565.647339
-0.007883,   0.049642,   0.054131,   0.000000,   686.161865,   0.517472,   34.510784,   35.292793,   466.934906,   385.125641,   -256.895447,   0.458033,   620.086426,   566.844238
-0.007766,   0.050151,   0.054897,   0.000000,   689.762756,   0.517472,   34.510784,   34.436680,   462.135193,   396.265564,   -258.472504,   0.459424,   622.809082,   567.939697
-0.007667,   0.050605,   0.055586,   0.000000,   693.029175,   0.517471,   34.510784,   33.580566,   457.184357,   406.952911,   -259.749146,   0.460661,   625.287598,   568.934631
-0.007587,   0.051004,   0.056198,   0.000000,   695.801697,   0.517472,   34.510784,   32.724453,   451.911804,   417.169769,   -260.682800,   0.461757,   627.373535,   569.691772
-0.007527,   0.051344,   0.056727,   0.000000,   698.243408,   0.517471,   34.510784,   31.868340,   446.333771,   427.002838,   -261.396484,   0.462640,   629.240662,   570.452209
-0.007487,   0.051623,   0.057171,   0.000000,   700.264343,   0.517472,   34.510784,   31.012226,   440.407074,   436.377899,   -261.864105,   0.463313,   630.807861,   571.152344
-0.007467,   0.051838,   0.057526,   0.000000,   702.005859,   0.517473,   34.510784,   30.156113,   434.165924,   445.429077,   -262.147858,   0.463772,   632.203674,   571.920227
-0.007468,   0.051992,   0.057796,   0.000000,   703.325439,   0.517471,   34.510784,   29.299999,   427.493103,   454.167084,   -262.156281,   0.464071,   633.279175,   572.567444
-0.007490,   0.052083,   0.057977,   0.000000,   704.243469,   0.517472,   34.510784,   28.443888,   420.420441,   462.525299,   -261.925934,   0.464169,   634.069031,   573.174744
-0.007535,   0.052107,   0.058063,   0.000000,   705.094482,   0.517472,   34.510784,   27.587774,   413.040222,   470.657532,   -261.664490,   0.463941,   634.921387,   574.194763
-0.007601,   0.052063,   0.058054,   0.000000,   705.685608,   0.517472,   34.510784,   26.731661,   405.236938,   478.442993,   -261.294373,   0.463391,   635.661987,   575.463257
-0.007691,   0.051951,   0.057950,   0.000000,   706.037109,   0.517471,   34.510784,   25.875547,   397.030975,   485.891876,   -260.818390,   0.462523,   636.308960,   576.986206
-0.007803,   0.051771,   0.057751,   0.000000,   706.093201,   0.517472,   34.510784,   25.019434,   388.403778,   492.993805,   -260.191101,   0.461366,   636.802917,   578.668945
-0.007937,   0.051525,   0.057456,   0.000000,   706.213562,   0.517472,   34.510784,   24.163321,   379.540985,   500.009277,   -259.540558,   0.459916,   637.471985,   580.800537
-0.008096,   0.051217,   0.057074,   0.000000,   705.625610,   0.517472,   34.510784,   23.307207,   370.131256,   506.518066,   -258.455902,   0.458338,   637.556213,   582.503296
-0.008277,   0.050845,   0.056604,   0.000000,   704.718933,   0.517471,   34.510784,   22.451094,   360.374481,   512.740723,   -257.112122,   0.456583,   637.427673,   584.157043
-0.008481,   0.050409,   0.056041,   0.000000,   703.476196,   0.517472,   34.510784,   21.594982,   350.180389,   518.741028,   -255.472412,   0.454641,   637.074646,   585.745056
-0.008709,   0.049906,   0.055386,   0.000000,   701.813416,   0.517472,   34.510784,   20.738867,   339.450684,   524.490051,   -253.486435,   0.452493,   636.430847,   587.212097
-0.008959,   0.049340,   0.054639,   0.000000,   699.870117,   0.517471,   34.510784,   19.882755,   328.300201,   530.028381,   -251.213211,   0.450119,   635.631104,   588.680786
-0.009232,   0.048711,   0.053806,   0.000000,   697.241699,   0.517472,   34.510784,   19.026642,   316.616333,   535.124207,   -248.407013,   0.447626,   634.265625,   589.657043
-0.009529,   0.048020,   0.052884,   0.000000,   694.218445,   0.517473,   34.510784,   18.170528,   304.436310,   540.071655,   -245.119705,   0.444988,   632.607666,   590.402588
-0.009848,   0.047262,   0.051868,   0.000000,   690.815247,   0.517472,   34.510784,   17.314415,   291.759644,   544.899231,   -241.306015,   0.442206,   630.670288,   590.914551
-0.010189,   0.046437,   0.050757,   0.000000,   686.964478,   0.517471,   34.510784,   16.458302,   278.514221,   549.571472,   -236.892807,   0.439254,   628.402832,   591.151978
-0.010551,   0.045543,   0.049551,   0.000000,   682.608887,   0.517472,   34.510784,   15.602188,   264.622742,   554.078857,   -231.783890,   0.436109,   625.761963,   591.073242
-0.010934,   0.044580,   0.048252,   0.000000,   677.696045,   0.517472,   34.510784,   14.746075,   250.029556,   558.386597,   -225.886368,   0.432739,   622.712769,   590.647522
-0.011339,   0.043549,   0.046860,   0.000000,   672.159912,   0.517472,   34.510784,   13.889962,   234.611191,   562.447388,   -219.099442,   0.429058,   619.230713,   589.883789
-0.011763,   0.042449,   0.045378,   0.000000,   665.947205,   0.517472,   34.510784,   13.033849,   218.261063,   566.210815,   -211.306915,   0.424976,   615.306946,   588.795959
-0.012206,   0.041285,   0.043816,   0.000000,   658.963074,   0.517472,   34.510784,   12.177735,   200.778687,   569.617126,   -202.328705,   0.420349,   610.916931,   587.395752
-0.012663,   0.040062,   0.042186,   0.000000,   651.093628,   0.517472,   34.510784,   11.321622,   182.004974,   572.481262,   -192.031662,   0.414976,   606.048340,   585.711182
-0.013129,   0.038786,   0.040500,   0.000000,   642.246887,   0.517472,   34.510784,   10.465509,   161.881927,   574.629089,   -180.225449,   0.408704,   600.687866,   583.698914
-0.013592,   0.037462,   0.038777,   0.000000,   632.340515,   0.517472,   34.510784,   9.609395,   140.389435,   575.868286,   -166.678055,   0.401374,   594.838074,   581.296814
-0.014040,   0.036102,   0.037038,   0.000000,   621.330505,   0.517472,   34.510784,   8.753282,   117.663803,   575.937744,   -151.204529,   0.392842,   588.532471,   578.422852
-0.014452,   0.034721,   0.035315,   0.000000,   609.269348,   0.517472,   34.510784,   7.897169,   94.052803,   574.579590,   -133.688950,   0.383041,   581.863403,   574.991394
-0.014810,   0.033337,   0.033633,   0.000000,   596.320618,   0.517472,   34.510784,   7.041056,   70.164368,   571.552917,   -114.156395,   0.372031,   574.967957,   570.914978
-0.015091,   0.031967,   0.032021,   0.000000,   582.824341,   0.517472,   34.510784,   6.184943,   46.893803,   566.714355,   -92.918358,   0.360062,   568.058289,   566.177063
-0.015287,   0.030648,   0.030517,   0.000000,   569.352356,   0.517472,   34.510784,   5.328829,   25.358707,   560.172791,   -70.665619,   0.347638,   561.437683,   560.912720
-0.015404,   0.029400,   0.029136,   0.000000,   556.485779,   0.517472,   34.510784,   4.472716,   6.521436,   552.241272,   -48.314938,   0.335381,   555.350830,   555.340393
-0.009654,   0.021492,   0.019227,   0.000000,   478.036896,   0.522564,   35.259705,   54.819710,   477.088135,   1.894369,   -21.254250,   0.334323,   477.564789,   477.562683
-0.009826,   0.022775,   0.020509,   0.000000,   489.381195,   0.522564,   35.259705,   53.939720,   485.853668,   16.811256,   -40.828957,   0.346994,   482.876404,   482.465027
-0.009935,   0.024005,   0.021770,   0.000000,   500.826080,   0.522564,   35.259705,   53.059731,   493.056671,   33.348679,   -60.266319,   0.359170,   488.538971,   487.028900
-0.009987,   0.025253,   0.023086,   0.000000,   512.840576,   0.522564,   35.259705,   52.179741,   499.053711,   52.013741,   -79.708038,   0.371212,   494.835846,   491.497345
-0.009984,   0.026533,   0.024478,   0.000000,   525.333374,   0.522564,   35.259705,   51.299751,   503.804077,   72.531029,   -98.734619,   0.382860,   501.780273,   495.898621
-0.009930,   0.027846,   0.025951,   0.000000,   538.047607,   0.522565,   35.259705,   50.419762,   507.270721,   94.302826,   -116.863541,   0.393753,   509.264984,   500.234467
-0.009828,   0.029177,   0.027494,   0.000000,   550.690369,   0.522564,   35.259705,   49.539768,   509.484833,   116.681229,   -133.729462,   0.403639,   517.100281,   504.484344
-0.009687,   0.030514,   0.029089,   0.000000,   562.990662,   0.522564,   35.259705,   48.659779,   510.534424,   139.025986,   -149.129425,   0.412352,   525.085571,   508.657288
-0.009516,   0.031846,   0.030724,   0.000000,   574.783081,   0.522564,   35.259705,   47.779793,   510.579712,   160.890945,   -163.013123,   0.419887,   533.056946,   512.768982
-0.009324,   0.033160,   0.032377,   0.000000,   585.943298,   0.522564,   35.259705,   46.899803,   509.784363,   181.956223,   -175.405930,   0.426320,   540.861755,   516.806274
-0.009117,   0.034445,   0.034030,   0.000000,   596.420959,   0.522564,   35.259705,   46.019814,   508.320618,   202.057190,   -186.396271,   0.431792,   548.395691,   520.747070
-0.008902,   0.035694,   0.035667,   0.000000,   606.205566,   0.522565,   35.259705,   45.139820,   506.343170,   221.134476,   -196.097244,   0.436462,   555.586487,   524.552551
-0.008682,   0.036897,   0.037270,   0.000000,   615.301575,   0.522564,   35.259705,   44.259830,   503.973389,   239.184021,   -204.627701,   0.440482,   562.381775,   528.175415
-0.008460,   0.038046,   0.038826,   0.000000,   623.739258,   0.522564,   35.259705,   43.379841,   501.301483,   256.268127,   -212.114014,   0.443990,   568.758301,   531.572083
-0.008238,   0.039134,   0.040320,   0.000000,   631.551575,   0.522564,   35.259705,   42.499851,   498.387360,   272.471191,   -218.670212,   0.447105,   574.703674,   534.699890
-0.008016,   0.040153,   0.041739,   0.000000,   638.767090,   0.522564,   35.259705,   41.619862,   495.265930,   287.872803,   -224.396362,   0.449915,   580.212646,   537.526001
-0.007796,   0.041100,   0.043076,   0.000000,   645.434509,   0.522565,   35.259705,   40.739872,   491.960510,   302.582245,   -229.388123,   0.452497,   585.302795,   540.034607
-0.007581,   0.041975,   0.044328,   0.000000,   651.599915,   0.522564,   35.259705,   39.859882,   488.485413,   316.705078,   -233.722519,   0.454914,   589.994019,   542.211365
-0.007371,   0.042776,   0.045490,   0.000000,   657.302368,   0.522564,   35.259705,   38.979893,   484.842773,   330.336395,   -237.462479,   0.457217,   594.305237,   544.046021
-0.007169,   0.043504,   0.046560,   0.000000,   662.578735,   0.522564,   35.259705,   38.099903,   481.027924,   343.560394,   -240.661697,   0.459438,   598.258850,   545.539001
-0.006976,   0.044162,   0.047541,   0.000000,   667.452698,   0.522564,   35.259705,   37.219910,   477.034760,   356.392303,   -243.375183,   0.461568,   601.880859,   546.732300
-0.006797,   0.044755,   0.048437,   0.000000,   671.949768,   0.522565,   35.259705,   36.339920,   472.839508,   368.867188,   -245.655991,   0.463598,   605.198975,   547.671265
-0.006633,   0.045286,   0.049249,   0.000000,   676.070801,   0.522565,   35.259705,   35.459930,   468.433624,   380.951324,   -247.543457,   0.465500,   608.224365,   548.405029
-0.006486,   0.045758,   0.049979,   0.000000,   679.832092,   0.522564,   35.259705,   34.579941,   463.814087,   392.642792,   -249.074402,   0.467261,   610.976868,   548.979187
-0.006358,   0.046172,   0.050629,   0.000000,   683.231628,   0.522564,   35.259705,   33.699951,   458.962280,   403.894958,   -250.293137,   0.468840,   613.469543,   549.464539
-0.006251,   0.046528,   0.051199,   0.000000,   686.123779,   0.522564,   35.259705,   32.819962,   453.720306,   414.667603,   -251.171951,   0.470233,   615.573120,   549.766357
-0.006166,   0.046828,   0.051688,   0.000000,   688.624207,   0.522564,   35.259705,   31.939970,   448.147919,   425.013641,   -251.777847,   0.471420,   617.398132,   550.020996
-0.006103,   0.047070,   0.052095,   0.000000,   690.726868,   0.522564,   35.259705,   31.059980,   442.184723,   434.981506,   -252.118011,   0.472404,   618.938232,   550.234924
-0.006064,   0.047255,   0.052421,   0.000000,   692.257080,   0.522564,   35.259705,   30.179991,   435.652802,   444.475128,   -252.154526,   0.473150,   620.048706,   550.332397
-0.006050,   0.047380,   0.052659,   0.000000,   693.565491,   0.522564,   35.259705,   29.299999,   428.719513,   453.603149,   -252.097336,   0.473538,   621.085266,   550.785400
-0.006062,   0.047443,   0.052808,   0.000000,   694.636536,   0.522564,   35.259705,   28.420010,   421.315216,   462.405212,   -251.940002,   0.473564,   622.035400,   551.596802
-0.006100,   0.047448,   0.052872,   0.000000,   695.389282,   0.522564,   35.259705,   27.540020,   413.398621,   470.850281,   -251.630508,   0.473251,   622.818848,   552.669312
-0.006164,   0.047393,   0.052848,   0.000000,   696.032593,   0.522564,   35.259705,   26.660030,   405.121246,   479.002838,   -251.269638,   0.472564,   623.636108,   554.219788
-0.006256,   0.047279,   0.052736,   0.000000,   696.432678,   0.522564,   35.259705,   25.780041,   396.411316,   486.804749,   -250.784485,   0.471532,   624.359253,   556.090271
-0.006374,   0.047105,   0.052536,   0.000000,   696.566162,   0.522564,   35.259705,   24.900049,   387.401947,   494.170532,   -250.146942,   0.470210,   624.950073,   558.167908
-0.006519,   0.046867,   0.052244,   0.000000,   696.429321,   0.522564,   35.259705,   24.020060,   378.017670,   501.174530,   -249.341949,   0.468597,   625.407593,   560.434753
-0.006689,   0.046564,   0.051858,   0.000000,   695.988892,   0.522564,   35.259705,   23.140070,   368.119537,   507.871033,   -248.350708,   0.466659,   625.717163,   562.895813
-0.006886,   0.046197,   0.051380,   0.000000,   695.139465,   0.522564,   35.259705,   22.260080,   357.782990,   514.135925,   -247.108704,   0.464454,   625.766296,   565.361511
-0.007108,   0.045767,   0.050812,   0.000000,   693.705444,   0.522564,   35.259705,   21.380089,   346.954895,   519.925293,   -245.475815,   0.462064,   625.367493,   567.547729
-0.007353,   0.045270,   0.050150,   0.000000,   691.875732,   0.522564,   35.259705,   20.500099,   335.716553,   525.437195,   -243.472015,   0.459516,   624.682129,   569.554932
-0.007621,   0.044704,   0.049390,   0.000000,   689.675903,   0.522564,   35.259705,   19.620110,   324.056610,   530.733826,   -241.064896,   0.456816,   623.730835,   571.376831
-0.007909,   0.044063,   0.048528,   0.000000,   686.810181,   0.522564,   35.259705,   18.740120,   311.877594,   535.577454,   -238.122009,   0.453981,   622.239929,   572.730286
-0.008216,   0.043346,   0.047562,   0.000000,   683.454468,   0.522564,   35.259705,   17.860130,   299.225189,   540.146423,   -234.655365,   0.451007,   620.369141,   573.748535
-0.008540,   0.042549,   0.046488,   0.000000,   679.604797,   0.522564,   35.259705,   16.980139,   286.048523,   544.487793,   -230.599564,   0.447885,   618.117493,   574.420898
-0.008878,   0.041670,   0.045304,   0.000000,   675.220886,   0.522563,   35.259705,   16.100149,   272.272705,   548.617859,   -225.863831,   0.444599,   615.454041,   574.714966
-0.009228,   0.040705,   0.044008,   0.000000,   670.235718,   0.522564,   35.259705,   15.220160,   257.803864,   552.513977,   -220.345642,   0.441110,   612.332336,   574.597717
-0.009587,   0.039654,   0.042602,   0.000000,   664.584290,   0.522564,   35.259705,   14.340169,   242.537933,   556.138000,   -213.937714,   0.437354,   608.718018,   574.059631
-0.009953,   0.038521,   0.041094,   0.000000,   658.222778,   0.522564,   35.259705,   13.460179,   226.362717,   559.465820,   -206.516830,   0.433246,   604.605225,   573.120789
-0.010323,   0.037312,   0.039494,   0.000000,   651.049194,   0.522564,   35.259705,   12.580190,   209.091782,   562.413025,   -197.922775,   0.428642,   599.960083,   571.796631
-0.010694,   0.036034,   0.037817,   0.000000,   642.990723,   0.522564,   35.259705,   11.700199,   190.589554,   564.891602,   -187.968475,   0.423397,   594.778015,   570.103088
-0.011059,   0.034700,   0.036081,   0.000000,   633.984741,   0.522564,   35.259705,   10.820210,   170.830032,   566.744446,   -176.472809,   0.417373,   589.061218,   568.024109
-0.011411,   0.033320,   0.034311,   0.000000,   623.960510,   0.522564,   35.259705,   9.940220,   149.801331,   567.756653,   -163.246979,   0.410390,   582.825989,   565.545654
-0.011738,   0.031908,   0.032530,   0.000000,   612.886963,   0.522564,   35.259705,   9.060229,   127.629883,   567.679077,   -148.112991,   0.402298,   576.114990,   562.620850
-0.012024,   0.030484,   0.030770,   0.000000,   600.820557,   0.522564,   35.259705,   8.180239,   104.650650,   566.250610,   -130.967834,   0.393011,   569.026123,   559.193481
-0.012255,   0.029063,   0.029056,   0.000000,   587.894714,   0.522564,   35.259705,   7.300249,   81.403458,   563.199280,   -111.839249,   0.382536,   561.691772,   555.196716
-0.012415,   0.027663,   0.027415,   0.000000,   574.416382,   0.522564,   35.259705,   6.420259,   58.720478,   558.355042,   -91.009628,   0.371071,   554.319214,   550.608032
-0.012492,   0.026302,   0.025863,   0.000000,   560.787842,   0.522564,   35.259705,   5.540269,   37.524078,   551.678101,   -69.042000,   0.358963,   547.134338,   545.470642
-0.012476,   0.024961,   0.024378,   0.000000,   547.312744,   0.522564,   35.259705,   4.660279,   18.565645,   543.200317,   -46.630772,   0.346621,   540.231201,   539.795898
-0.012352,   0.023558,   0.022864,   0.000000,   533.670044,   0.522564,   35.259705,   3.780289,   1.734651,   532.578918,   -24.091934,   0.333936,   533.348633,   533.347656
-0.007646,   0.017073,   0.014885,   -0.033802,   459.616089,   0.537509,   36.001991,   55.549416,   459.504272,   0.078020,   -7.168419,   0.333297,   459.633026,   459.632996
-0.008050,   0.018428,   0.016218,   0.000000,   469.454956,   0.537508,   36.001991,   54.644264,   468.087616,   9.213591,   -25.085865,   0.341724,   465.581390,   465.432617
-0.008286,   0.019717,   0.017506,   0.000000,   480.867706,   0.537508,   36.001991,   53.739113,   476.680298,   23.398468,   -43.767628,   0.353496,   471.555695,   470.674042
-0.008444,   0.020978,   0.018796,   0.000000,   492.866638,   0.537509,   36.001991,   52.833961,   484.175934,   40.209286,   -62.720879,   0.365766,   477.887482,   475.540588
-0.008543,   0.022257,   0.020138,   0.000000,   505.407166,   0.537508,   36.001991,   51.928806,   490.475006,   59.194546,   -81.626663,   0.377940,   484.793823,   480.216187
-0.008588,   0.023563,   0.021548,   0.000000,   518.317139,   0.537509,   36.001991,   51.023655,   495.485992,   79.906181,   -100.047096,   0.389620,   492.267426,   484.739624
-0.008580,   0.024897,   0.023033,   0.000000,   531.363647,   0.537509,   36.001991,   50.118504,   499.196014,   101.766319,   -117.554794,   0.400474,   500.209076,   489.137573
-0.008523,   0.026251,   0.024586,   0.000000,   544.293213,   0.537508,   36.001991,   49.213352,   501.683960,   124.169167,   -133.795303,   0.410307,   508.443359,   493.403198
-0.008426,   0.027612,   0.026193,   0.000000,   556.866150,   0.537508,   36.001991,   48.308201,   503.071167,   146.530487,   -148.573257,   0.419008,   516.777100,   497.537659
-0.008295,   0.028972,   0.027841,   0.000000,   568.926575,   0.537509,   36.001991,   47.403046,   503.540192,   168.426376,   -161.824799,   0.426609,   525.045227,   501.534607
-0.008135,   0.030314,   0.029508,   0.000000,   580.355591,   0.537508,   36.001991,   46.497894,   503.258728,   189.561646,   -173.576996,   0.433206,   533.096008,   505.360199
-0.007952,   0.031623,   0.031172,   0.000000,   591.084778,   0.537509,   36.001991,   45.592743,   502.378357,   209.762131,   -183.917847,   0.438930,   540.815613,   508.975189
-0.007751,   0.032887,   0.032811,   0.000000,   601.087830,   0.537508,   36.001991,   44.687592,   501.028931,   228.955139,   -192.964233,   0.443927,   548.126709,   512.335876
-0.007535,   0.034093,   0.034405,   0.000000,   610.363831,   0.537509,   36.001991,   43.782436,   499.296021,   247.141708,   -200.853882,   0.448325,   554.982483,   515.406189
-0.007307,   0.035228,   0.035936,   0.000000,   618.923767,   0.537508,   36.001991,   42.877285,   497.238922,   264.351074,   -207.716415,   0.452232,   561.356140,   518.160095
-0.007070,   0.036286,   0.037388,   0.000000,   626.801270,   0.537508,   36.001991,   41.972134,   494.901001,   280.658661,   -213.673370,   0.455746,   567.245056,   520.578003
-0.006829,   0.037260,   0.038752,   0.000000,   634.036011,   0.537510,   36.001991,   41.066982,   492.299652,   296.163605,   -218.835129,   0.458950,   572.657837,   522.646545
-0.006585,   0.038146,   0.040017,   0.000000,   640.665588,   0.537508,   36.001991,   40.161827,   489.446228,   310.956604,   -223.289932,   0.461907,   577.607361,   524.355713
-0.006342,   0.038943,   0.041180,   0.000000,   646.738098,   0.537508,   36.001991,   39.256676,   486.349731,   325.141510,   -227.113052,   0.464677,   582.118164,   525.701599
-0.006104,   0.039655,   0.042239,   0.000000,   652.302551,   0.537509,   36.001991,   38.351524,   483.015228,   338.817780,   -230.367065,   0.467306,   586.220093,   526.686829
-0.005874,   0.040283,   0.043196,   0.000000,   657.403442,   0.537508,   36.001991,   37.446369,   479.427124,   352.075897,   -233.111740,   0.469819,   589.946045,   527.332458
-0.005656,   0.040836,   0.044055,   0.000000,   662.089233,   0.537508,   36.001991,   36.541222,   475.584930,   364.998718,   -235.390411,   0.472239,   593.332214,   527.658325
-0.005453,   0.041319,   0.044822,   0.000000,   666.353577,   0.537511,   36.001991,   35.636066,   471.472076,   377.569214,   -237.231354,   0.474554,   596.378418,   527.690857
-0.005269,   0.041735,   0.045500,   0.000000,   670.237793,   0.537508,   36.001991,   34.730915,   467.083954,   389.785645,   -238.694244,   0.476726,   599.134766,   527.533691
-0.005105,   0.042091,   0.046093,   0.000000,   673.766052,   0.537508,   36.001991,   33.825764,   462.406982,   401.639343,   -239.825882,   0.478722,   601.633545,   527.273193
-0.004964,   0.042389,   0.046607,   0.000000,   676.676208,   0.537509,   36.001991,   32.920609,   457.229034,   413.015106,   -240.540390,   0.480557,   603.635986,   526.703003
-0.004849,   0.042634,   0.047041,   0.000000,   679.252075,   0.537509,   36.001991,   32.015457,   451.689697,   424.006012,   -241.007065,   0.482139,   605.424438,   526.207764
-0.004760,   0.042826,   0.047399,   0.000000,   681.165466,   0.537509,   36.001991,   31.110304,   445.484802,   434.484924,   -241.117874,   0.483469,   606.704956,   525.554932
-0.004699,   0.042967,   0.047678,   0.000000,   682.828247,   0.537508,   36.001991,   30.205153,   438.841858,   444.634277,   -241.072769,   0.484465,   607.869995,   525.219482
-0.004668,   0.043058,   0.047882,   0.000000,   684.090515,   0.537509,   36.001991,   29.300001,   431.576996,   454.406586,   -240.828369,   0.485105,   608.791870,   525.142517
-0.004668,   0.043100,   0.048011,   0.000000,   684.905823,   0.537509,   36.001991,   28.394848,   423.667755,   463.690491,   -240.395218,   0.485337,   609.444092,   525.384888
-0.004699,   0.043091,   0.048058,   0.000000,   685.788635,   0.537508,   36.001991,   27.489697,   415.349121,   472.728363,   -240.041519,   0.485028,   610.327332,   526.572571
-0.004763,   0.043032,   0.048025,   0.000000,   686.455505,   0.537509,   36.001991,   26.584543,   406.443909,   481.358612,   -239.644577,   0.484198,   611.184143,   528.447693
-0.004858,   0.042920,   0.047911,   0.000000,   686.868469,   0.537508,   36.001991,   25.679390,   397.146912,   489.404877,   -239.184982,   0.482896,   611.968567,   530.885620
-0.004986,   0.042753,   0.047710,   0.000000,   687.362732,   0.537509,   36.001991,   24.774239,   387.582947,   497.144501,   -238.796082,   0.481098,   612.992004,   534.159424
-0.005146,   0.042532,   0.047427,   0.000000,   687.240784,   0.537509,   36.001991,   23.869085,   377.429840,   504.234070,   -238.112305,   0.478970,   613.583496,   537.430664
-0.005336,   0.042255,   0.047060,   0.000000,   686.732605,   0.537508,   36.001991,   22.963934,   366.898682,   510.847229,   -237.179474,   0.476571,   613.932129,   540.755676
-0.005555,   0.041917,   0.046601,   0.000000,   685.891907,   0.537509,   36.001991,   22.058783,   355.969849,   517.108337,   -235.977615,   0.473920,   614.082153,   544.117920
-0.005803,   0.041514,   0.046049,   0.000000,   684.473572,   0.537509,   36.001991,   21.153629,   344.601227,   522.817078,   -234.398331,   0.471064,   613.801270,   547.229431
-0.006077,   0.041043,   0.045399,   0.000000,   682.512390,   0.537508,   36.001991,   20.248476,   332.820251,   528.046997,   -232.412003,   0.468033,   613.110291,   550.043396
-0.006374,   0.040497,   0.044644,   0.000000,   680.099243,   0.537509,   36.001991,   19.343325,   320.612549,   532.965454,   -229.983978,   0.464848,   612.084167,   552.582031
-0.006693,   0.039869,   0.043779,   0.000000,   676.991089,   0.537509,   36.001991,   18.438171,   307.926483,   537.403931,   -226.972855,   0.461563,   610.484131,   554.552490
-0.007028,   0.039153,   0.042795,   0.000000,   673.286804,   0.537508,   36.001991,   17.533020,   294.732849,   541.478577,   -223.375290,   0.458139,   608.411499,   556.068848
-0.007377,   0.038343,   0.041687,   0.000000,   668.988403,   0.537509,   36.001991,   16.627869,   280.954071,   545.229980,   -219.140427,   0.454535,   605.882751,   557.164978
-0.007735,   0.037435,   0.040455,   0.000000,   664.041809,   0.537508,   36.001991,   15.722715,   266.492462,   548.661194,   -214.171631,   0.450714,   602.861267,   557.812927
-0.008097,   0.036429,   0.039099,   0.000000,   658.374268,   0.537509,   36.001991,   14.817563,   251.220520,   551.748352,   -208.358185,   0.446611,   599.305298,   557.997803
-0.008458,   0.035324,   0.037624,   0.000000,   651.920471,   0.537509,   36.001991,   13.912411,   235.011383,   554.455383,   -201.578995,   0.442138,   595.189087,   557.722717
-0.008814,   0.034126,   0.036041,   0.000000,   644.591248,   0.537508,   36.001991,   13.007258,   217.697357,   556.729614,   -193.668762,   0.437175,   590.477966,   556.986511
-0.009157,   0.032846,   0.034366,   0.000000,   636.323792,   0.537509,   36.001991,   12.102106,   199.175980,   558.500305,   -184.446091,   0.431605,   585.162292,   555.783142
-0.009483,   0.031498,   0.032625,   0.000000,   627.074036,   0.537509,   36.001991,   11.196954,   179.408371,   559.664551,   -173.715073,   0.425302,   579.252991,   554.101196
-0.009783,   0.030098,   0.030841,   0.000000,   616.795776,   0.537509,   36.001991,   10.291800,   158.405945,   560.052551,   -161.277786,   0.418118,   572.771545,   551.922913
-0.010048,   0.028666,   0.029048,   0.000000,   605.483521,   0.537508,   36.001991,   9.386649,   136.301361,   559.454041,   -146.956482,   0.409913,   565.774841,   549.221008
-0.010267,   0.027225,   0.027279,   0.000000,   593.199524,   0.537509,   36.001991,   8.481497,   113.410988,   557.625122,   -130.645233,   0.400596,   558.365051,   545.958984
-0.010431,   0.025792,   0.025560,   0.000000,   580.067078,   0.537509,   36.001991,   7.576344,   90.233360,   554.290588,   -112.366341,   0.390142,   550.675232,   542.090759
-0.010526,   0.024385,   0.023915,   0.000000,   566.339783,   0.537509,   36.001991,   6.671192,   67.507240,   549.237000,   -92.365746,   0.378676,   542.895325,   537.593201
-0.010542,   0.023012,   0.022354,   0.000000,   552.335510,   0.537509,   36.001991,   5.766040,   46.056911,   542.333313,   -71.161118,   0.366448,   535.219727,   532.477234
-0.010471,   0.021663,   0.020859,   0.000000,   538.395691,   0.537509,   36.001991,   4.860888,   26.746899,   533.619873,   -49.432327,   0.353932,   527.753296,   526.722778
-0.010279,   0.020295,   0.019379,   0.000000,   524.914124,   0.537509,   36.001991,   3.955735,   10.564404,   523.391296,   -27.986881,   0.341982,   520.452209,   520.275513
-0.009846,   0.018866,   0.017859,   -0.127092,   513.191833,   0.537509,   36.001991,   3.050583,   -0.005501,   513.070251,   -7.899386,   0.333210,   513.255371,   513.255310
-0.006102,   0.013672,   0.011560,   -1.573501,   443.130676,   0.552449,   36.744282,   56.279121,   443.088226,   -1.531041,   -4.345110,   0.331559,   443.919556,   443.913269
-0.006614,   0.014866,   0.012728,   0.000000,   450.034058,   0.552447,   36.744282,   55.348808,   449.328674,   0.981622,   -17.797712,   0.333640,   449.895996,   449.895782
-0.006989,   0.016132,   0.013974,   0.000000,   460.291931,   0.552447,   36.744282,   54.418495,   457.698700,   10.905760,   -34.137409,   0.342403,   456.192444,   456.021973
-0.007250,   0.017404,   0.015244,   0.000000,   472.238800,   0.552449,   36.744282,   53.488178,   466.237335,   25.559448,   -51.775787,   0.354241,   462.769867,   461.838593
-0.007442,   0.018689,   0.016555,   0.000000,   485.031921,   0.552447,   36.744282,   52.557865,   473.987518,   43.178864,   -69.857033,   0.366949,   469.789703,   467.307404
-0.007579,   0.020006,   0.017932,   0.000000,   498.382751,   0.552448,   36.744282,   51.627552,   480.678558,   63.004463,   -87.795357,   0.379656,   477.347443,   472.475128
-0.007661,   0.021358,   0.019383,   0.000000,   512.041809,   0.552448,   36.744282,   50.697235,   486.182953,   84.474205,   -105.149399,   0.391884,   485.395752,   477.335968
-0.007687,   0.022741,   0.020908,   0.000000,   525.766113,   0.552448,   36.744282,   49.766922,   490.527039,   107.020508,   -121.475182,   0.403364,   493.803986,   481.856323
-0.007660,   0.024141,   0.022499,   0.000000,   539.297180,   0.552447,   36.744282,   48.836605,   493.798004,   130.050323,   -136.456528,   0.413923,   502.386444,   485.990967
-0.007581,   0.025542,   0.024137,   0.000000,   552.400024,   0.552449,   36.744282,   47.906292,   496.110931,   153.021729,   -149.935501,   0.423482,   510.948059,   489.706879
-0.007454,   0.026928,   0.025803,   0.000000,   564.902954,   0.552447,   36.744282,   46.975975,   497.599213,   175.500504,   -161.889633,   0.432033,   519.327698,   493.003052
-0.007285,   0.028280,   0.027473,   0.000000,   576.687195,   0.552448,   36.744282,   46.045662,   498.383118,   197.197998,   -172.381958,   0.439638,   527.389099,   495.872772
-0.007079,   0.029579,   0.029119,   0.000000,   587.672913,   0.552447,   36.744282,   45.115349,   498.557007,   217.920471,   -181.523590,   0.446380,   535.028137,   498.320709
-0.006843,   0.030810,   0.030719,   0.000000,   597.837036,   0.552450,   36.744282,   44.185036,   498.193787,   237.590271,   -189.462845,   0.452354,   542.188843,   500.369751
-0.006582,   0.031960,   0.032254,   0.000000,   607.182617,   0.552447,   36.744282,   43.254719,   497.353119,   256.197540,   -196.337723,   0.457665,   548.837097,   502.033936
-0.006303,   0.033020,   0.033704,   0.000000,   615.731934,   0.552448,   36.744282,   42.324406,   496.078278,   273.779816,   -202.276566,   0.462411,   554.959717,   503.326294
-0.006012,   0.033984,   0.035058,   0.000000,   623.522278,   0.552448,   36.744282,   41.394089,   494.394043,   290.404022,   -207.400513,   0.466673,   560.562988,   504.270020
-0.005715,   0.034849,   0.036306,   0.000000,   630.603943,   0.552447,   36.744282,   40.463776,   492.328735,   306.162048,   -211.807129,   0.470532,   565.665283,   504.878052
-0.005418,   0.035614,   0.037444,   0.000000,   637.027222,   0.552448,   36.744282,   39.533463,   489.900360,   321.151123,   -215.577957,   0.474058,   570.289368,   505.160767
-0.005126,   0.036283,   0.038468,   0.000000,   642.847900,   0.552448,   36.744282,   38.603146,   487.121521,   335.483734,   -218.780060,   0.477317,   574.464539,   505.122437
-0.004843,   0.036860,   0.039381,   0.000000,   648.126831,   0.552448,   36.744282,   37.672832,   483.993561,   349.283722,   -221.472534,   0.480362,   578.228394,   504.772308
-0.004575,   0.037350,   0.040185,   0.000000,   652.915894,   0.552447,   36.744282,   36.742519,   480.525513,   362.653687,   -223.692688,   0.483242,   581.612732,   504.110138
-0.004324,   0.037761,   0.040886,   0.000000,   657.255920,   0.552450,   36.744282,   35.812202,   476.728149,   375.654205,   -225.470474,   0.485982,   584.646606,   503.153107
-0.004094,   0.038100,   0.041491,   0.000000,   661.192932,   0.552447,   36.744282,   34.881889,   472.579468,   388.352295,   -226.851074,   0.488578,   587.371887,   501.961334
-0.003888,   0.038377,   0.042008,   0.000000,   664.681335,   0.552448,   36.744282,   33.951572,   468.020050,   400.714569,   -227.842133,   0.491016,   589.752991,   500.550171
-0.003710,   0.038599,   0.042445,   0.000000,   667.608093,   0.552448,   36.744282,   33.021259,   462.928040,   412.683990,   -228.424789,   0.493280,   591.693420,   498.883850
-0.003561,   0.038771,   0.042807,   0.000000,   670.034546,   0.552448,   36.744282,   32.090942,   457.262024,   424.259033,   -228.679398,   0.495289,   593.270203,   497.179993
-0.003444,   0.038898,   0.043098,   0.000000,   671.941467,   0.552448,   36.744282,   31.160629,   450.963562,   435.413940,   -228.620575,   0.497009,   594.474304,   495.520538
-0.003359,   0.038983,   0.043321,   0.000000,   673.389038,   0.552448,   36.744282,   30.230314,   443.941650,   446.159027,   -228.336014,   0.498332,   595.386841,   494.182617
-0.003310,   0.039029,   0.043479,   0.000000,   674.444397,   0.552448,   36.744282,   29.299999,   436.151886,   456.498413,   -227.892303,   0.499171,   596.088318,   493.411957
-0.003297,   0.039039,   0.043570,   0.000000,   675.496277,   0.552448,   36.744282,   28.369686,   427.764282,   466.569214,   -227.503662,   0.499382,   596.959961,   493.790070
-0.003321,   0.039014,   0.043601,   0.000000,   676.091553,   0.552448,   36.744282,   27.439371,   418.585541,   476.032349,   -226.972351,   0.499017,   597.586609,   494.902039
-0.003384,   0.038952,   0.043562,   0.000000,   676.935730,   0.552448,   36.744282,   26.509056,   409.061157,   485.225281,   -226.614990,   0.497968,   598.624146,   497.454285
-0.003485,   0.038852,   0.043454,   0.000000,   677.864807,   0.552448,   36.744282,   25.578741,   399.243622,   493.974121,   -226.353333,   0.496303,   599.914490,   501.168671
-0.003624,   0.038713,   0.043280,   0.000000,   678.225220,   0.552448,   36.744282,   24.648426,   388.890015,   501.915619,   -225.859619,   0.494204,   600.834839,   505.188568
-0.003801,   0.038531,   0.043031,   0.000000,   678.409912,   0.552448,   36.744282,   23.718113,   378.190399,   509.344452,   -225.292618,   0.491642,   601.748169,   509.809082
-0.004014,   0.038299,   0.042702,   0.000000,   678.089905,   0.552448,   36.744282,   22.787798,   367.075531,   516.084778,   -224.468109,   0.488745,   602.331848,   514.508972
-0.004262,   0.038012,   0.042287,   0.000000,   677.282715,   0.552448,   36.744282,   21.857483,   355.567780,   522.245117,   -223.333603,   0.485582,   602.584900,   519.138550
-0.004543,   0.037663,   0.041778,   0.000000,   675.975891,   0.552448,   36.744282,   20.927168,   343.692352,   527.887268,   -221.827438,   0.482219,   602.478882,   523.543274
-0.004856,   0.037242,   0.041166,   0.000000,   673.980408,   0.552448,   36.744282,   19.996855,   331.393829,   532.897827,   -219.847672,   0.478700,   601.832153,   527.474915
-0.005196,   0.036743,   0.040443,   0.000000,   671.469910,   0.552448,   36.744282,   19.066540,   318.681458,   537.471008,   -217.424164,   0.475000,   600.808411,   531.081604
-0.005561,   0.036158,   0.039601,   0.000000,   668.165894,   0.552448,   36.744282,   18.136225,   305.446228,   541.444763,   -214.392731,   0.471169,   599.141296,   534.040161
-0.005946,   0.035476,   0.038632,   0.000000,   664.173218,   0.552448,   36.744282,   17.205910,   291.597748,   544.959961,   -210.750870,   0.467129,   596.950012,   536.516846
-0.006346,   0.034691,   0.037530,   0.000000,   659.477600,   0.552448,   36.744282,   16.275597,   277.030579,   548.033081,   -206.450089,   0.462806,   594.246765,   538.560791
-0.006754,   0.033799,   0.036293,   0.000000,   653.998718,   0.552448,   36.744282,   15.345281,   261.599701,   550.633789,   -201.395859,   0.458122,   590.988342,   540.161255
-0.007163,   0.032799,   0.034926,   0.000000,   647.657471,   0.552448,   36.744282,   14.414967,   245.173141,   552.722412,   -195.473495,   0.452987,   587.136230,   541.297119
-0.007565,   0.031693,   0.033436,   0.000000,   640.366333,   0.552448,   36.744282,   13.484652,   227.599197,   554.241028,   -188.546265,   0.447285,   582.656677,   541.954102
-0.007949,   0.030487,   0.031839,   0.000000,   632.030029,   0.552448,   36.744282,   12.554337,   208.752350,   555.125671,   -180.421448,   0.440906,   577.506653,   542.068909
-0.008306,   0.029195,   0.030155,   0.000000,   622.608765,   0.552448,   36.744282,   11.624022,   188.595322,   555.290283,   -170.930161,   0.433727,   571.700745,   541.612488
-0.008625,   0.027830,   0.028411,   0.000000,   612.054688,   0.552448,   36.744282,   10.693707,   167.137955,   554.608948,   -159.870514,   0.425622,   565.248352,   540.518188
-0.008895,   0.026416,   0.026640,   0.000000,   600.370544,   0.552448,   36.744282,   9.763393,   144.517899,   552.941345,   -147.039841,   0.416497,   558.195129,   538.705322
-0.009106,   0.024976,   0.024877,   0.000000,   587.623230,   0.552448,   36.744282,   8.833078,   121.041206,   550.107910,   -132.302567,   0.406290,   550.632263,   536.101196
-0.009249,   0.023535,   0.023154,   0.000000,   573.948547,   0.552448,   36.744282,   7.902764,   97.192497,   545.901733,   -115.635147,   0.395004,   542.689575,   532.643860
-0.009318,   0.022116,   0.021500,   0.000000,   559.596741,   0.552448,   36.744282,   6.972449,   73.657333,   540.157776,   -97.191307,   0.382759,   534.553772,   528.314453
-0.009310,   0.020735,   0.019932,   0.000000,   544.901855,   0.552448,   36.744282,   6.042135,   51.249310,   532.766785,   -77.398407,   0.369793,   526.435669,   523.151367
-0.009219,   0.019396,   0.018449,   0.000000,   530.296326,   0.552448,   36.744282,   5.111820,   30.932505,   523.801636,   -56.949295,   0.356621,   518.509521,   517.211487
-0.009027,   0.018089,   0.017035,   0.000000,   516.445557,   0.552448,   36.744282,   4.181505,   13.971998,   513.750549,   -36.798950,   0.344309,   510.900391,   510.620209
-0.008672,   0.016805,   0.015668,   0.000000,   504.471497,   0.552448,   36.744282,   3.251191,   2.210136,   503.803009,   -18.323833,   0.334862,   503.702484,   503.697144
-0.008108,   0.015610,   0.014400,   -1.406636,   496.637451,   0.552448,   36.744282,   2.320876,   -1.380275,   496.611084,   -3.623245,   0.331918,   497.342224,   497.337769
-0.004505,   0.010149,   0.008131,   -5.195512,   422.384521,   0.567390,   37.486568,   57.008831,   422.157227,   -4.968223,   -9.855584,   0.327202,   425.006104,   424.934692
-0.005104,   0.011322,   0.009278,   -8.010538,   428.057922,   0.567390,   37.486568,   56.053352,   427.149811,   -7.102441,   -19.878828,   0.324021,   432.118896,   431.951782
-0.005683,   0.012629,   0.010557,   -6.076119,   436.660400,   0.567390,   37.486568,   55.097878,   434.088318,   -3.504050,   -33.647194,   0.326401,   439.729950,   439.635498
-0.006162,   0.014021,   0.011927,   0.000000,   448.227112,   0.567390,   37.486568,   54.142399,   442.662628,   6.706382,   -49.566532,   0.334608,   447.657288,   447.653992
-0.006546,   0.015460,   0.013358,   0.000000,   461.684265,   0.567390,   37.486568,   53.186924,   451.695129,   21.902962,   -66.279930,   0.346316,   455.844147,   455.493622
-0.006852,   0.016932,   0.014849,   0.000000,   476.237305,   0.567390,   37.486568,   52.231445,   460.449890,   40.672295,   -82.924301,   0.359773,   464.295288,   462.791290
-0.007081,   0.018432,   0.016399,   0.000000,   491.364746,   0.567390,   37.486568,   51.275970,   468.518585,   62.019257,   -99.039864,   0.373884,   472.996399,   469.325989
-0.007227,   0.019946,   0.018004,   0.000000,   506.659424,   0.567391,   37.486568,   50.320492,   475.703766,   85.162155,   -114.226669,   0.387996,   481.848450,   474.916077
-0.007287,   0.021458,   0.019652,   0.000000,   521.787170,   0.567389,   37.486568,   49.365013,   481.930328,   109.407768,   -128.203461,   0.401679,   490.722260,   479.445221
-0.007260,   0.022947,   0.021327,   0.000000,   536.437683,   0.567391,   37.486568,   48.409538,   487.161407,   134.065735,   -140.809738,   0.414591,   499.470093,   482.878601
-0.007152,   0.024393,   0.023006,   0.000000,   550.369019,   0.567390,   37.486568,   47.454060,   491.396942,   158.541580,   -152.009460,   0.426505,   507.956848,   485.266510
-0.006970,   0.025777,   0.024669,   0.000000,   563.423767,   0.567390,   37.486568,   46.498585,   494.681244,   182.375748,   -161.846268,   0.437310,   516.076782,   486.720581
-0.006725,   0.027085,   0.026296,   0.000000,   575.519775,   0.567390,   37.486568,   45.543106,   497.078278,   205.265701,   -170.420914,   0.446994,   523.753357,   487.376434
-0.006430,   0.028304,   0.027866,   0.000000,   586.624939,   0.567390,   37.486568,   44.587631,   498.646851,   227.032639,   -177.865814,   0.455598,   530.935181,   487.376892
-0.006096,   0.029424,   0.029360,   0.000000,   596.748840,   0.567390,   37.486568,   43.632153,   499.456512,   247.600494,   -184.308044,   0.463212,   537.592285,   486.845367
-0.005735,   0.030438,   0.030763,   0.000000,   605.928955,   0.567391,   37.486568,   42.676678,   499.573242,   266.964935,   -189.870407,   0.469938,   543.716370,   485.889587
-0.005359,   0.031346,   0.032066,   0.000000,   614.222046,   0.567389,   37.486568,   41.721199,   499.052338,   285.179047,   -194.668411,   0.475883,   549.316345,   484.600342
-0.004977,   0.032146,   0.033259,   0.000000,   621.691162,   0.567390,   37.486568,   40.765724,   497.946777,   302.328888,   -198.794601,   0.481159,   554.407776,   483.036194
-0.004598,   0.032841,   0.034337,   0.000000,   628.398682,   0.567390,   37.486568,   39.810246,   496.298370,   318.512756,   -202.326553,   0.485865,   559.010925,   481.239258
-0.004229,   0.033432,   0.035297,   0.000000,   634.408569,   0.567390,   37.486568,   38.854771,   494.139404,   333.841461,   -205.329727,   0.490087,   563.152283,   479.239746
-0.003874,   0.033925,   0.036139,   0.000000,   639.785461,   0.567391,   37.486568,   37.899292,   491.499359,   348.441895,   -207.851425,   0.493914,   566.860718,   477.040405
-0.003541,   0.034327,   0.036866,   0.000000,   644.590149,   0.567389,   37.486568,   36.943813,   488.397614,   362.433777,   -209.930267,   0.497416,   570.167358,   474.645050
-0.003231,   0.034644,   0.037484,   0.000000,   648.884094,   0.567391,   37.486568,   35.988338,   484.851135,   375.931030,   -211.597031,   0.500651,   573.109131,   472.060638
-0.002950,   0.034888,   0.037999,   0.000000,   652.725525,   0.567389,   37.486568,   35.032864,   480.850708,   389.044464,   -212.885239,   0.503651,   575.726562,   469.318573
-0.002699,   0.035068,   0.038423,   0.000000,   656.111877,   0.567391,   37.486568,   34.077385,   476.350311,   401.820160,   -213.803360,   0.506432,   578.011719,   466.432434
-0.002481,   0.035195,   0.038767,   0.000000,   658.878967,   0.567390,   37.486568,   33.121906,   471.204803,   414.238556,   -214.272476,   0.509046,   579.805542,   463.223877
-0.002299,   0.035278,   0.039039,   0.000000,   661.162170,   0.567390,   37.486568,   32.166431,   465.400421,   426.344757,   -214.402100,   0.511395,   581.249634,   460.027771
-0.002153,   0.035325,   0.039249,   0.000000,   662.852539,   0.567390,   37.486568,   31.210953,   458.753845,   438.062317,   -214.194763,   0.513409,   582.262085,   456.969452
-0.002046,   0.035343,   0.039404,   0.000000,   664.035461,   0.567390,   37.486568,   30.255476,   451.160980,   449.410370,   -213.747986,   0.514956,   582.944336,   454.456299
-0.001979,   0.035339,   0.039509,   0.000000,   664.974792,   0.567390,   37.486568,   29.299999,   442.747833,   460.423004,   -213.206314,   0.515903,   583.553345,   453.025055
-0.001953,   0.035316,   0.039567,   0.000000,   665.702332,   0.567390,   37.486568,   28.344522,   433.522614,   471.032043,   -212.599365,   0.516185,   584.127930,   452.897400
-0.001971,   0.035275,   0.039578,   0.000000,   666.628357,   0.567391,   37.486568,   27.389046,   423.747040,   481.386810,   -212.112473,   0.515702,   585.050171,   454.595825
-0.002032,   0.035216,   0.039542,   0.000000,   667.619507,   0.567390,   37.486568,   26.433569,   413.554779,   491.198364,   -211.712982,   0.514472,   586.202271,   457.963715
-0.002137,   0.035138,   0.039455,   0.000000,   668.731445,   0.567390,   37.486568,   25.478092,   403.051056,   500.522003,   -211.399963,   0.512554,   587.627747,   462.848999
-0.002286,   0.035036,   0.039313,   0.000000,   669.586853,   0.567390,   37.486568,   24.522615,   392.127045,   509.103424,   -211.015884,   0.510050,   588.981995,   468.691010
-0.002478,   0.034902,   0.039110,   0.000000,   670.054138,   0.567391,   37.486568,   23.567139,   380.860016,   516.875671,   -210.471619,   0.507084,   590.129150,   475.044739
-0.002715,   0.034730,   0.038836,   0.000000,   670.097351,   0.567390,   37.486568,   22.611660,   369.251404,   523.935913,   -209.695206,   0.503753,   591.022522,   481.612946
-0.002994,   0.034512,   0.038483,   0.000000,   669.528076,   0.567390,   37.486568,   21.656183,   357.289917,   530.195618,   -208.578308,   0.500152,   591.476685,   488.004822
-0.003314,   0.034236,   0.038037,   0.000000,   668.405029,   0.567390,   37.486568,   20.700708,   344.965057,   535.803711,   -207.095520,   0.496315,   591.539185,   494.153625
-0.003674,   0.033892,   0.037488,   0.000000,   666.526611,   0.567390,   37.486568,   19.745232,   332.178253,   540.684692,   -205.122009,   0.492292,   591.019226,   499.771606
-0.004072,   0.033468,   0.036823,   0.000000,   664.067322,   0.567391,   37.486568,   18.789755,   318.907166,   545.010803,   -202.715454,   0.488011,   590.094360,   505.074554
-0.004503,   0.032956,   0.036034,   0.000000,   660.657593,   0.567390,   37.486568,   17.834278,   304.941498,   548.556274,   -199.690338,   0.483486,   588.433899,   509.706604
-0.004964,   0.032346,   0.035114,   0.000000,   656.485901,   0.567390,   37.486568,   16.878801,   290.174408,   551.514343,   -196.092545,   0.478571,   586.251465,   513.976440
-0.005447,   0.031633,   0.034060,   0.000000,   651.487122,   0.567390,   37.486568,   15.923324,   274.464996,   553.848083,   -191.864746,   0.473165,   583.526367,   517.899353
-0.005945,   0.030811,   0.032871,   0.000000,   645.562988,   0.567390,   37.486568,   14.967846,   257.647522,   555.498291,   -186.915726,   0.467151,   580.215759,   521.453247
-0.006446,   0.029878,   0.031552,   0.000000,   638.620850,   0.567390,   37.486568,   14.012369,   239.562027,   556.397583,   -181.140640,   0.460392,   576.291870,   524.610413
-0.006937,   0.028835,   0.030114,   0.000000,   630.509155,   0.567390,   37.486568,   13.056892,   220.076050,   556.411072,   -174.391235,   0.452757,   571.673767,   527.238647
-0.007404,   0.027685,   0.028569,   0.000000,   621.149353,   0.567390,   37.486568,   12.101416,   199.104233,   555.457275,   -166.508347,   0.444105,   566.353699,   529.238281
-0.007826,   0.026435,   0.026937,   0.000000,   610.458313,   0.567390,   37.486568,   11.145939,   176.649185,   553.408752,   -157.316986,   0.434314,   560.314941,   530.443237
-0.008186,   0.025099,   0.025240,   0.000000,   598.389038,   0.567390,   37.486568,   10.190462,   152.842606,   550.121643,   -146.647095,   0.423299,   553.560059,   530.649231
-0.008465,   0.023691,   0.023507,   0.000000,   584.949951,   0.567390,   37.486568,   9.234985,   127.958031,   545.458191,   -134.340637,   0.411033,   546.117554,   529.635925
-0.008645,   0.022231,   0.021765,   0.000000,   570.238708,   0.567390,   37.486568,   8.279508,   102.473473,   539.292358,   -120.314713,   0.397585,   538.052795,   527.197327
-0.008714,   0.020742,   0.020039,   0.000000,   554.484192,   0.567390,   37.486568,   7.324031,   77.084335,   531.556335,   -104.621941,   0.383164,   529.487183,   523.201660
-0.008664,   0.019244,   0.018352,   0.000000,   538.063354,   0.567390,   37.486568,   6.368554,   52.686958,   522.293152,   -87.489906,   0.368161,   520.587646,   517.630371
-0.008494,   0.017757,   0.016718,   0.000000,   521.532715,   0.567390,   37.486568,   5.413077,   30.401499,   511.715057,   -69.438934,   0.353250,   511.551483,   510.618469
-0.008194,   0.016298,   0.015146,   0.000000,   505.778168,   0.567390,   37.486568,   4.457601,   11.717555,   500.452209,   -51.296696,   0.339671,   502.612823,   502.521362
-0.007743,   0.014888,   0.013648,   -3.951342,   492.040680,   0.567390,   37.486568,   3.502124,   -1.591340,   489.680664,   -34.131699,   0.329326,   494.028198,   493.992645
-0.007127,   0.013580,   0.012263,   -8.361563,   481.961121,   0.567390,   37.486568,   2.546647,   -7.575610,   481.175171,   -19.615112,   0.324697,   486.195801,   486.034027
-0.006450,   0.012446,   0.011059,   -6.159268,   476.433472,   0.567390,   37.486568,   1.591170,   -5.957826,   476.232025,   -9.857689,   0.326891,   479.542755,   479.453705
-0.002212,   0.005050,   0.003216,   -17.927589,   381.170654,   0.582331,   38.228855,   57.738537,   378.734161,   -15.491094,   -31.088015,   0.310112,   390.443268,   389.515625
-0.003205,   0.006811,   0.004934,   -29.964605,   389.859436,   0.582333,   38.228855,   56.757896,   385.310822,   -25.415998,   -43.461765,   0.295719,   405.672577,   403.171448
-0.004228,   0.008637,   0.006724,   -36.767529,   399.933258,   0.582333,   38.228855,   55.777256,   393.011963,   -29.846231,   -54.540188,   0.288552,   419.527161,   415.879120
-0.005170,   0.010543,   0.008592,   -34.979618,   413.771698,   0.582332,   38.228855,   54.796619,   403.700500,   -24.908415,   -66.468315,   0.292059,   432.324127,   429.123016
-0.005965,   0.012487,   0.010498,   -25.973785,   430.563171,   0.582332,   38.228855,   53.815979,   416.513916,   -11.924534,   -78.845551,   0.303664,   444.120056,   442.406372
-0.006598,   0.014419,   0.012403,   -12.072164,   448.880035,   0.582332,   38.228855,   52.835342,   430.047333,   6.760545,   -91.248604,   0.319980,   455.036255,   454.675720
-0.007071,   0.016305,   0.014287,   0.000000,   467.701355,   0.582333,   38.228855,   51.854702,   443.312622,   29.373758,   -103.393669,   0.338677,   465.228851,   465.168762
-0.007381,   0.018122,   0.016135,   0.000000,   486.360321,   0.582333,   38.228855,   50.874062,   455.727966,   54.618195,   -115.001190,   0.358272,   474.821960,   473.456055
-0.007532,   0.019851,   0.017940,   0.000000,   504.390411,   0.582331,   38.228855,   49.893421,   466.934448,   81.449867,   -125.863594,   0.377757,   483.895660,   479.365265
-0.007532,   0.021478,   0.019695,   0.000000,   521.487183,   0.582333,   38.228855,   48.912785,   476.746124,   109.035492,   -135.843719,   0.396470,   492.497620,   482.920349
-0.007396,   0.022992,   0.021393,   0.000000,   537.436279,   0.582333,   38.228855,   47.932144,   485.073883,   136.640106,   -144.867722,   0.413941,   500.646179,   484.299805
-0.007144,   0.024387,   0.023026,   0.000000,   552.107849,   0.582332,   38.228855,   46.951504,   491.913422,   163.659698,   -152.913116,   0.429883,   508.334686,   483.785767
-0.006797,   0.025659,   0.024588,   0.000000,   565.467163,   0.582332,   38.228855,   45.970867,   497.336517,   189.675903,   -160.009033,   0.444190,   515.554565,   481.709839
-0.006380,   0.026806,   0.026069,   0.000000,   577.536621,   0.582332,   38.228855,   44.990227,   501.448425,   214.417130,   -166.220078,   0.456871,   522.296326,   478.411560
-0.005912,   0.027830,   0.027463,   0.000000,   588.381042,   0.582333,   38.228855,   44.009590,   504.374725,   237.750107,   -171.625214,   0.468022,   528.554138,   474.195435
-0.005415,   0.028735,   0.028761,   0.000000,   598.087463,   0.582333,   38.228855,   43.028946,   506.240112,   259.644775,   -176.309601,   0.477786,   534.328613,   469.318573
-0.004903,   0.029523,   0.029957,   0.000000,   606.747742,   0.582331,   38.228855,   42.048309,   507.153809,   280.136139,   -180.356674,   0.486320,   539.624634,   463.990021
-0.004392,   0.030198,   0.031043,   0.000000,   614.448853,   0.582333,   38.228855,   41.067673,   507.207855,   299.298035,   -183.839859,   0.493776,   544.448425,   458.370209
-0.003892,   0.030765,   0.032014,   0.000000,   621.278748,   0.582332,   38.228855,   40.087032,   506.481873,   317.234619,   -186.824310,   0.500300,   548.815186,   452.583099
-0.003414,   0.031229,   0.032870,   0.000000,   627.320129,   0.582333,   38.228855,   39.106392,   505.036469,   334.066803,   -189.367615,   0.506022,   552.744812,   446.723450
-0.002963,   0.031596,   0.033608,   0.000000,   632.647278,   0.582332,   38.228855,   38.125751,   502.917328,   349.913818,   -191.517624,   0.511051,   556.259644,   440.868835
-0.002545,   0.031874,   0.034230,   0.000000,   637.330811,   0.582332,   38.228855,   37.145115,   500.155762,   364.899902,   -193.315109,   0.515479,   559.386414,   435.084900
-0.002164,   0.032069,   0.034741,   0.000000,   641.441406,   0.582333,   38.228855,   36.164474,   496.771851,   379.162964,   -194.791412,   0.519389,   562.156921,   429.417419
-0.001823,   0.032191,   0.035146,   0.000000,   645.043030,   0.582332,   38.228855,   35.183834,   492.771545,   392.823456,   -195.974091,   0.522840,   564.605469,   423.930542
-0.001523,   0.032251,   0.035455,   0.000000,   648.202942,   0.582332,   38.228855,   34.203197,   488.134186,   406.014282,   -196.892929,   0.525869,   566.774780,   418.713654
-0.001266,   0.032260,   0.035683,   0.000000,   650.709045,   0.582333,   38.228855,   33.222557,   482.665039,   418.718048,   -197.445435,   0.528555,   568.457458,   413.559357
-0.001053,   0.032234,   0.035844,   0.000000,   652.649963,   0.582332,   38.228855,   32.241917,   476.287262,   431.053711,   -197.689926,   0.530858,   569.732727,   408.736572
-0.000884,   0.032185,   0.035955,   0.000000,   653.923950,   0.582332,   38.228855,   31.261278,   468.800507,   443.030945,   -197.588562,   0.532759,   570.509338,   404.349579
-0.000758,   0.032125,   0.036028,   0.000000,   654.782166,   0.582332,   38.228855,   30.280640,   460.340729,   454.697479,   -197.242859,   0.534156,   571.018250,   400.956421
-0.000678,   0.032061,   0.036070,   0.000000,   655.462341,   0.582332,   38.228855,   29.300001,   450.977386,   466.117737,   -196.769211,   0.534922,   571.482422,   399.178589
-0.000642,   0.032000,   0.036088,   0.000000,   656.148865,   0.582333,   38.228855,   28.319361,   440.962402,   477.262299,   -196.198807,   0.535038,   572.061462,   399.259094
-0.000652,   0.031942,   0.036082,   0.000000,   656.997803,   0.582332,   38.228855,   27.338722,   430.437775,   488.135071,   -195.595352,   0.534459,   572.899109,   401.446747
-0.000709,   0.031888,   0.036049,   0.000000,   658.472107,   0.582332,   38.228855,   26.358082,   419.817719,   498.860504,   -195.171753,   0.533108,   574.416504,   406.183990
-0.000813,   0.031836,   0.035989,   0.000000,   659.886719,   0.582332,   38.228855,   25.377443,   408.839783,   508.945618,   -194.662003,   0.531124,   576.002014,   412.545715
-0.000966,   0.031779,   0.035894,   0.000000,   661.323364,   0.582332,   38.228855,   24.396805,   397.655182,   518.455872,   -194.086609,   0.528572,   577.726807,   420.260223
-0.001170,   0.031709,   0.035756,   0.000000,   662.298096,   0.582332,   38.228855,   23.416164,   386.140350,   527.023071,   -193.280258,   0.525569,   579.158508,   428.572052
-0.001426,   0.031615,   0.035560,   0.000000,   662.849243,   0.582333,   38.228855,   22.435526,   374.323914,   534.729065,   -192.265213,   0.522142,   580.335632,   437.305756
-0.001735,   0.031487,   0.035291,   0.000000,   662.790344,   0.582332,   38.228855,   21.454885,   362.120422,   541.525879,   -190.946518,   0.518363,   581.090027,   446.051422
-0.002099,   0.031309,   0.034935,   0.000000,   662.025208,   0.582332,   38.228855,   20.474247,   349.418549,   547.406860,   -189.289322,   0.514222,   581.347412,   454.662140
-0.002517,   0.031072,   0.034478,   0.000000,   660.528870,   0.582332,   38.228855,   19.493608,   336.107269,   552.442993,   -187.257538,   0.509694,   581.100159,   463.073547
-0.002989,   0.030762,   0.033907,   0.000000,   658.294983,   0.582333,   38.228855,   18.512968,   322.041809,   556.673950,   -184.852341,   0.504682,   580.375488,   471.361481
-0.003512,   0.030371,   0.033215,   0.000000,   655.014954,   0.582332,   38.228855,   17.532330,   306.988739,   559.908508,   -181.932800,   0.499143,   578.923706,   479.248077
-0.004083,   0.029891,   0.032397,   0.000000,   650.884277,   0.582333,   38.228855,   16.551691,   290.841858,   562.343262,   -178.545578,   0.492906,   576.976196,   487.015869
-0.004694,   0.029315,   0.031451,   0.000000,   645.792236,   0.582333,   38.228855,   15.571051,   273.422974,   563.899170,   -174.626602,   0.485832,   574.493469,   494.610596
-0.005335,   0.028637,   0.030378,   0.000000,   639.614807,   0.582332,   38.228855,   14.590412,   254.551193,   564.476746,   -170.096848,   0.477759,   571.437561,   501.945007
-0.005993,   0.027852,   0.029185,   0.000000,   632.203735,   0.582332,   38.228855,   13.609773,   234.067352,   563.942139,   -164.855804,   0.468514,   567.758850,   508.860474
-0.006647,   0.026955,   0.027880,   0.000000,   623.390320,   0.582332,   38.228855,   12.629134,   211.844177,   562.119507,   -158.794708,   0.457911,   563.401978,   515.136719
-0.007276,   0.025942,   0.026471,   0.000000,   613.006287,   0.582332,   38.228855,   11.648495,   187.841583,   558.805298,   -151.803604,   0.445775,   558.313477,   520.469910
-0.007849,   0.024809,   0.024966,   0.000000,   600.912415,   0.582332,   38.228855,   10.667855,   162.117569,   553.806885,   -143.769455,   0.431962,   552.459351,   524.499451
-0.008333,   0.023552,   0.023374,   0.000000,   586.970825,   0.582332,   38.228855,   9.687216,   134.880371,   546.896851,   -134.599609,   0.416394,   545.778687,   526.772888
-0.008694,   0.022167,   0.021701,   0.000000,   571.120483,   0.582332,   38.228855,   8.706576,   106.551804,   537.886536,   -124.255638,   0.399117,   538.220032,   526.809143
-0.008895,   0.020655,   0.019953,   0.000000,   553.427246,   0.582332,   38.228855,   7.725937,   77.794662,   526.690552,   -112.768997,   0.380361,   529.746887,   524.168274
-0.008905,   0.019021,   0.018131,   0.000000,   534.141663,   0.582332,   38.228855,   6.745298,   49.549999,   513.383606,   -100.295494,   0.360617,   520.343506,   518.546753
-0.008698,   0.017274,   0.016238,   0.000000,   513.762756,   0.582332,   38.228855,   5.764659,   23.043077,   498.286346,   -87.146866,   0.340724,   510.021515,   509.895203
-0.008253,   0.015432,   0.014280,   -11.085360,   493.214783,   0.582332,   38.228855,   4.784020,   -0.014847,   482.144257,   -73.893875,   0.322161,   498.849823,   498.572601
-0.007551,   0.013528,   0.012274,   -25.324398,   473.794342,   0.582332,   38.228855,   3.803381,   -17.681559,   466.151489,   -61.288425,   0.306992,   486.950653,   485.465729
-0.006582,   0.011614,   0.010256,   -32.863865,   457.248322,   0.582332,   38.228855,   2.822742,   -27.675119,   452.059570,   -50.161175,   0.298106,   474.534515,   471.963959
-0.005414,   0.009743,   0.008269,   -31.547621,   445.253052,   0.582332,   38.228855,   1.842103,   -27.870619,   441.576050,   -41.709427,   0.298595,   461.835724,   459.402130
-0.004185,   0.007910,   0.006318,   -23.058058,   436.497803,   0.582332,   38.228855,   0.861463,   -20.240261,   433.679993,   -35.874714,   0.307295,   448.471619,   447.135040
