MinPrincipalStrain,MaxPrincipalStrain,EqPlasticStrain,MinPrincipalStress,MaxPrincipalStress,ElemVolume,IntegrationPoint_CoordX,IntegrationPoint_CoordY,Stress_xx,Stress_yy,Stress_xy,StressTriaxility,MisesStress,ThirdInvStress
-0.000125,   0.000353,   0.000000,   -4.412687,   72.713264,   0.582331,   0.371144,   57.738537,   24.888340,   43.412235,   37.434200,   0.303489,   75.017006,   74.724167
-0.000177,   0.000434,   0.000000,   -10.784614,   87.960846,   0.582334,   0.371144,   56.757896,   25.897091,   51.279144,   47.713776,   0.274202,   93.819199,   92.409225
-0.000244,   0.000508,   0.000000,   -21.049801,   100.462502,   0.582334,   0.371144,   55.777256,   29.271778,   50.140923,   59.853401,   0.235350,   112.474548,   107.908562
-0.000331,   0.000637,   0.000000,   -32.211784,   124.049019,   0.582333,   0.371144,   54.796619,   35.298100,   56.539135,   77.405197,   0.214216,   142.904160,   134.366745
-0.000419,   0.000835,   0.000000,   -38.826096,   163.632355,   0.582333,   0.371144,   53.815979,   44.593071,   80.213188,   99.650177,   0.223537,   186.108078,   176.647812
-0.000489,   0.001099,   0.000000,   -36.709667,   219.774948,   0.582333,   0.371144,   52.835342,   57.461617,   125.603668,   123.633553,   0.254001,   240.242584,   233.807495
-0.000529,   0.001416,   0.000000,   -24.030453,   290.162628,   0.582334,   0.371144,   51.854702,   74.268829,   191.863358,   145.678436,   0.292877,   302.893646,   300.737762
-0.000538,   0.001773,   0.000000,   -1.336700,   371.903320,   0.582334,   0.371144,   50.874062,   96.149948,   274.416687,   163.958145,   0.331538,   372.573486,   372.568085
-0.000534,   0.002152,   0.000232,   0.000000,   418.212799,   0.582331,   0.371144,   49.893421,   114.818825,   334.476959,   159.389313,   0.371101,   403.570068,   400.863708
-0.000509,   0.002534,   0.000630,   0.000000,   435.448303,   0.582334,   0.371144,   48.912785,   132.473831,   368.060883,   142.886902,   0.410111,   406.828827,   394.859802
-0.000469,   0.002924,   0.001053,   0.000000,   449.597809,   0.582334,   0.371144,   47.932144,   149.581436,   394.762756,   128.263062,   0.442008,   410.508575,   384.736755
-0.000427,   0.003344,   0.001524,   0.000000,   461.597290,   0.582333,   0.371144,   46.951504,   164.826523,   417.032806,   115.001892,   0.467632,   414.755798,   372.392609
-0.000385,   0.003831,   0.002083,   0.000000,   472.844849,   0.582333,   0.371144,   45.970867,   179.174698,   437.838440,   101.391991,   0.489974,   419.758850,   357.326447
-0.000343,   0.004419,   0.002770,   0.000000,   483.920288,   0.582333,   0.371144,   44.990227,   192.793564,   457.745789,   87.293190,   0.509262,   425.805634,   339.901215
-0.000306,   0.005138,   0.003618,   0.000000,   495.123779,   0.582334,   0.371144,   44.009590,   205.263535,   476.831512,   72.816223,   0.525032,   433.049530,   321.394562
-0.000276,   0.006006,   0.004651,   0.000000,   506.641815,   0.582334,   0.371144,   43.028946,   216.247192,   494.936859,   58.301418,   0.536985,   441.467743,   303.860138
-0.000257,   0.007048,   0.005899,   0.000000,   518.750854,   0.582331,   0.371144,   42.048309,   226.000061,   512.082703,   44.182705,   0.545476,   451.032501,   289.174713
-0.000258,   0.008276,   0.007371,   0.000000,   531.419495,   0.582334,   0.371144,   41.067673,   234.418243,   528.331177,   30.285995,   0.550914,   461.505127,   279.372925
-0.000277,   0.009671,   0.009047,   0.000000,   544.364075,   0.582333,   0.371144,   40.087032,   241.855240,   543.416687,   16.929014,   0.554020,   472.469330,   275.108185
-0.000327,   0.011225,   0.010910,   0.000000,   557.368286,   0.582334,   0.371144,   39.106392,   248.265549,   557.320374,   3.848222,   0.555206,   483.655640,   277.057953
-0.000398,   0.012928,   0.012952,   0.000000,   570.321594,   0.582333,   0.371144,   38.125751,   254.227219,   570.071899,   -8.884464,   0.555200,   494.896423,   283.523315
-0.000515,   0.014787,   0.015172,   0.000000,   583.145203,   0.582333,   0.371144,   37.145115,   259.457214,   581.723511,   -21.451807,   0.553994,   506.130890,   294.808838
-0.000658,   0.016774,   0.017543,   0.000000,   595.655029,   0.582334,   0.371144,   36.164474,   264.198486,   592.171692,   -33.979145,   0.551942,   517.185730,   309.252899
-0.000850,   0.018862,   0.020023,   0.000000,   607.632385,   0.582333,   0.371144,   35.183834,   268.192810,   601.314636,   -46.308586,   0.549042,   527.893799,   326.383209
-0.001083,   0.021080,   0.022650,   0.000000,   619.286804,   0.582333,   0.371144,   34.203197,   271.758575,   609.401733,   -58.611729,   0.545501,   538.441284,   345.135925
-0.001353,   0.023365,   0.025349,   0.000000,   630.282288,   0.582334,   0.371144,   33.222557,   274.638519,   616.196777,   -70.777344,   0.541314,   548.563293,   365.006226
-0.001682,   0.025726,   0.028121,   0.000000,   640.673462,   0.582333,   0.371144,   32.241917,   276.892761,   621.823792,   -82.807861,   0.536555,   558.325439,   385.499420
-0.002051,   0.028166,   0.030980,   0.000000,   650.542542,   0.582333,   0.371144,   31.261278,   278.662506,   626.388855,   -94.774849,   0.531308,   567.812927,   406.208374
-0.002467,   0.030622,   0.033843,   0.000000,   659.626221,   0.582333,   0.371144,   30.280640,   279.756958,   629.710083,   -106.603096,   0.525560,   576.823730,   426.864929
-0.002947,   0.033116,   0.036731,   0.000000,   668.040161,   0.582333,   0.371144,   29.300001,   280.272034,   631.935547,   -118.322479,   0.519354,   585.475647,   447.305481
-0.003471,   0.035641,   0.039646,   0.000000,   675.830017,   0.582333,   0.371144,   28.319361,   280.315735,   633.146484,   -129.930588,   0.512765,   593.815063,   467.309326
-0.004061,   0.038164,   0.042536,   0.000000,   682.869324,   0.582333,   0.371144,   27.338722,   279.777466,   633.262756,   -141.407196,   0.505763,   601.757812,   486.801788
-0.004709,   0.040693,   0.045417,   0.000000,   689.246399,   0.582333,   0.371144,   26.358082,   278.804230,   632.383667,   -152.770660,   0.498422,   609.381897,   505.651184
-0.005418,   0.043190,   0.048240,   0.000000,   694.874023,   0.582333,   0.371144,   25.377443,   277.393219,   630.503845,   -163.930801,   0.490802,   616.607239,   523.663086
-0.006188,   0.045636,   0.050981,   0.000000,   699.745300,   0.582333,   0.371144,   24.396805,   275.556519,   627.689514,   -174.829193,   0.482949,   623.423889,   540.750732
-0.007023,   0.048022,   0.053631,   0.000000,   703.905945,   0.582333,   0.371144,   23.416164,   273.415771,   624.061279,   -185.397812,   0.474977,   629.839294,   556.772583
-0.007925,   0.050336,   0.056173,   0.000000,   707.394043,   0.582333,   0.371144,   22.435526,   271.028778,   619.781067,   -195.528152,   0.466994,   635.846252,   571.628296
-0.008886,   0.052555,   0.058584,   0.000000,   710.261963,   0.582333,   0.371144,   21.454885,   268.509918,   615.046265,   -205.089600,   0.459167,   641.419250,   585.177368
-0.009906,   0.054653,   0.060832,   0.000000,   712.546143,   0.582333,   0.371144,   20.474247,   265.932159,   610.046448,   -213.957428,   0.451643,   646.512878,   597.325867
-0.010979,   0.056610,   0.062897,   0.000000,   714.322021,   0.582333,   0.371144,   19.493608,   263.387268,   605.006165,   -222.023239,   0.444574,   651.104736,   608.027100
-0.012098,   0.058400,   0.064749,   0.000000,   715.634033,   0.582334,   0.371144,   18.512968,   260.914368,   600.071655,   -229.234528,   0.438051,   655.164368,   617.303467
-0.013253,   0.059994,   0.066361,   0.000000,   716.480286,   0.582333,   0.371144,   17.532330,   258.486053,   595.242432,   -235.640060,   0.432047,   658.669434,   625.270935
-0.014434,   0.061359,   0.067698,   0.000000,   716.786316,   0.582333,   0.371144,   16.551691,   255.997238,   590.311829,   -241.408478,   0.426393,   661.603088,   632.126892
-0.015626,   0.062456,   0.068721,   0.000000,   716.403015,   0.582333,   0.371144,   15.571051,   253.286987,   584.884033,   -246.796585,   0.420802,   663.947083,   638.095459
-0.016803,   0.063231,   0.069377,   0.000000,   715.136353,   0.582333,   0.371144,   14.590412,   250.211426,   578.481323,   -252.060196,   0.414971,   665.662659,   643.327637
-0.017952,   0.063639,   0.069618,   0.000000,   712.768494,   0.582333,   0.371144,   13.609773,   246.581146,   570.630249,   -257.416107,   0.408579,   666.711060,   647.921692
-0.019041,   0.063638,   0.069408,   0.000000,   709.146179,   0.582333,   0.371144,   12.629134,   242.357849,   560.993896,   -262.974823,   0.401444,   667.051331,   651.833008
-0.020030,   0.063169,   0.068687,   0.000000,   704.083130,   0.582333,   0.371144,   11.648495,   237.522354,   549.286377,   -268.741699,   0.393455,   666.581482,   654.883240
-0.020878,   0.062169,   0.067392,   0.000000,   697.410828,   0.582333,   0.371144,   10.667855,   232.112091,   535.324097,   -274.624725,   0.384582,   665.168335,   656.798889
-0.021519,   0.060578,   0.065464,   0.000000,   688.967651,   0.582333,   0.371144,   9.687216,   226.247330,   518.927002,   -280.501831,   0.374843,   662.654541,   657.259460
-0.021894,   0.058319,   0.062820,   0.000000,   678.432556,   0.582333,   0.371144,   8.706576,   219.882111,   499.732239,   -286.257080,   0.364099,   658.807739,   655.902405
-0.021924,   0.055297,   0.059362,   0.000000,   665.514771,   0.582333,   0.371144,   7.725937,   213.268127,   477.433960,   -291.648590,   0.352425,   653.285339,   652.191528
-0.021507,   0.051444,   0.055011,   0.000000,   649.918701,   0.582333,   0.371144,   6.745298,   206.633377,   451.864105,   -296.301697,   0.339955,   645.672058,   645.543823
-0.020555,   0.046745,   0.049751,   -8.159532,   631.393616,   0.582333,   0.371144,   5.764659,   200.306839,   422.927246,   -299.778412,   0.326893,   635.512695,   635.394836
-0.019004,   0.041269,   0.043645,   -23.518187,   610.175354,   0.582333,   0.371144,   4.784020,   195.035126,   391.622040,   -301.214661,   0.314258,   622.267883,   621.266724
-0.016652,   0.035087,   0.036749,   -34.710918,   586.926025,   0.582333,   0.371144,   3.803381,   192.894333,   359.320801,   -299.472351,   0.304236,   605.028748,   602.782410
-0.013619,   0.028490,   0.029363,   -39.087475,   562.607849,   0.582333,   0.371144,   2.822742,   194.175262,   329.345093,   -293.157959,   0.299256,   583.134888,   580.176514
-0.010231,   0.021965,   0.022038,   -33.418991,   539.069519,   0.582333,   0.371144,   1.842103,   200.710983,   304.939575,   -281.460266,   0.302858,   556.532104,   554.267822
-0.007012,   0.015893,   0.015245,   -20.505995,   514.978088,   0.582333,   0.371144,   0.861463,   209.537292,   284.934784,   -265.074707,   0.313633,   525.531189,   524.629944
-0.000140,   0.000435,   0.000000,   -2.107141,   90.800697,   0.567391,   1.113431,   57.008831,   42.895611,   45.797947,   46.431248,   0.321800,   91.872391,   91.818001
-0.000176,   0.000461,   0.000000,   -8.634646,   94.140755,   0.567391,   1.113431,   56.053352,   44.181862,   41.324245,   51.367832,   0.288653,   98.741638,   97.886833
-0.000243,   0.000555,   0.000000,   -17.575026,   111.225777,   0.567391,   1.113431,   55.097878,   54.107979,   39.542770,   63.987305,   0.258045,   120.974579,   118.051079
-0.000314,   0.000715,   0.000000,   -22.864639,   143.334702,   0.567391,   1.113431,   54.142399,   67.442444,   53.027615,   82.786522,   0.257367,   156.028595,   152.190918
-0.000367,   0.000934,   0.000000,   -19.935627,   190.121109,   0.567391,   1.113431,   53.186924,   81.295525,   88.889954,   104.959702,   0.282467,   200.832382,   198.587982
-0.000395,   0.001205,   0.000000,   -7.688582,   250.794586,   0.567391,   1.113431,   52.231445,   94.534615,   148.571396,   126.385895,   0.318128,   254.725922,   254.464645
-0.000399,   0.001517,   0.000000,   0.000000,   322.352386,   0.567391,   1.113431,   51.275970,   107.761024,   227.538452,   142.640274,   0.353604,   316.077759,   315.480347
-0.000378,   0.001854,   0.000000,   0.000000,   401.578583,   0.567392,   1.113431,   50.320492,   125.848801,   316.783142,   152.907257,   0.385527,   382.706940,   377.705353
-0.000376,   0.002216,   0.000293,   0.000000,   432.189728,   0.567390,   1.113431,   49.365013,   134.780289,   366.590424,   139.677673,   0.415639,   402.087860,   388.358124
-0.000371,   0.002622,   0.000731,   0.000000,   445.642517,   0.567392,   1.113431,   48.409538,   148.192810,   393.661255,   124.345520,   0.444681,   406.174774,   379.244110
-0.000379,   0.003112,   0.001272,   0.000000,   458.049896,   0.567391,   1.113431,   47.454060,   161.267822,   416.118561,   111.554764,   0.467631,   411.568726,   369.532227
-0.000390,   0.003693,   0.001925,   0.000000,   470.149658,   0.567391,   1.113431,   46.498585,   173.779205,   437.220886,   98.788223,   0.487332,   417.921967,   358.370087
-0.000406,   0.004378,   0.002705,   0.000000,   482.093140,   0.567391,   1.113431,   45.543106,   185.356140,   457.304504,   85.765427,   0.503821,   425.190826,   346.394989
-0.000433,   0.005192,   0.003641,   0.000000,   494.084503,   0.567391,   1.113431,   44.587631,   195.590485,   476.313568,   72.832146,   0.516707,   433.452881,   335.281372
-0.000476,   0.006161,   0.004763,   0.000000,   506.438782,   0.567391,   1.113431,   43.632153,   204.640747,   494.612244,   59.742981,   0.526472,   442.728973,   325.975647
-0.000546,   0.007292,   0.006075,   0.000000,   519.039734,   0.567392,   1.113431,   42.676678,   212.170288,   511.917999,   46.748695,   0.533057,   452.790009,   320.287598
-0.000635,   0.008582,   0.007580,   0.000000,   531.877991,   0.567390,   1.113431,   41.721199,   218.939316,   528.128235,   34.255516,   0.537373,   463.407104,   318.047668
-0.000756,   0.010052,   0.009295,   0.000000,   544.974670,   0.567391,   1.113431,   40.765724,   224.941574,   543.520203,   21.574734,   0.539841,   474.498718,   319.538483
-0.000906,   0.011680,   0.011198,   0.000000,   558.062012,   0.567391,   1.113431,   39.810246,   230.455109,   557.795105,   9.351465,   0.540908,   485.757721,   324.306519
-0.001101,   0.013468,   0.013283,   0.000000,   571.018799,   0.567391,   1.113431,   38.854771,   235.408981,   570.994019,   -2.882223,   0.540792,   497.050659,   332.161865
-0.001321,   0.015404,   0.015545,   0.000000,   583.796753,   0.567392,   1.113431,   37.899292,   240.105713,   583.175049,   -14.617345,   0.539900,   508.292480,   342.136261
-0.001572,   0.017470,   0.017961,   0.000000,   596.244080,   0.567390,   1.113431,   36.943813,   244.531097,   594.249084,   -26.489088,   0.538357,   519.345825,   353.811371
-0.001867,   0.019656,   0.020511,   0.000000,   608.248413,   0.567392,   1.113431,   35.988338,   248.488510,   604.202271,   -38.152790,   0.536153,   530.128784,   367.091888
-0.002197,   0.021950,   0.023186,   0.000000,   619.761169,   0.567390,   1.113431,   35.032864,   251.760635,   613.065735,   -49.637920,   0.533223,   540.628296,   382.000916
-0.002549,   0.024299,   0.025926,   0.000000,   630.620544,   0.567392,   1.113431,   34.077385,   254.685379,   620.686279,   -61.111603,   0.529880,   550.672546,   397.450317
-0.002951,   0.026735,   0.028758,   0.000000,   640.932800,   0.567391,   1.113431,   33.121906,   256.947601,   627.258545,   -72.461792,   0.525932,   560.406006,   413.865234
-0.003389,   0.029222,   0.031646,   0.000000,   650.618652,   0.567391,   1.113431,   32.166431,   258.651581,   632.765442,   -83.653305,   0.521521,   569.754822,   430.685150
-0.003851,   0.031718,   0.034540,   0.000000,   659.557861,   0.567391,   1.113431,   31.210953,   259.779938,   637.057861,   -94.841965,   0.516640,   578.635010,   447.717529
-0.004370,   0.034254,   0.037466,   0.000000,   667.880066,   0.567391,   1.113431,   30.255476,   260.344116,   640.344604,   -105.932419,   0.511311,   587.175720,   464.877899
-0.004930,   0.036801,   0.040395,   0.000000,   675.537170,   0.567391,   1.113431,   29.299999,   260.376251,   642.609131,   -116.920670,   0.505583,   595.343140,   481.932434
-0.005522,   0.039333,   0.043300,   0.000000,   682.502441,   0.567391,   1.113431,   28.344522,   259.960419,   643.821777,   -127.844406,   0.499506,   603.117126,   498.678925
-0.006172,   0.041843,   0.046161,   0.000000,   688.757202,   0.567391,   1.113431,   27.389046,   259.064789,   643.979004,   -138.711441,   0.493060,   610.502930,   515.080078
-0.006863,   0.044307,   0.048955,   0.000000,   694.305786,   0.567391,   1.113431,   26.433569,   257.840973,   643.081604,   -149.524414,   0.486335,   617.491516,   530.921509
-0.007592,   0.046714,   0.051672,   0.000000,   699.178162,   0.567391,   1.113431,   25.478092,   256.346466,   641.221619,   -160.202988,   0.479395,   624.098389,   546.087158
-0.008373,   0.049057,   0.054297,   0.000000,   703.380249,   0.567391,   1.113431,   24.522615,   254.592819,   638.436890,   -170.721298,   0.472256,   630.329285,   560.540100
-0.009199,   0.051326,   0.056821,   0.000000,   706.974915,   0.567391,   1.113431,   23.567139,   252.785538,   634.798828,   -181.056915,   0.465047,   636.197205,   574.130737
-0.010068,   0.053484,   0.059200,   0.000000,   709.932251,   0.567391,   1.113431,   22.611660,   250.944153,   630.387634,   -191.075943,   0.457855,   641.638123,   586.727539
-0.010969,   0.055519,   0.061425,   0.000000,   712.328308,   0.567391,   1.113431,   21.656183,   249.196960,   625.377197,   -200.673294,   0.450819,   646.655212,   598.235291
-0.011909,   0.057424,   0.063482,   0.000000,   714.234863,   0.567390,   1.113431,   20.700708,   247.642151,   619.949890,   -209.744354,   0.444070,   651.242554,   608.594299
-0.012877,   0.059180,   0.065356,   0.000000,   715.726379,   0.567391,   1.113431,   19.745232,   246.368759,   614.336243,   -218.147247,   0.437766,   655.376221,   617.731628
-0.013866,   0.060769,   0.067025,   0.000000,   716.861633,   0.567391,   1.113431,   18.789755,   245.415619,   608.736572,   -225.776733,   0.432025,   659.030334,   625.630188
-0.014866,   0.062168,   0.068468,   0.000000,   717.668701,   0.567391,   1.113431,   17.834278,   244.763351,   603.273376,   -232.590134,   0.426891,   662.180603,   632.332825
-0.015866,   0.063355,   0.069660,   0.000000,   718.119934,   0.567391,   1.113431,   16.878801,   244.324020,   597.912476,   -238.649963,   0.422295,   664.808716,   637.955872
-0.016852,   0.064301,   0.070574,   0.000000,   718.119507,   0.567391,   1.113431,   15.923324,   243.954834,   592.417542,   -244.138107,   0.418038,   666.903015,   642.677490
-0.017803,   0.064974,   0.071179,   0.000000,   717.529358,   0.567391,   1.113431,   14.967846,   243.539352,   586.388184,   -249.318283,   0.413853,   668.455505,   646.680969
-0.018716,   0.065335,   0.071432,   0.000000,   716.131470,   0.567391,   1.113431,   14.012369,   242.857010,   579.326355,   -254.453049,   0.409391,   669.435730,   650.132507
-0.019552,   0.065338,   0.071289,   0.000000,   713.772888,   0.567391,   1.113431,   13.056892,   241.926743,   570.809631,   -259.724213,   0.404469,   669.797058,   653.044373
-0.020280,   0.064936,   0.070703,   0.000000,   710.288025,   0.567391,   1.113431,   12.101416,   240.755386,   560.455383,   -265.238251,   0.398926,   669.473450,   655.366699
-0.020868,   0.064089,   0.069630,   0.000000,   705.557556,   0.567391,   1.113431,   11.145939,   239.449539,   548.017334,   -270.981110,   0.392725,   668.377808,   656.943787
-0.021267,   0.062728,   0.067999,   0.000000,   699.415466,   0.567391,   1.113431,   10.190462,   238.206635,   533.177673,   -276.894104,   0.385874,   666.352295,   657.523315
-0.021453,   0.060844,   0.065800,   0.000000,   691.789551,   0.567391,   1.113431,   9.234985,   237.127594,   515.868896,   -282.815186,   0.378405,   663.307434,   656.908936
-0.021375,   0.058435,   0.063032,   0.000000,   682.608826,   0.567391,   1.113431,   8.279508,   236.611618,   495.737152,   -288.694000,   0.370351,   659.147827,   654.905518
-0.021028,   0.055466,   0.059652,   0.000000,   671.646423,   0.567391,   1.113431,   7.324031,   236.876160,   472.407379,   -294.318237,   0.361709,   653.641113,   651.196411
-0.020378,   0.051942,   0.055659,   0.000000,   658.806091,   0.567391,   1.113431,   6.368554,   238.281464,   445.776276,   -299.306366,   0.352671,   646.550232,   645.439392
-0.019442,   0.047947,   0.051139,   0.000000,   644.039307,   0.567391,   1.113431,   5.413077,   240.896271,   415.927673,   -303.251709,   0.343306,   637.743103,   637.454590
-0.018126,   0.043489,   0.046095,   0.000000,   627.541016,   0.567391,   1.113431,   4.457601,   246.449417,   382.717529,   -305.450775,   0.334630,   626.729614,   626.724915
-0.016534,   0.038837,   0.040825,   -6.696699,   610.309143,   0.567391,   1.113431,   3.502124,   253.570587,   350.041870,   -304.708679,   0.327862,   613.684937,   613.602722
-0.014552,   0.034075,   0.035424,   -9.810520,   593.341003,   0.567391,   1.113431,   2.546647,   263.442841,   320.087616,   -300.242859,   0.325101,   598.306580,   598.125549
-0.012377,   0.029356,   0.030097,   -6.850694,   577.547180,   0.567391,   1.113431,   1.591170,   272.754608,   297.941895,   -291.927429,   0.327420,   581.002808,   580.911926
-0.000140,   0.000435,   0.000000,   -2.124040,   90.719612,   0.552450,   1.855719,   56.279121,   48.588112,   40.007462,   46.223145,   0.321698,   91.800064,   91.744751
-0.000178,   0.000469,   0.000000,   -8.668056,   95.834618,   0.552448,   1.855719,   55.348808,   58.254311,   28.912251,   50.149406,   0.289255,   100.449532,   99.602890
-0.000246,   0.000599,   0.000000,   -15.302334,   121.185829,   0.552448,   1.855719,   54.418495,   74.438225,   31.445274,   64.770027,   0.272509,   129.516769,   127.459190
-0.000298,   0.000792,   0.000000,   -14.027001,   162.154144,   0.552450,   1.855719,   53.488178,   91.318504,   56.808632,   86.384117,   0.291125,   169.603241,   168.290787
-0.000322,   0.001036,   0.000000,   -2.495030,   216.732773,   0.552448,   1.855719,   52.557865,   105.397339,   108.840401,   109.600380,   0.327594,   217.990997,   217.958878
-0.000323,   0.001327,   0.000000,   0.000000,   283.816101,   0.552449,   1.855719,   51.627552,   116.352058,   184.822861,   128.754852,   0.364336,   275.547119,   274.312866
-0.000308,   0.001652,   0.000000,   0.000000,   359.881439,   0.552449,   1.855719,   50.697235,   125.759644,   277.414093,   138.951080,   0.394912,   340.306885,   334.027252
-0.000293,   0.001989,   0.000051,   0.000000,   429.340393,   0.552449,   1.855719,   49.766922,   137.357483,   362.489075,   139.712006,   0.417803,   398.789612,   384.389954
-0.000289,   0.002400,   0.000495,   0.000000,   443.127655,   0.552448,   1.855719,   48.836605,   148.799362,   393.400269,   120.980080,   0.448653,   402.834778,   373.921783
-0.000329,   0.002932,   0.001078,   0.000000,   455.642792,   0.552450,   1.855719,   47.906292,   160.099274,   415.644196,   108.725914,   0.469186,   409.037292,   366.101959
-0.000392,   0.003585,   0.001801,   0.000000,   468.088715,   0.552448,   1.855719,   46.975975,   169.953674,   436.747650,   96.663704,   0.485604,   416.458282,   358.766052
-0.000475,   0.004364,   0.002672,   0.000000,   480.667847,   0.552449,   1.855719,   46.045662,   179.066223,   456.831696,   84.788101,   0.498883,   424.880981,   352.027100
-0.000578,   0.005282,   0.003703,   0.000000,   493.390656,   0.552448,   1.855719,   45.115349,   187.126221,   475.925629,   73.136314,   0.509048,   434.177429,   346.874359
-0.000704,   0.006344,   0.004903,   0.000000,   506.244934,   0.552450,   1.855719,   44.185036,   194.075195,   494.163879,   61.411198,   0.516518,   444.153320,   343.853180
-0.000856,   0.007564,   0.006287,   0.000000,   519.271667,   0.552448,   1.855719,   43.254719,   200.169327,   511.532745,   49.694157,   0.521742,   454.696442,   343.328857
-0.001042,   0.008961,   0.007877,   0.000000,   532.578979,   0.552449,   1.855719,   42.324406,   205.824112,   528.231934,   37.688461,   0.525348,   465.758423,   345.075043
-0.001255,   0.010493,   0.009627,   0.000000,   545.661804,   0.552449,   1.855719,   41.394089,   210.867569,   543.615479,   26.174238,   0.527383,   476.872467,   349.304077
-0.001499,   0.012192,   0.011573,   0.000000,   558.764893,   0.552448,   1.855719,   40.463776,   215.726349,   558.160156,   14.402885,   0.528446,   488.152771,   355.365753
-0.001792,   0.014066,   0.013718,   0.000000,   571.778076,   0.552449,   1.855719,   39.533463,   220.052658,   571.751770,   3.040630,   0.528361,   499.535248,   363.833466
-0.002112,   0.016119,   0.016078,   0.000000,   584.796021,   0.552449,   1.855719,   38.603146,   224.568619,   584.585327,   -8.712385,   0.527826,   510.998322,   373.346313
-0.002472,   0.018242,   0.018515,   0.000000,   596.988647,   0.552449,   1.855719,   37.672832,   228.339874,   595.941223,   -19.649973,   0.526475,   521.887207,   384.252838
-0.002858,   0.020532,   0.021153,   0.000000,   609.089661,   0.552448,   1.855719,   36.742519,   232.212662,   606.575378,   -30.782835,   0.524796,   532.770752,   395.910828
-0.003273,   0.022920,   0.023906,   0.000000,   620.657715,   0.552450,   1.855719,   35.812202,   235.696350,   616.141052,   -41.698284,   0.522630,   543.301575,   408.376740
-0.003721,   0.025347,   0.026700,   0.000000,   631.425415,   0.552448,   1.855719,   34.881889,   238.533081,   624.420837,   -52.459972,   0.519909,   553.272583,   421.571167
-0.004192,   0.027878,   0.029619,   0.000000,   641.808777,   0.552449,   1.855719,   33.951572,   241.085068,   631.879822,   -63.077568,   0.516833,   563.021912,   435.254272
-0.004702,   0.030458,   0.032590,   0.000000,   651.553650,   0.552449,   1.855719,   33.021259,   243.105240,   638.260315,   -73.686066,   0.513289,   572.364258,   449.430542
-0.005212,   0.033029,   0.035557,   0.000000,   660.536987,   0.552448,   1.855719,   32.090942,   244.583420,   643.527771,   -84.113327,   0.509367,   581.186707,   463.743042
-0.005779,   0.035648,   0.038566,   0.000000,   668.946899,   0.552449,   1.855719,   31.160629,   245.499557,   647.822327,   -94.578728,   0.504963,   589.694092,   478.441559
-0.006375,   0.038276,   0.041582,   0.000000,   676.735413,   0.552448,   1.855719,   30.230314,   245.976898,   651.152954,   -104.975555,   0.500218,   597.825928,   493.135132
-0.006981,   0.040847,   0.044530,   0.000000,   683.736145,   0.552449,   1.855719,   29.299999,   245.905167,   653.372437,   -115.300323,   0.495095,   605.458252,   507.697510
-0.007637,   0.043395,   0.047437,   0.000000,   690.068359,   0.552449,   1.855719,   28.369686,   245.353470,   654.591553,   -125.606812,   0.489598,   612.709839,   522.131165
-0.008329,   0.045928,   0.050318,   0.000000,   695.834290,   0.552448,   1.855719,   27.439371,   244.507050,   654.879089,   -135.956589,   0.483805,   619.661499,   536.318359
-0.009048,   0.048394,   0.053114,   0.000000,   700.933533,   0.552449,   1.855719,   26.509056,   243.388901,   654.142456,   -146.318207,   0.477748,   626.224060,   550.083008
-0.009796,   0.050789,   0.055817,   0.000000,   705.387451,   0.552448,   1.855719,   25.578741,   242.003067,   652.458252,   -156.609589,   0.471452,   632.416077,   563.361938
-0.010590,   0.053102,   0.058411,   0.000000,   709.208435,   0.552449,   1.855719,   24.648426,   240.428421,   649.824036,   -166.847916,   0.464949,   638.244202,   576.086853
-0.011407,   0.055309,   0.060875,   0.000000,   712.422180,   0.552449,   1.855719,   23.718113,   238.840683,   646.243896,   -177.033386,   0.458332,   643.699585,   588.122559
-0.012247,   0.057396,   0.063189,   0.000000,   715.056824,   0.552448,   1.855719,   22.787798,   237.278397,   641.862122,   -187.004959,   0.451697,   648.768494,   599.358093
-0.013119,   0.059357,   0.065346,   0.000000,   717.156128,   0.552449,   1.855719,   21.857483,   235.801590,   636.777893,   -196.698807,   0.445109,   653.457336,   609.754272
-0.014012,   0.061186,   0.067342,   0.000000,   718.812378,   0.552448,   1.855719,   20.927168,   234.586197,   631.155151,   -206.024063,   0.438724,   657.772705,   619.214966
-0.014919,   0.062859,   0.069149,   0.000000,   720.071838,   0.552448,   1.855719,   19.996855,   233.715225,   625.175476,   -214.833557,   0.432685,   661.675537,   627.644958
-0.015831,   0.064363,   0.070757,   0.000000,   721.016785,   0.552449,   1.855719,   19.066540,   233.283752,   619.062317,   -222.994537,   0.427146,   665.148132,   634.987610
-0.016740,   0.065686,   0.072150,   0.000000,   721.714844,   0.552449,   1.855719,   18.136225,   233.344925,   613.013977,   -230.404480,   0.422227,   668.169861,   641.225891
-0.017635,   0.066812,   0.073316,   0.000000,   722.199463,   0.552448,   1.855719,   17.205910,   233.892120,   607.139099,   -237.033386,   0.417971,   670.725586,   646.402893
-0.018504,   0.067726,   0.074238,   0.000000,   722.444946,   0.552449,   1.855719,   16.275597,   234.845459,   601.383667,   -242.959717,   0.414298,   672.808105,   650.631287
-0.019334,   0.068409,   0.074901,   0.000000,   722.367126,   0.552449,   1.855719,   15.345281,   236.101151,   595.492065,   -248.384811,   0.411016,   674.420654,   654.076050
-0.020112,   0.068834,   0.075276,   0.000000,   721.796448,   0.552449,   1.855719,   14.414967,   237.454727,   589.054321,   -253.559753,   0.407818,   675.554321,   656.923340
-0.020815,   0.068950,   0.075309,   0.000000,   720.518372,   0.552449,   1.855719,   13.484652,   238.815475,   581.512390,   -258.765503,   0.404404,   676.161255,   659.281982
-0.021424,   0.068732,   0.074973,   0.000000,   718.391235,   0.552449,   1.855719,   12.554337,   240.154297,   572.466125,   -264.171844,   0.400571,   676.218628,   661.205811
-0.021915,   0.068165,   0.074257,   0.000000,   715.343628,   0.552449,   1.855719,   11.624022,   241.580780,   561.625000,   -269.863281,   0.396228,   675.710510,   662.676086
-0.022263,   0.067226,   0.073138,   0.000000,   711.270752,   0.552449,   1.855719,   10.693707,   243.231934,   548.646790,   -275.888245,   0.391290,   674.588501,   663.623718
-0.022467,   0.065893,   0.071584,   0.000000,   706.073425,   0.552449,   1.855719,   9.763393,   245.189835,   533.377380,   -282.121918,   0.385756,   672.762268,   663.889709
-0.022504,   0.064141,   0.069567,   0.000000,   699.637451,   0.552449,   1.855719,   8.833078,   247.758972,   515.413879,   -288.524963,   0.379613,   670.132507,   663.305481
-0.022352,   0.062013,   0.067136,   0.000000,   692.036926,   0.552449,   1.855719,   7.902764,   251.314194,   494.717041,   -294.895477,   0.373007,   666.681641,   661.735474
-0.022026,   0.059466,   0.064230,   0.000000,   682.911133,   0.552449,   1.855719,   6.972449,   255.814056,   470.678009,   -301.071686,   0.365698,   662.197144,   658.959045
-0.021525,   0.056440,   0.060769,   0.000000,   671.972656,   0.552449,   1.855719,   6.042135,   261.331451,   443.100983,   -306.568359,   0.357755,   656.345093,   654.535522
-0.020842,   0.053059,   0.056893,   0.000000,   659.332458,   0.552449,   1.855719,   5.111820,   268.669037,   411.589417,   -311.101532,   0.349322,   649.122498,   648.362976
-0.019937,   0.049153,   0.052406,   0.000000,   644.421387,   0.552449,   1.855719,   4.181505,   276.548248,   377.164642,   -313.554718,   0.340568,   639.826172,   639.674377
-0.018571,   0.044775,   0.047373,   0.000000,   628.277161,   0.552449,   1.855719,   3.251191,   286.864502,   342.009369,   -312.626678,   0.333808,   627.979004,   627.978333
-0.016699,   0.040141,   0.042063,   -1.786543,   612.812744,   0.552449,   1.855719,   2.320876,   299.252533,   311.773682,   -307.235870,   0.331877,   613.708008,   613.702087
-0.000118,   0.000358,   0.000000,   -2.389466,   74.496567,   0.537507,   2.598006,   55.549416,   45.205284,   26.901815,   37.337799,   0.317430,   75.719582,   75.634682
-0.000184,   0.000451,   0.000000,   -11.158533,   91.276115,   0.537506,   2.598006,   54.644264,   64.544350,   15.573231,   44.985237,   0.274367,   97.336266,   95.881439
-0.000252,   0.000634,   0.000000,   -14.187180,   128.806213,   0.537506,   2.598006,   53.739113,   86.528923,   28.090107,   65.253380,   0.279994,   136.454071,   134.779800
-0.000282,   0.000868,   0.000000,   -4.944922,   180.821396,   0.537507,   2.598006,   52.833961,   105.079926,   70.796547,   91.287697,   0.319757,   183.343872,   183.193756
-0.000283,   0.001154,   0.000000,   0.000000,   246.598480,   0.537506,   2.598006,   51.928806,   118.175003,   142.951508,   115.372032,   0.363183,   239.664948,   238.671219
-0.000269,   0.001475,   0.000000,   0.000000,   321.882233,   0.537507,   2.598006,   51.023655,   125.531219,   236.520004,   129.464111,   0.397253,   303.796021,   297.733398
-0.000253,   0.001847,   0.000000,   0.000000,   408.577606,   0.537507,   2.598006,   50.118504,   135.332306,   342.585938,   134.282974,   0.420667,   378.698761,   364.002930
-0.000260,   0.002301,   0.000390,   0.000000,   441.360962,   0.537506,   2.598006,   49.213352,   145.574982,   394.635651,   117.561440,   0.448856,   401.176239,   372.267578
-0.000318,   0.002852,   0.000992,   0.000000,   453.995544,   0.537506,   2.598006,   48.308201,   156.714996,   415.904663,   106.412758,   0.468017,   407.834290,   365.894867
-0.000425,   0.003561,   0.001768,   0.000000,   466.695404,   0.537507,   2.598006,   47.403046,   164.656845,   436.694092,   95.192177,   0.481799,   416.045166,   361.913239
-0.000569,   0.004416,   0.002708,   0.000000,   479.716187,   0.537506,   2.598006,   46.497894,   171.939346,   456.551788,   84.436142,   0.492571,   425.313812,   359.355896
-0.000749,   0.005421,   0.003818,   0.000000,   492.898438,   0.537507,   2.598006,   45.592743,   178.082062,   475.561646,   73.877609,   0.500438,   435.381226,   358.873199
-0.000963,   0.006579,   0.005101,   0.000000,   506.170319,   0.537506,   2.598006,   44.687592,   183.297516,   493.776672,   63.257977,   0.506042,   445.993347,   360.421082
-0.001205,   0.007902,   0.006573,   0.000000,   519.715820,   0.537507,   2.598006,   43.782436,   188.580276,   511.467255,   52.262665,   0.510545,   457.058868,   362.989197
-0.001483,   0.009375,   0.008219,   0.000000,   533.138611,   0.537506,   2.598006,   42.877285,   193.323441,   528.125610,   41.273415,   0.513527,   468.296936,   367.343506
-0.001788,   0.011007,   0.010052,   0.000000,   546.544861,   0.537506,   2.598006,   41.972134,   198.079025,   543.950195,   30.069246,   0.515651,   479.671204,   372.797638
-0.002137,   0.012796,   0.012063,   0.000000,   559.700562,   0.537508,   2.598006,   41.066982,   202.218918,   558.675781,   19.139849,   0.516503,   491.055267,   380.188599
-0.002513,   0.014753,   0.014276,   0.000000,   572.826050,   0.537506,   2.598006,   40.161827,   206.586578,   572.649475,   8.041095,   0.516915,   502.491516,   388.315033
-0.002929,   0.016835,   0.016632,   0.000000,   585.467041,   0.537506,   2.598006,   39.256676,   210.526794,   585.447510,   -2.707129,   0.516544,   513.653503,   397.610626
-0.003390,   0.019100,   0.019200,   0.000000,   598.011475,   0.537507,   2.598006,   38.351524,   214.404526,   597.529724,   -13.594207,   0.515675,   524.835571,   407.855621
-0.003865,   0.021509,   0.021946,   0.000000,   610.291321,   0.537506,   2.598006,   37.446369,   218.325836,   608.794495,   -24.222057,   0.514517,   535.855835,   418.548828
-0.004361,   0.023948,   0.024728,   0.000000,   621.690308,   0.537506,   2.598006,   36.541222,   221.815338,   618.683533,   -34.674809,   0.512928,   546.209595,   429.549744
-0.004888,   0.026496,   0.027638,   0.000000,   632.662231,   0.537508,   2.598006,   35.636066,   224.968643,   627.741821,   -44.788471,   0.510944,   556.297119,   441.089996
-0.005440,   0.029157,   0.030684,   0.000000,   643.284241,   0.537506,   2.598006,   34.730915,   227.999329,   636.000427,   -54.998692,   0.508682,   566.168823,   452.972900
-0.006011,   0.031797,   0.033703,   0.000000,   652.965576,   0.537506,   2.598006,   33.825764,   230.240860,   643.028748,   -64.811623,   0.505921,   575.366821,   465.181244
-0.006580,   0.034462,   0.036762,   0.000000,   662.083679,   0.537507,   2.598006,   32.920609,   232.230515,   649.099060,   -74.709282,   0.502888,   584.178406,   477.491150
-0.007186,   0.037163,   0.039856,   0.000000,   670.626282,   0.537507,   2.598006,   32.015457,   233.681076,   654.323486,   -84.400467,   0.499469,   592.632568,   490.070282
-0.007824,   0.039881,   0.042965,   0.000000,   678.582581,   0.537507,   2.598006,   31.110304,   234.676285,   658.601624,   -94.178986,   0.495660,   600.732788,   502.857727
-0.008452,   0.042541,   0.046014,   0.000000,   685.805176,   0.537506,   2.598006,   30.205153,   235.202850,   661.836426,   -103.924843,   0.491519,   608.344604,   515.581543
-0.009117,   0.045189,   0.049039,   0.000000,   692.430420,   0.537507,   2.598006,   29.300001,   235.250885,   664.178223,   -113.650002,   0.487012,   615.610413,   528.344788
-0.009826,   0.047824,   0.052038,   0.000000,   698.484009,   0.537507,   2.598006,   28.394848,   234.867844,   665.630554,   -123.415573,   0.482145,   622.564026,   541.096130
-0.010544,   0.050390,   0.054956,   0.000000,   703.907837,   0.537506,   2.598006,   27.489697,   234.219604,   666.082336,   -133.289825,   0.477004,   629.137085,   553.596802
-0.011269,   0.052866,   0.057769,   0.000000,   708.682556,   0.537507,   2.598006,   26.584543,   233.306396,   665.535339,   -143.217194,   0.471597,   635.318054,   565.772949
-0.012040,   0.055267,   0.060479,   0.000000,   712.831848,   0.537506,   2.598006,   25.679390,   232.055161,   664.053955,   -153.138046,   0.465886,   641.150452,   577.657654
-0.012835,   0.057595,   0.063099,   0.000000,   716.449158,   0.537507,   2.598006,   24.774239,   230.690125,   661.680176,   -163.108917,   0.459967,   646.690857,   589.145386
-0.013649,   0.059811,   0.065582,   0.000000,   719.488159,   0.537507,   2.598006,   23.869085,   229.300339,   658.331726,   -173.141937,   0.453878,   651.888062,   600.121277
-0.014476,   0.061907,   0.067922,   0.000000,   721.987976,   0.537506,   2.598006,   22.963934,   227.900513,   654.173828,   -183.046738,   0.447700,   656.744873,   610.486938
-0.015335,   0.063876,   0.070104,   0.000000,   723.961975,   0.537507,   2.598006,   22.058783,   226.550125,   649.217163,   -192.818436,   0.441464,   661.259766,   620.209839
-0.016202,   0.065703,   0.072116,   0.000000,   725.483887,   0.537507,   2.598006,   21.153629,   225.437546,   643.587463,   -202.365997,   0.435321,   665.427795,   629.164001
-0.017078,   0.067379,   0.073950,   0.000000,   726.619324,   0.537506,   2.598006,   20.248476,   224.654861,   637.453003,   -211.561646,   0.429395,   669.241516,   637.278931
-0.017954,   0.068894,   0.075593,   0.000000,   727.445679,   0.537507,   2.598006,   19.343325,   224.320480,   631.012146,   -220.268372,   0.423842,   672.682312,   644.474609
-0.018821,   0.070234,   0.077035,   0.000000,   728.044861,   0.537507,   2.598006,   18.438171,   224.533096,   624.483826,   -228.351013,   0.418815,   675.729553,   650.694824
-0.019668,   0.071390,   0.078265,   0.000000,   728.488281,   0.537506,   2.598006,   17.533020,   225.354965,   618.062195,   -235.709625,   0.414436,   678.365295,   655.923218
-0.020485,   0.072351,   0.079274,   0.000000,   728.813293,   0.537507,   2.598006,   16.627869,   226.789780,   611.847778,   -242.320908,   0.410747,   680.579712,   660.201111
-0.021263,   0.073111,   0.080056,   0.000000,   729.002869,   0.537506,   2.598006,   15.722715,   228.784515,   605.770081,   -248.280655,   0.407670,   682.377319,   663.637451
-0.021990,   0.073658,   0.080602,   0.000000,   728.965027,   0.537507,   2.598006,   14.817563,   231.187759,   599.587708,   -253.773666,   0.404999,   683.768311,   666.395203
-0.022656,   0.073983,   0.080905,   0.000000,   728.567810,   0.537507,   2.598006,   13.912411,   233.884659,   592.860168,   -259.098999,   0.402439,   684.778198,   668.669128
-0.023257,   0.074071,   0.080948,   0.000000,   727.654663,   0.537506,   2.598006,   13.007258,   236.757614,   585.133179,   -264.505890,   0.399706,   685.412537,   670.605469
-0.023768,   0.073866,   0.080670,   0.000000,   726.008728,   0.537507,   2.598006,   12.102106,   239.802490,   575.834229,   -270.214325,   0.396555,   685.602783,   672.232788
-0.024180,   0.073363,   0.080065,   0.000000,   723.563721,   0.537507,   2.598006,   11.196954,   243.091537,   564.697449,   -276.280304,   0.392888,   685.343689,   673.552307
-0.024485,   0.072571,   0.079144,   0.000000,   720.285828,   0.537507,   2.598006,   10.291800,   246.737106,   551.528625,   -282.691956,   0.388658,   684.634705,   674.534851
-0.024674,   0.071468,   0.077879,   0.000000,   716.083130,   0.537506,   2.598006,   9.386649,   250.987961,   535.969727,   -289.430237,   0.383840,   683.407715,   675.065125
-0.024733,   0.069986,   0.076186,   0.000000,   710.719971,   0.537507,   2.598006,   8.481497,   256.011597,   517.531921,   -296.385254,   0.378363,   681.483459,   674.922424
-0.024675,   0.068185,   0.074128,   0.000000,   704.239197,   0.537507,   2.598006,   7.576344,   261.903900,   496.280792,   -303.294128,   0.372275,   678.875793,   674.028320
-0.024465,   0.066016,   0.071641,   0.000000,   696.370667,   0.537507,   2.598006,   6.671192,   268.830200,   471.686981,   -309.937683,   0.365482,   675.380432,   672.122681
-0.024159,   0.063352,   0.068563,   0.000000,   686.515015,   0.537507,   2.598006,   5.766040,   276.720612,   442.892670,   -315.966888,   0.357708,   670.578796,   668.737244
-0.023688,   0.060225,   0.064933,   0.000000,   674.566711,   0.537507,   2.598006,   4.860888,   285.473541,   410.125732,   -320.768127,   0.349039,   664.300232,   663.550537
-0.022887,   0.056335,   0.060409,   0.000000,   659.921509,   0.537507,   2.598006,   3.955735,   295.870087,   372.973328,   -323.208740,   0.340116,   655.506104,   655.369446
-0.021404,   0.051511,   0.054796,   -0.571446,   642.814026,   0.537507,   2.598006,   3.050583,   308.842804,   333.399750,   -321.458313,   0.332889,   643.099915,   643.099304
-0.000091,   0.000225,   0.000000,   -5.379543,   45.634052,   0.522564,   3.340294,   54.819710,   33.214375,   7.040135,   21.893471,   0.276390,   48.547878,   47.870434
-0.000196,   0.000417,   0.000000,   -16.298704,   82.689270,   0.522564,   3.340294,   53.939720,   63.799744,   2.590824,   38.897583,   0.240732,   91.928734,   88.590141
-0.000250,   0.000664,   0.000000,   -11.760133,   135.961258,   0.522564,   3.340294,   53.059731,   91.032021,   33.169102,   67.958611,   0.291129,   142.206497,   141.106232
-0.000260,   0.000961,   0.000000,   0.000000,   203.857162,   0.522564,   3.340294,   52.179741,   110.575386,   99.797668,   98.523369,   0.349436,   200.678574,   200.440353
-0.000252,   0.001305,   0.000000,   0.000000,   283.659058,   0.522564,   3.340294,   51.299751,   120.755402,   195.184082,   120.053719,   0.391534,   268.975555,   264.564972
-0.000231,   0.001712,   0.000000,   0.000000,   379.140686,   0.522565,   3.340294,   50.419762,   130.681885,   313.657318,   127.553589,   0.421841,   351.111237,   337.085907
-0.000253,   0.002192,   0.000274,   0.000000,   437.977325,   0.522564,   3.340294,   49.539768,   138.031723,   393.549530,   115.437973,   0.443554,   399.486481,   373.598663
-0.000346,   0.002800,   0.000931,   0.000000,   451.163177,   0.522564,   3.340294,   48.659779,   146.907745,   416.258179,   103.053581,   0.461355,   406.892273,   369.754089
-0.000509,   0.003612,   0.001811,   0.000000,   464.996307,   0.522564,   3.340294,   47.779793,   154.379120,   436.931427,   93.367210,   0.473280,   416.462738,   369.532135
-0.000715,   0.004556,   0.002837,   0.000000,   478.854889,   0.522564,   3.340294,   46.899803,   161.387650,   456.561798,   84.126839,   0.482775,   426.665192,   370.247406
-0.000971,   0.005654,   0.004032,   0.000000,   492.559570,   0.522564,   3.340294,   46.019814,   166.485809,   475.428101,   74.740364,   0.489142,   437.442261,   373.249725
-0.001270,   0.006915,   0.005409,   0.000000,   506.415222,   0.522565,   3.340294,   45.139820,   171.179047,   493.863770,   64.866776,   0.494106,   448.650909,   377.343170
-0.001609,   0.008325,   0.006954,   0.000000,   520.173645,   0.522564,   3.340294,   44.259830,   175.648560,   511.550964,   54.504490,   0.497976,   459.995483,   382.244690
-0.001982,   0.009878,   0.008662,   0.000000,   533.712708,   0.522564,   3.340294,   43.379841,   179.950760,   528.143433,   44.386993,   0.500736,   471.368835,   388.146790
-0.002384,   0.011612,   0.010582,   0.000000,   547.432800,   0.522564,   3.340294,   42.499851,   184.684280,   544.306396,   33.676430,   0.503136,   482.965027,   394.419403
-0.002821,   0.013500,   0.012682,   0.000000,   560.824280,   0.522564,   3.340294,   41.619862,   188.919586,   559.378113,   23.191296,   0.504413,   494.500305,   402.006592
-0.003302,   0.015556,   0.014974,   0.000000,   574.066833,   0.522565,   3.340294,   40.739872,   193.292435,   573.656372,   12.501527,   0.505243,   505.993103,   410.113190
-0.003824,   0.017750,   0.017427,   0.000000,   586.854431,   0.522564,   3.340294,   39.859882,   197.237366,   586.841431,   2.250556,   0.505281,   517.255798,   419.183716
-0.004356,   0.020127,   0.020105,   0.000000,   599.651611,   0.522564,   3.340294,   38.979893,   201.629456,   599.479065,   -8.286716,   0.505226,   528.547974,   428.421173
-0.004915,   0.022572,   0.022862,   0.000000,   611.655945,   0.522564,   3.340294,   38.099903,   205.547318,   610.810242,   -18.532206,   0.504601,   539.276184,   438.111176
-0.005498,   0.025095,   0.025714,   0.000000,   623.086243,   0.522564,   3.340294,   37.219910,   209.325562,   621.123474,   -28.497568,   0.503693,   549.573364,   447.931396
-0.006096,   0.027753,   0.028730,   0.000000,   634.239746,   0.522565,   3.340294,   36.339920,   212.958557,   630.761475,   -38.279549,   0.502470,   559.715393,   458.165009
-0.006722,   0.030460,   0.031803,   0.000000,   644.694458,   0.522565,   3.340294,   35.459930,   216.015961,   639.392456,   -47.674423,   0.500790,   569.372620,   468.762207
-0.007338,   0.033215,   0.034946,   0.000000,   654.681152,   0.522564,   3.340294,   34.579941,   219.135040,   647.144592,   -57.293182,   0.499012,   578.663757,   479.239594
-0.007975,   0.035962,   0.038077,   0.000000,   663.859070,   0.522564,   3.340294,   33.699951,   221.478622,   653.883850,   -66.429161,   0.496747,   587.396057,   490.025513
-0.008627,   0.038772,   0.041287,   0.000000,   672.652039,   0.522564,   3.340294,   32.819962,   223.637680,   659.917236,   -75.618141,   0.494255,   595.882935,   500.947937
-0.009300,   0.041574,   0.044483,   0.000000,   680.757996,   0.522564,   3.340294,   31.939970,   225.128677,   665.035645,   -84.637871,   0.491320,   603.926697,   512.131653
-0.009954,   0.044340,   0.047649,   0.000000,   688.271973,   0.522564,   3.340294,   31.059980,   226.390686,   669.224487,   -93.795929,   0.488162,   611.556213,   523.228333
-0.010637,   0.047096,   0.050799,   0.000000,   695.203125,   0.522565,   3.340294,   30.179991,   227.113083,   672.570374,   -102.928024,   0.484607,   618.841064,   534.503357
-0.011360,   0.049847,   0.053933,   0.000000,   701.609924,   0.522565,   3.340294,   29.299999,   227.401382,   675.123779,   -112.071198,   0.480711,   625.826904,   545.860840
-0.012083,   0.052530,   0.056991,   0.000000,   707.394226,   0.522564,   3.340294,   28.420010,   227.315796,   676.733276,   -121.324654,   0.476495,   632.429626,   557.144470
-0.012804,   0.055123,   0.059945,   0.000000,   712.547668,   0.522564,   3.340294,   27.540020,   226.925766,   677.361023,   -130.718857,   0.471983,   638.643005,   568.264893
-0.013547,   0.057666,   0.062837,   0.000000,   717.186707,   0.522565,   3.340294,   26.660030,   226.251740,   677.147827,   -140.201584,   0.467178,   644.579407,   579.267944
-0.014334,   0.060139,   0.065633,   0.000000,   721.253174,   0.522564,   3.340294,   25.780041,   225.239700,   676.035400,   -149.761887,   0.462043,   650.209717,   590.116150
-0.015130,   0.062510,   0.068311,   0.000000,   724.766602,   0.522565,   3.340294,   24.900049,   224.089005,   673.991211,   -159.443115,   0.456673,   655.524475,   600.649109
-0.015938,   0.064770,   0.070855,   0.000000,   727.739685,   0.522564,   3.340294,   24.020060,   222.888199,   670.985535,   -169.270279,   0.451087,   660.532532,   610.815735
-0.016766,   0.066914,   0.073259,   0.000000,   730.173340,   0.522564,   3.340294,   23.140070,   221.543686,   667.152405,   -179.037231,   0.445306,   665.231934,   620.564148
-0.017619,   0.068947,   0.075528,   0.000000,   732.140747,   0.522565,   3.340294,   22.260080,   220.257599,   662.494507,   -188.814026,   0.439403,   669.660461,   629.839539
-0.018483,   0.070847,   0.077640,   0.000000,   733.663635,   0.522564,   3.340294,   21.380089,   219.136856,   657.079834,   -198.505493,   0.433474,   673.793518,   638.528870
-0.019355,   0.072605,   0.079583,   0.000000,   734.792236,   0.522564,   3.340294,   20.500099,   218.277695,   651.028992,   -208.002228,   0.427625,   677.623413,   646.552979
-0.020228,   0.074210,   0.081349,   0.000000,   735.594116,   0.522565,   3.340294,   19.620110,   217.802399,   644.499756,   -217.181732,   0.421991,   681.137268,   653.828369
-0.021093,   0.075654,   0.082928,   0.000000,   736.152161,   0.522564,   3.340294,   18.740120,   217.833344,   637.694519,   -225.903610,   0.416730,   684.318542,   660.280579
-0.021942,   0.076927,   0.084313,   0.000000,   736.555908,   0.522565,   3.340294,   17.860130,   218.477371,   630.836182,   -234.032349,   0.411997,   687.151123,   665.858337
-0.022766,   0.078027,   0.085501,   0.000000,   736.885864,   0.522565,   3.340294,   16.980139,   219.804169,   624.122864,   -241.469818,   0.407916,   689.624146,   670.551514
-0.023557,   0.078952,   0.086493,   0.000000,   737.192322,   0.522564,   3.340294,   16.100149,   221.832870,   617.657898,   -248.199875,   0.404531,   691.739685,   674.406189
-0.024310,   0.079704,   0.087293,   0.000000,   737.464905,   0.522565,   3.340294,   15.220160,   224.489227,   611.395203,   -254.304291,   0.401764,   693.512756,   677.533569
-0.025020,   0.080284,   0.087904,   0.000000,   737.631653,   0.522565,   3.340294,   14.340169,   227.675446,   605.070923,   -260.000305,   0.399414,   694.973083,   680.098328
-0.025686,   0.080690,   0.088324,   0.000000,   737.550720,   0.522564,   3.340294,   13.460179,   231.223083,   598.268188,   -265.560944,   0.397181,   696.148987,   682.289062
-0.026293,   0.080911,   0.088548,   0.000000,   737.083679,   0.522565,   3.340294,   12.580190,   235.104782,   590.460999,   -271.295959,   0.394781,   697.067261,   684.261841
-0.026853,   0.080936,   0.088556,   0.000000,   736.077759,   0.522565,   3.340294,   11.700199,   239.210999,   581.253662,   -277.357056,   0.391973,   697.722229,   686.100220
-0.027351,   0.080721,   0.088301,   0.000000,   734.354126,   0.522565,   3.340294,   10.820210,   243.575027,   570.160950,   -283.870728,   0.388572,   698.056641,   687.791992
-0.027773,   0.080273,   0.087788,   0.000000,   731.923218,   0.522564,   3.340294,   9.940220,   248.435013,   557.023315,   -290.795563,   0.384614,   698.066650,   689.271973
-0.028123,   0.079596,   0.087022,   0.000000,   728.667603,   0.522565,   3.340294,   9.060229,   253.894348,   541.390808,   -298.184509,   0.379930,   697.747986,   690.538818
-0.028417,   0.078628,   0.085918,   0.000000,   724.402466,   0.522564,   3.340294,   8.180239,   259.981445,   523.070801,   -305.782074,   0.374524,   696.930908,   691.346008
-0.028641,   0.077348,   0.084450,   0.000000,   718.930420,   0.522565,   3.340294,   7.300249,   266.822449,   501.548096,   -313.496857,   0.368242,   695.529480,   691.559509
-0.028749,   0.075772,   0.082629,   0.000000,   712.338379,   0.522564,   3.340294,   6.420259,   274.842499,   476.970734,   -320.893066,   0.361391,   693.444092,   690.909363
-0.028735,   0.073583,   0.080078,   0.000000,   703.476257,   0.522565,   3.340294,   5.540269,   283.624664,   447.596039,   -327.767761,   0.353235,   690.022461,   688.765808
-0.028477,   0.070641,   0.076631,   0.000000,   691.927368,   0.522564,   3.340294,   4.660279,   293.488617,   413.030853,   -333.351410,   0.343932,   684.747925,   684.397949
-0.027888,   0.066760,   0.072067,   0.000000,   676.955994,   0.522565,   3.340294,   3.780289,   304.845001,   372.296844,   -336.700165,   0.333471,   676.863037,   676.862976
-0.000117,   0.000102,   0.000000,   -19.830280,   15.566686,   0.517473,   4.089216,   54.127285,   15.512592,   -19.776186,   1.382686,   -0.046250,   30.728704,   -18.171324
-0.000207,   0.000375,   0.000000,   -21.797497,   72.217407,   0.517473,   4.089216,   53.271168,   58.018101,   -7.598191,   33.664909,   0.197185,   85.232880,   78.586426
-0.000236,   0.000700,   0.000000,   -6.060003,   145.138168,   0.517472,   4.089216,   52.415058,   89.678818,   49.399345,   72.867088,   0.312688,   148.261078,   147.982056
-0.000242,   0.001088,   0.000000,   0.000000,   234.282654,   0.517473,   4.089216,   51.558945,   108.072632,   145.653305,   105.763466,   0.375571,   225.191422,   223.291245
-0.000224,   0.001539,   0.000000,   0.000000,   339.648499,   0.517473,   4.089216,   50.702831,   120.323631,   274.258118,   119.756996,   0.416508,   315.785950,   304.756927
-0.000266,   0.002054,   0.000129,   0.000000,   431.988129,   0.517473,   4.089216,   49.846718,   124.979706,   388.577484,   115.444489,   0.430623,   397.530334,   378.007599
-0.000403,   0.002770,   0.000893,   0.000000,   447.212860,   0.517473,   4.089216,   48.990604,   132.593689,   415.956482,   99.165817,   0.450215,   406.139465,   376.084076
-0.000637,   0.003712,   0.001903,   0.000000,   462.741852,   0.517473,   4.089216,   48.134491,   140.654938,   436.855194,   91.311295,   0.461235,   417.365173,   379.354706
-0.000917,   0.004760,   0.003031,   0.000000,   477.360352,   0.517473,   4.089216,   47.278378,   146.770477,   456.314270,   83.412331,   0.469078,   428.559998,   383.659943
-0.001254,   0.005960,   0.004322,   0.000000,   491.600464,   0.517473,   4.089216,   46.422264,   151.147980,   474.945435,   75.301048,   0.474261,   440.048370,   389.619202
-0.001645,   0.007326,   0.005796,   0.000000,   505.984161,   0.517472,   4.089216,   45.566151,   155.593338,   493.465027,   66.231346,   0.478899,   451.770905,   395.767090
-0.002084,   0.008850,   0.007446,   0.000000,   520.280396,   0.517473,   4.089216,   44.710037,   160.104813,   511.368195,   56.656506,   0.482837,   463.560516,   402.200470
-0.002551,   0.010558,   0.009308,   0.000000,   534.841003,   0.517473,   4.089216,   43.853924,   165.555191,   529.023376,   46.350483,   0.486872,   475.538422,   408.282776
-0.003064,   0.012382,   0.011302,   0.000000,   548.494812,   0.517473,   4.089216,   42.997814,   169.691330,   544.941650,   36.687332,   0.488981,   487.157654,   415.855194
-0.003592,   0.014363,   0.013484,   0.000000,   562.133667,   0.517473,   4.089216,   42.141701,   174.604477,   560.339355,   26.369291,   0.491226,   498.713501,   423.024963
-0.004188,   0.016505,   0.015842,   0.000000,   575.307556,   0.517473,   4.089216,   41.285587,   178.844162,   574.617859,   16.535896,   0.492341,   510.121735,   431.302155
-0.004802,   0.018863,   0.018462,   0.000000,   588.690247,   0.517473,   4.089216,   40.429474,   183.670227,   588.596558,   6.160261,   0.493415,   521.715271,   439.705109
-0.005416,   0.021287,   0.021167,   0.000000,   601.309082,   0.517472,   4.089216,   39.573360,   188.406067,   601.273193,   -3.849431,   0.494121,   532.716858,   448.027588
-0.006065,   0.023764,   0.023932,   0.000000,   613.080627,   0.517473,   4.089216,   38.717247,   192.626709,   612.642090,   -13.578719,   0.494226,   543.118103,   456.630310
-0.006718,   0.026400,   0.026895,   0.000000,   624.762817,   0.517473,   4.089216,   37.861134,   197.091217,   623.505310,   -23.190639,   0.494213,   553.470703,   465.352753
-0.007395,   0.029157,   0.030004,   0.000000,   636.025574,   0.517473,   4.089216,   37.005020,   201.164215,   633.575317,   -32.642365,   0.493708,   563.585510,   474.578278
-0.008070,   0.031929,   0.033137,   0.000000,   646.571472,   0.517474,   4.089216,   36.148907,   205.056778,   642.611816,   -41.811882,   0.493011,   573.123901,   483.614410
-0.008748,   0.034704,   0.036280,   0.000000,   656.348267,   0.517473,   4.089216,   35.292793,   208.308945,   650.639709,   -50.573215,   0.491851,   582.119873,   492.881134
-0.009449,   0.037590,   0.039558,   0.000000,   665.891785,   0.517473,   4.089216,   34.436680,   211.500671,   658.117737,   -59.434380,   0.490496,   590.979248,   502.337555
-0.010146,   0.040521,   0.042896,   0.000000,   674.942261,   0.517472,   4.089216,   33.580566,   214.262772,   664.898865,   -68.020515,   0.488820,   599.513428,   511.995941
-0.010839,   0.043406,   0.046186,   0.000000,   683.287048,   0.517473,   4.089216,   32.724453,   216.664368,   670.716980,   -76.586479,   0.486887,   607.520142,   521.576416
-0.011541,   0.046247,   0.049423,   0.000000,   690.905334,   0.517472,   4.089216,   31.868340,   218.353821,   675.624512,   -84.976379,   0.484503,   615.048462,   531.370483
-0.012235,   0.049117,   0.052705,   0.000000,   698.185120,   0.517473,   4.089216,   31.012226,   219.911240,   679.917847,   -93.470589,   0.481941,   622.364807,   541.198181
-0.012974,   0.051988,   0.055977,   0.000000,   704.940186,   0.517473,   4.089216,   30.156113,   220.939682,   683.443604,   -102.001747,   0.478979,   629.382874,   551.257202
-0.013704,   0.054800,   0.059186,   0.000000,   711.107727,   0.517472,   4.089216,   29.299999,   221.533081,   686.126465,   -110.590210,   0.475688,   636.032471,   561.348145
-0.014423,   0.057531,   0.062305,   0.000000,   716.696960,   0.517473,   4.089216,   28.443888,   221.830917,   687.917664,   -119.339409,   0.472122,   642.311401,   571.359070
-0.015150,   0.060199,   0.065350,   0.000000,   721.743896,   0.517473,   4.089216,   27.587774,   221.751175,   688.856079,   -128.232819,   0.468214,   648.284363,   581.386597
-0.015926,   0.062816,   0.068323,   0.000000,   726.269287,   0.517473,   4.089216,   26.731661,   221.273392,   688.973755,   -137.237411,   0.463948,   653.985840,   591.427246
-0.016713,   0.065376,   0.071230,   0.000000,   730.329285,   0.517472,   4.089216,   25.875547,   220.546707,   688.281433,   -146.407898,   0.459384,   659.454163,   601.399231
-0.017512,   0.067840,   0.074022,   0.000000,   733.860962,   0.517473,   4.089216,   25.019434,   219.624237,   686.670288,   -155.779221,   0.454531,   664.637451,   611.199219
-0.018314,   0.070196,   0.076689,   0.000000,   736.890198,   0.517473,   4.089216,   24.163321,   218.617050,   684.139038,   -165.346603,   0.449436,   669.547363,   620.747314
-0.019163,   0.072446,   0.079219,   0.000000,   739.364929,   0.517473,   4.089216,   23.307207,   217.301254,   680.756348,   -174.921173,   0.444028,   674.175110,   630.062927
-0.020026,   0.074601,   0.081638,   0.000000,   741.421143,   0.517472,   4.089216,   22.451094,   216.030640,   676.544006,   -184.623520,   0.438446,   678.589966,   639.045288
-0.020906,   0.076634,   0.083912,   0.000000,   743.033508,   0.517473,   4.089216,   21.594982,   214.831879,   671.513977,   -194.362335,   0.432731,   682.752747,   647.601685
-0.021797,   0.078535,   0.086031,   0.000000,   744.239746,   0.517473,   4.089216,   20.738867,   213.799210,   665.746826,   -204.048615,   0.426969,   686.658813,   655.651245
-0.022694,   0.080295,   0.087986,   0.000000,   745.093445,   0.517472,   4.089216,   19.882755,   213.048279,   659.355347,   -213.580292,   0.421268,   690.300049,   663.111267
-0.023591,   0.081907,   0.089771,   0.000000,   745.667053,   0.517473,   4.089216,   19.026642,   212.703232,   652.502502,   -222.830322,   0.415765,   693.666260,   669.902710
-0.024481,   0.083367,   0.091380,   0.000000,   746.049683,   0.517473,   4.089216,   18.170528,   212.888550,   645.395569,   -231.656784,   0.410616,   696.745483,   675.958130
-0.025358,   0.084671,   0.092814,   0.000000,   746.341003,   0.517473,   4.089216,   17.314415,   213.718491,   638.265747,   -239.923569,   0.405980,   699.528076,   681.233643
-0.026215,   0.085824,   0.094077,   0.000000,   746.635010,   0.517472,   4.089216,   16.458302,   215.273041,   631.322876,   -247.532822,   0.401985,   702.012634,   685.726746
-0.027050,   0.086833,   0.095180,   0.000000,   746.992493,   0.517473,   4.089216,   15.602188,   217.562149,   624.695129,   -254.456146,   0.398677,   704.209534,   689.488953
-0.027862,   0.087709,   0.096137,   0.000000,   747.420044,   0.517473,   4.089216,   14.746075,   220.541626,   618.337463,   -260.788879,   0.395989,   706.146729,   692.633484
-0.028651,   0.088461,   0.096959,   0.000000,   747.850159,   0.517473,   4.089216,   13.889962,   224.105484,   612.004517,   -266.736664,   0.393727,   707.859192,   695.318237
-0.029415,   0.089093,   0.097654,   0.000000,   748.156921,   0.517473,   4.089216,   13.033849,   228.136505,   605.252441,   -272.604553,   0.391598,   709.391541,   697.732605
-0.030168,   0.089612,   0.098227,   0.000000,   748.168030,   0.517473,   4.089216,   12.177735,   232.388611,   597.641724,   -278.636597,   0.389257,   710.781311,   700.057556
-0.030903,   0.090008,   0.098670,   0.000000,   747.751953,   0.517473,   4.089216,   11.321622,   236.901337,   588.649963,   -285.091858,   0.386468,   712.047180,   702.389587
-0.031623,   0.090240,   0.098933,   0.000000,   746.729431,   0.517473,   4.089216,   10.465509,   241.669174,   577.822205,   -292.075897,   0.383045,   713.137878,   704.714111
-0.032334,   0.090314,   0.099022,   0.000000,   745.039856,   0.517473,   4.089216,   9.609395,   246.765945,   564.904785,   -299.594086,   0.378900,   714.059814,   707.014893
-0.033037,   0.090270,   0.098981,   0.000000,   742.714600,   0.517473,   4.089216,   8.753282,   252.390854,   549.755432,   -307.591370,   0.374037,   714.854065,   709.263733
-0.033762,   0.090039,   0.098721,   0.000000,   739.455322,   0.517473,   4.089216,   7.897169,   258.500153,   531.790466,   -316.034027,   0.368231,   715.393616,   711.312927
-0.034448,   0.089476,   0.098076,   0.000000,   734.902466,   0.517473,   4.089216,   7.041056,   265.233948,   510.366821,   -324.741913,   0.361372,   715.422058,   712.810486
-0.035057,   0.088622,   0.097085,   0.000000,   729.094849,   0.517473,   4.089216,   6.184943,   272.968842,   485.402100,   -333.398590,   0.353599,   714.906555,   713.555908
-0.035651,   0.087418,   0.095662,   0.000000,   721.716858,   0.517473,   4.089216,   5.328829,   281.643341,   456.512512,   -341.627594,   0.344785,   713.639404,   713.213196
-0.036107,   0.085515,   0.093400,   0.000000,   711.881531,   0.517473,   4.089216,   4.472716,   291.543152,   422.274719,   -348.902374,   0.334694,   710.915344,   710.909424
-0.000295,   0.000109,   0.000000,   -60.586021,   4.698321,   0.523154,   4.859001,   53.488712,   -3.240945,   -52.646755,   -21.337240,   -0.295390,   63.066578,   -62.671024
-0.000206,   0.000327,   0.000000,   -24.795033,   61.266800,   0.523154,   4.859001,   52.654621,   49.528816,   -13.057047,   29.536625,   0.158442,   76.730217,   66.781914
-0.000218,   0.000765,   0.000000,   0.000000,   161.385696,   0.523154,   4.859001,   51.820526,   83.588661,   80.500847,   79.325920,   0.341744,   160.050919,   159.999527
-0.000224,   0.001283,   0.000000,   0.000000,   280.542999,   0.523154,   4.859001,   50.986435,   100.797188,   216.860504,   106.989067,   0.401159,   263.950012,   257.981323
-0.000292,   0.001891,   0.000000,   0.000000,   416.074493,   0.523155,   4.859001,   50.152340,   106.661278,   372.813385,   115.695969,   0.411627,   388.276154,   376.365570
-0.000492,   0.002778,   0.000897,   0.000000,   442.479309,   0.523154,   4.859001,   49.318245,   115.313766,   415.030151,   94.765076,   0.435694,   405.746063,   383.454559
-0.000809,   0.003863,   0.002049,   0.000000,   459.842926,   0.523154,   4.859001,   48.484154,   124.326035,   436.070831,   89.308144,   0.446118,   418.721405,   390.144043
-0.001180,   0.005042,   0.003305,   0.000000,   475.145325,   0.523155,   4.859001,   47.650059,   128.905548,   455.416962,   82.648293,   0.451855,   431.054169,   398.124542
-0.001619,   0.006371,   0.004723,   0.000000,   489.960999,   0.523154,   4.859001,   46.815964,   132.363342,   473.992645,   75.566193,   0.455865,   443.374084,   406.816528
-0.002117,   0.007871,   0.006327,   0.000000,   505.017914,   0.523155,   4.859001,   45.981869,   136.673767,   492.734619,   67.264275,   0.460359,   455.737518,   414.891693
-0.002658,   0.009555,   0.008137,   0.000000,   520.392517,   0.523152,   4.859001,   45.147778,   142.172485,   511.581512,   57.727810,   0.465457,   468.180908,   422.170197
-0.003231,   0.011377,   0.010106,   0.000000,   535.293213,   0.523154,   4.859001,   44.313686,   147.815582,   529.347778,   47.997177,   0.469922,   480.337219,   429.264801
-0.003847,   0.013333,   0.012228,   0.000000,   549.450439,   0.523155,   4.859001,   43.479591,   152.673431,   545.675659,   38.700764,   0.472950,   492.193237,   437.042053
-0.004505,   0.015456,   0.014542,   0.000000,   563.435181,   0.523154,   4.859001,   42.645496,   157.892395,   561.388306,   28.811382,   0.475788,   503.922791,   444.651031
-0.005214,   0.017752,   0.017052,   0.000000,   577.094788,   0.523155,   4.859001,   41.811405,   162.944672,   576.194458,   19.309877,   0.477906,   515.540344,   452.689941
-0.005903,   0.020186,   0.019739,   0.000000,   590.562683,   0.523154,   4.859001,   40.977310,   168.704315,   590.353577,   9.391776,   0.480183,   526.923035,   460.185059
-0.006633,   0.022637,   0.022442,   0.000000,   602.813660,   0.523154,   4.859001,   40.143215,   173.577835,   602.813599,   -0.187993,   0.481506,   537.474243,   467.882751
-0.007362,   0.025272,   0.025371,   0.000000,   615.176086,   0.523154,   4.859001,   39.309124,   179.145813,   614.960327,   -9.699448,   0.482969,   548.073059,   475.368927
-0.008102,   0.028038,   0.028462,   0.000000,   627.109009,   0.523154,   4.859001,   38.475029,   184.302628,   626.286255,   -19.087139,   0.483831,   558.452026,   483.309723
-0.008826,   0.030802,   0.031562,   0.000000,   638.220703,   0.523155,   4.859001,   37.640938,   189.267822,   636.468750,   -28.045393,   0.484447,   568.164917,   490.937042
-0.009575,   0.033600,   0.034701,   0.000000,   648.587280,   0.523154,   4.859001,   36.806843,   193.546448,   645.614685,   -36.778400,   0.484456,   577.390747,   498.896790
-0.010321,   0.036523,   0.038000,   0.000000,   658.768494,   0.523154,   4.859001,   35.972748,   197.775574,   654.333069,   -45.218494,   0.484285,   586.506592,   506.997375
-0.011066,   0.039515,   0.041388,   0.000000,   668.516968,   0.523155,   4.859001,   35.138653,   201.678177,   662.378906,   -53.530304,   0.483790,   595.339417,   515.288086
-0.011796,   0.042464,   0.044735,   0.000000,   677.516541,   0.523154,   4.859001,   34.304562,   205.133545,   669.456665,   -61.703793,   0.482977,   603.610840,   523.528442
-0.012533,   0.045403,   0.048073,   0.000000,   685.909668,   0.523154,   4.859001,   33.470467,   208.099091,   675.756165,   -69.652306,   0.481829,   611.458679,   531.862549
-0.013255,   0.048400,   0.051490,   0.000000,   693.990723,   0.523154,   4.859001,   32.636375,   210.802246,   681.542358,   -77.555855,   0.480436,   619.121704,   540.374084
-0.013994,   0.051393,   0.054903,   0.000000,   701.563965,   0.523154,   4.859001,   31.802280,   213.084839,   686.618347,   -85.443680,   0.478728,   626.453369,   549.017456
-0.014736,   0.054354,   0.058281,   0.000000,   708.573975,   0.523154,   4.859001,   30.968187,   214.861649,   690.945435,   -93.292122,   0.476674,   633.422241,   557.790710
-0.015469,   0.057278,   0.061620,   0.000000,   715.087097,   0.523154,   4.859001,   30.134094,   216.290543,   694.539062,   -101.238762,   0.474337,   640.071655,   566.624268
-0.016195,   0.060138,   0.064889,   0.000000,   721.034058,   0.523154,   4.859001,   29.300001,   217.236252,   697.335815,   -109.266251,   0.471642,   646.374146,   575.563049
-0.016916,   0.062960,   0.068119,   0.000000,   726.552246,   0.523154,   4.859001,   28.465906,   217.922455,   699.411255,   -117.493423,   0.468676,   652.428528,   584.553711
-0.017678,   0.065758,   0.071312,   0.000000,   731.616089,   0.523154,   4.859001,   27.631813,   218.179962,   700.760254,   -125.867020,   0.465340,   658.257629,   593.702148
-0.018466,   0.068505,   0.074440,   0.000000,   736.187195,   0.523154,   4.859001,   26.797718,   218.003052,   701.327698,   -134.401016,   0.461622,   663.841248,   602.955994
-0.019254,   0.071167,   0.077470,   0.000000,   740.262390,   0.523154,   4.859001,   25.963625,   217.552170,   701.063599,   -143.141861,   0.457599,   669.156189,   612.162537
-0.020059,   0.073747,   0.080403,   0.000000,   743.854797,   0.523154,   4.859001,   25.129532,   216.857407,   699.928589,   -152.147949,   0.453249,   674.232544,   621.329224
-0.020876,   0.076265,   0.083263,   0.000000,   747.034912,   0.523154,   4.859001,   24.295439,   215.993668,   697.999695,   -161.368286,   0.448612,   679.126282,   630.422180
-0.021755,   0.078699,   0.086010,   0.000000,   749.695984,   0.523154,   4.859001,   23.461344,   214.770264,   695.222778,   -170.701828,   0.443604,   683.787354,   639.430298
-0.022645,   0.081025,   0.088632,   0.000000,   751.904236,   0.523153,   4.859001,   22.627251,   213.493149,   691.562439,   -180.246246,   0.438350,   688.229736,   648.204956
-0.023558,   0.083245,   0.091127,   0.000000,   753.675842,   0.523154,   4.859001,   21.793158,   212.188416,   687.060120,   -189.925156,   0.432875,   692.462280,   656.697754
-0.024490,   0.085350,   0.093487,   0.000000,   755.036072,   0.523154,   4.859001,   20.959064,   210.940033,   681.758118,   -199.675385,   0.427240,   696.484436,   664.833740
-0.025440,   0.087333,   0.095703,   0.000000,   756.023621,   0.523154,   4.859001,   20.124969,   209.850403,   675.726624,   -209.418381,   0.421527,   700.293030,   672.534180
-0.026402,   0.089187,   0.097770,   0.000000,   756.693665,   0.523154,   4.859001,   19.290876,   209.033737,   669.079651,   -219.049515,   0.415843,   703.882507,   679.719788
-0.027374,   0.090907,   0.099682,   0.000000,   757.122314,   0.523154,   4.859001,   18.456783,   208.616486,   661.982361,   -228.439957,   0.410324,   707.244995,   686.314148
-0.028349,   0.092493,   0.101441,   0.000000,   757.403625,   0.523154,   4.859001,   17.622690,   208.724640,   654.647644,   -237.444824,   0.405127,   710.372131,   692.254456
-0.029322,   0.093947,   0.103051,   0.000000,   757.644043,   0.523154,   4.859001,   16.788595,   209.473083,   647.315308,   -245.924789,   0.400410,   713.258667,   697.503235
-0.030294,   0.095278,   0.104523,   0.000000,   757.948181,   0.523154,   4.859001,   15.954503,   210.945099,   640.216675,   -253.770584,   0.396309,   715.907227,   702.059875
-0.031263,   0.096501,   0.105874,   0.000000,   758.388855,   0.523154,   4.859001,   15.120409,   213.163254,   633.493896,   -260.951965,   0.392880,   718.333679,   705.977966
-0.032227,   0.097627,   0.107120,   0.000000,   758.995239,   0.523154,   4.859001,   14.286316,   216.160599,   627.104919,   -267.571716,   0.390094,   720.565369,   709.351990
-0.033189,   0.098664,   0.108273,   0.000000,   759.677246,   0.523154,   4.859001,   13.452222,   219.742050,   620.829285,   -273.804504,   0.387735,   722.634094,   712.340576
-0.034172,   0.099638,   0.109358,   0.000000,   760.291077,   0.523154,   4.859001,   12.618128,   223.626617,   614.301453,   -279.906097,   0.385468,   724.598694,   715.151489
-0.035180,   0.100562,   0.110395,   0.000000,   760.718811,   0.523154,   4.859001,   11.784035,   227.800827,   606.984436,   -286.230347,   0.383005,   726.522644,   717.955017
-0.036220,   0.101430,   0.111378,   0.000000,   760.780823,   0.523154,   4.859001,   10.949941,   232.150330,   598.341919,   -293.036072,   0.380037,   728.431152,   720.869080
-0.037301,   0.102236,   0.112297,   0.000000,   760.369019,   0.523154,   4.859001,   10.115848,   236.634781,   588.091370,   -300.379272,   0.376422,   730.320251,   723.899353
-0.038419,   0.102897,   0.113061,   0.000000,   759.244690,   0.523154,   4.859001,   9.281754,   241.396408,   575.537415,   -308.435577,   0.371956,   732.106812,   726.966675
-0.039549,   0.103389,   0.113640,   0.000000,   757.339355,   0.523154,   4.859001,   8.447660,   246.515335,   560.565613,   -317.043793,   0.366655,   733.734192,   729.926331
-0.040678,   0.103731,   0.114058,   0.000000,   754.623474,   0.523154,   4.859001,   7.613567,   252.260147,   542.848267,   -326.171875,   0.360487,   735.217468,   732.703308
-0.041829,   0.103869,   0.114240,   0.000000,   750.915283,   0.523154,   4.859001,   6.779473,   258.770813,   522.023193,   -335.630737,   0.353414,   736.430664,   735.065063
-0.043054,   0.103697,   0.114056,   0.000000,   745.643311,   0.523154,   4.859001,   5.945380,   265.840851,   496.966736,   -345.420959,   0.344907,   737.211060,   736.761230
-0.044164,   0.103076,   0.113342,   0.000000,   738.667725,   0.523154,   4.859001,   5.111286,   274.339935,   467.190277,   -355.041565,   0.335273,   737.240601,   737.228088
-0.000532,   0.000166,   0.000000,   -111.337051,   1.561868,   0.527610,   5.656495,   52.883896,   -19.353516,   -90.421669,   -43.861954,   -0.326344,   112.126152,   -112.101669
-0.000185,   0.000298,   0.000000,   -21.938194,   56.032681,   0.527611,   5.656495,   52.070660,   42.472942,   -8.378458,   29.553308,   0.163186,   69.643387,   61.111813
-0.000201,   0.000907,   0.000000,   0.000000,   195.378586,   0.527611,   5.656495,   51.257420,   74.432182,   137.350510,   83.775215,   0.376072,   187.714874,   186.092026
-0.000321,   0.001731,   0.000000,   0.000000,   377.288177,   0.527610,   5.656495,   50.444183,   87.471786,   335.676147,   109.817360,   0.395565,   356.576996,   349.849945
-0.000615,   0.002842,   0.000963,   0.000000,   437.523621,   0.527612,   5.656495,   49.630943,   97.111633,   413.440735,   90.543381,   0.419208,   405.965912,   390.775726
-0.001027,   0.004062,   0.002247,   0.000000,   456.050476,   0.527610,   5.656495,   48.817707,   105.559914,   434.360077,   87.191055,   0.428062,   420.437164,   400.963043
-0.001516,   0.005405,   0.003669,   0.000000,   471.916321,   0.527611,   5.656495,   48.004471,   108.034447,   453.438599,   81.998230,   0.431117,   434.122284,   412.563568
-0.002085,   0.006930,   0.005285,   0.000000,   487.931366,   0.527611,   5.656495,   47.191231,   111.306679,   472.684387,   75.778587,   0.434810,   447.698517,   423.570618
-0.002712,   0.008654,   0.007118,   0.000000,   504.612793,   0.527611,   5.656495,   46.377995,   116.553795,   492.980743,   67.185699,   0.440550,   461.191681,   433.100098
-0.003363,   0.010508,   0.009101,   0.000000,   520.892212,   0.527611,   5.656495,   45.564754,   122.836853,   512.509644,   57.764381,   0.446664,   474.141479,   441.425934
-0.004065,   0.012457,   0.011191,   0.000000,   535.786255,   0.527610,   5.656495,   44.751518,   127.914230,   529.928223,   48.880741,   0.450840,   486.383179,   449.949677
-0.004787,   0.014569,   0.013470,   0.000000,   550.557373,   0.527611,   5.656495,   43.938282,   133.686417,   546.812927,   39.508781,   0.455072,   498.455414,   457.965881
-0.005597,   0.016841,   0.015923,   0.000000,   564.659973,   0.527611,   5.656495,   43.125042,   138.828629,   562.450623,   30.672731,   0.458122,   510.257080,   466.373199
-0.006421,   0.019347,   0.018654,   0.000000,   579.215088,   0.527611,   5.656495,   42.311806,   145.298569,   578.228088,   20.694714,   0.461815,   522.234192,   474.168091
-0.007220,   0.021844,   0.021385,   0.000000,   592.531860,   0.527611,   5.656495,   41.498566,   151.620987,   592.239075,   11.361297,   0.465008,   533.223572,   481.238770
-0.008052,   0.024461,   0.024258,   0.000000,   605.403809,   0.527611,   5.656495,   40.685329,   158.001907,   605.395142,   1.966967,   0.467855,   543.898743,   488.126312
-0.008875,   0.027248,   0.027342,   0.000000,   618.101074,   0.527610,   5.656495,   39.872089,   164.416687,   617.981750,   -7.357357,   0.470317,   554.517944,   495.150726
-0.009681,   0.030021,   0.030420,   0.000000,   629.829895,   0.527611,   5.656495,   39.058853,   170.515839,   629.258911,   -16.194103,   0.472358,   564.385132,   501.787262
-0.010496,   0.032819,   0.033533,   0.000000,   640.803894,   0.527611,   5.656495,   38.245617,   176.148026,   639.476257,   -24.837179,   0.473872,   573.730042,   508.417175
-0.011304,   0.035749,   0.036812,   0.000000,   651.502136,   0.527611,   5.656495,   37.432377,   181.417572,   649.186646,   -32.992054,   0.474932,   582.964172,   515.387512
-0.012111,   0.038784,   0.040226,   0.000000,   661.941040,   0.527611,   5.656495,   36.619141,   186.690247,   658.355896,   -41.277695,   0.475798,   592.020813,   522.375305
-0.012894,   0.041757,   0.043576,   0.000000,   671.459534,   0.527610,   5.656495,   35.805901,   191.213226,   666.468201,   -48.959923,   0.476162,   600.413208,   529.342346
-0.013671,   0.044746,   0.046953,   0.000000,   680.479248,   0.527612,   5.656495,   34.992664,   195.443649,   673.868042,   -56.627342,   0.476243,   608.451416,   536.329956
-0.014423,   0.047803,   0.050425,   0.000000,   689.203979,   0.527610,   5.656495,   34.179428,   199.417114,   680.806702,   -64.131706,   0.476071,   616.310852,   543.469971
-0.015193,   0.050890,   0.053934,   0.000000,   697.469482,   0.527611,   5.656495,   33.366188,   202.914566,   687.124146,   -71.528542,   0.475534,   623.887329,   550.821228
-0.015970,   0.053960,   0.057425,   0.000000,   705.180420,   0.527611,   5.656495,   32.552952,   205.862106,   692.764893,   -78.735626,   0.474636,   631.099243,   558.311096
-0.016702,   0.057045,   0.060952,   0.000000,   712.596497,   0.527610,   5.656495,   31.739714,   208.763947,   697.876648,   -86.118088,   0.473615,   638.100037,   565.779419
-0.017448,   0.060060,   0.064393,   0.000000,   719.333374,   0.527610,   5.656495,   30.926476,   210.891434,   702.199829,   -93.334961,   0.472120,   644.675232,   573.465271
-0.018159,   0.063054,   0.067824,   0.000000,   725.698425,   0.527611,   5.656495,   30.113239,   212.790527,   705.930481,   -100.693260,   0.470405,   651.014343,   581.210022
-0.018901,   0.066016,   0.071211,   0.000000,   731.580322,   0.527611,   5.656495,   29.299999,   214.187485,   708.971619,   -108.155319,   0.468312,   657.082153,   589.158936
-0.019654,   0.068981,   0.074602,   0.000000,   737.111755,   0.527611,   5.656495,   28.486761,   215.228897,   711.415894,   -115.802521,   0.465895,   662.985229,   597.319580
-0.020434,   0.071918,   0.077957,   0.000000,   742.213196,   0.527611,   5.656495,   27.673523,   215.831604,   713.187683,   -123.606201,   0.463114,   668.675537,   605.665649
-0.021215,   0.074790,   0.081238,   0.000000,   746.842834,   0.527610,   5.656495,   26.860287,   216.045105,   714.197754,   -131.635620,   0.459978,   674.120728,   614.122375
-0.022010,   0.077601,   0.084446,   0.000000,   751.015869,   0.527610,   5.656495,   26.047049,   215.877945,   714.447327,   -139.890030,   0.456480,   679.347107,   622.682129
-0.022826,   0.080351,   0.087581,   0.000000,   754.766357,   0.527611,   5.656495,   25.233810,   215.453598,   713.907043,   -148.445114,   0.452653,   684.381104,   631.291382
-0.023687,   0.083057,   0.090657,   0.000000,   758.089294,   0.527611,   5.656495,   24.420572,   214.654419,   712.613281,   -157.204529,   0.448441,   689.252075,   639.987976
-0.024596,   0.085716,   0.093668,   0.000000,   760.996277,   0.527611,   5.656495,   23.607334,   213.567398,   710.527222,   -166.217331,   0.443866,   693.973450,   648.714661
-0.025530,   0.088285,   0.096573,   0.000000,   763.458313,   0.527610,   5.656495,   22.794098,   212.312973,   707.573181,   -175.501602,   0.438977,   698.507019,   657.341492
-0.026494,   0.090763,   0.099367,   0.000000,   765.485596,   0.527611,   5.656495,   21.980860,   210.922958,   703.771118,   -184.998718,   0.433795,   702.861572,   665.814575
-0.027492,   0.093144,   0.102046,   0.000000,   767.094299,   0.527611,   5.656495,   21.167622,   209.467865,   699.132507,   -194.672287,   0.428357,   707.042542,   674.069580
-0.028522,   0.095424,   0.104604,   0.000000,   768.312073,   0.527610,   5.656495,   20.354383,   208.035263,   693.694092,   -204.466888,   0.422720,   711.053772,   682.034668
-0.029584,   0.097598,   0.107036,   0.000000,   769.178650,   0.527610,   5.656495,   19.541147,   206.725494,   687.525330,   -214.303940,   0.416961,   714.895813,   689.633606
-0.030675,   0.099664,   0.109341,   0.000000,   769.750671,   0.527611,   5.656495,   18.727909,   205.651276,   680.739624,   -224.078323,   0.411185,   718.566040,   696.788818
-0.031792,   0.101618,   0.111517,   0.000000,   770.104736,   0.527611,   5.656495,   17.914671,   204.937073,   673.502258,   -233.659164,   0.405525,   722.058655,   703.425354
-0.032934,   0.103462,   0.113567,   0.000000,   770.338257,   0.527611,   5.656495,   17.101433,   204.711258,   666.030762,   -242.897354,   0.400139,   725.366821,   709.480469
-0.034096,   0.105202,   0.115498,   0.000000,   770.563416,   0.527610,   5.656495,   16.288195,   205.090546,   658.576599,   -251.645584,   0.395187,   728.487427,   714.918396
-0.035281,   0.106852,   0.117327,   0.000000,   770.897034,   0.527610,   5.656495,   15.474957,   206.169144,   651.395325,   -259.780579,   0.390819,   731.424561,   719.736511
-0.036472,   0.108411,   0.119059,   0.000000,   771.440247,   0.527610,   5.656495,   14.661719,   208.139923,   644.577820,   -267.323120,   0.387150,   734.183472,   723.958008
-0.037678,   0.109891,   0.120706,   0.000000,   772.163086,   0.527611,   5.656495,   13.848482,   210.735855,   638.236084,   -274.208405,   0.384098,   736.767578,   727.678223
-0.038943,   0.111338,   0.122316,   0.000000,   773.014099,   0.527611,   5.656495,   13.035244,   213.778214,   632.171265,   -280.649872,   0.381445,   739.249756,   731.089294
-0.040259,   0.112775,   0.123922,   0.000000,   773.904907,   0.527610,   5.656495,   12.222006,   217.208862,   625.958740,   -286.986145,   0.378933,   741.703064,   734.374207
-0.041642,   0.114210,   0.125536,   0.000000,   774.663757,   0.527611,   5.656495,   11.408768,   220.861465,   619.080261,   -293.534485,   0.376229,   744.175171,   737.692566
-0.043140,   0.115671,   0.127187,   0.000000,   775.106995,   0.527610,   5.656495,   10.595531,   224.457687,   611.084595,   -300.530914,   0.372980,   746.725830,   741.193604
-0.044689,   0.117133,   0.128860,   0.000000,   775.168030,   0.527611,   5.656495,   9.782292,   228.349838,   601.391296,   -308.260071,   0.369082,   749.373291,   744.882751
-0.046303,   0.118544,   0.130494,   0.000000,   774.684753,   0.527611,   5.656495,   8.969054,   232.447128,   589.769531,   -316.651184,   0.364435,   752.046204,   748.655396
-0.048062,   0.119871,   0.132045,   0.000000,   773.398560,   0.527610,   5.656495,   8.155817,   236.732361,   575.520020,   -325.875305,   0.358742,   754.722107,   752.466980
-0.049911,   0.121083,   0.133485,   0.000000,   771.262695,   0.527611,   5.656495,   7.342579,   241.450516,   558.445496,   -335.787354,   0.352058,   757.352112,   756.132812
-0.051773,   0.122080,   0.134698,   0.000000,   768.025024,   0.527611,   5.656495,   6.529341,   246.842361,   537.900635,   -346.319000,   0.344274,   759.804016,   759.390015
-0.053651,   0.122735,   0.135534,   0.000000,   763.396973,   0.527611,   5.656495,   5.716104,   253.418900,   513.004761,   -357.343719,   0.335318,   761.888123,   761.874634
-0.000770,   0.000230,   0.000000,   -161.802292,   0.000000,   0.530988,   6.480167,   52.313992,   -31.825811,   -130.311218,   -63.977333,   -0.334368,   161.635193,   -161.634415
-0.000114,   0.000278,   0.000000,   -6.945663,   56.315052,   0.530988,   6.480167,   51.520405,   34.791447,   14.577944,   29.972206,   0.273865,   60.089706,   59.176483
-0.000263,   0.001377,   0.000000,   0.000000,   299.648132,   0.530986,   6.480167,   50.726818,   73.757133,   260.616516,   93.898293,   0.392619,   283.882751,   279.044464
-0.000722,   0.002786,   0.000909,   0.000000,   428.404663,   0.530986,   6.480167,   49.933235,   74.771568,   406.330780,   88.351891,   0.396324,   404.637695,   396.807281
-0.001273,   0.004234,   0.002422,   0.000000,   449.545593,   0.530988,   6.480167,   49.139648,   82.349876,   430.353455,   83.948044,   0.405430,   421.530365,   410.682831
-0.001925,   0.005856,   0.004131,   0.000000,   467.684052,   0.530986,   6.480167,   48.346062,   85.094749,   450.543762,   80.979553,   0.407936,   437.681335,   425.569672
-0.002652,   0.007662,   0.006038,   0.000000,   486.186188,   0.530988,   6.480167,   47.552475,   90.070442,   471.951874,   75.089554,   0.413507,   453.053680,   438.431610
-0.003423,   0.009628,   0.008120,   0.000000,   504.417114,   0.530988,   6.480167,   46.758888,   96.267990,   493.682678,   66.190987,   0.420592,   467.555389,   449.444916
-0.004216,   0.011647,   0.010267,   0.000000,   520.946655,   0.530988,   6.480167,   45.965305,   102.187607,   513.084473,   57.379108,   0.426584,   480.774567,   459.258759
-0.005076,   0.013796,   0.012560,   0.000000,   536.101990,   0.530986,   6.480167,   45.171719,   106.648529,   530.453796,   49.250668,   0.430402,   493.416534,   469.305786
-0.005934,   0.016146,   0.015089,   0.000000,   551.927185,   0.530986,   6.480167,   44.378132,   113.516953,   548.336731,   39.674896,   0.436004,   506.000031,   478.014008
-0.006906,   0.018662,   0.017794,   0.000000,   566.721985,   0.530988,   6.480167,   43.584549,   119.206978,   564.591248,   30.879293,   0.439855,   518.199707,   487.091339
-0.007828,   0.021317,   0.020676,   0.000000,   581.645691,   0.530986,   6.480167,   42.790962,   126.749870,   580.658020,   21.196726,   0.444848,   530.074402,   494.809479
-0.008789,   0.023956,   0.023539,   0.000000,   595.067322,   0.530989,   6.480167,   41.997375,   133.502167,   594.767212,   11.770058,   0.448793,   540.910095,   501.980499
-0.009715,   0.026756,   0.026605,   0.000000,   608.439697,   0.530986,   6.480167,   41.203789,   140.897354,   608.423828,   2.725936,   0.452768,   551.659851,   508.771240
-0.010631,   0.029614,   0.029747,   0.000000,   621.140869,   0.530988,   6.480167,   40.410202,   148.277878,   621.059204,   -6.213606,   0.456393,   561.896240,   515.104004
-0.011546,   0.032454,   0.032876,   0.000000,   632.838318,   0.530986,   6.480167,   39.616615,   155.157745,   632.379089,   -14.810512,   0.459406,   571.416443,   521.091309
-0.012439,   0.035418,   0.036166,   0.000000,   644.211304,   0.530986,   6.480167,   38.823032,   161.740662,   643.120422,   -22.941801,   0.461930,   580.796143,   527.228516
-0.013287,   0.038488,   0.039598,   0.000000,   655.435303,   0.530988,   6.480167,   38.029446,   168.744919,   653.435181,   -31.199865,   0.464503,   590.007446,   533.004822
-0.014176,   0.041457,   0.042908,   0.000000,   665.284302,   0.530986,   6.480167,   37.235859,   174.112961,   662.272705,   -38.460526,   0.465924,   598.370972,   539.074829
-0.014985,   0.044486,   0.046315,   0.000000,   674.984558,   0.530989,   6.480167,   36.442272,   179.903320,   670.705261,   -46.028244,   0.467456,   606.551270,   544.789917
-0.015799,   0.047550,   0.049768,   0.000000,   684.130859,   0.530986,   6.480167,   35.648685,   184.972687,   678.492981,   -53.048832,   0.468448,   614.416382,   550.752380
-0.016608,   0.050688,   0.053318,   0.000000,   692.995544,   0.530988,   6.480167,   34.855103,   189.807007,   685.815308,   -60.108414,   0.469159,   622.122070,   556.850586
-0.017409,   0.053809,   0.056856,   0.000000,   701.313904,   0.530986,   6.480167,   34.061516,   194.165726,   692.490784,   -66.892563,   0.469539,   629.451904,   562.971069
-0.018170,   0.056958,   0.060442,   0.000000,   709.286316,   0.530986,   6.480167,   33.267929,   198.226852,   698.657654,   -73.701286,   0.469645,   636.568420,   569.210571
-0.018934,   0.060066,   0.063981,   0.000000,   716.676147,   0.530988,   6.480167,   32.474346,   201.648285,   704.169250,   -80.258369,   0.469354,   643.308655,   575.584229
-0.019651,   0.063180,   0.067546,   0.000000,   723.789795,   0.530987,   6.480167,   31.680758,   205.010254,   709.186523,   -87.039574,   0.468923,   649.855286,   581.954956
-0.020393,   0.066275,   0.071083,   0.000000,   730.398987,   0.530987,   6.480167,   30.887173,   207.678589,   713.622192,   -93.646011,   0.468056,   656.118652,   588.600342
-0.021138,   0.069399,   0.074660,   0.000000,   736.719482,   0.530987,   6.480167,   30.093586,   210.002563,   717.592773,   -100.371071,   0.466895,   662.244080,   595.477539
-0.021887,   0.072535,   0.078255,   0.000000,   742.717041,   0.530988,   6.480167,   29.299999,   211.957977,   721.038330,   -107.266777,   0.465417,   668.214844,   602.591980
-0.022659,   0.075628,   0.081795,   0.000000,   748.250305,   0.530987,   6.480167,   28.506414,   213.416412,   723.821350,   -114.304131,   0.463567,   673.932373,   609.906860
-0.023429,   0.078693,   0.085304,   0.000000,   753.380920,   0.530987,   6.480167,   27.712828,   214.407196,   725.992676,   -121.497108,   0.461348,   679.457458,   617.449280
-0.024211,   0.081730,   0.088783,   0.000000,   758.148865,   0.530988,   6.480167,   26.919241,   215.078796,   727.525513,   -128.959778,   0.458814,   684.812988,   625.157043
-0.025030,   0.084733,   0.092214,   0.000000,   762.485352,   0.530986,   6.480167,   26.125656,   215.243118,   728.360718,   -136.654465,   0.455853,   689.991028,   633.111572
-0.025866,   0.087714,   0.095621,   0.000000,   766.477539,   0.530987,   6.480167,   25.332071,   215.109940,   728.516479,   -144.673752,   0.452549,   695.045959,   641.236328
-0.026790,   0.090667,   0.098974,   0.000000,   770.021301,   0.530988,   6.480167,   24.538485,   214.435333,   727.950134,   -152.886078,   0.448792,   699.941589,   649.566467
-0.027740,   0.093598,   0.102302,   0.000000,   773.226562,   0.530987,   6.480167,   23.744898,   213.526321,   726.646790,   -161.464310,   0.444688,   704.743225,   658.009277
-0.028730,   0.096467,   0.105552,   0.000000,   776.009521,   0.530987,   6.480167,   22.951313,   212.342697,   724.520447,   -170.360489,   0.440217,   709.394653,   666.484375
-0.029767,   0.099270,   0.108720,   0.000000,   778.371460,   0.530987,   6.480167,   22.157726,   210.912750,   721.566406,   -179.539719,   0.435390,   713.903503,   674.940186
-0.030855,   0.102005,   0.111801,   0.000000,   780.319641,   0.530988,   6.480167,   21.364141,   209.294693,   717.775940,   -188.981537,   0.430229,   718.277039,   683.315796
-0.031995,   0.104666,   0.114791,   0.000000,   781.869202,   0.530986,   6.480167,   20.570555,   207.558533,   713.157532,   -198.650055,   0.424770,   722.521851,   691.543884
-0.033191,   0.107252,   0.117688,   0.000000,   783.044067,   0.530987,   6.480167,   19.776970,   205.785782,   707.741943,   -208.491684,   0.419063,   726.642639,   699.552490
-0.034443,   0.109759,   0.120489,   0.000000,   783.880920,   0.530988,   6.480167,   18.983383,   204.071564,   701.592346,   -218.430023,   0.413182,   730.641479,   707.264648
-0.035750,   0.112187,   0.123194,   0.000000,   784.433899,   0.530987,   6.480167,   18.189796,   202.526672,   694.816528,   -228.361572,   0.407226,   734.516968,   714.600769
-0.037113,   0.114533,   0.125802,   0.000000,   784.777222,   0.530987,   6.480167,   17.396212,   201.273285,   687.575439,   -238.154587,   0.401324,   738.263611,   721.483337
-0.038529,   0.116799,   0.128316,   0.000000,   785.006348,   0.530987,   6.480167,   16.602625,   200.438858,   680.086426,   -247.654587,   0.395632,   741.873230,   727.845886
-0.039996,   0.118993,   0.130747,   0.000000,   785.242371,   0.530987,   6.480167,   15.809039,   200.153320,   672.619019,   -256.699646,   0.390323,   745.342102,   733.645447
-0.041472,   0.121091,   0.133078,   0.000000,   785.630981,   0.530987,   6.480167,   15.015453,   200.775681,   665.311157,   -265.272888,   0.385620,   748.652527,   738.832275
-0.042995,   0.123120,   0.135332,   0.000000,   786.173096,   0.530987,   6.480167,   14.221868,   201.899124,   658.559937,   -273.058685,   0.381517,   751.787781,   743.463318
-0.044617,   0.125136,   0.137567,   0.000000,   786.964417,   0.530987,   6.480167,   13.428282,   203.614822,   652.382751,   -280.193085,   0.378014,   754.819153,   747.667480
-0.046314,   0.127157,   0.139816,   0.000000,   787.980347,   0.530987,   6.480167,   12.634696,   205.858704,   646.617249,   -286.863251,   0.374981,   757.793823,   751.581665
-0.048103,   0.129218,   0.142121,   0.000000,   789.117371,   0.530987,   6.480167,   11.841109,   208.464508,   640.903625,   -293.361115,   0.372146,   760.783447,   755.387756
-0.050071,   0.131335,   0.144492,   0.000000,   790.123657,   0.530987,   6.480167,   11.047523,   211.060516,   634.685669,   -300.014038,   0.369080,   763.832825,   759.256287
-0.052108,   0.133507,   0.146956,   0.000000,   790.941406,   0.530987,   6.480167,   10.253938,   213.866074,   627.417358,   -307.190002,   0.365611,   767.010498,   763.280151
-0.054290,   0.135739,   0.149513,   0.000000,   791.379639,   0.530987,   6.480167,   9.460352,   216.710190,   618.638000,   -315.070374,   0.361464,   770.337036,   767.506226
-0.056604,   0.137977,   0.152106,   0.000000,   791.248352,   0.530987,   6.480167,   8.666766,   219.642105,   607.807678,   -323.814514,   0.356452,   773.783020,   771.874268
-0.059067,   0.140165,   0.154679,   0.000000,   790.391479,   0.530987,   6.480167,   7.873180,   222.736633,   594.537231,   -333.433044,   0.350476,   777.298950,   776.252014
-0.061697,   0.142286,   0.157218,   0.000000,   788.703979,   0.530987,   6.480167,   7.079594,   226.232224,   578.362244,   -343.964050,   0.343456,   780.879944,   780.516113
-0.064381,   0.144365,   0.159756,   0.000000,   786.193420,   0.530987,   6.480167,   6.286008,   230.611420,   558.892517,   -355.365021,   0.335441,   784.543396,   784.527771
-0.000983,   0.000291,   0.000000,   -206.811935,   0.000000,   0.533427,   7.328438,   51.780094,   -39.403770,   -168.346451,   -80.246101,   -0.335604,   206.344391,   -206.339615
-0.000099,   0.000520,   0.000000,   0.000000,   113.118347,   0.533425,   7.328438,   51.004917,   28.887150,   97.465759,   36.310272,   0.393196,   107.116013,   105.253036
-0.000629,   0.002193,   0.000318,   0.000000,   405.833771,   0.533425,   7.328438,   50.229740,   43.041576,   382.492096,   92.022713,   0.357876,   396.351166,   395.247437
-0.001439,   0.004160,   0.002346,   0.000000,   437.903778,   0.533425,   7.328438,   49.454567,   55.359360,   422.228760,   77.436371,   0.379515,   419.471863,   415.217010
-0.002341,   0.006239,   0.004527,   0.000000,   461.348969,   0.533425,   7.328438,   48.679390,   61.281410,   445.916321,   78.575424,   0.384050,   440.218903,   434.798645
-0.003280,   0.008418,   0.006820,   0.000000,   483.252716,   0.533425,   7.328438,   47.904217,   68.232735,   470.507965,   72.727776,   0.392065,   458.036469,   450.381775
-0.004259,   0.010659,   0.009186,   0.000000,   502.542938,   0.533425,   7.328438,   47.129040,   74.144798,   492.651428,   65.096085,   0.398847,   473.695953,   463.739807
-0.005230,   0.012994,   0.011664,   0.000000,   520.821960,   0.533426,   7.328438,   46.353867,   81.191315,   513.524719,   56.639965,   0.406153,   488.088287,   475.258850
-0.006238,   0.015499,   0.014339,   0.000000,   537.956177,   0.533426,   7.328438,   45.578690,   87.480530,   532.819092,   48.105465,   0.411987,   501.876617,   486.329498
-0.007313,   0.018099,   0.017120,   0.000000,   553.857910,   0.533425,   7.328438,   44.803513,   93.519279,   550.510986,   39.251945,   0.417067,   514.729980,   496.491425
-0.008440,   0.020856,   0.020080,   0.000000,   569.177673,   0.533425,   7.328438,   44.028336,   99.734665,   567.225891,   30.269705,   0.421754,   527.132751,   506.121033
-0.009525,   0.023683,   0.023130,   0.000000,   584.154175,   0.533425,   7.328438,   43.253162,   107.445564,   583.244141,   20.828201,   0.427266,   538.843872,   514.341858
-0.010617,   0.026570,   0.026256,   0.000000,   598.333374,   0.533425,   7.328438,   42.477985,   115.326263,   598.067261,   11.337190,   0.432433,   549.906677,   521.782166
-0.011639,   0.029598,   0.029565,   0.000000,   612.389038,   0.533426,   7.328438,   41.702808,   124.009109,   612.381897,   1.869439,   0.437729,   560.766785,   528.582397
-0.012719,   0.032527,   0.032758,   0.000000,   624.691040,   0.533425,   7.328438,   40.927635,   131.313416,   624.604675,   -6.527337,   0.441661,   570.511230,   534.949890
-0.013718,   0.035558,   0.036091,   0.000000,   636.781494,   0.533426,   7.328438,   40.152458,   138.988678,   636.343933,   -14.758904,   0.445554,   580.052002,   540.909546
-0.014662,   0.038686,   0.039559,   0.000000,   648.703796,   0.533425,   7.328438,   39.377281,   147.187347,   647.644470,   -23.049091,   0.449525,   589.386230,   546.353821
-0.015644,   0.041680,   0.042869,   0.000000,   659.038147,   0.533425,   7.328438,   38.602108,   153.629196,   657.229980,   -30.230425,   0.452160,   597.766724,   551.832458
-0.016531,   0.044774,   0.046324,   0.000000,   669.433594,   0.533425,   7.328438,   37.826931,   160.809082,   666.648560,   -37.636723,   0.455091,   606.074524,   556.825134
-0.017415,   0.047897,   0.049820,   0.000000,   679.204163,   0.533425,   7.328438,   37.051758,   167.237946,   675.329956,   -44.536255,   0.457388,   614.042908,   561.948547
-0.018278,   0.051055,   0.053371,   0.000000,   688.598206,   0.533426,   7.328438,   36.276581,   173.504730,   683.479736,   -51.346695,   0.459449,   621.748291,   566.947449
-0.019127,   0.054207,   0.056924,   0.000000,   697.392761,   0.533425,   7.328438,   35.501404,   179.073410,   690.972229,   -57.687767,   0.461005,   629.093628,   572.040405
-0.019916,   0.057354,   0.060491,   0.000000,   705.810425,   0.533425,   7.328438,   34.726231,   184.507874,   697.934814,   -64.074806,   0.462380,   636.159119,   577.003479
-0.020677,   0.060482,   0.064045,   0.000000,   713.713135,   0.533426,   7.328438,   33.951054,   189.370575,   704.322083,   -70.172043,   0.463363,   642.903809,   582.050293
-0.021439,   0.063613,   0.067608,   0.000000,   721.234497,   0.533425,   7.328438,   33.175877,   193.887787,   710.198364,   -76.288155,   0.464054,   649.411316,   587.172058
-0.022185,   0.066770,   0.071211,   0.000000,   728.408020,   0.533425,   7.328438,   32.400703,   197.879547,   715.666992,   -82.215958,   0.464383,   655.742432,   592.524780
-0.022939,   0.069983,   0.074885,   0.000000,   735.359680,   0.533425,   7.328438,   31.625526,   201.613434,   720.750244,   -88.304764,   0.464451,   661.973694,   598.076904
-0.023677,   0.073221,   0.078595,   0.000000,   741.999512,   0.533425,   7.328438,   30.850351,   204.888809,   725.441833,   -94.304390,   0.464202,   668.049622,   603.853638
-0.024436,   0.076437,   0.082277,   0.000000,   748.210754,   0.533425,   7.328438,   30.075176,   207.637909,   729.573181,   -100.374138,   0.463582,   673.890503,   609.851013
-0.025182,   0.079673,   0.085989,   0.000000,   754.158142,   0.533426,   7.328438,   29.300001,   210.089233,   733.255737,   -106.641197,   0.462690,   679.609741,   616.058899
-0.025939,   0.082911,   0.089704,   0.000000,   759.768555,   0.533425,   7.328438,   28.524824,   212.086319,   736.441284,   -113.030617,   0.461453,   685.175171,   622.526489
-0.026725,   0.086145,   0.093412,   0.000000,   765.006775,   0.533425,   7.328438,   27.749649,   213.540222,   739.084045,   -119.563828,   0.459815,   690.584595,   629.304565
-0.027514,   0.089393,   0.097139,   0.000000,   769.967346,   0.533426,   7.328438,   26.974474,   214.663467,   741.199951,   -126.390907,   0.457857,   695.897400,   636.341797
-0.028367,   0.092629,   0.100839,   0.000000,   774.532837,   0.533425,   7.328438,   26.199297,   215.251724,   742.685242,   -133.460754,   0.455470,   701.060425,   643.683411
-0.029268,   0.095901,   0.104576,   0.000000,   778.817017,   0.533425,   7.328438,   25.424122,   215.426300,   743.616394,   -140.825058,   0.452698,   706.168823,   651.341675
-0.030237,   0.099171,   0.108296,   0.000000,   782.712036,   0.533425,   7.328438,   24.648947,   215.054504,   743.907043,   -148.418182,   0.449482,   711.160645,   659.281006
-0.031235,   0.102407,   0.111976,   0.000000,   786.239014,   0.533425,   7.328438,   23.873770,   214.378540,   743.448059,   -156.430374,   0.445894,   716.034363,   667.383972
-0.032293,   0.105622,   0.115622,   0.000000,   789.384216,   0.533425,   7.328438,   23.098595,   213.327682,   742.242065,   -164.792374,   0.441899,   720.805664,   675.654907
-0.033421,   0.108810,   0.119227,   0.000000,   792.137573,   0.533425,   7.328438,   22.323420,   211.923035,   740.261292,   -173.491714,   0.437498,   725.477661,   684.044617
-0.034621,   0.111966,   0.122784,   0.000000,   794.493835,   0.533425,   7.328438,   21.548244,   210.206543,   737.478760,   -182.518951,   0.432701,   730.053650,   692.492554
-0.035899,   0.115084,   0.126287,   0.000000,   796.451538,   0.533425,   7.328438,   20.773067,   208.228073,   733.875366,   -191.856140,   0.427527,   734.537170,   700.933777
-0.037259,   0.118159,   0.129730,   0.000000,   798.017822,   0.533425,   7.328438,   19.997892,   206.052078,   729.448975,   -201.470657,   0.422006,   738.931702,   709.294983
-0.038704,   0.121187,   0.133109,   0.000000,   799.209045,   0.533425,   7.328438,   19.222717,   203.754181,   724.219788,   -211.311859,   0.416184,   743.239807,   717.498291
-0.040236,   0.124165,   0.136423,   0.000000,   800.054626,   0.533425,   7.328438,   18.447540,   201.424026,   718.240051,   -221.306778,   0.410127,   747.462158,   725.461548
-0.041856,   0.127090,   0.139668,   0.000000,   800.602722,   0.533425,   7.328438,   17.672365,   199.168610,   711.607056,   -231.354813,   0.403929,   751.597046,   733.099548
-0.043567,   0.129961,   0.142846,   0.000000,   800.923218,   0.533425,   7.328438,   16.897190,   197.110229,   704.473877,   -241.324173,   0.397714,   755.638123,   740.328369
-0.045364,   0.132775,   0.145956,   0.000000,   801.100891,   0.533425,   7.328438,   16.122015,   195.367004,   697.039429,   -251.064850,   0.391625,   759.575134,   747.079163
-0.047171,   0.135503,   0.148984,   0.000000,   801.310242,   0.533425,   7.328438,   15.346839,   194.394577,   689.439880,   -260.568359,   0.385920,   763.400818,   753.267639
-0.049147,   0.138231,   0.151992,   0.000000,   801.589172,   0.533425,   7.328438,   14.571663,   193.690430,   682.271912,   -269.319183,   0.380632,   767.111389,   758.936462
-0.051232,   0.141015,   0.155069,   0.000000,   802.197876,   0.533425,   7.328438,   13.796487,   193.669907,   675.739319,   -277.405029,   0.375980,   770.793030,   764.158569
-0.053438,   0.143835,   0.158192,   0.000000,   803.131226,   0.533425,   7.328438,   13.021312,   194.268448,   669.906738,   -284.807678,   0.371969,   774.415710,   768.974854
-0.055780,   0.146723,   0.161400,   0.000000,   804.370117,   0.533425,   7.328438,   12.246136,   195.383911,   664.667969,   -291.679108,   0.368476,   778.025085,   773.523071
-0.058226,   0.149615,   0.164633,   0.000000,   805.721313,   0.533425,   7.328438,   11.470961,   196.864868,   659.584106,   -298.289398,   0.365258,   781.593079,   777.876343
-0.060824,   0.152538,   0.167920,   0.000000,   806.988220,   0.533425,   7.328438,   10.695785,   198.436142,   654.148499,   -304.976898,   0.361947,   785.183533,   782.196533
-0.063619,   0.155602,   0.171397,   0.000000,   808.089050,   0.533425,   7.328438,   9.920609,   199.982239,   647.882263,   -312.126343,   0.358223,   788.953735,   786.693115
-0.066633,   0.158826,   0.175095,   0.000000,   808.888672,   0.533425,   7.328438,   9.145433,   201.488083,   640.279053,   -320.021210,   0.353850,   792.960815,   791.424988
-0.069893,   0.162212,   0.179024,   0.000000,   809.235657,   0.533425,   7.328438,   8.370258,   202.933289,   630.873596,   -328.848480,   0.348625,   797.234070,   796.381409
-0.073418,   0.165733,   0.183167,   0.000000,   809.022522,   0.533425,   7.328438,   7.595082,   204.476761,   619.254700,   -338.708313,   0.342464,   801.769226,   801.465576
-0.077338,   0.169414,   0.187564,   0.000000,   808.088013,   0.533425,   7.328438,   6.819907,   206.130661,   604.919006,   -349.712830,   0.335168,   806.611267,   806.598999
-0.001115,   0.000347,   0.000000,   -233.359467,   2.865576,   0.535065,   8.199678,   51.283226,   -45.929176,   -184.564713,   -95.632706,   -0.327213,   234.805374,   -234.766006
-0.000299,   0.001250,   0.000000,   0.000000,   267.687347,   0.535064,   8.199678,   50.525185,   35.104290,   250.120300,   63.920246,   0.366570,   259.363800,   258.024780
-0.001470,   0.003902,   0.002084,   0.000000,   427.544678,   0.535065,   8.199678,   49.767139,   38.036079,   414.422333,   71.493141,   0.362854,   415.648193,   413.963226
-0.002640,   0.006343,   0.004638,   0.000000,   453.024353,   0.535064,   8.199678,   49.009098,   40.899666,   438.973907,   76.095573,   0.363364,   440.214264,   438.366425
-0.003885,   0.009000,   0.007427,   0.000000,   477.907867,   0.535064,   8.199678,   48.251057,   46.328606,   466.870697,   69.017517,   0.370855,   461.275787,   458.223633
-0.005138,   0.011729,   0.010303,   0.000000,   500.532990,   0.535065,   8.199678,   47.493015,   53.748154,   491.933716,   61.984100,   0.379297,   479.555206,   474.738220
-0.006342,   0.014504,   0.013247,   0.000000,   521.013123,   0.535064,   8.199678,   46.734970,   61.673588,   514.610291,   54.231750,   0.387526,   495.694244,   488.689636
-0.007566,   0.017320,   0.016249,   0.000000,   538.650574,   0.535064,   8.199678,   45.976933,   67.491539,   534.024719,   46.685314,   0.393047,   510.131256,   501.305298
-0.008921,   0.020271,   0.019396,   0.000000,   555.103149,   0.535066,   8.199678,   45.218887,   73.061073,   551.976196,   38.824394,   0.397872,   523.650330,   512.986145
-0.010183,   0.023453,   0.022816,   0.000000,   572.718567,   0.535064,   8.199678,   44.460846,   82.216591,   571.068665,   28.448063,   0.405525,   536.987427,   523.130188
-0.011518,   0.026528,   0.026115,   0.000000,   587.558411,   0.535064,   8.199678,   43.702801,   89.252403,   586.798401,   19.460608,   0.410706,   548.690552,   532.279724
-0.012739,   0.029718,   0.029567,   0.000000,   602.460205,   0.535065,   8.199678,   42.944759,   97.926254,   602.262756,   9.981404,   0.416758,   560.028137,   540.341553
-0.013942,   0.032909,   0.033032,   0.000000,   616.296631,   0.535064,   8.199678,   42.186718,   106.395912,   616.295471,   0.760113,   0.422191,   570.587952,   547.599365
-0.015127,   0.036114,   0.036525,   0.000000,   629.365479,   0.535064,   8.199678,   41.428677,   114.946075,   629.240967,   -8.003352,   0.427300,   580.534424,   554.116089
-0.016202,   0.039399,   0.040138,   0.000000,   642.082275,   0.535065,   8.199678,   40.670635,   123.768494,   641.558411,   -16.478041,   0.432248,   590.191223,   560.130615
-0.017316,   0.042509,   0.043552,   0.000000,   653.028259,   0.535065,   8.199678,   39.912590,   130.923141,   651.947144,   -23.758017,   0.435828,   598.760681,   565.769653
-0.018308,   0.045708,   0.047095,   0.000000,   664.095947,   0.535064,   8.199678,   39.154549,   139.123016,   662.229065,   -31.306196,   0.439905,   607.216187,   570.725952
-0.019276,   0.048916,   0.050664,   0.000000,   674.511841,   0.535065,   8.199678,   38.396507,   146.767410,   671.734131,   -38.287365,   0.443426,   615.285706,   575.517212
-0.020253,   0.052063,   0.054168,   0.000000,   684.017395,   0.535064,   8.199678,   37.638466,   153.439667,   680.270996,   -44.584393,   0.446208,   622.812256,   580.229126
-0.021129,   0.055262,   0.057760,   0.000000,   693.450867,   0.535064,   8.199678,   36.880424,   160.584106,   688.573242,   -50.981487,   0.449152,   630.193481,   584.516968
-0.021955,   0.058394,   0.061289,   0.000000,   702.232483,   0.535065,   8.199678,   36.122379,   167.225296,   696.154724,   -57.023121,   0.451702,   637.131042,   588.602417
-0.022770,   0.061497,   0.064791,   0.000000,   710.442261,   0.535064,   8.199678,   35.364338,   173.223083,   703.118408,   -62.725769,   0.453783,   643.730530,   592.703674
-0.023554,   0.064632,   0.068344,   0.000000,   718.380554,   0.535064,   8.199678,   34.606297,   179.005341,   709.715515,   -68.364494,   0.455637,   650.167114,   596.788086
-0.024337,   0.067835,   0.071983,   0.000000,   726.073120,   0.535065,   8.199678,   33.848255,   184.384857,   716.014587,   -73.814644,   0.457168,   656.504578,   601.035522
-0.025098,   0.071093,   0.075700,   0.000000,   733.539062,   0.535065,   8.199678,   33.090210,   189.472366,   721.983826,   -79.289368,   0.458428,   662.740417,   605.417725
-0.025844,   0.074345,   0.079416,   0.000000,   740.624329,   0.535064,   8.199678,   32.332169,   194.099823,   727.519226,   -84.630135,   0.459370,   668.755859,   609.897461
-0.026595,   0.077605,   0.083143,   0.000000,   747.369019,   0.535064,   8.199678,   31.574127,   198.301483,   732.607971,   -90.026810,   0.459986,   674.592590,   614.543884
-0.027329,   0.080888,   0.086907,   0.000000,   753.825928,   0.535064,   8.199678,   30.816084,   202.060883,   737.339844,   -95.375320,   0.460291,   680.294373,   619.397949
-0.028076,   0.084215,   0.090722,   0.000000,   760.019958,   0.535064,   8.199678,   30.058043,   205.359299,   741.712097,   -100.770264,   0.460259,   685.897766,   624.536316
-0.028835,   0.087583,   0.094587,   0.000000,   765.980652,   0.535065,   8.199678,   29.300001,   208.317032,   745.702332,   -106.341309,   0.459938,   691.412231,   629.921021
-0.029587,   0.090984,   0.098498,   0.000000,   771.691406,   0.535064,   8.199678,   28.541958,   210.869720,   749.305115,   -112.047760,   0.459301,   696.837524,   635.585266
-0.030393,   0.094406,   0.102422,   0.000000,   777.068726,   0.535064,   8.199678,   27.783916,   212.867065,   752.430176,   -117.902992,   0.458265,   702.139099,   641.591797
-0.031242,   0.097905,   0.106432,   0.000000,   782.241699,   0.535065,   8.199678,   27.025873,   214.434998,   755.167419,   -123.987755,   0.456872,   707.421204,   647.980408
-0.032127,   0.101463,   0.110508,   0.000000,   787.175964,   0.535064,   8.199678,   26.267830,   215.577774,   757.446716,   -130.357880,   0.455111,   712.664124,   654.731506
-0.033083,   0.105017,   0.114565,   0.000000,   791.721802,   0.535064,   8.199678,   25.509789,   216.140274,   759.127686,   -136.969177,   0.452915,   717.770874,   661.810059
-0.034078,   0.108588,   0.118636,   0.000000,   795.938782,   0.535064,   8.199678,   24.751747,   216.198868,   760.238159,   -143.864761,   0.450306,   722.794983,   669.211243
-0.035138,   0.112183,   0.122727,   0.000000,   799.847046,   0.535065,   8.199678,   23.993704,   215.856262,   760.714600,   -151.171997,   0.447295,   727.759949,   676.910217
-0.036282,   0.115807,   0.126838,   0.000000,   803.421814,   0.535064,   8.199678,   23.235661,   215.052719,   760.540100,   -158.840363,   0.443854,   732.668762,   684.898987
-0.037518,   0.119451,   0.130958,   0.000000,   806.641541,   0.535064,   8.199678,   22.477619,   213.793793,   759.665222,   -166.882629,   0.439969,   737.520691,   693.140137
-0.038854,   0.123109,   0.135079,   0.000000,   809.490112,   0.535064,   8.199678,   21.719578,   212.104523,   758.047729,   -175.302414,   0.435642,   742.315369,   701.578918
-0.040295,   0.126773,   0.139192,   0.000000,   811.954651,   0.535065,   8.199678,   20.961535,   210.020081,   755.651917,   -184.093948,   0.430881,   747.052795,   710.151062
-0.041849,   0.130437,   0.143290,   0.000000,   814.024353,   0.535064,   8.199678,   20.203493,   207.578201,   752.448364,   -193.242142,   0.425695,   751.733337,   718.787903
-0.043521,   0.134093,   0.147364,   0.000000,   815.696716,   0.535064,   8.199678,   19.445450,   204.832031,   748.423950,   -202.717911,   0.420108,   756.357727,   727.411499
-0.045317,   0.137738,   0.151411,   0.000000,   816.978638,   0.535064,   8.199678,   18.687408,   201.847656,   743.586853,   -212.474838,   0.414159,   760.926575,   735.937317
-0.047241,   0.141365,   0.155427,   0.000000,   817.890564,   0.535065,   8.199678,   17.929365,   198.705612,   737.976013,   -222.445267,   0.407906,   765.439880,   744.276978
-0.049298,   0.144975,   0.159411,   0.000000,   818.471252,   0.535064,   8.199678,   17.171324,   195.502594,   731.672852,   -232.535294,   0.401429,   769.896423,   752.340210
-0.051494,   0.148561,   0.163360,   0.000000,   818.781555,   0.535065,   8.199678,   16.413282,   192.357086,   724.818787,   -242.611969,   0.394847,   774.287537,   760.031128
-0.053767,   0.152153,   0.167327,   0.000000,   819.002441,   0.535064,   8.199678,   15.655239,   189.628281,   717.549561,   -252.689194,   0.388346,   778.668152,   767.315613
-0.056279,   0.155747,   0.171268,   0.000000,   819.098450,   0.535064,   8.199678,   14.897197,   186.970367,   710.308411,   -262.238861,   0.382012,   782.941223,   774.086365
-0.058896,   0.159324,   0.175200,   0.000000,   819.288391,   0.535064,   8.199678,   14.139154,   184.830887,   703.307129,   -271.265900,   0.376110,   787.125183,   780.307495
-0.061668,   0.162934,   0.179172,   0.000000,   819.720459,   0.535064,   8.199678,   13.381112,   183.267319,   696.880066,   -279.610687,   0.370788,   791.239380,   786.022888
-0.064610,   0.166622,   0.183241,   0.000000,   820.515991,   0.535064,   8.199678,   12.623070,   182.319794,   691.251953,   -287.220825,   0.366132,   795.316467,   791.320190
-0.067662,   0.170444,   0.187493,   0.000000,   821.794312,   0.535064,   8.199678,   11.865027,   182.114471,   686.461670,   -294.227081,   0.362164,   799.430725,   796.342224
-0.071018,   0.174459,   0.191971,   0.000000,   823.339966,   0.535064,   8.199678,   11.106986,   182.092010,   682.268372,   -300.768829,   0.358530,   803.615356,   801.254761
-0.074641,   0.178693,   0.196728,   0.000000,   825.019409,   0.535065,   8.199678,   10.348944,   182.173935,   678.137085,   -307.282684,   0.354935,   807.951904,   806.214905
-0.078568,   0.183176,   0.201810,   0.000000,   826.619690,   0.535064,   8.199678,   9.590901,   182.161758,   673.444153,   -314.189728,   0.351012,   812.514465,   811.349915
-0.082837,   0.187927,   0.207254,   0.000000,   827.946655,   0.535064,   8.199678,   8.832859,   181.930786,   667.612366,   -321.836151,   0.346457,   817.362488,   816.720093
-0.087500,   0.192969,   0.213103,   0.000000,   828.856567,   0.535064,   8.199678,   8.074817,   181.449860,   660.169983,   -330.467590,   0.341062,   822.549194,   822.326355
-0.092732,   0.198350,   0.219425,   0.000000,   829.154602,   0.535064,   8.199678,   7.316774,   180.532288,   650.672974,   -340.245728,   0.334571,   828.131104,   828.125427
-0.000957,   0.000312,   0.000000,   -199.297638,   5.770849,   0.536039,   9.092217,   50.824341,   -51.639164,   -141.887619,   -92.071030,   -0.318965,   202.244812,   -202.059448
-0.000820,   0.002159,   0.000337,   -19.147448,   383.205261,   0.536039,   9.092217,   50.082123,   -4.411747,   368.469574,   75.576508,   0.308684,   393.128876,   392.077698
-0.002656,   0.005792,   0.004078,   -0.546877,   433.000763,   0.536040,   9.092217,   49.339905,   9.537582,   422.916290,   65.348274,   0.332702,   433.274475,   433.273712
-0.004372,   0.009306,   0.007750,   0.000000,   470.431274,   0.536039,   9.092217,   48.597683,   25.777182,   461.418182,   63.306412,   0.351301,   462.277222,   461.592560
-0.005925,   0.012600,   0.011220,   0.000000,   498.031097,   0.536039,   9.092217,   47.855469,   36.894291,   490.699829,   58.143967,   0.363411,   483.927307,   481.889435
-0.007464,   0.015838,   0.014654,   0.000000,   518.922302,   0.536040,   9.092217,   47.113247,   41.960175,   513.221924,   52.142696,   0.368811,   501.775909,   498.815460
-0.008995,   0.019162,   0.018193,   0.000000,   538.457397,   0.536039,   9.092217,   46.371029,   48.217171,   534.385010,   44.681618,   0.375051,   517.798218,   513.538879
-0.010675,   0.022670,   0.021933,   0.000000,   556.862549,   0.536039,   9.092217,   45.628811,   54.657101,   554.148132,   36.921494,   0.380889,   532.793579,   527.052002
-0.012211,   0.026267,   0.025787,   0.000000,   575.356079,   0.536040,   9.092217,   44.886593,   64.057495,   573.932007,   26.983753,   0.388968,   546.736755,   538.576599
-0.013789,   0.029809,   0.029587,   0.000000,   591.709167,   0.536039,   9.092217,   44.144371,   72.505569,   591.134155,   17.278139,   0.395572,   559.224182,   548.671631
-0.015154,   0.033432,   0.033507,   0.000000,   607.942810,   0.536039,   9.092217,   43.402153,   82.704285,   607.840393,   7.334258,   0.403022,   571.139465,   557.463013
-0.016591,   0.036858,   0.037211,   0.000000,   621.547546,   0.536040,   9.092217,   42.659935,   90.671013,   621.543945,   -1.385545,   0.408236,   581.539246,   565.308899
-0.017888,   0.040355,   0.041021,   0.000000,   634.952576,   0.536039,   9.092217,   41.917717,   99.510384,   634.762207,   -10.096036,   0.413736,   591.579041,   572.368958
-0.019136,   0.043774,   0.044760,   0.000000,   647.193237,   0.536039,   9.092217,   41.175499,   107.742149,   646.588501,   -18.061354,   0.418492,   600.831787,   578.752930
-0.020291,   0.047164,   0.048486,   0.000000,   658.967468,   0.536040,   9.092217,   40.433281,   116.479980,   657.724365,   -25.968811,   0.423358,   609.573914,   584.308594
-0.021385,   0.050528,   0.052203,   0.000000,   669.963440,   0.536039,   9.092217,   39.691059,   124.686562,   667.945068,   -33.174679,   0.427642,   617.831116,   589.491150
-0.022478,   0.053790,   0.055813,   0.000000,   679.916138,   0.536039,   9.092217,   38.948841,   131.939651,   677.056335,   -39.586617,   0.431156,   625.447083,   594.360046
-0.023405,   0.057083,   0.059491,   0.000000,   689.934631,   0.536040,   9.092217,   38.206623,   140.170837,   686.050110,   -46.212311,   0.435155,   632.894226,   598.528259
-0.024355,   0.060228,   0.062999,   0.000000,   698.783936,   0.536039,   9.092217,   37.464405,   147.037827,   693.900024,   -51.910267,   0.438218,   639.665405,   602.568970
-0.025225,   0.063377,   0.066535,   0.000000,   707.456482,   0.536039,   9.092217,   36.722187,   154.180405,   701.448853,   -57.653206,   0.441338,   646.238403,   606.225403
-0.026061,   0.066569,   0.070134,   0.000000,   715.809631,   0.536040,   9.092217,   35.979969,   160.919083,   708.666443,   -62.957878,   0.444128,   652.653198,   609.861938
-0.026880,   0.069815,   0.073808,   0.000000,   723.955688,   0.536039,   9.092217,   35.237751,   167.502167,   715.599182,   -68.191063,   0.446717,   658.957336,   613.442566
-0.027675,   0.073049,   0.077478,   0.000000,   731.696106,   0.536039,   9.092217,   34.495529,   173.664108,   722.090576,   -73.213448,   0.448985,   665.021362,   616.977661
-0.028456,   0.076257,   0.081123,   0.000000,   739.035706,   0.536039,   9.092217,   33.753311,   179.424225,   728.156006,   -78.028328,   0.450970,   670.835815,   620.458435
-0.029198,   0.079489,   0.084811,   0.000000,   746.108032,   0.536040,   9.092217,   33.011093,   184.839783,   733.891968,   -82.803925,   0.452675,   676.520630,   624.018188
-0.029935,   0.082777,   0.088569,   0.000000,   752.984680,   0.536039,   9.092217,   32.268875,   189.954132,   739.387329,   -87.496994,   0.454141,   682.124390,   627.684753
-0.030647,   0.086118,   0.092402,   0.000000,   759.656555,   0.536040,   9.092217,   31.526657,   194.716766,   744.602478,   -92.220573,   0.455322,   687.658936,   631.535889
-0.031408,   0.089492,   0.096265,   0.000000,   766.028625,   0.536040,   9.092217,   30.784437,   198.981476,   749.463562,   -96.918358,   0.456160,   693.065247,   635.602478
-0.032164,   0.092922,   0.100200,   0.000000,   772.191956,   0.536039,   9.092217,   30.042219,   202.832123,   754.049133,   -101.635651,   0.456696,   698.408936,   639.918213
-0.032934,   0.096421,   0.104217,   0.000000,   778.163635,   0.536040,   9.092217,   29.299999,   206.294357,   758.338440,   -106.477394,   0.456928,   703.708679,   644.517578
-0.033738,   0.100020,   0.108350,   0.000000,   783.982849,   0.536040,   9.092217,   28.557781,   209.345337,   762.377258,   -111.424416,   0.456847,   709.006775,   649.460510
-0.034566,   0.103704,   0.112581,   0.000000,   789.624023,   0.536039,   9.092217,   27.815563,   211.992142,   766.104370,   -116.557663,   0.456444,   714.286743,   654.747314
-0.035455,   0.107418,   0.116834,   0.000000,   794.946594,   0.536040,   9.092217,   27.073343,   214.064133,   769.392212,   -121.836311,   0.455646,   719.458740,   660.380432
-0.036367,   0.111215,   0.121186,   0.000000,   800.091064,   0.536040,   9.092217,   26.331125,   215.764984,   772.303406,   -127.424683,   0.454519,   724.625549,   666.377197
-0.037352,   0.115083,   0.125608,   0.000000,   804.961182,   0.536039,   9.092217,   25.588907,   216.874695,   774.785522,   -133.213684,   0.452969,   729.748962,   672.795959
-0.038407,   0.119022,   0.130101,   0.000000,   809.576111,   0.536040,   9.092217,   24.846687,   217.484863,   776.805542,   -139.295212,   0.451022,   734.841858,   679.601562
-0.039550,   0.123042,   0.134674,   0.000000,   813.930054,   0.536040,   9.092217,   24.104469,   217.601807,   778.304199,   -145.755676,   0.448655,   739.920105,   686.811951
-0.040798,   0.127141,   0.139324,   0.000000,   817.997742,   0.536039,   9.092217,   23.362249,   217.181992,   779.249390,   -152.579926,   0.445840,   744.983643,   694.420837
-0.042162,   0.131318,   0.144043,   0.000000,   821.757019,   0.536040,   9.092217,   22.620031,   216.225113,   779.591431,   -159.789230,   0.442567,   750.031067,   702.399170
-0.043653,   0.135565,   0.148825,   0.000000,   825.183899,   0.536039,   9.092217,   21.877813,   214.735672,   779.279175,   -167.399109,   0.438824,   755.060120,   710.705750
-0.045282,   0.139877,   0.153660,   0.000000,   828.254211,   0.536040,   9.092217,   21.135595,   212.722046,   778.263733,   -175.415955,   0.434604,   760.068115,   719.289307
-0.047061,   0.144245,   0.158539,   0.000000,   830.947754,   0.536040,   9.092217,   20.393375,   210.207779,   776.502258,   -183.838226,   0.429909,   765.052795,   728.083923
-0.048999,   0.148662,   0.163454,   0.000000,   833.245483,   0.536039,   9.092217,   19.651157,   207.220230,   773.956055,   -192.656906,   0.424745,   770.012268,   737.017700
-0.051104,   0.153121,   0.168396,   0.000000,   835.133423,   0.536040,   9.092217,   18.908939,   203.796707,   770.598816,   -201.849106,   0.419125,   774.944763,   746.009033
-0.053385,   0.157614,   0.173356,   0.000000,   836.605896,   0.536040,   9.092217,   18.166719,   199.989426,   766.423279,   -211.375031,   0.413078,   779.847473,   754.966187
-0.055849,   0.162133,   0.178330,   0.000000,   837.670776,   0.536039,   9.092217,   17.424501,   195.867844,   761.453186,   -221.171158,   0.406652,   784.717163,   763.789490
-0.058501,   0.166676,   0.183317,   0.000000,   838.360535,   0.536040,   9.092217,   16.682283,   191.525055,   755.759644,   -231.147507,   0.399924,   789.553772,   772.378540
-0.061370,   0.171283,   0.188366,   0.000000,   838.746582,   0.536040,   9.092217,   15.940063,   187.080658,   749.405273,   -241.289673,   0.392953,   794.399353,   780.700012
-0.064458,   0.175925,   0.193441,   0.000000,   838.892151,   0.536039,   9.092217,   15.197845,   182.625946,   742.671204,   -251.289764,   0.385926,   799.200439,   788.589355
-0.067729,   0.180566,   0.198516,   0.000000,   838.880371,   0.536039,   9.092217,   14.455626,   178.303619,   735.781616,   -260.968689,   0.379011,   803.920532,   795.948792
-0.071210,   0.185244,   0.203634,   0.000000,   838.900146,   0.536039,   9.092217,   13.713408,   174.334717,   729.077026,   -270.156677,   0.372429,   808.576721,   802.756104
-0.074913,   0.189984,   0.208829,   0.000000,   839.101868,   0.536040,   9.092217,   12.971189,   170.812805,   722.908447,   -278.658905,   0.366353,   813.169067,   809.026550
-0.078826,   0.194850,   0.214188,   0.000000,   839.720947,   0.536040,   9.092217,   12.228970,   168.017776,   717.569458,   -286.442902,   0.360984,   817.753052,   814.851562
-0.083039,   0.199911,   0.219784,   0.000000,   840.756836,   0.536039,   9.092217,   11.486752,   165.631912,   713.272827,   -293.372833,   0.356259,   822.346741,   820.352417
-0.087562,   0.205219,   0.225691,   0.000000,   842.225830,   0.536040,   9.092217,   10.744533,   163.668472,   709.864197,   -299.691467,   0.352082,   827.016968,   825.682190
-0.092451,   0.210856,   0.232014,   0.000000,   843.992737,   0.536039,   9.092217,   10.002314,   161.885696,   706.932739,   -305.760712,   0.348144,   831.857788,   831.023682
-0.097780,   0.216901,   0.238860,   0.000000,   845.851318,   0.536039,   9.092217,   9.260096,   160.009842,   703.889771,   -312.030640,   0.344057,   836.973145,   836.535156
-0.103634,   0.223425,   0.246328,   0.000000,   847.592834,   0.536039,   9.092217,   8.517877,   157.807449,   700.163269,   -318.896179,   0.339474,   842.451843,   842.307983
-0.110136,   0.230460,   0.254476,   0.000000,   848.959229,   0.536039,   9.092217,   7.775658,   154.951385,   695.256775,   -326.604828,   0.334069,   848.335449,   848.333435
-0.000400,   0.000182,   0.000000,   -79.636414,   14.267072,   0.536478,   10.004342,   50.404324,   -37.846828,   -27.522511,   -46.667099,   -0.248613,   87.645226,   -84.973625
-0.002032,   0.004320,   0.002557,   -8.974789,   413.174164,   0.536478,   10.004342,   49.676586,   -1.643192,   405.842560,   55.147743,   0.322533,   417.733856,   417.516876
-0.004268,   0.008565,   0.006978,   0.000000,   458.138794,   0.536478,   10.004342,   48.948853,   11.595657,   451.173065,   55.771843,   0.338399,   455.841461,   455.788544
-0.006355,   0.012720,   0.011349,   0.000000,   489.514160,   0.536478,   10.004342,   48.221115,   17.853765,   484.092682,   50.567703,   0.346109,   483.417938,   483.058075
-0.008416,   0.016763,   0.015639,   0.000000,   513.896240,   0.536476,   10.004342,   47.493382,   22.320028,   509.069641,   48.709869,   0.350491,   505.376678,   504.694794
-0.010408,   0.020865,   0.020003,   0.000000,   537.410400,   0.536478,   10.004342,   46.765648,   30.711561,   533.859436,   42.417801,   0.358897,   524.357971,   522.771851
-0.012516,   0.025101,   0.024520,   0.000000,   558.307007,   0.536478,   10.004342,   46.037910,   37.931561,   556.031250,   34.412827,   0.365722,   541.360474,   538.709106
-0.014448,   0.029313,   0.029023,   0.000000,   578.377563,   0.536478,   10.004342,   45.310177,   47.796165,   577.253357,   24.423332,   0.374386,   556.511353,   552.082458
-0.016269,   0.033423,   0.033434,   0.000000,   596.317749,   0.536478,   10.004342,   44.582439,   57.406429,   595.929260,   14.469166,   0.382100,   569.951843,   563.481689
-0.017948,   0.037441,   0.037766,   0.000000,   612.690430,   0.536478,   10.004342,   43.854706,   67.061188,   612.646362,   4.902060,   0.389239,   582.082520,   573.306580
-0.019555,   0.041338,   0.041982,   0.000000,   627.506897,   0.536478,   10.004342,   43.126968,   76.352631,   627.477051,   -4.056397,   0.395605,   593.040466,   581.837097
-0.020991,   0.045252,   0.046246,   0.000000,   641.721985,   0.536476,   10.004342,   42.399235,   86.087738,   641.422119,   -12.908447,   0.401882,   603.419189,   589.464966
-0.022410,   0.048908,   0.050233,   0.000000,   653.901733,   0.536478,   10.004342,   41.671501,   94.276184,   653.133240,   -20.737768,   0.406737,   612.524536,   596.148865
-0.023668,   0.052493,   0.054168,   0.000000,   665.488525,   0.536478,   10.004342,   40.943764,   102.732712,   664.067688,   -28.276852,   0.411554,   621.061279,   602.047913
-0.024926,   0.056030,   0.058059,   0.000000,   676.138977,   0.536478,   10.004342,   40.216030,   110.353363,   673.965759,   -35.065422,   0.415601,   629.064453,   607.606079
-0.025980,   0.059532,   0.061947,   0.000000,   686.749451,   0.536478,   10.004342,   39.488293,   119.066681,   683.634949,   -42.048378,   0.420213,   636.741394,   612.308899
-0.027048,   0.062831,   0.065605,   0.000000,   695.987671,   0.536478,   10.004342,   38.760559,   126.298409,   691.945190,   -47.989052,   0.423766,   643.627808,   616.687195
-0.028043,   0.066172,   0.069333,   0.000000,   705.161011,   0.536478,   10.004342,   38.032822,   133.932770,   700.082153,   -53.862755,   0.427451,   650.378845,   620.678162
-0.028954,   0.069520,   0.073091,   0.000000,   714.016357,   0.536476,   10.004342,   37.305088,   141.404877,   707.871948,   -59.315662,   0.430942,   656.914429,   624.419922
-0.029816,   0.072786,   0.076770,   0.000000,   722.385742,   0.536478,   10.004342,   36.577354,   148.688446,   715.117188,   -64.575043,   0.434236,   663.084473,   627.794189
-0.030692,   0.075978,   0.080363,   0.000000,   730.092407,   0.536478,   10.004342,   35.849617,   155.146286,   721.764771,   -69.195053,   0.437005,   668.879272,   631.078979
-0.031492,   0.079197,   0.084008,   0.000000,   737.705261,   0.536478,   10.004342,   35.121883,   161.779633,   728.233643,   -73.857735,   0.439791,   674.572754,   634.131226
-0.032270,   0.082430,   0.087679,   0.000000,   745.061523,   0.536478,   10.004342,   34.394146,   168.166702,   734.434570,   -78.298401,   0.442376,   680.116638,   637.094055
-0.032993,   0.085685,   0.091393,   0.000000,   752.189270,   0.536478,   10.004342,   33.666412,   174.292450,   740.390259,   -82.574989,   0.444750,   685.541382,   640.024353
-0.033761,   0.088959,   0.095123,   0.000000,   759.008545,   0.536476,   10.004342,   32.938675,   179.987701,   746.013428,   -86.743462,   0.446813,   690.819519,   643.012146
-0.034516,   0.092286,   0.098924,   0.000000,   765.648193,   0.536479,   10.004342,   32.210941,   185.384293,   751.435669,   -90.812996,   0.448648,   696.031311,   646.079468
-0.035288,   0.095727,   0.102862,   0.000000,   772.193237,   0.536477,   10.004342,   31.483206,   190.468750,   756.732483,   -94.836159,   0.450236,   701.263245,   649.347046
-0.036061,   0.099280,   0.106936,   0.000000,   778.658020,   0.536479,   10.004342,   30.755470,   195.306564,   761.885803,   -98.914574,   0.451602,   706.516541,   652.806946
-0.036835,   0.102870,   0.111057,   0.000000,   784.890137,   0.536478,   10.004342,   30.027735,   199.750763,   766.766846,   -102.978889,   0.452695,   711.676514,   656.424377
-0.037623,   0.106530,   0.115260,   0.000000,   790.929260,   0.536477,   10.004342,   29.299999,   203.784821,   771.392700,   -107.101692,   0.453492,   716.790833,   660.286499
-0.038466,   0.110264,   0.119541,   0.000000,   796.748352,   0.536478,   10.004342,   28.572264,   207.321533,   775.741516,   -111.274323,   0.453952,   721.855347,   664.451172
-0.039313,   0.114110,   0.123959,   0.000000,   802.468933,   0.536478,   10.004342,   27.844528,   210.560196,   779.877197,   -115.638412,   0.454155,   726.945496,   668.913208
-0.040218,   0.118063,   0.128490,   0.000000,   807.992188,   0.536478,   10.004342,   27.116795,   213.246338,   783.746399,   -120.083580,   0.453988,   732.025696,   673.772827
-0.041188,   0.122142,   0.133162,   0.000000,   813.378723,   0.536477,   10.004342,   26.389059,   215.530884,   787.335266,   -124.779854,   0.453498,   737.133240,   679.018555
-0.042235,   0.126350,   0.137971,   0.000000,   818.577393,   0.536478,   10.004342,   25.661324,   217.260834,   790.617798,   -129.663315,   0.452619,   742.257507,   684.715637
-0.043367,   0.130688,   0.142916,   0.000000,   823.586548,   0.536478,   10.004342,   24.933588,   218.477737,   793.547302,   -134.822144,   0.451353,   747.401184,   690.856140
-0.044606,   0.135162,   0.148004,   0.000000,   828.392090,   0.536477,   10.004342,   24.205853,   219.155624,   796.081848,   -140.301804,   0.449675,   752.571228,   697.462830
-0.045969,   0.139780,   0.153238,   0.000000,   832.970764,   0.536478,   10.004342,   23.478117,   219.253296,   798.180420,   -146.121353,   0.447556,   757.769531,   704.547913
-0.047473,   0.144541,   0.158615,   0.000000,   837.299561,   0.536478,   10.004342,   22.750381,   218.755722,   799.795288,   -152.309052,   0.444980,   762.994690,   712.099182
-0.049136,   0.149444,   0.164130,   0.000000,   841.350952,   0.536477,   10.004342,   22.022648,   217.648300,   800.873596,   -158.889435,   0.441927,   768.243530,   720.093811
-0.050972,   0.154484,   0.169777,   0.000000,   845.093262,   0.536478,   10.004342,   21.294912,   215.916885,   801.358765,   -165.881668,   0.438380,   773.511047,   728.497375
-0.052999,   0.159655,   0.175546,   0.000000,   848.496826,   0.536478,   10.004342,   20.567177,   213.563858,   801.196777,   -173.298492,   0.434331,   778.791504,   737.256592
-0.055230,   0.164949,   0.181427,   0.000000,   851.529236,   0.536478,   10.004342,   19.839441,   210.589630,   800.333496,   -181.144608,   0.429771,   784.078979,   746.309875
-0.057681,   0.170357,   0.187409,   0.000000,   854.162231,   0.536477,   10.004342,   19.111706,   207.008926,   798.722534,   -189.414825,   0.424699,   789.367859,   755.580811
-0.060364,   0.175870,   0.193482,   0.000000,   856.370544,   0.536478,   10.004342,   18.383970,   202.843216,   796.326111,   -198.092590,   0.419122,   794.652954,   764.983521
-0.063290,   0.181477,   0.199638,   0.000000,   858.135315,   0.536478,   10.004342,   17.656237,   198.126953,   793.118896,   -207.150604,   0.413055,   799.929871,   774.423157
-0.066469,   0.187169,   0.205866,   0.000000,   859.443909,   0.536477,   10.004342,   16.928501,   192.903915,   789.092957,   -216.544937,   0.406527,   805.192932,   783.797363
-0.070001,   0.192992,   0.212207,   0.000000,   860.298279,   0.536478,   10.004342,   16.200766,   187.109909,   784.336365,   -226.134155,   0.399545,   810.460693,   793.041687
-0.073759,   0.198901,   0.218646,   0.000000,   860.815247,   0.536477,   10.004342,   15.473030,   181.202820,   778.832764,   -236.043076,   0.392295,   815.743347,   801.999084
-0.077797,   0.204839,   0.225104,   0.000000,   860.930359,   0.536478,   10.004342,   14.745295,   174.979507,   772.829651,   -245.830780,   0.384844,   820.946045,   810.506775
-0.082120,   0.210847,   0.231639,   0.000000,   860.827515,   0.536477,   10.004342,   14.017559,   168.767715,   766.538818,   -255.447479,   0.377394,   826.109924,   818.505249
-0.086740,   0.216930,   0.238264,   0.000000,   860.633667,   0.536478,   10.004342,   13.289824,   162.670670,   760.311707,   -264.614807,   0.370134,   831.214905,   825.929260
-0.091667,   0.223129,   0.245035,   0.000000,   860.568176,   0.536478,   10.004342,   12.562089,   156.969711,   754.491089,   -273.195312,   0.363298,   836.284058,   832.789246
-0.096941,   0.229495,   0.252012,   0.000000,   860.785461,   0.536478,   10.004342,   11.834353,   151.655609,   749.530518,   -280.881134,   0.357055,   841.312988,   839.126282
-0.102581,   0.236092,   0.259282,   0.000000,   861.459839,   0.536478,   10.004342,   11.106618,   146.884399,   745.687195,   -287.625275,   0.351545,   846.332947,   845.044922
-0.108647,   0.243025,   0.266975,   0.000000,   862.679993,   0.536478,   10.004342,   10.378882,   142.596832,   743.048218,   -293.504364,   0.346729,   851.429749,   850.732544
-0.115219,   0.250410,   0.275238,   0.000000,   864.373596,   0.536478,   10.004342,   9.651148,   138.595230,   741.354309,   -298.805511,   0.342383,   856.691833,   856.373230
-0.122400,   0.258361,   0.284220,   0.000000,   866.342773,   0.536478,   10.004342,   8.923412,   134.551987,   740.086853,   -303.962006,   0.338133,   862.224670,   862.134827
-0.130304,   0.266963,   0.294044,   0.000000,   868.314331,   0.536478,   10.004342,   8.195677,   130.057129,   738.670349,   -309.371307,   0.333571,   868.107849,   868.107544
-0.000236,   0.000565,   0.000000,   -15.306360,   114.164635,   0.536501,   10.934303,   50.023975,   -15.227798,   114.086075,   -3.188299,   0.268921,   122.536903,   120.357956
-0.003430,   0.006627,   0.004966,   -15.392726,   430.534760,   0.536499,   10.934303,   49.309357,   -12.147675,   427.289703,   37.901546,   0.315625,   438.433838,   437.825256
-0.006134,   0.011803,   0.010393,   -1.130824,   476.384430,   0.536501,   10.934303,   48.594734,   3.092902,   472.160706,   44.710777,   0.332147,   476.950867,   476.947876
-0.008859,   0.016790,   0.015682,   0.000000,   505.946381,   0.536501,   10.934303,   47.880116,   6.906674,   501.519165,   47.003716,   0.335787,   504.711212,   504.697479
-0.011578,   0.022009,   0.021231,   0.000000,   533.767029,   0.536499,   10.934303,   47.165497,   14.240734,   530.739685,   39.658329,   0.343891,   528.249573,   527.981689
-0.014264,   0.027286,   0.026856,   0.000000,   558.813965,   0.536499,   10.934303,   46.450878,   23.052446,   557.060791,   30.647631,   0.352562,   548.474548,   547.542908
-0.016788,   0.032348,   0.032263,   0.000000,   580.836670,   0.536501,   10.934303,   45.736256,   32.822506,   580.001221,   21.396872,   0.361214,   565.521973,   563.481201
-0.018881,   0.037203,   0.037476,   0.000000,   601.189148,   0.536501,   10.934303,   45.021637,   44.423206,   600.974060,   10.942977,   0.370695,   580.349243,   576.542664
-0.020961,   0.041770,   0.042389,   0.000000,   618.026489,   0.536501,   10.934303,   44.307014,   53.597412,   618.020142,   1.888680,   0.377494,   593.049744,   587.565002
-0.022719,   0.046244,   0.047235,   0.000000,   634.175049,   0.536499,   10.934303,   43.592396,   64.119568,   634.078552,   -7.415997,   0.384866,   604.710754,   597.014221
-0.024514,   0.050466,   0.051813,   0.000000,   647.686401,   0.536501,   10.934303,   42.877777,   72.218689,   647.282288,   -15.249477,   0.390016,   614.932251,   605.390015
-0.026022,   0.054579,   0.056303,   0.000000,   660.953735,   0.536499,   10.934303,   42.163158,   81.835464,   660.001770,   -23.479851,   0.395993,   624.453186,   612.501709
-0.027453,   0.058593,   0.060706,   0.000000,   673.048889,   0.536501,   10.934303,   41.448536,   90.614090,   671.407410,   -30.920267,   0.401105,   633.267761,   618.971558
-0.028751,   0.062430,   0.064934,   0.000000,   684.176697,   0.536499,   10.934303,   40.733917,   99.124184,   681.711670,   -37.975807,   0.405840,   641.333557,   624.630005
-0.029985,   0.066015,   0.068890,   0.000000,   693.954590,   0.536501,   10.934303,   40.019299,   106.553085,   690.622192,   -44.243332,   0.409732,   648.534546,   629.655090
-0.031124,   0.069618,   0.072888,   0.000000,   703.609863,   0.536501,   10.934303,   39.304676,   114.398796,   699.295593,   -50.418453,   0.413755,   655.537048,   634.239441
-0.032160,   0.073196,   0.076882,   0.000000,   712.862427,   0.536499,   10.934303,   38.590057,   122.076744,   707.527100,   -56.143005,   0.417566,   662.254333,   638.486206
-0.033169,   0.076576,   0.080658,   0.000000,   721.277893,   0.536501,   10.934303,   37.875439,   129.211212,   714.918884,   -61.359322,   0.420987,   668.374084,   642.230774
-0.034081,   0.079908,   0.084401,   0.000000,   729.384277,   0.536499,   10.934303,   37.160820,   136.321762,   721.965210,   -66.332237,   0.424324,   674.238586,   645.636658
-0.034901,   0.083238,   0.088161,   0.000000,   737.316956,   0.536501,   10.934303,   36.446198,   143.529495,   728.790161,   -71.155579,   0.427644,   679.942810,   648.752625
-0.035763,   0.086496,   0.091836,   0.000000,   744.673706,   0.536499,   10.934303,   35.731579,   150.034286,   735.107727,   -75.420883,   0.430523,   685.322754,   651.742371
-0.036590,   0.089772,   0.095545,   0.000000,   751.873535,   0.536501,   10.934303,   35.016960,   156.510620,   741.235535,   -79.583061,   0.433323,   690.590210,   654.566833
-0.037394,   0.093070,   0.099289,   0.000000,   758.882080,   0.536501,   10.934303,   34.302338,   162.820786,   747.175903,   -83.531975,   0.435983,   695.743835,   657.280884
-0.038197,   0.096441,   0.103126,   0.000000,   765.775513,   0.536501,   10.934303,   33.587719,   168.946991,   753.010254,   -87.285088,   0.438489,   700.860046,   659.980469
-0.038987,   0.099900,   0.107074,   0.000000,   772.597168,   0.536498,   10.934303,   32.873100,   174.953461,   758.751099,   -90.967049,   0.440863,   705.968018,   662.686340
-0.039768,   0.103385,   0.111057,   0.000000,   779.200684,   0.536502,   10.934303,   32.158482,   180.664978,   764.280579,   -94.499870,   0.443032,   710.968750,   665.384766
-0.040584,   0.106884,   0.115052,   0.000000,   785.519836,   0.536500,   10.934303,   31.443859,   185.933136,   769.543823,   -97.872337,   0.444923,   715.836670,   668.141113
-0.041358,   0.110466,   0.119159,   0.000000,   791.780579,   0.536500,   10.934303,   30.729240,   191.100586,   774.686523,   -101.331406,   0.446685,   720.707764,   670.959351
-0.042149,   0.114145,   0.123380,   0.000000,   797.923950,   0.536501,   10.934303,   30.014620,   195.953735,   779.697266,   -104.746857,   0.448221,   725.573425,   673.938721
-0.042969,   0.117937,   0.127731,   0.000000,   803.957825,   0.536499,   10.934303,   29.299999,   200.465317,   784.573853,   -108.157608,   0.449513,   730.449768,   677.130859
-0.043837,   0.121851,   0.132219,   0.000000,   809.852417,   0.536501,   10.934303,   28.585381,   204.517212,   789.289490,   -111.568161,   0.450498,   735.339539,   680.622070
-0.044749,   0.125912,   0.136875,   0.000000,   815.680481,   0.536500,   10.934303,   27.870760,   208.269577,   793.866821,   -115.107979,   0.451243,   740.278320,   684.391052
-0.045717,   0.130122,   0.141697,   0.000000,   821.390320,   0.536501,   10.934303,   27.156141,   211.557739,   798.283142,   -118.707687,   0.451676,   745.254456,   688.518738
-0.046754,   0.134496,   0.146700,   0.000000,   826.997437,   0.536499,   10.934303,   26.441521,   214.419907,   802.509949,   -122.476418,   0.451798,   750.283569,   693.030334
-0.047880,   0.139051,   0.151899,   0.000000,   832.490479,   0.536501,   10.934303,   25.726900,   216.785522,   806.543579,   -126.394722,   0.451578,   755.373047,   697.975891
-0.049107,   0.143797,   0.157306,   0.000000,   837.864868,   0.536500,   10.934303,   25.012281,   218.650589,   810.349915,   -130.528381,   0.451002,   760.529114,   703.380554
-0.050456,   0.148745,   0.162927,   0.000000,   843.102417,   0.536500,   10.934303,   24.297661,   219.969803,   813.894287,   -134.909348,   0.450042,   765.754578,   709.277954
-0.051948,   0.153906,   0.168772,   0.000000,   848.181458,   0.536500,   10.934303,   23.583042,   220.697708,   817.135376,   -139.574081,   0.448666,   771.051575,   715.697021
-0.053606,   0.159289,   0.174845,   0.000000,   853.079102,   0.536501,   10.934303,   22.868422,   220.800064,   820.029053,   -144.557495,   0.446850,   776.420288,   722.649719
-0.055452,   0.164897,   0.181148,   0.000000,   857.760620,   0.536499,   10.934303,   22.153801,   220.253159,   822.518494,   -149.890335,   0.444575,   781.848572,   730.119873
-0.057509,   0.170732,   0.187680,   0.000000,   862.205933,   0.536501,   10.934303,   21.439182,   219.016449,   824.560547,   -155.605652,   0.441812,   787.347046,   738.117126
-0.059799,   0.176791,   0.194432,   0.000000,   866.373840,   0.536500,   10.934303,   20.724562,   217.076477,   826.091309,   -161.726196,   0.438545,   792.899841,   746.596130
-0.062344,   0.183067,   0.201396,   0.000000,   870.222778,   0.536501,   10.934303,   20.009941,   214.408936,   827.047974,   -168.269577,   0.434757,   798.496704,   755.512390
-0.065165,   0.189551,   0.208559,   0.000000,   873.709412,   0.536499,   10.934303,   19.295322,   210.997238,   827.365906,   -175.249557,   0.430431,   804.126526,   764.806885
-0.068285,   0.196230,   0.215904,   0.000000,   876.791626,   0.536501,   10.934303,   18.580702,   206.836639,   826.984863,   -182.669861,   0.425558,   809.777405,   774.402588
-0.071721,   0.203089,   0.223417,   0.000000,   879.430725,   0.536500,   10.934303,   17.866083,   201.935104,   825.853882,   -190.520569,   0.420138,   815.437195,   784.206482
-0.075492,   0.210115,   0.231081,   0.000000,   881.598938,   0.536500,   10.934303,   17.151463,   196.320908,   823.942078,   -198.773727,   0.414188,   821.095825,   794.110291
-0.079698,   0.217360,   0.238941,   0.000000,   883.252686,   0.536500,   10.934303,   16.436844,   189.789948,   821.359741,   -207.172516,   0.407677,   826.757263,   804.047913
-0.084203,   0.224763,   0.246981,   0.000000,   884.468750,   0.536500,   10.934303,   15.722223,   182.910645,   817.759033,   -216.334839,   0.400681,   832.473145,   813.927185
-0.089097,   0.232224,   0.255054,   0.000000,   885.118042,   0.536501,   10.934303,   15.007604,   175.370987,   813.467285,   -225.508148,   0.393293,   838.085449,   823.460205
-0.094361,   0.239786,   0.263232,   0.000000,   885.303284,   0.536500,   10.934303,   14.292984,   167.428955,   808.467896,   -234.857697,   0.385580,   843.662415,   832.613770
-0.100016,   0.247442,   0.271513,   0.000000,   885.113281,   0.536501,   10.934303,   13.578364,   159.195526,   803.050110,   -244.071899,   0.377716,   849.178406,   841.243103
-0.106083,   0.255210,   0.279926,   0.000000,   884.686462,   0.536500,   10.934303,   12.863744,   150.879715,   797.459106,   -252.998093,   0.369879,   854.639893,   849.282349
-0.112579,   0.263101,   0.288498,   0.000000,   884.186401,   0.536500,   10.934303,   12.149125,   142.640884,   792.081787,   -261.342194,   0.362282,   860.032532,   856.682373
-0.119508,   0.271148,   0.297277,   0.000000,   883.841370,   0.536500,   10.934303,   11.434505,   134.726898,   787.348083,   -268.857788,   0.355180,   865.358276,   863.454895
-0.126903,   0.279426,   0.306362,   0.000000,   883.894958,   0.536500,   10.934303,   10.719885,   127.331375,   783.705933,   -275.316833,   0.348799,   870.641113,   869.688416
-0.134827,   0.288053,   0.315901,   0.000000,   884.528870,   0.536500,   10.934303,   10.005265,   120.533920,   781.433350,   -280.650024,   0.343238,   875.939880,   875.549133
-0.143373,   0.297177,   0.326080,   0.000000,   885.785217,   0.536500,   10.934303,   9.290645,   114.225754,   780.507935,   -285.004669,   0.338397,   881.344971,   881.242798
-0.152670,   0.306959,   0.337105,   0.000000,   887.529602,   0.536500,   10.934303,   8.576026,   108.092506,   780.565063,   -288.742310,   0.333969,   886.966125,   886.964478
-0.000456,   0.001301,   0.000000,   -15.129766,   268.726654,   0.536220,   11.880316,   49.684025,   -10.086642,   263.683533,   37.497868,   0.305610,   276.602051,   275.668762
-0.004492,   0.008487,   0.006915,   -15.648196,   445.134857,   0.536219,   11.880316,   48.981129,   -13.323701,   442.810364,   32.644829,   0.315919,   453.161621,   452.553131
-0.008463,   0.015389,   0.014222,   -17.182364,   487.549561,   0.536220,   11.880316,   48.278233,   -13.825843,   484.193054,   41.022881,   0.315875,   496.363861,   495.694092
-0.012235,   0.022272,   0.021532,   -4.292833,   526.265320,   0.536220,   11.880316,   47.575333,   -1.831242,   523.803711,   36.054932,   0.329263,   528.424805,   528.385498
-0.015724,   0.028821,   0.028511,   0.000000,   557.138428,   0.536220,   11.880316,   46.872437,   9.673326,   555.736328,   27.705381,   0.340783,   553.049194,   552.909973
-0.018929,   0.035040,   0.035153,   0.000000,   582.738098,   0.536219,   11.880316,   46.169540,   20.559969,   582.161499,   18.003746,   0.350619,   573.007751,   572.222961
-0.021495,   0.040857,   0.041394,   0.000000,   605.381958,   0.536220,   11.880316,   45.466640,   32.879055,   605.292542,   7.154853,   0.360750,   589.671265,   587.614868
-0.024022,   0.046225,   0.047169,   0.000000,   623.683655,   0.536220,   11.880316,   44.763744,   42.485497,   623.677979,   -1.817758,   0.367904,   603.565979,   600.188782
-0.026101,   0.051398,   0.052768,   0.000000,   640.848572,   0.536220,   11.880316,   44.060844,   53.244305,   640.648438,   -10.844881,   0.375458,   616.041626,   610.872009
-0.028151,   0.056218,   0.057995,   0.000000,   655.358398,   0.536219,   11.880316,   43.357948,   62.165733,   654.763123,   -18.791204,   0.381237,   626.845154,   619.987427
-0.029892,   0.060850,   0.063049,   0.000000,   668.969910,   0.536220,   11.880316,   42.655052,   71.554398,   667.782166,   -26.637592,   0.387061,   636.709534,   627.872192
-0.031560,   0.065172,   0.067778,   0.000000,   680.750977,   0.536219,   11.880316,   41.952156,   79.568184,   678.874939,   -33.583401,   0.391704,   645.421509,   634.773376
-0.032969,   0.069311,   0.072332,   0.000000,   692.008057,   0.536220,   11.880316,   41.249256,   88.216171,   689.299744,   -40.438465,   0.396613,   653.463562,   640.695679
-0.034340,   0.073331,   0.076768,   0.000000,   702.330994,   0.536219,   11.880316,   40.546360,   96.135315,   698.727600,   -46.737236,   0.400874,   660.940979,   646.127197
-0.035556,   0.077270,   0.081142,   0.000000,   712.175720,   0.536220,   11.880316,   39.843464,   104.027802,   707.609741,   -52.695419,   0.404996,   668.021484,   651.049744
-0.036726,   0.080953,   0.085236,   0.000000,   721.030823,   0.536220,   11.880316,   39.140564,   111.294823,   715.487671,   -58.136425,   0.408649,   674.402405,   655.358154
-0.037779,   0.084553,   0.089257,   0.000000,   729.490845,   0.536219,   11.880316,   38.437668,   118.509483,   722.912231,   -63.398689,   0.412180,   680.465149,   659.274963
-0.038702,   0.088087,   0.093228,   0.000000,   737.594116,   0.536220,   11.880316,   37.734772,   125.603188,   729.962646,   -68.340378,   0.415572,   686.255920,   662.864319
-0.039672,   0.091522,   0.097085,   0.000000,   745.175476,   0.536220,   11.880316,   37.031872,   132.295853,   736.495667,   -72.936218,   0.418673,   691.702087,   666.167297
-0.040628,   0.095014,   0.101017,   0.000000,   752.633118,   0.536220,   11.880316,   36.328976,   138.905609,   742.912781,   -77.237625,   0.421674,   697.077026,   669.345459
-0.041524,   0.098546,   0.105013,   0.000000,   759.996399,   0.536219,   11.880316,   35.626076,   145.540558,   749.236084,   -81.312675,   0.424645,   702.372986,   672.348511
-0.042387,   0.102023,   0.108955,   0.000000,   767.049316,   0.536220,   11.880316,   34.923180,   151.985764,   755.264038,   -85.139290,   0.427476,   707.446228,   675.120178
-0.043231,   0.105498,   0.112904,   0.000000,   773.881226,   0.536220,   11.880316,   34.220284,   158.241135,   761.098999,   -88.708900,   0.430174,   712.378113,   677.746826
-0.044103,   0.108952,   0.116825,   0.000000,   780.413879,   0.536220,   11.880316,   33.517384,   164.156784,   766.680298,   -91.996803,   0.432666,   717.133606,   680.266418
-0.044905,   0.112441,   0.120803,   0.000000,   786.884399,   0.536219,   11.880316,   32.814487,   170.124985,   772.179199,   -95.234306,   0.435143,   721.834473,   682.648804
-0.045712,   0.115989,   0.124856,   0.000000,   793.235352,   0.536220,   11.880316,   32.111591,   175.903976,   777.581604,   -98.303337,   0.437486,   726.489014,   685.008850
-0.046532,   0.119601,   0.128984,   0.000000,   799.420776,   0.536220,   11.880316,   31.408693,   181.335266,   782.864563,   -101.159050,   0.439615,   731.093628,   687.425110
-0.047367,   0.123314,   0.133233,   0.000000,   805.560974,   0.536220,   11.880316,   30.705795,   186.652725,   788.082703,   -104.006897,   0.441631,   735.709229,   689.879761
-0.048231,   0.127146,   0.137618,   0.000000,   811.625977,   0.536220,   11.880316,   30.002897,   191.705185,   793.233032,   -106.780945,   0.443460,   740.343933,   692.459595
-0.049126,   0.131104,   0.142150,   0.000000,   817.614746,   0.536220,   11.880316,   29.299999,   196.467682,   798.311523,   -109.499519,   0.445090,   745.002563,   695.196533
-0.050059,   0.135205,   0.146844,   0.000000,   823.519897,   0.536220,   11.880316,   28.597103,   200.871536,   803.310425,   -112.175758,   0.446484,   749.696655,   698.154297
-0.051048,   0.139476,   0.151730,   0.000000,   829.378235,   0.536220,   11.880316,   27.894205,   204.963547,   808.238281,   -114.891632,   0.447654,   754.453491,   701.362244
-0.052102,   0.143936,   0.156828,   0.000000,   835.184326,   0.536220,   11.880316,   27.191309,   208.677109,   813.100891,   -117.624107,   0.448572,   759.282532,   704.873535
-0.053233,   0.148602,   0.162154,   0.000000,   840.930786,   0.536220,   11.880316,   26.488411,   211.994720,   817.870667,   -120.429871,   0.449221,   764.185852,   708.722107
-0.054460,   0.153494,   0.167730,   0.000000,   846.627075,   0.536220,   11.880316,   25.785513,   214.865738,   822.553101,   -123.324722,   0.449573,   769.187439,   712.974121
-0.055801,   0.158635,   0.173576,   0.000000,   852.268005,   0.536220,   11.880316,   25.082615,   217.273376,   827.127747,   -126.348434,   0.449616,   774.291260,   717.657898
-0.057277,   0.164043,   0.179709,   0.000000,   857.841431,   0.536220,   11.880316,   24.379717,   219.171188,   831.570862,   -129.530838,   0.449322,   779.502686,   722.815796
-0.058913,   0.169734,   0.186146,   0.000000,   863.331116,   0.536220,   11.880316,   23.676821,   220.515060,   835.850830,   -132.908844,   0.448663,   784.824890,   728.484375
-0.060733,   0.175726,   0.192899,   0.000000,   868.716553,   0.536220,   11.880316,   22.973923,   221.261276,   839.930115,   -136.520828,   0.447613,   790.258789,   734.692383
-0.062766,   0.182029,   0.199977,   0.000000,   873.971741,   0.536220,   11.880316,   22.271025,   221.365891,   843.764282,   -140.405060,   0.446145,   795.802185,   741.459290
-0.065041,   0.188654,   0.207385,   0.000000,   879.065308,   0.536220,   11.880316,   21.568127,   220.787476,   847.302734,   -144.598038,   0.444233,   801.449341,   748.790710
-0.067586,   0.195602,   0.215122,   0.000000,   883.958313,   0.536220,   11.880316,   20.865231,   219.481857,   850.487549,   -149.132660,   0.441849,   807.190430,   756.680603
-0.070432,   0.202871,   0.223182,   0.000000,   888.608154,   0.536220,   11.880316,   20.162333,   217.413712,   853.256592,   -154.038284,   0.438972,   813.012451,   765.103516
-0.073606,   0.210454,   0.231550,   0.000000,   892.966736,   0.536219,   11.880316,   19.459436,   214.549469,   855.542542,   -159.339905,   0.435581,   818.899231,   774.019226
-0.077137,   0.218335,   0.240209,   0.000000,   896.980896,   0.536220,   11.880316,   18.756538,   210.858032,   857.272278,   -165.060562,   0.431655,   824.832764,   783.373474
-0.081050,   0.226495,   0.249134,   0.000000,   900.594360,   0.536220,   11.880316,   18.053640,   206.312943,   858.368896,   -171.220154,   0.427174,   830.793945,   793.097412
-0.085368,   0.234907,   0.258294,   0.000000,   903.746155,   0.536220,   11.880316,   17.350744,   200.893768,   858.750610,   -177.834778,   0.422122,   836.760925,   803.105713
-0.090187,   0.243494,   0.267576,   0.000000,   906.262451,   0.536220,   11.880316,   16.647846,   194.324768,   858.376648,   -184.639359,   0.416429,   842.640991,   813.270630
-0.095418,   0.252313,   0.277109,   0.000000,   908.295288,   0.536220,   11.880316,   15.944948,   187.111313,   857.027588,   -192.284851,   0.410157,   848.568054,   823.570801
-0.101119,   0.261358,   0.286853,   0.000000,   909.814514,   0.536220,   11.880316,   15.242051,   179.120667,   854.999451,   -200.132492,   0.403416,   854.470154,   833.763489
-0.107293,   0.270503,   0.296687,   0.000000,   910.687439,   0.536220,   11.880316,   14.539153,   170.371597,   851.992737,   -208.452957,   0.396126,   860.302612,   843.763855
-0.113931,   0.279714,   0.306578,   0.000000,   910.940308,   0.536220,   11.880316,   13.836256,   160.935638,   848.193665,   -216.933807,   0.388412,   866.030579,   853.372864
-0.121080,   0.289014,   0.316567,   0.000000,   910.649048,   0.536220,   11.880316,   13.133358,   150.949493,   843.742188,   -225.453094,   0.380377,   871.671692,   862.485962
-0.128752,   0.298381,   0.326644,   0.000000,   909.888184,   0.536220,   11.880316,   12.430461,   140.583008,   838.775208,   -233.896500,   0.372145,   877.218689,   870.997559
-0.136934,   0.307790,   0.336799,   0.000000,   908.814331,   0.536220,   11.880316,   11.727564,   130.081100,   833.627319,   -241.972321,   0.363946,   882.648438,   878.795471
-0.145629,   0.317251,   0.347061,   0.000000,   907.636230,   0.536220,   11.880316,   11.024666,   119.694756,   828.710632,   -249.376755,   0.356027,   887.953918,   885.844482
-0.154853,   0.326819,   0.357512,   0.000000,   906.641785,   0.536220,   11.880316,   10.321769,   109.716583,   824.558289,   -255.762436,   0.348683,   893.145935,   892.183289
-0.164657,   0.336615,   0.368305,   0.000000,   906.138184,   0.536220,   11.880316,   9.618871,   100.414749,   821.667236,   -260.883514,   0.342169,   898.272400,   897.953979
-0.175134,   0.346820,   0.379665,   0.000000,   906.346924,   0.536220,   11.880316,   8.915974,   91.901794,   820.323669,   -264.690826,   0.336582,   903.422058,   903.379028
-0.001714,   0.003619,   0.001850,   -21.344179,   398.972565,   0.535738,   12.840565,   49.385132,   -11.868476,   389.496857,   62.393974,   0.306969,   410.061493,   408.808868
-0.006516,   0.011821,   0.010453,   -16.061697,   468.497589,   0.535738,   12.840565,   48.692539,   -10.735108,   463.170990,   50.524010,   0.316346,   476.731384,   476.122009
-0.011700,   0.020740,   0.019911,   -10.276484,   516.532593,   0.535738,   12.840565,   47.999950,   -7.819645,   514.075745,   35.892178,   0.323437,   521.746765,   521.518982
-0.016370,   0.029165,   0.028893,   -1.911614,   552.630554,   0.535738,   12.840565,   47.307358,   -0.919138,   551.638062,   23.438967,   0.331605,   553.588806,   553.581360
-0.020518,   0.036991,   0.037258,   0.000000,   582.773376,   0.535738,   12.840565,   46.614769,   9.894139,   582.472290,   13.133275,   0.341597,   578.036560,   577.857300
-0.023800,   0.043957,   0.044730,   0.000000,   607.923462,   0.535738,   12.840565,   45.922176,   22.409822,   607.904541,   3.326799,   0.351909,   597.042969,   596.097168
-0.026788,   0.050316,   0.051575,   0.000000,   628.585510,   0.535738,   12.840565,   45.229588,   33.377228,   628.532593,   -5.613811,   0.360162,   612.603577,   610.559265
-0.029451,   0.056323,   0.058066,   0.000000,   646.327148,   0.535738,   12.840565,   44.536995,   43.043213,   646.018982,   -13.634826,   0.366881,   626.054504,   622.760254
-0.031769,   0.061912,   0.064131,   0.000000,   662.347107,   0.535738,   12.840565,   43.844406,   53.182209,   661.553406,   -21.988199,   0.373561,   637.768677,   632.900574
-0.033934,   0.067150,   0.069832,   0.000000,   676.065857,   0.535738,   12.840565,   43.151814,   61.632561,   674.695129,   -29.021046,   0.378746,   648.039795,   641.690552
-0.035702,   0.072125,   0.075283,   0.000000,   689.195007,   0.535739,   12.840565,   42.459225,   71.180305,   687.045715,   -36.446011,   0.384455,   657.403442,   649.174316
-0.037435,   0.076757,   0.080366,   0.000000,   700.425903,   0.535737,   12.840565,   41.766632,   79.010452,   697.478394,   -42.797668,   0.388831,   665.661804,   655.777832
-0.038944,   0.081219,   0.085291,   0.000000,   711.054504,   0.535738,   12.840565,   41.074043,   86.992287,   707.227051,   -48.873123,   0.393177,   673.335144,   661.632324
-0.040365,   0.085463,   0.089988,   0.000000,   720.835510,   0.535738,   12.840565,   40.381451,   94.621765,   716.083435,   -54.550976,   0.397190,   680.366943,   666.817139
-0.041639,   0.089550,   0.094531,   0.000000,   730.022705,   0.535738,   12.840565,   39.688862,   102.101540,   724.279297,   -60.053234,   0.401001,   686.931091,   671.473633
-0.042742,   0.093513,   0.098962,   0.000000,   738.720215,   0.535738,   12.840565,   38.996269,   109.422272,   731.956909,   -65.239014,   0.404636,   693.116272,   675.694092
-0.043883,   0.097312,   0.103209,   0.000000,   746.730347,   0.535738,   12.840565,   38.303680,   116.221237,   738.943604,   -70.068672,   0.407891,   698.851196,   679.537354
-0.044973,   0.101116,   0.107476,   0.000000,   754.523071,   0.535738,   12.840565,   37.611088,   122.925110,   745.717407,   -74.576515,   0.411038,   704.430664,   683.168152
-0.045997,   0.104934,   0.111777,   0.000000,   762.143433,   0.535738,   12.840565,   36.918499,   129.591614,   752.302917,   -78.896446,   0.414103,   709.884155,   686.606201
-0.047039,   0.108605,   0.115909,   0.000000,   769.195435,   0.535738,   12.840565,   36.225906,   135.742493,   758.385254,   -82.751076,   0.416864,   714.963135,   689.761475
-0.047966,   0.112237,   0.120019,   0.000000,   776.134399,   0.535738,   12.840565,   35.533318,   142.092133,   764.316711,   -86.561584,   0.419696,   719.892761,   692.624084
-0.048865,   0.115848,   0.124113,   0.000000,   782.849304,   0.535738,   12.840565,   34.840725,   148.285568,   770.056702,   -90.098366,   0.422421,   724.666016,   695.305542
-0.049753,   0.119459,   0.128213,   0.000000,   789.385193,   0.535738,   12.840565,   34.148136,   154.340866,   775.658447,   -93.365280,   0.425055,   729.316528,   697.834045
-0.050645,   0.123082,   0.132332,   0.000000,   795.711548,   0.535738,   12.840565,   33.455544,   160.111755,   781.111267,   -96.332481,   0.427524,   733.856506,   700.286865
-0.051530,   0.126747,   0.136505,   0.000000,   801.962341,   0.535738,   12.840565,   32.762955,   165.868073,   786.504150,   -99.160736,   0.429962,   738.338440,   702.617798
-0.052422,   0.130466,   0.140743,   0.000000,   808.101929,   0.535738,   12.840565,   32.070362,   171.456177,   791.828796,   -101.785233,   0.432294,   742.769714,   704.898682
-0.053322,   0.134253,   0.145063,   0.000000,   814.130676,   0.535738,   12.840565,   31.377773,   176.819534,   797.096497,   -104.192444,   0.434495,   747.163940,   707.173157
-0.054246,   0.138137,   0.149495,   0.000000,   820.094116,   0.535738,   12.840565,   30.685183,   182.011795,   802.323242,   -106.486053,   0.436576,   751.556030,   709.472473
-0.055204,   0.142142,   0.154067,   0.000000,   825.999023,   0.535739,   12.840565,   29.992590,   186.974091,   807.527832,   -108.644165,   0.438513,   755.965881,   711.849548
-0.056199,   0.146284,   0.158795,   0.000000,   831.843811,   0.535738,   12.840565,   29.299999,   191.683701,   812.707520,   -110.681038,   0.440292,   760.397400,   714.329834
-0.057237,   0.150580,   0.163698,   0.000000,   837.645447,   0.535737,   12.840565,   28.607409,   196.104691,   817.875183,   -112.620674,   0.441892,   764.877747,   716.973389
-0.058331,   0.155057,   0.168805,   0.000000,   843.412598,   0.535738,   12.840565,   27.914818,   200.225677,   823.027527,   -114.505142,   0.443300,   769.420349,   719.817078
-0.059497,   0.159741,   0.174142,   0.000000,   849.158081,   0.535738,   12.840565,   27.222227,   204.023132,   828.177734,   -116.340645,   0.444507,   774.042542,   722.901489
-0.060745,   0.164655,   0.179735,   0.000000,   854.886719,   0.535738,   12.840565,   26.529636,   207.471130,   833.322327,   -118.157173,   0.445493,   778.757629,   726.270142
-0.062093,   0.169823,   0.185609,   0.000000,   860.600281,   0.535738,   12.840565,   25.837046,   210.538483,   838.456970,   -119.977242,   0.446242,   783.576843,   729.964600
-0.063559,   0.175272,   0.191789,   0.000000,   866.299316,   0.535738,   12.840565,   25.144455,   213.194763,   843.574829,   -121.825546,   0.446737,   788.510742,   734.025757
-0.065164,   0.181025,   0.198300,   0.000000,   871.980286,   0.535738,   12.840565,   24.451864,   215.406219,   848.663269,   -123.730949,   0.446956,   793.567810,   738.493042
-0.066934,   0.187106,   0.205164,   0.000000,   877.635071,   0.535738,   12.840565,   23.759274,   217.137421,   853.703796,   -125.724091,   0.446880,   798.753662,   743.402771
-0.068893,   0.193538,   0.212400,   0.000000,   883.249207,   0.535738,   12.840565,   23.066683,   218.347305,   858.669495,   -127.840080,   0.446485,   804.070862,   748.788757
-0.071074,   0.200338,   0.220026,   0.000000,   888.802002,   0.535738,   12.840565,   22.374092,   218.991135,   863.525269,   -130.117737,   0.445745,   809.518677,   754.681213
-0.073507,   0.207522,   0.228051,   0.000000,   894.265869,   0.535739,   12.840565,   21.681501,   219.021378,   868.226868,   -132.599777,   0.444632,   815.092712,   761.102783
-0.076227,   0.215100,   0.236480,   0.000000,   899.606384,   0.535738,   12.840565,   20.988911,   218.390472,   872.721497,   -135.330688,   0.443118,   820.783997,   768.066589
-0.079268,   0.223071,   0.245309,   0.000000,   904.780640,   0.535738,   12.840565,   20.296320,   217.048676,   876.946960,   -138.355057,   0.441174,   826.578674,   775.573364
-0.082667,   0.231431,   0.254525,   0.000000,   909.738892,   0.535737,   12.840565,   19.603729,   214.947754,   880.833557,   -141.715149,   0.438773,   832.458191,   783.609375
-0.086458,   0.240162,   0.264105,   0.000000,   914.424194,   0.535738,   12.840565,   18.911140,   212.040970,   884.304382,   -145.449875,   0.435888,   838.399597,   792.144897
-0.090673,   0.249238,   0.274017,   0.000000,   918.773926,   0.535738,   12.840565,   18.218550,   208.283829,   887.276306,   -149.595230,   0.432493,   844.376892,   801.134766
-0.095343,   0.258630,   0.284223,   0.000000,   922.722839,   0.535738,   12.840565,   17.525959,   203.636398,   889.663086,   -154.184341,   0.428561,   850.363953,   810.520447
-0.100531,   0.268255,   0.294617,   0.000000,   926.116516,   0.535738,   12.840565,   16.833368,   197.867722,   891.390137,   -159.026489,   0.424026,   856.282043,   820.216125
-0.106201,   0.278202,   0.305325,   0.000000,   929.082581,   0.535738,   12.840565,   16.140778,   191.302063,   892.421997,   -164.461105,   0.418964,   862.226013,   830.161865
-0.112410,   0.288412,   0.316284,   0.000000,   931.518433,   0.535738,   12.840565,   15.448186,   183.860764,   892.626709,   -170.521790,   0.413322,   868.159729,   840.278992
-0.119184,   0.298649,   0.327229,   0.000000,   933.187195,   0.535738,   12.840565,   14.755594,   175.397308,   891.723877,   -177.258194,   0.407010,   873.951477,   850.401489
-0.126464,   0.308851,   0.338100,   0.000000,   934.044067,   0.535738,   12.840565,   14.063004,   165.905380,   889.750183,   -184.455505,   0.400067,   879.566406,   860.346802
-0.134281,   0.319039,   0.348937,   0.000000,   934.134949,   0.535738,   12.840565,   13.370413,   155.474121,   886.825012,   -191.933334,   0.392569,   885.024048,   869.967224
-0.142689,   0.329228,   0.359775,   0.000000,   933.505066,   0.535738,   12.840565,   12.677823,   144.271866,   882.933716,   -199.781387,   0.384565,   890.360413,   879.165161
-0.151681,   0.339354,   0.370568,   0.000000,   932.155334,   0.535738,   12.840565,   11.985232,   132.382217,   878.125671,   -207.873657,   0.376120,   895.553406,   887.792725
-0.161244,   0.349359,   0.381272,   0.000000,   930.182129,   0.535738,   12.840565,   11.292642,   120.022789,   872.619873,   -215.950455,   0.367410,   900.577820,   895.685181
-0.171366,   0.359221,   0.391890,   0.000000,   927.724792,   0.535738,   12.840565,   10.600051,   107.382500,   866.737061,   -223.675690,   0.358626,   905.419312,   902.739075
-0.182043,   0.368963,   0.402473,   0.000000,   925.090820,   0.535738,   12.840565,   9.907460,   94.891304,   860.987793,   -230.690964,   0.350105,   910.087402,   908.914551
-0.193296,   0.378680,   0.413154,   0.000000,   922.659607,   0.535738,   12.840565,   9.214869,   82.956642,   856.010925,   -236.569489,   0.342209,   914.614746,   914.287537
-0.006357,   0.012215,   0.010851,   -4.014085,   479.127808,   0.535148,   13.813208,   49.127861,   7.459976,   467.653748,   73.565926,   0.329153,   481.147430,   481.109802
-0.011155,   0.020456,   0.019609,   0.000000,   524.377930,   0.535147,   13.813208,   48.444141,   10.843813,   517.627014,   58.879757,   0.337243,   522.343506,   522.307495
-0.016250,   0.029161,   0.028883,   0.000000,   558.432739,   0.535148,   13.813208,   47.760422,   10.501979,   555.962463,   36.790657,   0.340550,   554.460571,   554.329651
-0.021196,   0.037889,   0.038225,   0.000000,   586.307373,   0.535148,   13.813208,   47.076702,   11.948748,   585.690979,   18.815306,   0.343043,   580.724060,   580.475220
-0.025253,   0.046029,   0.046961,   0.000000,   611.100098,   0.535148,   13.813208,   46.392986,   18.832609,   611.077637,   3.646530,   0.348836,   601.915466,   601.253662
-0.028884,   0.053572,   0.055087,   0.000000,   632.467712,   0.535148,   13.813208,   45.709267,   27.061087,   632.364380,   -7.910007,   0.354857,   619.428955,   618.107117
-0.032278,   0.060634,   0.062715,   0.000000,   650.929199,   0.535148,   13.813208,   45.025547,   35.090816,   650.496765,   -16.318453,   0.360280,   634.310486,   632.174927
-0.035137,   0.067176,   0.069811,   0.000000,   667.962341,   0.535147,   13.813208,   44.341827,   44.780228,   667.022949,   -24.194912,   0.366631,   647.156616,   643.802917
-0.037790,   0.073351,   0.076531,   0.000000,   682.859863,   0.535148,   13.813208,   43.658108,   53.392639,   681.318115,   -31.152554,   0.371930,   658.467346,   653.850586
-0.039951,   0.079079,   0.082796,   0.000000,   696.593018,   0.535148,   13.813208,   42.974388,   62.652313,   694.303101,   -38.100662,   0.377463,   668.458984,   662.285645
-0.041949,   0.084434,   0.088673,   0.000000,   708.787659,   0.535150,   13.813208,   42.290668,   71.129570,   705.668884,   -44.595150,   0.382274,   677.347961,   669.601501
-0.043707,   0.089558,   0.094325,   0.000000,   720.156311,   0.535148,   13.813208,   41.606945,   79.547516,   716.133118,   -50.767159,   0.386898,   685.521484,   676.066589
-0.045403,   0.094348,   0.099616,   0.000000,   730.161377,   0.535147,   13.813208,   40.923229,   86.857864,   725.251953,   -56.198143,   0.390720,   692.831543,   681.800110
-0.046777,   0.098940,   0.104725,   0.000000,   739.760742,   0.535148,   13.813208,   40.239510,   94.533928,   733.872253,   -61.639412,   0.394669,   699.662476,   686.858032
-0.048174,   0.103281,   0.109555,   0.000000,   748.453369,   0.535148,   13.813208,   39.555790,   101.546326,   741.583008,   -66.666847,   0.398138,   705.893311,   691.392578
-0.049483,   0.107573,   0.114349,   0.000000,   756.822571,   0.535148,   13.813208,   38.872070,   108.453896,   748.966553,   -71.369385,   0.401485,   711.874695,   695.613342
-0.050694,   0.111838,   0.119133,   0.000000,   764.933228,   0.535148,   13.813208,   38.188351,   115.297119,   756.073303,   -75.866577,   0.404728,   717.658997,   699.570312
-0.051914,   0.115911,   0.123700,   0.000000,   772.400391,   0.535147,   13.813208,   37.504631,   121.624107,   762.583130,   -79.930313,   0.407651,   723.010071,   703.165161
-0.052990,   0.119892,   0.128187,   0.000000,   779.651245,   0.535148,   13.813208,   36.820915,   128.073669,   768.834229,   -83.953026,   0.410594,   728.138611,   706.427734
-0.054028,   0.123791,   0.132589,   0.000000,   786.495544,   0.535148,   13.813208,   36.137192,   134.097000,   774.742920,   -87.563614,   0.413285,   733.021179,   709.503479
-0.055038,   0.127656,   0.136962,   0.000000,   793.160400,   0.535148,   13.813208,   35.453476,   140.105042,   780.471558,   -91.030228,   0.415938,   737.751160,   712.362854
-0.056034,   0.131505,   0.141322,   0.000000,   799.614563,   0.535148,   13.813208,   34.769756,   145.930862,   786.032043,   -94.226669,   0.418479,   742.342163,   715.072693
-0.057017,   0.135342,   0.145673,   0.000000,   805.870178,   0.535148,   13.813208,   34.086037,   151.569244,   791.445862,   -97.148476,   0.420912,   746.802795,   717.645752
-0.057993,   0.139185,   0.150038,   0.000000,   811.950439,   0.535147,   13.813208,   33.402317,   156.996796,   796.745789,   -99.791496,   0.423231,   751.159302,   720.120911
-0.058979,   0.143062,   0.154444,   0.000000,   817.912781,   0.535148,   13.813208,   32.718597,   162.284897,   801.976257,   -102.217468,   0.425471,   755.446167,   722.512695
-0.059978,   0.146989,   0.158909,   0.000000,   823.756409,   0.535148,   13.813208,   32.034878,   167.391159,   807.153442,   -104.391708,   0.427617,   759.670349,   724.844177
-0.060993,   0.150980,   0.163448,   0.000000,   829.508057,   0.535148,   13.813208,   31.351158,   172.306854,   812.306213,   -106.325218,   0.429666,   763.858826,   727.151306
-0.062031,   0.155052,   0.168081,   0.000000,   835.178101,   0.535147,   13.813208,   30.667439,   177.024414,   817.438782,   -108.051819,   0.431610,   768.025269,   729.460083
-0.063105,   0.159230,   0.172834,   0.000000,   840.781006,   0.535149,   13.813208,   29.983719,   181.518829,   822.568176,   -109.576668,   0.433437,   772.189758,   731.808472
-0.064219,   0.163535,   0.177730,   0.000000,   846.330017,   0.535147,   13.813208,   29.299999,   185.775986,   827.705383,   -110.916939,   0.435137,   776.368958,   734.228394
-0.065380,   0.167983,   0.182789,   0.000000,   851.835205,   0.535148,   13.813208,   28.616280,   189.783432,   832.856750,   -112.092369,   0.436703,   780.576599,   736.749084
-0.066596,   0.172597,   0.188032,   0.000000,   857.301758,   0.535148,   13.813208,   27.932560,   193.513260,   838.022278,   -113.126007,   0.438116,   784.826599,   739.409668
-0.067879,   0.177400,   0.193485,   0.000000,   862.739563,   0.535147,   13.813208,   27.248842,   196.947220,   843.207581,   -114.036095,   0.439365,   789.134033,   742.245544
-0.069240,   0.182416,   0.199174,   0.000000,   868.158447,   0.535148,   13.813208,   26.565123,   200.070892,   848.418213,   -114.839844,   0.440442,   793.512817,   745.288452
-0.070694,   0.187669,   0.205123,   0.000000,   873.563171,   0.535148,   13.813208,   25.881403,   202.863159,   853.652710,   -115.559212,   0.441332,   797.974670,   748.572693
-0.072255,   0.193181,   0.211356,   0.000000,   878.958069,   0.535147,   13.813208,   25.197683,   205.306778,   858.909729,   -116.213463,   0.442026,   802.529419,   752.127686
-0.073942,   0.198978,   0.217896,   0.000000,   884.343872,   0.535148,   13.813208,   24.513964,   207.379532,   864.182800,   -116.825989,   0.442509,   807.186035,   755.984619
-0.075776,   0.205083,   0.224768,   0.000000,   889.718628,   0.535147,   13.813208,   23.830246,   209.058273,   869.461365,   -117.423660,   0.442768,   811.951538,   760.173218
-0.077781,   0.211519,   0.231992,   0.000000,   895.076050,   0.535148,   13.813208,   23.146526,   210.316574,   874.729431,   -118.036224,   0.442787,   816.830566,   764.721313
-0.079984,   0.218307,   0.239586,   0.000000,   900.404358,   0.535148,   13.813208,   22.462807,   211.123840,   879.963562,   -118.699043,   0.442547,   821.824951,   769.655334
-0.082416,   0.225463,   0.247564,   0.000000,   905.685425,   0.535148,   13.813208,   21.779087,   211.443619,   885.131836,   -119.453674,   0.442025,   826.933411,   775.000183
-0.085111,   0.233002,   0.255935,   0.000000,   910.893250,   0.535148,   13.813208,   21.095367,   211.231964,   890.192261,   -120.348244,   0.441196,   832.151001,   780.779114
-0.088104,   0.240929,   0.264701,   0.000000,   915.993896,   0.535148,   13.813208,   20.411648,   210.439819,   895.092346,   -121.437897,   0.440029,   837.468567,   787.009949
-0.091434,   0.249244,   0.273852,   0.000000,   920.943970,   0.535147,   13.813208,   19.727928,   209.012222,   899.768677,   -122.781837,   0.438493,   842.872070,   793.704407
-0.095139,   0.257935,   0.283369,   0.000000,   925.691345,   0.535148,   13.813208,   19.044209,   206.890732,   904.147461,   -124.441818,   0.436553,   848.341919,   800.862915
-0.099256,   0.266977,   0.293221,   0.000000,   930.174561,   0.535147,   13.813208,   18.360491,   204.015015,   908.144897,   -126.479370,   0.434173,   853.853149,   808.472778
-0.103820,   0.276332,   0.303360,   0.000000,   934.321655,   0.535148,   13.813208,   17.676771,   200.320969,   911.666260,   -128.953812,   0.431316,   859.374939,   816.506775
-0.108862,   0.285922,   0.313692,   0.000000,   937.998657,   0.535148,   13.813208,   16.993052,   195.615631,   914.604309,   -131.786072,   0.427907,   864.845886,   824.931274
-0.114407,   0.295668,   0.324120,   0.000000,   941.166626,   0.535147,   13.813208,   16.309332,   190.006454,   916.883606,   -135.057236,   0.423988,   870.221619,   833.602234
-0.120498,   0.305567,   0.334669,   0.000000,   943.749207,   0.535149,   13.813208,   15.625613,   183.409470,   918.247375,   -139.248199,   0.419419,   875.541138,   842.606018
-0.127136,   0.315696,   0.345421,   0.000000,   945.766785,   0.535148,   13.813208,   14.941894,   175.798325,   918.797729,   -144.101746,   0.414228,   880.833191,   851.853699
-0.134412,   0.325880,   0.356190,   0.000000,   947.041138,   0.535148,   13.813208,   14.258174,   167.092438,   918.267883,   -149.805420,   0.408330,   886.016418,   861.222168
-0.142200,   0.335895,   0.366730,   0.000000,   947.460571,   0.535148,   13.813208,   13.574455,   157.281647,   916.705994,   -155.889755,   0.401809,   890.960876,   870.403564
-0.150537,   0.345784,   0.377122,   0.000000,   947.020813,   0.535148,   13.813208,   12.890736,   146.411957,   913.983215,   -162.635101,   0.394611,   895.731201,   879.371460
-0.159529,   0.355518,   0.387344,   0.000000,   945.593323,   0.535148,   13.813208,   12.207016,   134.341187,   909.898193,   -170.169830,   0.386612,   900.332581,   888.052246
-0.169121,   0.365052,   0.397381,   0.000000,   943.303040,   0.535148,   13.813208,   11.523296,   121.401947,   904.677979,   -178.174026,   0.378031,   904.759094,   896.180420
-0.179366,   0.374332,   0.407201,   0.000000,   940.007385,   0.535148,   13.813208,   10.839578,   107.393829,   898.186646,   -186.602539,   0.368751,   908.996460,   903.652161
-0.190210,   0.383303,   0.416781,   0.000000,   935.901001,   0.535148,   13.813208,   10.155858,   92.765533,   890.715149,   -195.186630,   0.359049,   913.041443,   910.245850
-0.201643,   0.391928,   0.426118,   0.000000,   931.103577,   0.535148,   13.813208,   9.472138,   77.701126,   882.543396,   -203.571518,   0.349098,   916.880493,   915.837708
-0.014893,   0.027676,   0.027353,   -6.410827,   547.400574,   0.534530,   14.796378,   48.912712,   3.898617,   537.091125,   74.854546,   0.327495,   550.633972,   550.550049
-0.018562,   0.034840,   0.034987,   0.000000,   576.419739,   0.534527,   14.796378,   48.236412,   12.069756,   571.476807,   52.816120,   0.339534,   572.889587,   572.789856
-0.022941,   0.042318,   0.042989,   0.000000,   600.789734,   0.534530,   14.796378,   47.560112,   17.791288,   598.705261,   34.860313,   0.346487,   593.092346,   592.624146
-0.026857,   0.049750,   0.050967,   0.000000,   623.281311,   0.534529,   14.796378,   46.883808,   25.777603,   622.809021,   16.798683,   0.353826,   611.021790,   609.841125
-0.030707,   0.057151,   0.058948,   0.000000,   641.568420,   0.534529,   14.796378,   46.207512,   30.148901,   641.564941,   1.457849,   0.357082,   627.039429,   625.405945
-0.034640,   0.064854,   0.067272,   0.000000,   658.892151,   0.534530,   14.796378,   45.531208,   34.870407,   658.686523,   -11.327126,   0.359956,   642.261719,   640.151855
-0.038108,   0.072409,   0.075471,   0.000000,   675.565063,   0.534529,   14.796378,   44.854908,   41.569736,   674.782227,   -22.278528,   0.363932,   656.123108,   653.261658
-0.041160,   0.079517,   0.083215,   0.000000,   690.824585,   0.534527,   14.796378,   44.178608,   49.080296,   689.279663,   -31.487419,   0.368263,   668.325989,   664.506592
-0.043958,   0.086010,   0.090304,   0.000000,   704.176086,   0.534530,   14.796378,   43.502308,   56.268448,   701.854492,   -38.783741,   0.372279,   678.812317,   673.964111
-0.046309,   0.092192,   0.097090,   0.000000,   717.123718,   0.534529,   14.796378,   42.826008,   64.804504,   713.932556,   -45.625214,   0.377082,   688.388123,   682.143311
-0.048544,   0.098027,   0.103508,   0.000000,   728.637756,   0.534529,   14.796378,   42.149708,   72.376709,   724.621826,   -51.337223,   0.381170,   696.976318,   689.373352
-0.050372,   0.103590,   0.109665,   0.000000,   739.745789,   0.534530,   14.796378,   41.473408,   80.751785,   734.758240,   -57.330372,   0.385626,   704.923950,   695.675354
-0.052181,   0.108750,   0.115380,   0.000000,   749.438965,   0.534527,   14.796378,   40.797108,   87.918449,   743.533203,   -62.504246,   0.389265,   711.984070,   701.239136
-0.053841,   0.113789,   0.120984,   0.000000,   758.746704,   0.534530,   14.796378,   40.120808,   95.168587,   751.888123,   -67.462700,   0.392880,   718.672607,   706.311096
-0.055345,   0.118744,   0.126518,   0.000000,   767.687866,   0.534529,   14.796378,   39.444504,   102.362396,   759.858276,   -72.174896,   0.396391,   725.058228,   710.995300
-0.056835,   0.123424,   0.131745,   0.000000,   775.821533,   0.534529,   14.796378,   38.768208,   108.956322,   767.065979,   -76.411949,   0.399523,   730.890808,   715.193115
-0.058132,   0.127937,   0.136812,   0.000000,   783.625122,   0.534530,   14.796378,   38.091904,   115.646454,   773.903503,   -80.584335,   0.402658,   736.398682,   718.959290
-0.059375,   0.132313,   0.141733,   0.000000,   790.902039,   0.534527,   14.796378,   37.415604,   121.821320,   780.268372,   -84.349113,   0.405478,   741.586243,   722.475830
-0.060560,   0.136590,   0.146555,   0.000000,   797.888733,   0.534529,   14.796378,   36.739307,   127.907005,   786.346619,   -87.937546,   0.408219,   746.539368,   725.714111
-0.061696,   0.140785,   0.151291,   0.000000,   804.542297,   0.534530,   14.796378,   36.063004,   133.698608,   792.141418,   -91.208931,   0.410787,   751.273804,   728.753540
-0.062808,   0.144922,   0.155970,   0.000000,   810.924011,   0.534529,   14.796378,   35.386703,   139.255829,   797.699768,   -94.245979,   0.413212,   755.830444,   731.628113
-0.063910,   0.149028,   0.160617,   0.000000,   817.058777,   0.534530,   14.796378,   34.710403,   144.558334,   803.066162,   -97.005463,   0.415498,   760.231934,   734.368835
-0.065002,   0.153113,   0.165246,   0.000000,   822.978333,   0.534529,   14.796378,   34.034103,   149.594604,   808.281250,   -99.482452,   0.417644,   764.508240,   737.015381
-0.066092,   0.157191,   0.169867,   0.000000,   828.710388,   0.534527,   14.796378,   33.357803,   154.398361,   813.376831,   -101.683731,   0.419675,   768.671204,   739.570679
-0.067190,   0.161278,   0.174503,   0.000000,   834.277954,   0.534530,   14.796378,   32.681503,   158.966644,   818.378662,   -103.619263,   0.421592,   772.741882,   742.062256
-0.068304,   0.165393,   0.179169,   0.000000,   839.704468,   0.534529,   14.796378,   32.005203,   163.304153,   823.317566,   -105.281158,   0.423404,   776.737610,   744.507996
-0.069436,   0.169545,   0.183879,   0.000000,   845.010132,   0.534530,   14.796378,   31.328901,   167.425552,   828.215881,   -106.674919,   0.425122,   780.670776,   746.917969
-0.070591,   0.173747,   0.188644,   0.000000,   850.204163,   0.534528,   14.796378,   30.652601,   171.320251,   833.084839,   -107.805466,   0.426742,   784.552551,   749.311646
-0.071774,   0.178012,   0.193480,   0.000000,   855.299011,   0.534530,   14.796378,   29.976301,   174.983383,   837.936096,   -108.684196,   0.428262,   788.395813,   751.709717
-0.072991,   0.182357,   0.198404,   0.000000,   860.308472,   0.534529,   14.796378,   29.300001,   178.413406,   842.781982,   -109.321732,   0.429680,   792.213928,   754.131897
-0.074248,   0.186793,   0.203430,   0.000000,   865.242004,   0.534530,   14.796378,   28.623699,   181.604523,   847.628235,   -109.733437,   0.430992,   796.018188,   756.598816
-0.075547,   0.191336,   0.208572,   0.000000,   870.104919,   0.534529,   14.796378,   27.947399,   184.545074,   852.475464,   -109.936577,   0.432190,   799.818298,   759.133179
-0.076896,   0.196000,   0.213846,   0.000000,   874.901062,   0.534529,   14.796378,   27.271099,   187.218735,   857.321106,   -109.951981,   0.433262,   803.624329,   761.761353
-0.078303,   0.200799,   0.219269,   0.000000,   879.636169,   0.534530,   14.796378,   26.594799,   189.614929,   862.164490,   -109.798996,   0.434200,   807.446350,   764.507019
-0.079776,   0.205750,   0.224855,   0.000000,   884.314148,   0.534530,   14.796378,   25.918497,   191.722076,   867.002502,   -109.498520,   0.434995,   811.293396,   767.393738
-0.081324,   0.210869,   0.230621,   0.000000,   888.937622,   0.534528,   14.796378,   25.242197,   193.527557,   871.830322,   -109.071419,   0.435637,   815.173340,   770.444275
-0.082961,   0.216171,   0.236581,   0.000000,   893.508667,   0.534530,   14.796378,   24.565897,   195.021378,   876.642700,   -108.538773,   0.436118,   819.093262,   773.678650
-0.084701,   0.221673,   0.242751,   0.000000,   898.027649,   0.534529,   14.796378,   23.889597,   196.191238,   881.431519,   -107.924767,   0.436430,   823.059326,   777.116943
-0.086560,   0.227389,   0.249144,   0.000000,   902.492737,   0.534530,   14.796378,   23.213297,   197.023224,   886.185730,   -107.257202,   0.436561,   827.077087,   780.779968
-0.088559,   0.233336,   0.255775,   0.000000,   906.899597,   0.534529,   14.796378,   22.536997,   197.499893,   890.890808,   -106.567467,   0.436500,   831.150757,   784.687195
-0.090722,   0.239529,   0.262655,   0.000000,   911.240051,   0.534529,   14.796378,   21.860695,   197.599060,   895.527283,   -105.892776,   0.436230,   835.283813,   788.859985
-0.093077,   0.245983,   0.269795,   0.000000,   915.501343,   0.534530,   14.796378,   21.184395,   197.292603,   900.069214,   -105.278076,   0.435732,   839.477478,   793.319458
-0.095657,   0.252708,   0.277203,   0.000000,   919.664734,   0.534530,   14.796378,   20.508095,   196.543762,   904.482971,   -104.777054,   0.434983,   843.731689,   798.088257
-0.098496,   0.259715,   0.284881,   0.000000,   923.704041,   0.534528,   14.796378,   19.831795,   195.305847,   908.725220,   -104.453621,   0.433952,   848.043762,   803.190063
-0.101636,   0.267005,   0.292828,   0.000000,   927.584778,   0.534530,   14.796378,   19.155495,   193.522705,   912.742249,   -104.380821,   0.432604,   852.407898,   808.646362
-0.105118,   0.274576,   0.301032,   0.000000,   931.261719,   0.534529,   14.796378,   18.479193,   191.125320,   916.468323,   -104.638115,   0.430896,   856.814026,   814.475586
-0.108986,   0.282414,   0.309475,   0.000000,   934.679932,   0.534530,   14.796378,   17.802893,   188.038376,   919.827148,   -105.307747,   0.428783,   861.247253,   820.687256
-0.113279,   0.290483,   0.318112,   0.000000,   937.745056,   0.534529,   14.796378,   17.126593,   184.110992,   922.721924,   -106.404625,   0.426192,   865.676086,   827.289673
-0.118035,   0.298693,   0.326833,   0.000000,   940.368591,   0.534529,   14.796378,   16.450293,   179.294037,   925.068359,   -107.910278,   0.423107,   870.041626,   834.198730
-0.123271,   0.307023,   0.335630,   0.000000,   942.490173,   0.534530,   14.796378,   15.773993,   173.558365,   926.671204,   -110.289268,   0.419443,   874.357849,   841.447815
-0.129033,   0.315447,   0.344464,   0.000000,   944.070984,   0.534529,   14.796378,   15.097692,   166.853027,   927.589417,   -113.180351,   0.415227,   878.589966,   848.911926
-0.135419,   0.324079,   0.353485,   0.000000,   945.109863,   0.534529,   14.796378,   14.421391,   159.129990,   927.683167,   -117.034271,   0.410352,   882.829102,   856.681274
-0.142348,   0.332804,   0.362565,   0.000000,   945.476257,   0.534530,   14.796378,   13.745091,   150.275711,   926.871643,   -121.632301,   0.404790,   887.000977,   864.602966
-0.149822,   0.341325,   0.371392,   0.000000,   944.899780,   0.534529,   14.796378,   13.068790,   140.117294,   924.816895,   -127.131248,   0.398419,   890.967712,   872.498108
-0.158072,   0.349568,   0.379887,   0.000000,   943.208618,   0.534529,   14.796378,   12.392490,   128.461212,   921.309753,   -133.574020,   0.391107,   894.699707,   880.252563
-0.166753,   0.357612,   0.388197,   0.000000,   940.612488,   0.534529,   14.796378,   11.716190,   115.686615,   916.661560,   -140.562241,   0.383090,   898.264771,   887.634338
-0.176307,   0.365509,   0.396382,   0.000000,   936.802490,   0.534530,   14.796378,   11.039889,   101.255539,   910.439209,   -148.417496,   0.373999,   901.692078,   894.654419
-0.186498,   0.373174,   0.404408,   0.000000,   931.923523,   0.534529,   14.796378,   10.363589,   85.649666,   902.810120,   -156.964722,   0.364081,   904.980835,   900.994690
-0.197386,   0.380512,   0.412211,   0.000000,   925.924622,   0.534529,   14.796378,   9.687288,   68.947014,   893.722839,   -166.121124,   0.353360,   908.109741,   906.434814
-0.026208,   0.049079,   0.050325,   0.000000,   609.941101,   0.533953,   15.788191,   48.740093,   7.242691,   602.798706,   65.610153,   0.333416,   609.890930,   609.890930
-0.028710,   0.054404,   0.056002,   0.000000,   627.242432,   0.533950,   15.788191,   48.069744,   15.679800,   623.724854,   46.381290,   0.343074,   621.250671,   620.982666
-0.031729,   0.060045,   0.062060,   0.000000,   641.307800,   0.533951,   15.788191,   47.399399,   19.294859,   640.117310,   27.212372,   0.347544,   632.450012,   631.866577
-0.034574,   0.066215,   0.068737,   0.000000,   657.796753,   0.533950,   15.788191,   46.729050,   27.872570,   657.646851,   9.717971,   0.354613,   644.382874,   643.039062
-0.038188,   0.072956,   0.076033,   0.000000,   673.612915,   0.533950,   15.788191,   46.058701,   35.535278,   673.605713,   -2.142666,   0.360023,   656.570190,   654.402283
-0.041688,   0.079936,   0.083624,   0.000000,   688.071472,   0.533951,   15.788191,   45.388355,   41.641014,   687.813049,   -12.925449,   0.363813,   668.341736,   665.450073
-0.044774,   0.086841,   0.091158,   0.000000,   702.094849,   0.533950,   15.788191,   44.718006,   48.846191,   701.202026,   -24.150650,   0.368002,   679.388672,   675.565369
-0.047820,   0.093688,   0.098645,   0.000000,   714.778809,   0.533950,   15.788191,   44.047657,   54.972248,   713.039978,   -33.871708,   0.371179,   689.704590,   685.059753
-0.050535,   0.100517,   0.106146,   0.000000,   727.313232,   0.533951,   15.788191,   43.377312,   62.058987,   724.580261,   -42.639515,   0.374837,   699.539551,   693.845886
-0.053067,   0.107008,   0.113294,   0.000000,   738.816162,   0.533950,   15.788191,   42.706963,   68.974815,   735.062439,   -50.143585,   0.378302,   708.460754,   701.658752
-0.055420,   0.113123,   0.120039,   0.000000,   749.426453,   0.533950,   15.788191,   42.036613,   75.844910,   744.708191,   -56.375000,   0.381733,   716.515747,   708.507996
-0.057610,   0.119136,   0.126695,   0.000000,   759.774780,   0.533951,   15.788191,   41.366264,   83.140923,   754.078247,   -62.084221,   0.385372,   724.165039,   714.759338
-0.059557,   0.125029,   0.133252,   0.000000,   769.771545,   0.533950,   15.788191,   40.695919,   90.613518,   763.104004,   -67.292862,   0.389068,   731.420532,   720.463013
-0.061448,   0.130526,   0.139368,   0.000000,   778.769836,   0.533953,   15.788191,   40.025570,   97.462120,   771.191223,   -71.856514,   0.392375,   737.945068,   725.476257
-0.063072,   0.135778,   0.145241,   0.000000,   787.348877,   0.533950,   15.788191,   39.355221,   104.458443,   778.823120,   -76.303047,   0.395717,   744.035522,   729.926880
-0.064607,   0.140816,   0.150886,   0.000000,   795.261292,   0.533950,   15.788191,   38.684872,   110.869392,   785.849487,   -80.258224,   0.398702,   749.699219,   734.015503
-0.066037,   0.145674,   0.156344,   0.000000,   802.773438,   0.533951,   15.788191,   38.014526,   117.164009,   792.489685,   -83.968193,   0.401598,   755.028503,   737.720764
-0.067384,   0.150375,   0.161635,   0.000000,   809.818298,   0.533950,   15.788191,   37.344177,   123.080078,   798.716064,   -87.317337,   0.404275,   760.041382,   741.141663
-0.068676,   0.154950,   0.166793,   0.000000,   816.484680,   0.533950,   15.788191,   36.673828,   128.673203,   804.607056,   -90.385704,   0.406762,   764.804993,   744.343567
-0.069926,   0.159423,   0.171843,   0.000000,   822.812561,   0.533951,   15.788191,   36.003483,   133.950195,   810.215088,   -93.155365,   0.409076,   769.348083,   747.359558
-0.071144,   0.163809,   0.176801,   0.000000,   828.820312,   0.533950,   15.788191,   35.333134,   138.886185,   815.562927,   -95.638557,   0.411209,   773.693787,   750.230530
-0.072344,   0.168128,   0.181686,   0.000000,   834.543152,   0.533951,   15.788191,   34.662785,   143.490814,   820.692017,   -97.835983,   0.413173,   777.868164,   752.986206
-0.073532,   0.172393,   0.186513,   0.000000,   840.011047,   0.533950,   15.788191,   33.992435,   147.777328,   825.636719,   -99.751564,   0.414982,   781.891846,   755.649353
-0.074715,   0.176615,   0.191292,   0.000000,   845.248657,   0.533950,   15.788191,   33.322090,   151.764191,   830.424255,   -101.392776,   0.416651,   785.779663,   758.233521
-0.075898,   0.180802,   0.196033,   0.000000,   850.274231,   0.533951,   15.788191,   32.651741,   155.456970,   835.076660,   -102.759659,   0.418188,   789.544189,   760.753967
-0.077087,   0.184965,   0.200744,   0.000000,   855.109009,   0.533951,   15.788191,   31.981392,   158.871307,   839.617493,   -103.854576,   0.419604,   793.198486,   763.222107
-0.078287,   0.189108,   0.205433,   0.000000,   859.770935,   0.533951,   15.788191,   31.311045,   162.024185,   844.066772,   -104.678299,   0.420913,   796.752136,   765.643982
-0.079497,   0.193237,   0.210104,   0.000000,   864.272766,   0.533950,   15.788191,   30.640696,   164.927826,   848.438416,   -105.231491,   0.422124,   800.211731,   768.024475
-0.080720,   0.197355,   0.214759,   0.000000,   868.623535,   0.533951,   15.788191,   29.970348,   167.589127,   852.740112,   -105.521591,   0.423241,   803.583435,   770.370789
-0.081958,   0.201465,   0.219402,   0.000000,   872.833557,   0.533951,   15.788191,   29.299999,   170.018005,   856.980164,   -105.555817,   0.424271,   806.873718,   772.689087
-0.083212,   0.205573,   0.224039,   0.000000,   876.911133,   0.533951,   15.788191,   28.629652,   172.221100,   861.163452,   -105.343445,   0.425215,   810.088684,   774.987000
-0.084482,   0.209680,   0.228672,   0.000000,   880.860779,   0.533950,   15.788191,   27.959303,   174.199463,   865.289734,   -104.897324,   0.426072,   813.233765,   777.274170
-0.085770,   0.213790,   0.233303,   0.000000,   884.684448,   0.533951,   15.788191,   27.288956,   175.949448,   869.354492,   -104.234734,   0.426839,   816.313416,   779.562439
-0.087077,   0.217907,   0.237936,   0.000000,   888.382263,   0.533951,   15.788191,   26.618608,   177.462891,   873.350281,   -103.375755,   0.427508,   819.332825,   781.866943
-0.088406,   0.222035,   0.242575,   0.000000,   891.953735,   0.533951,   15.788191,   25.948259,   178.729370,   877.268188,   -102.343048,   0.428068,   822.297058,   784.204224
-0.089761,   0.226180,   0.247224,   0.000000,   895.397034,   0.533951,   15.788191,   25.277912,   179.736465,   881.097412,   -101.161621,   0.428510,   825.211182,   786.591614
-0.091147,   0.230347,   0.251887,   0.000000,   898.710022,   0.533951,   15.788191,   24.607563,   180.471481,   884.826904,   -99.856926,   0.428823,   828.080139,   789.046936
-0.092571,   0.234542,   0.256571,   0.000000,   901.890930,   0.533951,   15.788191,   23.937216,   180.921844,   888.446350,   -98.453682,   0.428995,   830.908936,   791.586914
-0.094042,   0.238774,   0.261279,   0.000000,   904.937988,   0.533951,   15.788191,   23.266867,   181.075333,   891.945557,   -96.978012,   0.429018,   833.702637,   794.227722
-0.095572,   0.243052,   0.266021,   0.000000,   907.850220,   0.533950,   15.788191,   22.596519,   180.919525,   895.315186,   -95.457352,   0.428881,   836.467285,   796.985901
-0.097178,   0.247388,   0.270806,   0.000000,   910.627136,   0.533951,   15.788191,   21.926172,   180.441452,   898.546387,   -93.921219,   0.428573,   839.209961,   799.878540
-0.098880,   0.251798,   0.275647,   0.000000,   913.267944,   0.533951,   15.788191,   21.255823,   179.625015,   901.629700,   -92.402954,   0.428081,   841.938782,   802.924133
-0.100704,   0.256300,   0.280561,   0.000000,   915.771301,   0.533951,   15.788191,   20.585474,   178.450150,   904.554626,   -90.941269,   0.427391,   844.663574,   806.144104
-0.102681,   0.260916,   0.285568,   0.000000,   918.134033,   0.533950,   15.788191,   19.915127,   176.890198,   907.307678,   -89.582291,   0.426483,   847.395081,   809.562134
-0.104849,   0.265672,   0.290689,   0.000000,   920.348877,   0.533951,   15.788191,   19.244780,   174.907440,   909.870117,   -88.381683,   0.425330,   850.145386,   813.206787
-0.107252,   0.270593,   0.295951,   0.000000,   922.403931,   0.533951,   15.788191,   18.574430,   172.454620,   912.217041,   -87.405182,   0.423902,   852.926392,   817.108643
-0.109942,   0.275706,   0.301376,   0.000000,   924.277466,   0.533951,   15.788191,   17.904083,   169.467438,   914.311829,   -86.730354,   0.422156,   855.748657,   821.300354
-0.112972,   0.281029,   0.306981,   0.000000,   925.930725,   0.533951,   15.788191,   17.233734,   165.853333,   916.103577,   -86.425560,   0.420039,   858.616577,   825.813477
-0.116389,   0.286545,   0.312745,   0.000000,   927.287537,   0.533951,   15.788191,   16.563387,   161.475418,   917.521545,   -86.480644,   0.417483,   861.510071,   830.656067
-0.120229,   0.292263,   0.318679,   0.000000,   928.317871,   0.533951,   15.788191,   15.893039,   156.318039,   918.464905,   -87.215309,   0.414442,   864.442017,   835.839783
-0.124574,   0.298144,   0.324730,   0.000000,   928.903320,   0.533950,   15.788191,   15.222691,   150.176758,   918.864990,   -88.414436,   0.410838,   867.366760,   841.329590
-0.129436,   0.304149,   0.330865,   0.000000,   928.960938,   0.533950,   15.788191,   14.552342,   142.980194,   918.580078,   -90.328140,   0.406601,   870.270935,   847.095886
-0.134937,   0.310242,   0.337059,   0.000000,   928.358276,   0.533951,   15.788191,   13.881994,   134.551865,   917.408569,   -93.230560,   0.401599,   873.143433,   853.127625
-0.141017,   0.316382,   0.343270,   0.000000,   927.019104,   0.533950,   15.788191,   13.211646,   124.838173,   915.299622,   -96.959473,   0.395811,   875.954956,   859.291992
-0.147719,   0.322642,   0.349596,   0.000000,   924.914978,   0.533951,   15.788191,   12.541299,   113.769531,   912.227295,   -101.447296,   0.389190,   878.745178,   865.520691
-0.154972,   0.328872,   0.355900,   0.000000,   921.858643,   0.533951,   15.788191,   11.870951,   101.197044,   908.004150,   -106.629448,   0.381649,   881.438904,   871.623230
-0.163364,   0.334991,   0.362084,   0.000000,   917.518005,   0.533951,   15.788191,   11.200602,   86.661530,   902.294678,   -112.465218,   0.372924,   883.966614,   877.436707
-0.172320,   0.341112,   0.368366,   0.000000,   911.975037,   0.533950,   15.788191,   10.530254,   70.334503,   895.138611,   -119.038750,   0.363054,   886.437561,   882.794434
-0.182008,   0.347125,   0.374658,   0.000000,   905.308655,   0.533951,   15.788191,   9.859906,   52.691608,   886.529419,   -126.536629,   0.352228,   888.837891,   887.380554
-0.041149,   0.076613,   0.079977,   0.000000,   662.852661,   0.533467,   16.786739,   48.610340,   6.111612,   658.907654,   50.900517,   0.334969,   661.772034,   661.764099
-0.042000,   0.079810,   0.083385,   0.000000,   673.273193,   0.533467,   16.786739,   47.944466,   14.790899,   671.409058,   35.035461,   0.342978,   666.903748,   666.621704
-0.043065,   0.083706,   0.087613,   0.000000,   685.257324,   0.533465,   16.786739,   47.278591,   25.193939,   684.763123,   18.061285,   0.351509,   673.247314,   672.226807
-0.045437,   0.088583,   0.092915,   0.000000,   695.932129,   0.533467,   16.786739,   46.612720,   31.468384,   695.904053,   4.318562,   0.356159,   680.756714,   679.120361
-0.047778,   0.094138,   0.099006,   0.000000,   707.572083,   0.533465,   16.786739,   45.946846,   38.664680,   707.465637,   -8.439307,   0.360919,   689.102539,   686.669189
-0.050401,   0.099631,   0.105029,   0.000000,   718.571045,   0.533467,   16.786739,   45.280972,   45.779217,   718.048401,   -18.752287,   0.365269,   697.045532,   693.728577
-0.052952,   0.105602,   0.111605,   0.000000,   730.285522,   0.533467,   16.786739,   44.615097,   53.924992,   729.115234,   -28.134151,   0.370027,   705.389282,   700.930298
-0.055701,   0.111817,   0.118446,   0.000000,   741.296448,   0.533465,   16.786739,   43.949223,   60.919273,   739.363953,   -36.260277,   0.373807,   713.633728,   708.117798
-0.058118,   0.118104,   0.125400,   0.000000,   752.306213,   0.533467,   16.786739,   43.283348,   68.579201,   749.399292,   -44.582016,   0.377794,   721.714539,   714.945801
-0.060735,   0.124508,   0.132475,   0.000000,   762.482117,   0.533465,   16.786739,   42.617477,   74.997612,   758.574890,   -51.827984,   0.380867,   729.539307,   721.684814
-0.063104,   0.130985,   0.139665,   0.000000,   772.642029,   0.533467,   16.786739,   41.951603,   81.889801,   767.662170,   -58.650269,   0.384133,   737.202148,   728.094116
-0.065425,   0.137122,   0.146474,   0.000000,   781.883118,   0.533465,   16.786739,   41.285728,   88.220329,   775.909058,   -64.373634,   0.387063,   744.176514,   733.846863
-0.067446,   0.143087,   0.153123,   0.000000,   790.946228,   0.533467,   16.786739,   40.619858,   95.078369,   783.949341,   -69.777664,   0.390268,   750.790649,   739.032288
-0.069347,   0.148836,   0.159544,   0.000000,   799.367554,   0.533468,   16.786739,   39.953979,   101.457718,   791.447144,   -74.348816,   0.393205,   756.945923,   743.776917
-0.071103,   0.154367,   0.165738,   0.000000,   807.387634,   0.533465,   16.786739,   39.288105,   107.816109,   798.580750,   -78.492226,   0.396126,   762.717957,   748.055176
-0.072734,   0.159685,   0.171707,   0.000000,   814.889465,   0.533467,   16.786739,   38.622231,   113.803818,   805.268677,   -82.127983,   0.398843,   768.115417,   751.973022
-0.074270,   0.164808,   0.177467,   0.000000,   821.936401,   0.533465,   16.786739,   37.956360,   119.475792,   811.561951,   -85.367737,   0.401389,   773.180603,   755.571350
-0.075720,   0.169751,   0.183035,   0.000000,   828.552673,   0.533467,   16.786739,   37.290485,   124.797745,   817.491211,   -88.230026,   0.403751,   777.945312,   758.901489
-0.077101,   0.174526,   0.188422,   0.000000,   834.757202,   0.533465,   16.786739,   36.624611,   129.741776,   823.075867,   -90.749878,   0.405919,   782.436035,   762.009949
-0.078426,   0.179150,   0.193644,   0.000000,   840.586975,   0.533467,   16.786739,   35.958740,   134.318848,   828.354736,   -92.947449,   0.407905,   786.681091,   764.931152
-0.079705,   0.183635,   0.198713,   0.000000,   846.065552,   0.533465,   16.786739,   35.292866,   138.524734,   833.352661,   -94.841278,   0.409711,   790.702515,   767.697876
-0.080948,   0.187992,   0.203640,   0.000000,   851.217102,   0.533467,   16.786739,   34.626991,   142.365128,   838.093323,   -96.451012,   0.411342,   794.519592,   770.336365
-0.082162,   0.192230,   0.208435,   0.000000,   856.069519,   0.533467,   16.786739,   33.961117,   145.859467,   842.604492,   -97.790512,   0.412814,   798.150574,   772.865112
-0.083354,   0.196357,   0.213105,   0.000000,   860.644348,   0.533465,   16.786739,   33.295242,   149.023956,   846.907410,   -98.871017,   0.414138,   801.609192,   775.298462
-0.084527,   0.200377,   0.217653,   0.000000,   864.957886,   0.533467,   16.786739,   32.629368,   151.870834,   851.018005,   -99.701271,   0.415324,   804.905273,   777.647034
-0.085686,   0.204291,   0.222080,   0.000000,   869.025696,   0.533467,   16.786739,   31.963495,   154.417068,   854.950500,   -100.290840,   0.416381,   808.047485,   779.918091
-0.086832,   0.208101,   0.226386,   0.000000,   872.862305,   0.533466,   16.786739,   31.297621,   156.681107,   858.718872,   -100.644218,   0.417323,   811.042419,   782.114624
-0.087966,   0.211804,   0.230568,   0.000000,   876.478699,   0.533466,   16.786739,   30.631748,   158.680557,   862.333008,   -100.765854,   0.418160,   813.893982,   784.237061
-0.089087,   0.215394,   0.234620,   0.000000,   879.882935,   0.533467,   16.786739,   29.965874,   160.431839,   865.799194,   -100.660667,   0.418902,   816.604248,   786.283936
-0.090192,   0.218867,   0.238535,   0.000000,   883.080566,   0.533466,   16.786739,   29.299999,   161.947586,   869.120667,   -100.334106,   0.419556,   819.174377,   788.253967
-0.091281,   0.222217,   0.242306,   0.000000,   886.076050,   0.533466,   16.786739,   28.634127,   163.239624,   872.299194,   -99.791855,   0.420128,   821.604858,   790.145569
-0.092349,   0.225436,   0.245926,   0.000000,   888.872559,   0.533466,   16.786739,   27.968252,   164.317505,   875.334351,   -99.041306,   0.420624,   823.896362,   791.958008
-0.093394,   0.228519,   0.249387,   0.000000,   891.470642,   0.533467,   16.786739,   27.302378,   165.186157,   878.222168,   -98.092514,   0.421044,   826.049011,   793.692993
-0.094412,   0.231460,   0.252682,   0.000000,   893.869507,   0.533466,   16.786739,   26.636505,   165.846161,   880.956543,   -96.958527,   0.421386,   828.063416,   795.353638
-0.095402,   0.234255,   0.255806,   0.000000,   896.067139,   0.533466,   16.786739,   25.970631,   166.293472,   883.529053,   -95.655540,   0.421645,   829.940979,   796.947144
-0.096361,   0.236902,   0.258757,   0.000000,   898.060120,   0.533467,   16.786739,   25.304758,   166.518311,   885.929016,   -94.204185,   0.421814,   831.684143,   798.484253
-0.097291,   0.239402,   0.261534,   0.000000,   899.843933,   0.533466,   16.786739,   24.638884,   166.506073,   888.144043,   -92.628113,   0.421879,   833.296265,   799.978821
-0.098193,   0.241756,   0.264137,   0.000000,   901.413818,   0.533466,   16.786739,   23.973009,   166.238739,   890.161621,   -90.952454,   0.421827,   834.781860,   801.447510
-0.099070,   0.243971,   0.266572,   0.000000,   902.765747,   0.533466,   16.786739,   23.307137,   165.696686,   891.970215,   -89.202423,   0.421643,   836.146484,   802.907532
-0.099929,   0.246055,   0.268846,   0.000000,   903.897095,   0.533466,   16.786739,   22.641262,   164.859665,   893.560425,   -87.402367,   0.421313,   837.397461,   804.378052
-0.100781,   0.248021,   0.270971,   0.000000,   904.807495,   0.533467,   16.786739,   21.975388,   163.708878,   894.926208,   -85.574684,   0.420823,   838.543518,   805.876831
-0.101639,   0.249887,   0.272965,   0.000000,   905.500671,   0.533467,   16.786739,   21.309513,   162.228104,   896.066345,   -83.739418,   0.420160,   839.596619,   807.423218
-0.102522,   0.251676,   0.274850,   0.000000,   905.983521,   0.533466,   16.786739,   20.643641,   160.402405,   896.983643,   -81.915474,   0.419312,   840.571594,   809.036987
-0.103454,   0.253419,   0.276658,   0.000000,   906.266785,   0.533466,   16.786739,   19.977766,   158.216919,   897.685364,   -80.120697,   0.418268,   841.487122,   810.740051
-0.104469,   0.255156,   0.278429,   0.000000,   906.364014,   0.533466,   16.786739,   19.311893,   155.654022,   898.181091,   -78.377289,   0.417014,   842.366211,   812.559082
-0.105606,   0.256934,   0.280213,   0.000000,   906.290222,   0.533466,   16.786739,   18.646019,   152.689697,   898.481018,   -76.713966,   0.415530,   843.237000,   814.526123
-0.106917,   0.258807,   0.282066,   0.000000,   906.058899,   0.533466,   16.786739,   17.980146,   149.288376,   898.592224,   -75.170258,   0.413791,   844.131165,   816.679932
-0.108460,   0.260836,   0.284054,   0.000000,   905.679504,   0.533467,   16.786739,   17.314272,   145.403305,   898.515381,   -73.801804,   0.411762,   845.082886,   819.063843
-0.110300,   0.263074,   0.286230,   0.000000,   905.132874,   0.533466,   16.786739,   16.648397,   140.930527,   898.231812,   -72.620941,   0.409385,   846.117554,   821.724304
-0.112500,   0.265577,   0.288658,   0.000000,   904.426819,   0.533466,   16.786739,   15.982523,   135.849350,   897.716675,   -71.813980,   0.406626,   847.270813,   824.692444
-0.115146,   0.268382,   0.291374,   0.000000,   903.477051,   0.533466,   16.786739,   15.316649,   129.936295,   896.902405,   -71.314430,   0.403371,   848.548401,   828.013123
-0.118279,   0.271485,   0.294374,   0.000000,   902.232239,   0.533466,   16.786739,   14.650777,   123.137047,   895.715942,   -71.251686,   0.399577,   849.943726,   831.657654
-0.122026,   0.274953,   0.297744,   0.000000,   900.598267,   0.533466,   16.786739,   13.984902,   115.220528,   894.005066,   -71.959389,   0.395079,   851.497253,   835.695251
-0.126400,   0.278767,   0.301466,   0.000000,   898.537048,   0.533466,   16.786739,   13.319029,   106.182892,   891.768677,   -73.232140,   0.389893,   853.184937,   840.005859
-0.131292,   0.282798,   0.305420,   0.000000,   895.786621,   0.533466,   16.786739,   12.653154,   95.665298,   888.778076,   -74.884392,   0.383838,   854.912903,   844.477600
-0.137061,   0.287011,   0.309558,   0.000000,   892.036865,   0.533466,   16.786739,   11.987281,   83.235435,   884.630554,   -77.396736,   0.376612,   856.643127,   849.043091
-0.143590,   0.291374,   0.313866,   0.000000,   887.189819,   0.533466,   16.786739,   11.321407,   68.835472,   879.301331,   -80.346695,   0.368205,   858.340759,   853.452148
-0.151286,   0.295838,   0.318329,   0.000000,   880.920837,   0.533466,   16.786739,   10.655534,   52.040951,   872.438965,   -83.847656,   0.358338,   859.969055,   857.481689
-0.159387,   0.300487,   0.323130,   0.000000,   873.713928,   0.533466,   16.786739,   9.989659,   33.845840,   864.514099,   -87.901390,   0.347533,   861.655334,   860.861755
-0.059484,   0.111196,   0.117288,   0.000000,   712.281067,   0.533122,   17.790113,   48.523701,   6.880866,   710.989197,   30.187428,   0.337264,   709.503052,   709.453491
-0.058645,   0.111940,   0.118093,   0.000000,   718.605225,   0.533123,   17.790113,   47.860813,   16.427443,   718.088745,   19.043266,   0.344463,   710.783264,   710.382385
-0.058146,   0.113906,   0.120292,   0.000000,   726.910217,   0.533122,   17.790113,   47.197926,   27.232155,   726.859619,   5.950923,   0.352194,   713.707703,   712.541687
-0.058980,   0.116685,   0.123375,   0.000000,   734.221924,   0.533121,   17.790113,   46.535042,   34.830727,   734.202271,   -3.710240,   0.357299,   717.450134,   715.546265
-0.059964,   0.120297,   0.127420,   0.000000,   742.696594,   0.533122,   17.790113,   45.872154,   43.152737,   742.397583,   -14.462211,   0.362561,   722.223877,   719.355042
-0.061340,   0.124795,   0.132456,   0.000000,   751.886963,   0.533123,   17.790113,   45.209270,   51.383278,   751.032288,   -24.468359,   0.367437,   727.939087,   723.977722
-0.063177,   0.129656,   0.137877,   0.000000,   761.072205,   0.533122,   17.790113,   44.546383,   59.358208,   759.502502,   -33.188622,   0.371929,   733.886353,   728.741028
-0.065201,   0.134819,   0.143635,   0.000000,   770.224670,   0.533121,   17.790113,   43.883495,   67.095772,   767.865723,   -40.726364,   0.376117,   739.983093,   733.571594
-0.067363,   0.140396,   0.149859,   0.000000,   779.582764,   0.533123,   17.790113,   43.220608,   74.882584,   776.366882,   -47.605087,   0.380191,   746.334595,   738.533691
-0.069644,   0.146137,   0.156250,   0.000000,   788.503967,   0.533121,   17.790113,   42.557724,   81.902557,   784.443115,   -53.566704,   0.383708,   752.608337,   743.470703
-0.071724,   0.151933,   0.162729,   0.000000,   797.292114,   0.533122,   17.790113,   41.894836,   89.018898,   792.270020,   -59.640858,   0.387147,   758.788635,   748.221741
-0.073763,   0.157707,   0.169184,   0.000000,   805.454346,   0.533121,   17.790113,   41.231953,   95.245979,   799.517456,   -64.933960,   0.390017,   764.721130,   752.854187
-0.075717,   0.163415,   0.175574,   0.000000,   813.308533,   0.533123,   17.790113,   40.569065,   101.341835,   806.445374,   -69.902458,   0.392764,   770.426331,   757.228577
-0.077570,   0.169023,   0.181863,   0.000000,   820.754272,   0.533121,   17.790113,   39.906178,   107.065346,   813.026733,   -74.263412,   0.395295,   775.869568,   761.365173
-0.079322,   0.174484,   0.187996,   0.000000,   827.822083,   0.533122,   17.790113,   39.243294,   112.534691,   819.292175,   -78.111023,   0.397691,   781.030640,   765.218506
-0.080970,   0.179771,   0.193943,   0.000000,   834.494080,   0.533123,   17.790113,   38.580406,   117.709068,   825.238342,   -81.451698,   0.399944,   785.900024,   768.793701
-0.082517,   0.184862,   0.199678,   0.000000,   840.757202,   0.533120,   17.790113,   37.917519,   122.553307,   830.854065,   -84.335403,   0.402040,   790.475342,   772.106445
-0.083973,   0.189748,   0.205191,   0.000000,   846.622681,   0.533123,   17.790113,   37.254635,   127.068901,   836.151245,   -86.803047,   0.403985,   794.764709,   775.171753
-0.085343,   0.194423,   0.210472,   0.000000,   852.094177,   0.533121,   17.790113,   36.591747,   131.235565,   841.131165,   -88.897469,   0.405773,   798.778015,   778.014709
-0.086636,   0.198888,   0.215519,   0.000000,   857.184448,   0.533123,   17.790113,   35.928864,   135.050354,   845.803528,   -90.656197,   0.407402,   802.528381,   780.657898
-0.087860,   0.203142,   0.220334,   0.000000,   861.909607,   0.533120,   17.790113,   35.265976,   138.516296,   850.180969,   -92.110931,   0.408875,   806.029663,   783.122620
-0.089021,   0.207191,   0.224918,   0.000000,   866.285217,   0.533123,   17.790113,   34.603092,   141.638596,   854.274048,   -93.294449,   0.410197,   809.295410,   785.428345
-0.090126,   0.211036,   0.229273,   0.000000,   870.328979,   0.533123,   17.790113,   33.940201,   144.429642,   858.096558,   -94.231079,   0.411375,   812.338318,   787.590759
-0.091180,   0.214681,   0.233401,   0.000000,   874.056152,   0.533120,   17.790113,   33.277317,   146.900421,   861.660278,   -94.940620,   0.412414,   815.169373,   789.622864
-0.092187,   0.218125,   0.237302,   0.000000,   877.480530,   0.533123,   17.790113,   32.614429,   149.064758,   864.975220,   -95.441498,   0.413322,   817.797302,   791.533752
-0.093150,   0.221369,   0.240973,   0.000000,   880.612976,   0.533122,   17.790113,   31.951544,   150.934937,   868.048706,   -95.749039,   0.414106,   820.228394,   793.329956
-0.094071,   0.224408,   0.244411,   0.000000,   883.462708,   0.533121,   17.790113,   31.288658,   152.523712,   870.886902,   -95.875679,   0.414772,   822.467590,   795.015503
-0.094948,   0.227239,   0.247609,   0.000000,   886.037659,   0.533122,   17.790113,   30.625772,   153.845276,   873.495117,   -95.830864,   0.415330,   824.517822,   796.591125
-0.095781,   0.229854,   0.250559,   0.000000,   888.343018,   0.533122,   17.790113,   29.962887,   154.912155,   875.876160,   -95.622101,   0.415785,   826.379883,   798.055054
-0.096568,   0.232245,   0.253252,   0.000000,   890.381653,   0.533122,   17.790113,   29.300001,   155.735443,   878.030823,   -95.254913,   0.416143,   828.052917,   799.404480
-0.097304,   0.234402,   0.255676,   0.000000,   892.155273,   0.533122,   17.790113,   28.637114,   156.325302,   879.959045,   -94.733047,   0.416412,   829.535217,   800.635132
-0.097986,   0.236316,   0.257820,   0.000000,   893.664368,   0.533122,   17.790113,   27.974228,   156.690536,   881.659668,   -94.059319,   0.416594,   830.824585,   801.742371
-0.098609,   0.237977,   0.259673,   0.000000,   894.908508,   0.533123,   17.790113,   27.311340,   156.838379,   883.130554,   -93.236015,   0.416695,   831.918274,   802.721680
-0.099168,   0.239376,   0.261227,   0.000000,   895.886475,   0.533122,   17.790113,   26.648455,   156.773529,   884.368652,   -92.265717,   0.416717,   832.814026,   803.569885
-0.099660,   0.240507,   0.262472,   0.000000,   896.596741,   0.533121,   17.790113,   25.985569,   156.498474,   885.370483,   -91.151222,   0.416659,   833.510132,   804.284790
-0.100079,   0.241366,   0.263406,   0.000000,   897.038025,   0.533122,   17.790113,   25.322683,   156.012512,   886.132263,   -89.896790,   0.416521,   834.006531,   804.867798
-0.100424,   0.241953,   0.264027,   0.000000,   897.208130,   0.533121,   17.790113,   24.659798,   155.309753,   886.648743,   -88.509964,   0.416298,   834.304443,   805.323364
-0.100694,   0.242271,   0.264338,   0.000000,   897.104980,   0.533122,   17.790113,   23.996910,   154.378998,   886.913818,   -87.001328,   0.415981,   834.407471,   805.660706
-0.100888,   0.242328,   0.264350,   0.000000,   896.725891,   0.533121,   17.790113,   23.334024,   153.203171,   886.920654,   -85.384003,   0.415557,   834.321106,   805.893799
-0.101011,   0.242137,   0.264074,   0.000000,   896.068359,   0.533122,   17.790113,   22.671139,   151.759232,   886.661987,   -83.673439,   0.415010,   834.053345,   806.039795
-0.101069,   0.241716,   0.263531,   0.000000,   895.130188,   0.533123,   17.790113,   22.008251,   150.019562,   886.131165,   -81.885666,   0.414321,   833.614441,   806.120728
-0.101070,   0.241088,   0.262743,   0.000000,   893.910950,   0.533122,   17.790113,   21.345366,   147.954285,   885.324036,   -80.034195,   0.413468,   833.017456,   806.160095
-0.101029,   0.240281,   0.261742,   0.000000,   892.413208,   0.533122,   17.790113,   20.682480,   145.533096,   884.240356,   -78.129051,   0.412432,   832.278320,   806.182922
-0.100963,   0.239330,   0.260563,   0.000000,   890.644836,   0.533122,   17.790113,   20.019594,   142.729919,   882.886536,   -76.174416,   0.411192,   831.416748,   806.214355
-0.100897,   0.238276,   0.259251,   0.000000,   888.621704,   0.533121,   17.790113,   19.356709,   139.527084,   881.278748,   -74.165878,   0.409736,   830.457458,   806.278748
-0.100862,   0.237171,   0.257861,   0.000000,   886.367554,   0.533122,   17.790113,   18.693821,   135.910919,   879.441650,   -72.094315,   0.408052,   829.431396,   806.403564
-0.100899,   0.236078,   0.256461,   0.000000,   883.917114,   0.533121,   17.790113,   18.030935,   131.875259,   877.411377,   -69.947136,   0.406129,   828.378479,   806.619812
-0.101060,   0.235074,   0.255136,   0.000000,   881.310120,   0.533123,   17.790113,   17.368050,   127.404884,   875.226257,   -67.725014,   0.403954,   827.348145,   806.971252
-0.101410,   0.234245,   0.253977,   0.000000,   878.582581,   0.533122,   17.790113,   16.705162,   122.461723,   872.921692,   -65.424072,   0.401496,   826.396118,   807.512390
-0.102026,   0.233682,   0.253085,   0.000000,   875.769714,   0.533122,   17.790113,   16.042276,   117.008362,   870.519348,   -63.117332,   0.398719,   825.583557,   808.302612
-0.102996,   0.233474,   0.252554,   0.000000,   872.848633,   0.533122,   17.790113,   15.379390,   110.875946,   867.994446,   -60.817299,   0.395521,   824.963318,   809.422974
-0.104386,   0.233668,   0.252438,   0.000000,   869.826355,   0.533122,   17.790113,   14.716504,   104.045341,   865.333679,   -58.654785,   0.391873,   824.569580,   810.883728
-0.106315,   0.234353,   0.252835,   0.000000,   866.546570,   0.533122,   17.790113,   14.053617,   96.083679,   862.369019,   -56.733074,   0.387515,   824.444519,   812.799622
-0.108875,   0.235601,   0.253828,   0.000000,   863.146545,   0.533122,   17.790113,   13.390732,   87.255379,   859.211487,   -55.255596,   0.382573,   824.649414,   815.098694
-0.112169,   0.237383,   0.255390,   0.000000,   859.326660,   0.533122,   17.790113,   12.727845,   76.998589,   855.620972,   -53.843033,   0.376759,   825.125244,   817.753479
-0.116348,   0.239753,   0.257586,   0.000000,   855.004883,   0.533122,   17.790113,   12.064960,   65.203156,   851.457703,   -52.929966,   0.369962,   825.904785,   820.702881
-0.120952,   0.242594,   0.260347,   0.000000,   850.066711,   0.533122,   17.790113,   11.402073,   51.833847,   846.652893,   -52.201630,   0.362182,   826.920593,   823.722046
-0.126732,   0.245796,   0.263512,   0.000000,   844.220642,   0.533122,   17.790113,   10.739187,   36.679775,   840.880798,   -51.933147,   0.353262,   828.054199,   826.542053
-0.133172,   0.249409,   0.267213,   0.000000,   837.481628,   0.533122,   17.790113,   10.076301,   19.792324,   834.163879,   -52.085339,   0.343216,   829.367065,   828.998840
-0.081365,   0.151410,   0.160761,   0.000000,   755.506836,   0.532940,   18.796381,   48.480339,   6.618377,   755.452393,   6.385956,   0.337687,   752.246399,   752.182007
-0.078693,   0.150998,   0.160389,   0.000000,   762.192688,   0.532942,   18.796381,   47.818947,   19.535694,   762.191284,   -1.014735,   0.346227,   752.615662,   752.044983
-0.076744,   0.151123,   0.160655,   0.000000,   768.804260,   0.532942,   18.796381,   47.157555,   31.694809,   768.693909,   -9.019603,   0.354072,   753.508728,   752.017212
-0.075352,   0.151895,   0.161678,   0.000000,   774.649780,   0.532939,   18.796381,   46.496166,   41.466282,   774.284302,   -16.369795,   0.360184,   754.938965,   752.415527
-0.075001,   0.153438,   0.163521,   0.000000,   780.725220,   0.532942,   18.796381,   45.834774,   50.565228,   779.947083,   -23.836391,   0.365674,   757.060486,   753.364014
-0.075027,   0.155899,   0.166405,   0.000000,   787.596130,   0.532942,   18.796381,   45.173382,   59.766006,   786.231750,   -31.512548,   0.371013,   760.079956,   755.007263
-0.075738,   0.159211,   0.170217,   0.000000,   794.538696,   0.532939,   18.796381,   44.511990,   67.785774,   792.494019,   -38.548504,   0.375442,   763.793030,   757.388550
-0.076755,   0.163161,   0.174741,   0.000000,   801.929932,   0.532942,   18.796381,   43.850601,   75.806038,   799.118408,   -45.183346,   0.379722,   768.038635,   760.175903
-0.078206,   0.167433,   0.179580,   0.000000,   809.130005,   0.532940,   18.796381,   43.189209,   83.154732,   805.552979,   -50.959030,   0.383516,   772.421692,   763.117554
-0.079652,   0.171947,   0.184705,   0.000000,   816.309082,   0.532942,   18.796381,   42.527821,   90.245392,   811.972290,   -56.113907,   0.387089,   776.925232,   766.130066
-0.081206,   0.176656,   0.190038,   0.000000,   823.423279,   0.532940,   18.796381,   41.866428,   97.133995,   818.311340,   -60.932247,   0.390472,   781.486267,   769.155396
-0.082804,   0.181488,   0.195502,   0.000000,   830.234863,   0.532940,   18.796381,   41.205036,   103.389427,   824.387695,   -65.191956,   0.393451,   786.016174,   772.223511
-0.084394,   0.186348,   0.200994,   0.000000,   836.704712,   0.532942,   18.796381,   40.543648,   109.091591,   830.136902,   -69.128891,   0.396076,   790.445251,   775.274902
-0.085954,   0.191183,   0.206458,   0.000000,   842.818115,   0.532940,   18.796381,   39.882256,   114.264778,   835.558838,   -72.723946,   0.398381,   794.736633,   778.281982
-0.087457,   0.195941,   0.211835,   0.000000,   848.577209,   0.532940,   18.796381,   39.220863,   118.975754,   840.664551,   -75.980865,   0.400422,   798.857117,   781.204224
-0.088888,   0.200572,   0.217071,   0.000000,   853.993652,   0.532942,   18.796381,   38.559475,   123.304794,   845.477051,   -78.886040,   0.402262,   802.778442,   783.995789
-0.090235,   0.205034,   0.222119,   0.000000,   859.062439,   0.532939,   18.796381,   37.898083,   127.283058,   849.998657,   -81.441338,   0.403930,   806.477722,   786.628906
-0.091493,   0.209290,   0.226940,   0.000000,   863.782043,   0.532942,   18.796381,   37.236691,   130.936234,   854.232361,   -83.656761,   0.405449,   809.939880,   789.085449
-0.092659,   0.213317,   0.231503,   0.000000,   868.152405,   0.532942,   18.796381,   36.575302,   134.281128,   858.179382,   -85.550636,   0.406835,   813.156006,   791.355042
-0.093732,   0.217093,   0.235787,   0.000000,   872.172668,   0.532940,   18.796381,   35.913910,   137.324158,   861.837463,   -87.148132,   0.408093,   816.121887,   793.436584
-0.094717,   0.220605,   0.239775,   0.000000,   875.846680,   0.532940,   18.796381,   35.252518,   140.074387,   865.207947,   -88.474251,   0.409231,   818.837708,   795.332214
-0.095614,   0.223844,   0.243455,   0.000000,   879.178467,   0.532942,   18.796381,   34.591129,   142.536469,   868.290405,   -89.557770,   0.410252,   821.306030,   797.048279
-0.096429,   0.226804,   0.246820,   0.000000,   882.172668,   0.532940,   18.796381,   33.929737,   144.712784,   871.084900,   -90.425659,   0.411155,   823.531433,   798.593567
-0.097165,   0.229483,   0.249867,   0.000000,   884.836182,   0.532940,   18.796381,   33.268345,   146.608917,   873.593750,   -91.101479,   0.411944,   825.519287,   799.976318
-0.097824,   0.231878,   0.252590,   0.000000,   887.175659,   0.532940,   18.796381,   32.606956,   148.230804,   875.819092,   -91.607201,   0.412620,   827.274902,   801.204041
-0.098411,   0.233988,   0.254989,   0.000000,   889.197144,   0.532942,   18.796381,   31.945564,   149.583618,   877.763000,   -91.961090,   0.413185,   828.803101,   802.283630
-0.098927,   0.235812,   0.257061,   0.000000,   890.906128,   0.532940,   18.796381,   31.284174,   150.673203,   879.427368,   -92.178978,   0.413641,   830.108276,   803.220642
-0.099373,   0.237347,   0.258803,   0.000000,   892.307251,   0.532941,   18.796381,   30.622782,   151.505005,   880.813904,   -92.272995,   0.413991,   831.193237,   804.018433
-0.099751,   0.238591,   0.260211,   0.000000,   893.403809,   0.532941,   18.796381,   29.961391,   152.084442,   881.923645,   -92.252113,   0.414236,   832.059753,   804.678528
-0.100060,   0.239541,   0.261282,   0.000000,   894.197388,   0.532940,   18.796381,   29.300001,   152.415665,   882.756653,   -92.122475,   0.414380,   832.708618,   805.201721
-0.100298,   0.240191,   0.262010,   0.000000,   894.688721,   0.532941,   18.796381,   28.638609,   152.502548,   883.312622,   -91.886787,   0.414423,   833.138855,   805.586243
-0.100463,   0.240539,   0.262390,   0.000000,   894.877319,   0.532941,   18.796381,   27.977219,   152.348785,   883.591125,   -91.544106,   0.414368,   833.348938,   805.829163
-0.100553,   0.240577,   0.262418,   0.000000,   894.761780,   0.532941,   18.796381,   27.315826,   151.956970,   883.591187,   -91.091103,   0.414218,   833.336182,   805.926392
-0.100564,   0.240303,   0.262087,   0.000000,   894.339966,   0.532940,   18.796381,   26.654436,   151.329071,   883.311584,   -90.521828,   0.413973,   833.097717,   805.873230
-0.100493,   0.239712,   0.261394,   0.000000,   893.609497,   0.532940,   18.796381,   25.993046,   150.466232,   882.751404,   -89.828163,   0.413636,   832.630249,   805.664551
-0.100335,   0.238803,   0.260339,   0.000000,   892.568115,   0.532942,   18.796381,   25.331656,   149.369125,   881.910217,   -88.999603,   0.413207,   831.931091,   805.295837
-0.100088,   0.237575,   0.258920,   0.000000,   891.214294,   0.532940,   18.796381,   24.670263,   148.037491,   880.788391,   -88.024269,   0.412687,   830.998474,   804.762878
-0.099749,   0.236034,   0.257144,   0.000000,   889.546570,   0.532941,   18.796381,   24.008873,   146.468460,   879.386108,   -86.890945,   0.412073,   829.831726,   804.064636
-0.099316,   0.234186,   0.255021,   0.000000,   887.564636,   0.532941,   18.796381,   23.347481,   144.656830,   877.704102,   -85.589066,   0.411364,   828.432678,   803.202515
-0.098789,   0.232044,   0.252563,   0.000000,   885.268616,   0.532940,   18.796381,   22.686090,   142.593048,   875.742920,   -84.110146,   0.410550,   826.805359,   802.182251
-0.098172,   0.229628,   0.249794,   0.000000,   882.658203,   0.532941,   18.796381,   22.024700,   140.259644,   873.501221,   -82.450783,   0.409622,   824.957275,   801.015808
-0.097466,   0.226961,   0.246739,   0.000000,   879.733215,   0.532940,   18.796381,   21.363308,   137.632294,   870.976929,   -80.610359,   0.408559,   822.899170,   799.720581
-0.096681,   0.224073,   0.243431,   0.000000,   876.493347,   0.532942,   18.796381,   20.701918,   134.678589,   868.167175,   -78.590492,   0.407340,   820.645142,   798.320190
-0.095828,   0.221000,   0.239910,   0.000000,   872.937866,   0.532940,   18.796381,   20.040525,   131.356079,   865.067627,   -76.396576,   0.405935,   818.213806,   796.844177
-0.094924,   0.217784,   0.236222,   0.000000,   869.068665,   0.532940,   18.796381,   19.379135,   127.620064,   861.677124,   -74.030052,   0.404309,   815.627625,   795.324585
-0.093989,   0.214473,   0.232419,   0.000000,   864.890442,   0.532941,   18.796381,   18.717745,   123.423363,   857.998352,   -71.486221,   0.402430,   812.913452,   793.795654
-0.093052,   0.211121,   0.228557,   0.000000,   860.420471,   0.532941,   18.796381,   18.056355,   118.735153,   854.049316,   -68.741524,   0.400271,   810.104248,   792.287598
-0.092150,   0.207791,   0.224709,   0.000000,   855.698425,   0.532941,   18.796381,   17.394962,   113.555840,   849.872681,   -65.753555,   0.397827,   807.242920,   790.827454
-0.091331,   0.204571,   0.220966,   0.000000,   850.792236,   0.532940,   18.796381,   16.733572,   107.908958,   845.539490,   -62.467278,   0.395101,   804.392090,   789.453125
-0.090669,   0.201557,   0.217439,   0.000000,   845.782654,   0.532941,   18.796381,   16.072182,   101.817978,   841.132263,   -58.819481,   0.392098,   801.627869,   788.215576
-0.090233,   0.198860,   0.214245,   0.000000,   840.747681,   0.532941,   18.796381,   15.410790,   95.288033,   836.710815,   -54.857105,   0.388800,   799.039612,   787.189026
-0.090080,   0.196592,   0.211514,   0.000000,   835.809265,   0.532941,   18.796381,   14.749399,   88.397896,   832.375732,   -50.658108,   0.385229,   796.732056,   786.442810
-0.090451,   0.194866,   0.209356,   0.000000,   830.731750,   0.532941,   18.796381,   14.088008,   80.466698,   827.909790,   -46.013092,   0.380986,   794.759094,   786.158142
-0.091183,   0.193802,   0.207936,   0.000000,   825.896851,   0.532940,   18.796381,   13.426618,   72.129112,   823.604004,   -41.572338,   0.376380,   793.287598,   786.326965
-0.092718,   0.193420,   0.207229,   0.000000,   820.752563,   0.532940,   18.796381,   12.765226,   62.277279,   818.952881,   -36.946297,   0.370772,   792.246948,   787.028320
-0.095020,   0.193650,   0.207180,   0.000000,   815.429382,   0.532941,   18.796381,   12.103836,   51.368839,   814.036133,   -32.627274,   0.364400,   791.625610,   788.064697
-0.098136,   0.194476,   0.207798,   0.000000,   809.622559,   0.532940,   18.796381,   11.442445,   38.862556,   808.575073,   -28.414286,   0.356939,   791.392883,   789.356323
-0.101734,   0.195928,   0.209162,   0.000000,   803.449463,   0.532941,   18.796381,   10.781054,   25.007210,   802.689941,   -24.315811,   0.348532,   791.604248,   790.768005
-0.106520,   0.197881,   0.211132,   0.000000,   796.572937,   0.532941,   18.796381,   10.119662,   9.494152,   796.046204,   -20.361471,   0.338978,   792.127258,   792.013000
-0.106520,   0.197881,   0.211132,   0.000000,   796.572754,   0.532941,   19.803617,   48.480339,   9.493887,   796.046021,   -20.361586,   0.338977,   792.127258,   792.013062
-0.101734,   0.195928,   0.209162,   0.000000,   803.449402,   0.532943,   19.803617,   47.818947,   25.007156,   802.689880,   -24.315872,   0.348532,   791.604187,   790.768005
-0.098136,   0.194476,   0.207798,   0.000000,   809.622559,   0.532943,   19.803617,   47.157555,   38.862606,   808.575073,   -28.414310,   0.356939,   791.392883,   789.356323
-0.095020,   0.193650,   0.207180,   0.000000,   815.429321,   0.532940,   19.803617,   46.496166,   51.368790,   814.036072,   -32.627281,   0.364400,   791.625610,   788.064575
-0.092718,   0.193420,   0.207229,   0.000000,   820.752563,   0.532943,   19.803617,   45.834774,   62.277325,   818.952881,   -36.946304,   0.370773,   792.246948,   787.028320
-0.091183,   0.193802,   0.207936,   0.000000,   825.896790,   0.532943,   19.803617,   45.173382,   72.129082,   823.603943,   -41.572361,   0.376380,   793.287476,   786.326843
-0.090451,   0.194866,   0.209356,   0.000000,   830.731689,   0.532940,   19.803617,   44.511990,   80.466728,   827.909729,   -46.013092,   0.380986,   794.758972,   786.157898
-0.090080,   0.196592,   0.211514,   0.000000,   835.809265,   0.532943,   19.803617,   43.850601,   88.397919,   832.375732,   -50.658123,   0.385229,   796.732117,   786.442749
-0.090233,   0.198860,   0.214245,   0.000000,   840.747620,   0.532941,   19.803617,   43.189209,   95.287918,   836.710754,   -54.857090,   0.388800,   799.039551,   787.189026
-0.090669,   0.201557,   0.217439,   0.000000,   845.782654,   0.532943,   19.803617,   42.527821,   101.818024,   841.132263,   -58.819500,   0.392098,   801.627808,   788.215393
-0.091331,   0.204571,   0.220966,   0.000000,   850.792236,   0.532941,   19.803617,   41.866428,   107.909111,   845.539490,   -62.467335,   0.395101,   804.391968,   789.452820
-0.092150,   0.207791,   0.224709,   0.000000,   855.698425,   0.532941,   19.803617,   41.205036,   113.555817,   849.872681,   -65.753540,   0.397827,   807.242920,   790.827515
-0.093052,   0.211121,   0.228557,   0.000000,   860.420410,   0.532943,   19.803617,   40.543648,   118.735115,   854.049255,   -68.741531,   0.400271,   810.104126,   792.287659
-0.093989,   0.214473,   0.232418,   0.000000,   864.890503,   0.532941,   19.803617,   39.882256,   123.423531,   857.998352,   -71.486290,   0.402430,   812.913452,   793.795532
-0.094924,   0.217784,   0.236222,   0.000000,   869.068542,   0.532941,   19.803617,   39.220863,   127.619972,   861.677002,   -74.030037,   0.404309,   815.627563,   795.324585
-0.095828,   0.221000,   0.239910,   0.000000,   872.937805,   0.532943,   19.803617,   38.559475,   131.356094,   865.067566,   -76.396614,   0.405935,   818.213745,   796.844238
-0.096681,   0.224073,   0.243431,   0.000000,   876.493347,   0.532940,   19.803617,   37.898083,   134.678604,   868.167175,   -78.590469,   0.407340,   820.645142,   798.320251
-0.097466,   0.226961,   0.246738,   0.000000,   879.733154,   0.532943,   19.803617,   37.236691,   137.632278,   870.976868,   -80.610390,   0.408559,   822.899048,   799.720703
-0.098171,   0.229628,   0.249794,   0.000000,   882.658203,   0.532943,   19.803617,   36.575302,   140.259674,   873.501221,   -82.450813,   0.409622,   824.957336,   801.015808
-0.098789,   0.232044,   0.252563,   0.000000,   885.268555,   0.532941,   19.803617,   35.913910,   142.593018,   875.742859,   -84.110138,   0.410550,   826.805359,   802.182251
-0.099316,   0.234186,   0.255021,   0.000000,   887.564575,   0.532941,   19.803617,   35.252518,   144.656845,   877.704041,   -85.589066,   0.411364,   828.432617,   803.202515
-0.099749,   0.236034,   0.257144,   0.000000,   889.546570,   0.532943,   19.803617,   34.591129,   146.468475,   879.386108,   -86.890961,   0.412073,   829.831726,   804.064636
-0.100088,   0.237575,   0.258920,   0.000000,   891.214294,   0.532941,   19.803617,   33.929737,   148.037445,   880.788391,   -88.024261,   0.412687,   830.998413,   804.762939
-0.100335,   0.238803,   0.260338,   0.000000,   892.568115,   0.532941,   19.803617,   33.268345,   149.369141,   881.910217,   -88.999596,   0.413207,   831.931091,   805.295837
-0.100493,   0.239712,   0.261394,   0.000000,   893.609497,   0.532941,   19.803617,   32.606956,   150.466217,   882.751404,   -89.828156,   0.413636,   832.630249,   805.664551
-0.100564,   0.240303,   0.262087,   0.000000,   894.339966,   0.532943,   19.803617,   31.945564,   151.329056,   883.311584,   -90.521835,   0.413973,   833.097717,   805.873230
-0.100553,   0.240577,   0.262418,   0.000000,   894.761719,   0.532941,   19.803617,   31.284174,   151.956955,   883.591125,   -91.091072,   0.414218,   833.336121,   805.926392
-0.100463,   0.240539,   0.262390,   0.000000,   894.877319,   0.532942,   19.803617,   30.622782,   152.348770,   883.591125,   -91.544098,   0.414368,   833.348938,   805.829163
-0.100298,   0.240191,   0.262010,   0.000000,   894.688721,   0.532942,   19.803617,   29.961391,   152.502518,   883.312622,   -91.886772,   0.414423,   833.138855,   805.586243
-0.100060,   0.239541,   0.261282,   0.000000,   894.197388,   0.532941,   19.803617,   29.300001,   152.415649,   882.756653,   -92.122459,   0.414380,   832.708618,   805.201721
-0.099751,   0.238591,   0.260211,   0.000000,   893.403809,   0.532942,   19.803617,   28.638609,   152.084427,   881.923645,   -92.252090,   0.414236,   832.059753,   804.678528
-0.099373,   0.237347,   0.258803,   0.000000,   892.307251,   0.532942,   19.803617,   27.977219,   151.504974,   880.813904,   -92.272972,   0.413991,   831.193176,   804.018433
-0.098927,   0.235812,   0.257061,   0.000000,   890.906189,   0.532942,   19.803617,   27.315826,   150.673203,   879.427429,   -92.178986,   0.413641,   830.108276,   803.220642
-0.098411,   0.233988,   0.254989,   0.000000,   889.197144,   0.532941,   19.803617,   26.654436,   149.583588,   877.763000,   -91.961060,   0.413185,   828.803223,   802.283813
-0.097824,   0.231878,   0.252590,   0.000000,   887.175659,   0.532941,   19.803617,   25.993046,   148.230713,   875.819092,   -91.607132,   0.412620,   827.274841,   801.204041
-0.097165,   0.229483,   0.249867,   0.000000,   884.836182,   0.532943,   19.803617,   25.331656,   146.608932,   873.593750,   -91.101501,   0.411944,   825.519226,   799.976196
-0.096429,   0.226804,   0.246820,   0.000000,   882.172668,   0.532941,   19.803617,   24.670263,   144.712677,   871.084900,   -90.425575,   0.411155,   823.531433,   798.593445
-0.095614,   0.223844,   0.243455,   0.000000,   879.178528,   0.532942,   19.803617,   24.008873,   142.536469,   868.290466,   -89.557739,   0.410252,   821.306030,   797.048279
-0.094717,   0.220605,   0.239775,   0.000000,   875.846680,   0.532942,   19.803617,   23.347481,   140.074387,   865.207947,   -88.474251,   0.409231,   818.837708,   795.332214
-0.093733,   0.217093,   0.235787,   0.000000,   872.172607,   0.532941,   19.803617,   22.686090,   137.324036,   861.837463,   -87.148041,   0.408093,   816.121948,   793.436646
-0.092659,   0.213317,   0.231503,   0.000000,   868.152405,   0.532942,   19.803617,   22.024700,   134.281143,   858.179382,   -85.550667,   0.406835,   813.156067,   791.355042
-0.091493,   0.209290,   0.226940,   0.000000,   863.782104,   0.532941,   19.803617,   21.363308,   130.936203,   854.232422,   -83.656723,   0.405449,   809.939941,   789.085449
-0.090235,   0.205034,   0.222119,   0.000000,   859.062439,   0.532943,   19.803617,   20.701918,   127.283005,   849.998657,   -81.441315,   0.403930,   806.477783,   786.629028
-0.088888,   0.200572,   0.217071,   0.000000,   853.993652,   0.532941,   19.803617,   20.040525,   123.304756,   845.477051,   -78.885994,   0.402262,   802.778442,   783.995789
-0.087457,   0.195941,   0.211835,   0.000000,   848.577209,   0.532941,   19.803617,   19.379135,   118.975601,   840.664551,   -75.980782,   0.400422,   798.857178,   781.204468
-0.085954,   0.191183,   0.206458,   0.000000,   842.818237,   0.532942,   19.803617,   18.717745,   114.264923,   835.558960,   -72.723976,   0.398381,   794.736755,   778.282166
-0.084395,   0.186348,   0.200995,   0.000000,   836.704651,   0.532942,   19.803617,   18.056355,   109.091492,   830.136902,   -69.128799,   0.396076,   790.445374,   775.274963
-0.082804,   0.181488,   0.195502,   0.000000,   830.234863,   0.532942,   19.803617,   17.394962,   103.389328,   824.387695,   -65.191925,   0.393451,   786.016174,   772.223511
-0.081206,   0.176656,   0.190038,   0.000000,   823.423401,   0.532941,   19.803617,   16.733572,   97.134102,   818.311462,   -60.932262,   0.390472,   781.486389,   769.155518
-0.079652,   0.171947,   0.184705,   0.000000,   816.309082,   0.532942,   19.803617,   16.072182,   90.245384,   811.972290,   -56.113903,   0.387089,   776.925232,   766.130066
-0.078206,   0.167433,   0.179580,   0.000000,   809.129944,   0.532942,   19.803617,   15.410790,   83.154579,   805.552917,   -50.958946,   0.383516,   772.421631,   763.117493
-0.076755,   0.163161,   0.174741,   0.000000,   801.929932,   0.532942,   19.803617,   14.749399,   75.806030,   799.118408,   -45.183361,   0.379722,   768.038635,   760.175903
-0.075738,   0.159211,   0.170217,   0.000000,   794.538696,   0.532942,   19.803617,   14.088008,   67.785782,   792.494019,   -38.548492,   0.375442,   763.793030,   757.388550
-0.075027,   0.155899,   0.166405,   0.000000,   787.596130,   0.532942,   19.803617,   13.426618,   59.765949,   786.231750,   -31.512518,   0.371013,   760.079956,   755.007202
-0.075001,   0.153438,   0.163521,   0.000000,   780.725281,   0.532942,   19.803617,   12.765226,   50.565315,   779.947144,   -23.836432,   0.365674,   757.060486,   753.363953
-0.075352,   0.151895,   0.161678,   0.000000,   774.649780,   0.532942,   19.803617,   12.103836,   41.466267,   774.284302,   -16.369801,   0.360184,   754.938965,   752.415588
-0.076744,   0.151123,   0.160655,   0.000000,   768.804321,   0.532942,   19.803617,   11.442445,   31.694931,   768.693970,   -9.019638,   0.354072,   753.508728,   752.017212
-0.078693,   0.150998,   0.160389,   0.000000,   762.192749,   0.532942,   19.803617,   10.781054,   19.535807,   762.191345,   -1.014788,   0.346227,   752.615662,   752.044983
-0.081365,   0.151410,   0.160761,   0.000000,   755.506958,   0.532942,   19.803617,   10.119662,   6.618421,   755.452515,   6.385821,   0.337687,   752.246460,   752.182068
-0.133172,   0.249409,   0.267213,   0.000000,   837.481873,   0.533120,   20.809887,   48.523701,   19.792625,   834.164124,   -52.085236,   0.343216,   829.367126,   828.998779
-0.126732,   0.245796,   0.263512,   0.000000,   844.220764,   0.533122,   20.809887,   47.860813,   36.679867,   840.880920,   -51.933037,   0.353262,   828.054260,   826.542114
-0.120952,   0.242594,   0.260347,   0.000000,   850.066895,   0.533120,   20.809887,   47.197926,   51.834129,   846.653076,   -52.201569,   0.362182,   826.920593,   823.722046
-0.116348,   0.239753,   0.257586,   0.000000,   855.004761,   0.533120,   20.809887,   46.535042,   65.202942,   851.457581,   -52.929932,   0.369962,   825.904724,   820.702881
-0.112169,   0.237383,   0.255390,   0.000000,   859.326782,   0.533120,   20.809887,   45.872154,   76.998840,   855.621094,   -53.843048,   0.376759,   825.125244,   817.753479
-0.108875,   0.235601,   0.253828,   0.000000,   863.146606,   0.533122,   20.809887,   45.209270,   87.255531,   859.211548,   -55.255661,   0.382574,   824.649414,   815.098694
-0.106315,   0.234353,   0.252835,   0.000000,   866.546448,   0.533120,   20.809887,   44.546383,   96.083549,   862.368896,   -56.733086,   0.387514,   824.444458,   812.799622
-0.104386,   0.233667,   0.252438,   0.000000,   869.826416,   0.533120,   20.809887,   43.883495,   104.045547,   865.333740,   -58.654858,   0.391873,   824.569519,   810.883606
-0.102996,   0.233474,   0.252554,   0.000000,   872.848633,   0.533122,   20.809887,   43.220608,   110.875984,   867.994446,   -60.817364,   0.395521,   824.963257,   809.422974
-0.102026,   0.233682,   0.253085,   0.000000,   875.769836,   0.533120,   20.809887,   42.557724,   117.008537,   870.519409,   -63.117420,   0.398719,   825.583557,   808.302429
-0.101410,   0.234245,   0.253977,   0.000000,   878.582520,   0.533120,   20.809887,   41.894836,   122.461678,   872.921631,   -65.424118,   0.401496,   826.396118,   807.512390
-0.101060,   0.235074,   0.255136,   0.000000,   881.310242,   0.533120,   20.809887,   41.231953,   127.405045,   875.226318,   -67.725082,   0.403954,   827.348145,   806.971313
-0.100899,   0.236078,   0.256461,   0.000000,   883.917114,   0.533122,   20.809887,   40.569065,   131.875290,   877.411377,   -69.947189,   0.406129,   828.378418,   806.619629
-0.100862,   0.237171,   0.257861,   0.000000,   886.367493,   0.533120,   20.809887,   39.906178,   135.910843,   879.441589,   -72.094353,   0.408052,   829.431335,   806.403442
-0.100897,   0.238276,   0.259251,   0.000000,   888.621704,   0.533120,   20.809887,   39.243294,   139.527161,   881.278748,   -74.165932,   0.409736,   830.457458,   806.278809
-0.100963,   0.239330,   0.260563,   0.000000,   890.644775,   0.533122,   20.809887,   38.580406,   142.729935,   882.886475,   -76.174469,   0.411192,   831.416687,   806.214172
-0.101029,   0.240281,   0.261742,   0.000000,   892.413208,   0.533119,   20.809887,   37.917519,   145.533096,   884.240356,   -78.129044,   0.412432,   832.278259,   806.182922
-0.101070,   0.241088,   0.262743,   0.000000,   893.910889,   0.533122,   20.809887,   37.254635,   147.954269,   885.323975,   -80.034225,   0.413468,   833.017456,   806.160156
-0.101069,   0.241716,   0.263531,   0.000000,   895.130188,   0.533120,   20.809887,   36.591747,   150.019592,   886.131165,   -81.885696,   0.414321,   833.614441,   806.120728
-0.101011,   0.242137,   0.264074,   0.000000,   896.068359,   0.533122,   20.809887,   35.928864,   151.759216,   886.661987,   -83.673454,   0.415010,   834.053284,   806.039917
-0.100888,   0.242328,   0.264350,   0.000000,   896.725891,   0.533119,   20.809887,   35.265976,   153.203156,   886.920654,   -85.384003,   0.415557,   834.321106,   805.893799
-0.100694,   0.242271,   0.264338,   0.000000,   897.104980,   0.533122,   20.809887,   34.603092,   154.378998,   886.913818,   -87.001343,   0.415981,   834.407471,   805.660767
-0.100424,   0.241953,   0.264027,   0.000000,   897.208130,   0.533122,   20.809887,   33.940201,   155.309723,   886.648743,   -88.509964,   0.416298,   834.304443,   805.323364
-0.100079,   0.241366,   0.263406,   0.000000,   897.038025,   0.533119,   20.809887,   33.277317,   156.012497,   886.132263,   -89.896774,   0.416521,   834.006531,   804.867798
-0.099660,   0.240507,   0.262472,   0.000000,   896.596741,   0.533122,   20.809887,   32.614429,   156.498444,   885.370483,   -91.151222,   0.416659,   833.510132,   804.284790
-0.099168,   0.239376,   0.261227,   0.000000,   895.886475,   0.533121,   20.809887,   31.951544,   156.773499,   884.368652,   -92.265717,   0.416717,   832.814026,   803.569885
-0.098609,   0.237977,   0.259673,   0.000000,   894.908508,   0.533120,   20.809887,   31.288658,   156.838364,   883.130554,   -93.236000,   0.416695,   831.918213,   802.721680
-0.097986,   0.236316,   0.257820,   0.000000,   893.664368,   0.533120,   20.809887,   30.625772,   156.690521,   881.659668,   -94.059303,   0.416594,   830.824585,   801.742371
-0.097304,   0.234402,   0.255676,   0.000000,   892.155273,   0.533121,   20.809887,   29.962887,   156.325272,   879.959045,   -94.733047,   0.416412,   829.535217,   800.635132
-0.096568,   0.232245,   0.253252,   0.000000,   890.381653,   0.533120,   20.809887,   29.300001,   155.735413,   878.030823,   -95.254898,   0.416143,   828.052917,   799.404480
-0.095781,   0.229854,   0.250559,   0.000000,   888.343018,   0.533121,   20.809887,   28.637114,   154.912125,   875.876160,   -95.622070,   0.415785,   826.379883,   798.055054
-0.094948,   0.227239,   0.247609,   0.000000,   886.037659,   0.533120,   20.809887,   27.974228,   153.845245,   873.495117,   -95.830849,   0.415330,   824.517822,   796.591125
-0.094071,   0.224408,   0.244411,   0.000000,   883.462708,   0.533122,   20.809887,   27.311340,   152.523682,   870.886902,   -95.875656,   0.414772,   822.467590,   795.015503
-0.093150,   0.221369,   0.240973,   0.000000,   880.613037,   0.533120,   20.809887,   26.648455,   150.934952,   868.048767,   -95.749031,   0.414106,   820.228516,   793.330200
-0.092188,   0.218125,   0.237302,   0.000000,   877.480530,   0.533120,   20.809887,   25.985569,   149.064743,   864.975220,   -95.441460,   0.413322,   817.797302,   791.533691
-0.091180,   0.214681,   0.233401,   0.000000,   874.056152,   0.533121,   20.809887,   25.322683,   146.900345,   861.660278,   -94.940598,   0.412414,   815.169312,   789.622864
-0.090126,   0.211036,   0.229273,   0.000000,   870.328979,   0.533120,   20.809887,   24.659798,   144.429611,   858.096558,   -94.231056,   0.411375,   812.338318,   787.590759
-0.089021,   0.207191,   0.224918,   0.000000,   866.285217,   0.533121,   20.809887,   23.996910,   141.638519,   854.274048,   -93.294411,   0.410197,   809.295410,   785.428467
-0.087860,   0.203142,   0.220334,   0.000000,   861.909607,   0.533120,   20.809887,   23.334024,   138.516281,   850.180969,   -92.110916,   0.408875,   806.029663,   783.122498
-0.086637,   0.198888,   0.215519,   0.000000,   857.184448,   0.533120,   20.809887,   22.671139,   135.050323,   845.803528,   -90.656151,   0.407402,   802.528381,   780.657898
-0.085343,   0.194424,   0.210472,   0.000000,   852.094238,   0.533122,   20.809887,   22.008251,   131.235657,   841.131226,   -88.897537,   0.405773,   798.778076,   778.014709
-0.083973,   0.189748,   0.205191,   0.000000,   846.622742,   0.533120,   20.809887,   21.345366,   127.068893,   836.151306,   -86.803047,   0.403985,   794.764709,   775.171753
-0.082517,   0.184862,   0.199679,   0.000000,   840.757141,   0.533121,   20.809887,   20.682480,   122.553215,   830.854065,   -84.335327,   0.402040,   790.475342,   772.106384
-0.080970,   0.179771,   0.193943,   0.000000,   834.494080,   0.533120,   20.809887,   20.019594,   117.709038,   825.238342,   -81.451691,   0.399944,   785.900024,   768.793640
-0.079322,   0.174484,   0.187996,   0.000000,   827.822144,   0.533120,   20.809887,   19.356709,   112.534790,   819.292236,   -78.111092,   0.397691,   781.030762,   765.218506
-0.077570,   0.169023,   0.181863,   0.000000,   820.754211,   0.533121,   20.809887,   18.693821,   107.065125,   813.026733,   -74.263268,   0.395295,   775.869629,   761.365234
-0.075717,   0.163415,   0.175574,   0.000000,   813.308594,   0.533120,   20.809887,   18.030935,   101.341835,   806.445435,   -69.902458,   0.392764,   770.426392,   757.228638
-0.073763,   0.157708,   0.169184,   0.000000,   805.454468,   0.533122,   20.809887,   17.368050,   95.246132,   799.517578,   -64.934044,   0.390017,   764.721191,   752.854248
-0.071724,   0.151933,   0.162729,   0.000000,   797.292053,   0.533120,   20.809887,   16.705162,   89.018745,   792.269958,   -59.640781,   0.387147,   758.788635,   748.221680
-0.069644,   0.146137,   0.156250,   0.000000,   788.504028,   0.533121,   20.809887,   16.042276,   81.902687,   784.443176,   -53.566769,   0.383708,   752.608398,   743.470703
-0.067364,   0.140396,   0.149859,   0.000000,   779.582764,   0.533121,   20.809887,   15.379390,   74.882553,   776.366882,   -47.605049,   0.380191,   746.334595,   738.533630
-0.065201,   0.134819,   0.143635,   0.000000,   770.224792,   0.533121,   20.809887,   14.716504,   67.095917,   767.865845,   -40.726440,   0.376117,   739.983154,   733.571655
-0.063177,   0.129656,   0.137877,   0.000000,   761.072144,   0.533121,   20.809887,   14.053617,   59.357979,   759.502441,   -33.188549,   0.371929,   733.886414,   728.741150
-0.061340,   0.124795,   0.132456,   0.000000,   751.887024,   0.533121,   20.809887,   13.390732,   51.383320,   751.032349,   -24.468410,   0.367437,   727.939148,   723.977783
-0.059964,   0.120297,   0.127420,   0.000000,   742.696655,   0.533121,   20.809887,   12.727845,   43.152866,   742.397644,   -14.462304,   0.362561,   722.223877,   719.354980
-0.058980,   0.116685,   0.123375,   0.000000,   734.221741,   0.533121,   20.809887,   12.064960,   34.830383,   734.202087,   -3.710201,   0.357299,   717.450073,   715.546326
-0.058146,   0.113906,   0.120292,   0.000000,   726.910278,   0.533121,   20.809887,   11.402073,   27.232229,   726.859680,   5.950907,   0.352195,   713.707764,   712.541809
-0.058645,   0.111940,   0.118093,   0.000000,   718.605042,   0.533121,   20.809887,   10.739187,   16.427282,   718.088562,   19.043362,   0.344463,   710.783203,   710.382324
-0.059484,   0.111196,   0.117288,   0.000000,   712.280884,   0.533121,   20.809887,   10.076301,   6.880711,   710.989014,   30.187618,   0.337264,   709.502991,   709.453430
-0.159387,   0.300487,   0.323130,   0.000000,   873.714172,   0.533468,   21.813259,   48.610340,   33.846088,   864.514282,   -87.901611,   0.347533,   861.655457,   860.861755
-0.151286,   0.295838,   0.318329,   0.000000,   880.921143,   0.533468,   21.813259,   47.944466,   52.041458,   872.439270,   -83.847816,   0.358339,   859.969177,   857.481750
-0.143590,   0.291374,   0.313866,   0.000000,   887.190063,   0.533466,   21.813259,   47.278591,   68.835800,   879.301514,   -80.346893,   0.368205,   858.340820,   853.452148
-0.137061,   0.287011,   0.309558,   0.000000,   892.037048,   0.533468,   21.813259,   46.612720,   83.235840,   884.630676,   -77.396866,   0.376612,   856.643188,   849.043091
-0.131292,   0.282798,   0.305420,   0.000000,   895.786682,   0.533466,   21.813259,   45.946846,   95.665466,   888.778137,   -74.884476,   0.383838,   854.912964,   844.477661
-0.126400,   0.278767,   0.301466,   0.000000,   898.537109,   0.533468,   21.813259,   45.280972,   106.183075,   891.768738,   -73.232254,   0.389893,   853.184937,   840.005859
-0.122026,   0.274953,   0.297744,   0.000000,   900.598328,   0.533468,   21.813259,   44.615097,   115.220695,   894.005127,   -71.959419,   0.395079,   851.497253,   835.695251
-0.118279,   0.271484,   0.294374,   0.000000,   902.232178,   0.533466,   21.813259,   43.949223,   123.137039,   895.715881,   -71.251694,   0.399577,   849.943726,   831.657654
-0.115146,   0.268382,   0.291374,   0.000000,   903.476990,   0.533468,   21.813259,   43.283348,   129.936340,   896.902344,   -71.314484,   0.403371,   848.548340,   828.013184
-0.112500,   0.265577,   0.288658,   0.000000,   904.426697,   0.533466,   21.813259,   42.617477,   135.849274,   897.716553,   -71.813972,   0.406626,   847.270691,   824.692261
-0.110300,   0.263074,   0.286230,   0.000000,   905.132812,   0.533468,   21.813259,   41.951603,   140.930527,   898.231750,   -72.620926,   0.409385,   846.117493,   821.724304
-0.108460,   0.260836,   0.284053,   0.000000,   905.679382,   0.533466,   21.813259,   41.285728,   145.403214,   898.515259,   -73.801819,   0.411762,   845.082825,   819.063904
-0.106917,   0.258807,   0.282066,   0.000000,   906.058838,   0.533468,   21.813259,   40.619858,   149.288284,   898.592163,   -75.170204,   0.413791,   844.131104,   816.679993
-0.105606,   0.256933,   0.280213,   0.000000,   906.290100,   0.533469,   21.813259,   39.953979,   152.689575,   898.480896,   -76.713982,   0.415530,   843.236877,   814.526062
-0.104469,   0.255156,   0.278429,   0.000000,   906.363953,   0.533466,   21.813259,   39.288105,   155.653915,   898.181030,   -78.377243,   0.417014,   842.366272,   812.559082
-0.103454,   0.253419,   0.276658,   0.000000,   906.266724,   0.533468,   21.813259,   38.622231,   158.216843,   897.685303,   -80.120667,   0.418268,   841.487061,   810.740112
-0.102522,   0.251676,   0.274850,   0.000000,   905.983459,   0.533466,   21.813259,   37.956360,   160.402313,   896.983582,   -81.915451,   0.419312,   840.571594,   809.037048
-0.101639,   0.249887,   0.272965,   0.000000,   905.500610,   0.533468,   21.813259,   37.290485,   162.227997,   896.066284,   -83.739334,   0.420160,   839.596619,   807.423218
-0.100781,   0.248021,   0.270971,   0.000000,   904.807495,   0.533466,   21.813259,   36.624611,   163.708801,   894.926208,   -85.574646,   0.420823,   838.543518,   805.876892
-0.099929,   0.246055,   0.268846,   0.000000,   903.897034,   0.533468,   21.813259,   35.958740,   164.859558,   893.560364,   -87.402351,   0.421313,   837.397339,   804.377930
-0.099070,   0.243971,   0.266572,   0.000000,   902.765747,   0.533466,   21.813259,   35.292866,   165.696594,   891.970215,   -89.202377,   0.421643,   836.146545,   802.907837
-0.098193,   0.241756,   0.264137,   0.000000,   901.413757,   0.533468,   21.813259,   34.626991,   166.238647,   890.161560,   -90.952423,   0.421827,   834.781860,   801.447510
-0.097291,   0.239402,   0.261534,   0.000000,   899.843872,   0.533468,   21.813259,   33.961117,   166.505951,   888.143982,   -92.628036,   0.421879,   833.296204,   799.978882
-0.096361,   0.236902,   0.258757,   0.000000,   898.060120,   0.533466,   21.813259,   33.295242,   166.518250,   885.929016,   -94.204140,   0.421814,   831.684143,   798.484253
-0.095402,   0.234255,   0.255806,   0.000000,   896.067139,   0.533468,   21.813259,   32.629368,   166.293365,   883.529053,   -95.655495,   0.421645,   829.940918,   796.947144
-0.094412,   0.231460,   0.252682,   0.000000,   893.869507,   0.533468,   21.813259,   31.963495,   165.846115,   880.956543,   -96.958488,   0.421386,   828.063416,   795.353638
-0.093394,   0.228519,   0.249387,   0.000000,   891.470581,   0.533467,   21.813259,   31.297621,   165.186127,   878.222168,   -98.092499,   0.421044,   826.049011,   793.692932
-0.092349,   0.225436,   0.245926,   0.000000,   888.872559,   0.533467,   21.813259,   30.631748,   164.317459,   875.334351,   -99.041260,   0.420624,   823.896362,   791.957947
-0.091281,   0.222217,   0.242306,   0.000000,   886.076111,   0.533468,   21.813259,   29.965874,   163.239624,   872.299255,   -99.791840,   0.420129,   821.604858,   790.145569
-0.090192,   0.218867,   0.238535,   0.000000,   883.080566,   0.533467,   21.813259,   29.299999,   161.947540,   869.120667,   -100.334076,   0.419556,   819.174316,   788.253906
-0.089087,   0.215394,   0.234620,   0.000000,   879.882935,   0.533467,   21.813259,   28.634127,   160.431763,   865.799194,   -100.660614,   0.418902,   816.604248,   786.283875
-0.087966,   0.211804,   0.230568,   0.000000,   876.478699,   0.533467,   21.813259,   27.968252,   158.680511,   862.333008,   -100.765839,   0.418160,   813.894043,   784.237061
-0.086832,   0.208101,   0.226386,   0.000000,   872.862305,   0.533468,   21.813259,   27.302378,   156.681000,   858.718872,   -100.644165,   0.417323,   811.042419,   782.114624
-0.085686,   0.204291,   0.222080,   0.000000,   869.025696,   0.533467,   21.813259,   26.636505,   154.416977,   854.950500,   -100.290817,   0.416381,   808.047546,   779.918030
-0.084527,   0.200377,   0.217653,   0.000000,   864.957886,   0.533467,   21.813259,   25.970631,   151.870865,   851.018005,   -99.701271,   0.415324,   804.905273,   777.647034
-0.083354,   0.196357,   0.213105,   0.000000,   860.644409,   0.533468,   21.813259,   25.304758,   149.023926,   846.907471,   -98.870972,   0.414138,   801.609192,   775.298462
-0.082162,   0.192230,   0.208435,   0.000000,   856.069519,   0.533467,   21.813259,   24.638884,   145.859497,   842.604492,   -97.790550,   0.412814,   798.150574,   772.865173
-0.080948,   0.187992,   0.203640,   0.000000,   851.217163,   0.533467,   21.813259,   23.973009,   142.365158,   838.093384,   -96.451012,   0.411342,   794.519653,   770.336426
-0.079705,   0.183635,   0.198713,   0.000000,   846.065491,   0.533467,   21.813259,   23.307137,   138.524658,   833.352661,   -94.841232,   0.409711,   790.702454,   767.697937
-0.078426,   0.179150,   0.193644,   0.000000,   840.587036,   0.533467,   21.813259,   22.641262,   134.318878,   828.354797,   -92.947464,   0.407905,   786.681152,   764.931213
-0.077101,   0.174526,   0.188422,   0.000000,   834.757202,   0.533468,   21.813259,   21.975388,   129.741638,   823.075867,   -90.749809,   0.405919,   782.436035,   762.009949
-0.075720,   0.169751,   0.183035,   0.000000,   828.552734,   0.533468,   21.813259,   21.309513,   124.797844,   817.491272,   -88.230125,   0.403751,   777.945374,   758.901489
-0.074270,   0.164808,   0.177467,   0.000000,   821.936462,   0.533467,   21.813259,   20.643641,   119.475716,   811.562012,   -85.367638,   0.401389,   773.180664,   755.571411
-0.072734,   0.159685,   0.171707,   0.000000,   814.889526,   0.533467,   21.813259,   19.977766,   113.803871,   805.268738,   -82.128029,   0.398843,   768.115479,   751.973083
-0.071103,   0.154367,   0.165738,   0.000000,   807.387634,   0.533467,   21.813259,   19.311893,   107.816025,   798.580750,   -78.492203,   0.396126,   762.718018,   748.055237
-0.069347,   0.148836,   0.159544,   0.000000,   799.367554,   0.533467,   21.813259,   18.646019,   101.457642,   791.447144,   -74.348724,   0.393205,   756.945862,   743.776978
-0.067446,   0.143087,   0.153123,   0.000000,   790.946289,   0.533467,   21.813259,   17.980146,   95.078430,   783.949341,   -69.777763,   0.390268,   750.790649,   739.032349
-0.065425,   0.137122,   0.146474,   0.000000,   781.883057,   0.533468,   21.813259,   17.314272,   88.220268,   775.909058,   -64.373566,   0.387063,   744.176514,   733.846802
-0.063104,   0.130985,   0.139666,   0.000000,   772.642090,   0.533467,   21.813259,   16.648397,   81.889862,   767.662231,   -58.650307,   0.384133,   737.202209,   728.094055
-0.060735,   0.124508,   0.132475,   0.000000,   762.482117,   0.533467,   21.813259,   15.982523,   74.997505,   758.574890,   -51.827957,   0.380867,   729.539368,   721.684937
-0.058118,   0.118104,   0.125400,   0.000000,   752.306274,   0.533467,   21.813259,   15.316649,   68.579269,   749.399353,   -44.582027,   0.377794,   721.714539,   714.945862
-0.055701,   0.111817,   0.118446,   0.000000,   741.296326,   0.533467,   21.813259,   14.650777,   60.919182,   739.363892,   -36.260216,   0.373807,   713.633728,   708.117859
-0.052952,   0.105602,   0.111605,   0.000000,   730.285583,   0.533467,   21.813259,   13.984902,   53.925114,   729.115295,   -28.134165,   0.370028,   705.389282,   700.930298
-0.050401,   0.099631,   0.105029,   0.000000,   718.571106,   0.533467,   21.813259,   13.319029,   45.779278,   718.048462,   -18.752249,   0.365269,   697.045532,   693.728516
-0.047778,   0.094138,   0.099006,   0.000000,   707.572083,   0.533467,   21.813259,   12.653154,   38.664570,   707.465637,   -8.439256,   0.360919,   689.102600,   686.669189
-0.045437,   0.088583,   0.092915,   0.000000,   695.932190,   0.533467,   21.813259,   11.987281,   31.468473,   695.904114,   4.318524,   0.356159,   680.756714,   679.120361
-0.043065,   0.083706,   0.087613,   0.000000,   685.257202,   0.533467,   21.813259,   11.321407,   25.193724,   684.763000,   18.061279,   0.351509,   673.247314,   672.226807
-0.042000,   0.079810,   0.083385,   0.000000,   673.273071,   0.533467,   21.813259,   10.655534,   14.790766,   671.408997,   35.035290,   0.342978,   666.903687,   666.621704
-0.041149,   0.076613,   0.079977,   0.000000,   662.852356,   0.533467,   21.813259,   9.989659,   6.111154,   658.907349,   50.900284,   0.334969,   661.771912,   661.763916
-0.182008,   0.347124,   0.374657,   0.000000,   905.307861,   0.533953,   22.811810,   48.740093,   52.690769,   886.528564,   -126.536705,   0.352228,   888.837463,   887.380127
-0.172320,   0.341112,   0.368366,   0.000000,   911.974365,   0.533950,   22.811810,   48.069744,   70.333794,   895.137939,   -119.038765,   0.363053,   886.437256,   882.794250
-0.163364,   0.334991,   0.362083,   0.000000,   917.517517,   0.533951,   22.811810,   47.399399,   86.660858,   902.294128,   -112.465309,   0.372923,   883.966370,   877.436646
-0.154972,   0.328872,   0.355900,   0.000000,   921.858215,   0.533950,   22.811810,   46.729050,   101.196587,   908.003723,   -106.629501,   0.381649,   881.438721,   871.623108
-0.147719,   0.322641,   0.349596,   0.000000,   924.914673,   0.533950,   22.811810,   46.058701,   113.769165,   912.226990,   -101.447342,   0.389190,   878.745056,   865.520508
-0.141017,   0.316382,   0.343270,   0.000000,   927.018799,   0.533951,   22.811810,   45.388355,   124.837784,   915.299316,   -96.959541,   0.395811,   875.954834,   859.291931
-0.134937,   0.310242,   0.337059,   0.000000,   928.358093,   0.533950,   22.811810,   44.718006,   134.551636,   917.408386,   -93.230560,   0.401599,   873.143372,   853.127625
-0.129436,   0.304149,   0.330865,   0.000000,   928.960815,   0.533950,   22.811810,   44.047657,   142.979965,   918.579956,   -90.328102,   0.406601,   870.270874,   847.095886
-0.124574,   0.298144,   0.324730,   0.000000,   928.903198,   0.533951,   22.811810,   43.377312,   150.176529,   918.864868,   -88.414467,   0.410838,   867.366699,   841.329651
-0.120229,   0.292263,   0.318679,   0.000000,   928.317749,   0.533950,   22.811810,   42.706963,   156.317871,   918.464783,   -87.215271,   0.414442,   864.441956,   835.839661
-0.116389,   0.286545,   0.312744,   0.000000,   927.287476,   0.533950,   22.811810,   42.036613,   161.475296,   917.521484,   -86.480644,   0.417483,   861.510010,   830.655945
-0.112972,   0.281029,   0.306981,   0.000000,   925.930603,   0.533951,   22.811810,   41.366264,   165.853119,   916.103455,   -86.425613,   0.420039,   858.616577,   825.813599
-0.109942,   0.275706,   0.301376,   0.000000,   924.277344,   0.533950,   22.811810,   40.695919,   169.467316,   914.311768,   -86.730232,   0.422156,   855.748657,   821.300476
-0.107252,   0.270593,   0.295951,   0.000000,   922.403870,   0.533953,   22.811810,   40.025570,   172.454498,   912.216980,   -87.405144,   0.423902,   852.926392,   817.108643
-0.104849,   0.265672,   0.290689,   0.000000,   920.348877,   0.533950,   22.811810,   39.355221,   174.907349,   909.870117,   -88.381615,   0.425330,   850.145325,   813.206787
-0.102681,   0.260916,   0.285568,   0.000000,   918.133972,   0.533950,   22.811810,   38.684872,   176.890106,   907.307617,   -89.582275,   0.426483,   847.395081,   809.561951
-0.100704,   0.256300,   0.280561,   0.000000,   915.771240,   0.533951,   22.811810,   38.014526,   178.450073,   904.554565,   -90.941269,   0.427391,   844.663513,   806.144043
-0.098880,   0.251798,   0.275647,   0.000000,   913.267883,   0.533950,   22.811810,   37.344177,   179.624939,   901.629700,   -92.402847,   0.428081,   841.938782,   802.924194
-0.097178,   0.247388,   0.270806,   0.000000,   910.627136,   0.533950,   22.811810,   36.673828,   180.441376,   898.546387,   -93.921181,   0.428573,   839.209961,   799.878479
-0.095572,   0.243052,   0.266021,   0.000000,   907.850220,   0.533951,   22.811810,   36.003483,   180.919525,   895.315186,   -95.457367,   0.428881,   836.467285,   796.985962
-0.094042,   0.238774,   0.261279,   0.000000,   904.937988,   0.533950,   22.811810,   35.333134,   181.075256,   891.945557,   -96.977959,   0.429018,   833.702576,   794.227661
-0.092571,   0.234542,   0.256571,   0.000000,   901.890930,   0.533951,   22.811810,   34.662785,   180.921829,   888.446350,   -98.453697,   0.428995,   830.908936,   791.586914
-0.091147,   0.230347,   0.251888,   0.000000,   898.710022,   0.533950,   22.811810,   33.992435,   180.471390,   884.826904,   -99.856865,   0.428823,   828.080139,   789.046936
-0.089761,   0.226180,   0.247224,   0.000000,   895.397034,   0.533950,   22.811810,   33.322090,   179.736465,   881.097412,   -101.161613,   0.428510,   825.211182,   786.591614
-0.088406,   0.222035,   0.242575,   0.000000,   891.953796,   0.533951,   22.811810,   32.651741,   178.729370,   877.268250,   -102.343048,   0.428068,   822.297058,   784.204224
-0.087077,   0.217907,   0.237936,   0.000000,   888.382263,   0.533951,   22.811810,   31.981392,   177.462753,   873.350281,   -103.375679,   0.427508,   819.332764,   781.867065
-0.085770,   0.213790,   0.233303,   0.000000,   884.684448,   0.533951,   22.811810,   31.311045,   175.949432,   869.354492,   -104.234749,   0.426839,   816.313416,   779.562439
-0.084482,   0.209680,   0.228672,   0.000000,   880.860840,   0.533950,   22.811810,   30.640696,   174.199417,   865.289795,   -104.897293,   0.426072,   813.233765,   777.274109
-0.083212,   0.205573,   0.224039,   0.000000,   876.911133,   0.533951,   22.811810,   29.970348,   172.221039,   861.163452,   -105.343407,   0.425215,   810.088745,   774.986938
-0.081958,   0.201465,   0.219403,   0.000000,   872.833557,   0.533951,   22.811810,   29.299999,   170.017990,   856.980164,   -105.555801,   0.424270,   806.873718,   772.689087
-0.080720,   0.197355,   0.214759,   0.000000,   868.623596,   0.533951,   22.811810,   28.629652,   167.589157,   852.740173,   -105.521599,   0.423241,   803.583435,   770.370728
-0.079497,   0.193237,   0.210104,   0.000000,   864.272827,   0.533950,   22.811810,   27.959303,   164.927826,   848.438477,   -105.231491,   0.422124,   800.211853,   768.024414
-0.078287,   0.189108,   0.205433,   0.000000,   859.770996,   0.533951,   22.811810,   27.288956,   162.024155,   844.066833,   -104.678261,   0.420913,   796.752197,   765.643982
-0.077087,   0.184965,   0.200744,   0.000000,   855.109009,   0.533951,   22.811810,   26.618608,   158.871414,   839.617493,   -103.854630,   0.419604,   793.198486,   763.222107
-0.075898,   0.180803,   0.196033,   0.000000,   850.274231,   0.533951,   22.811810,   25.948259,   155.456909,   835.076660,   -102.759636,   0.418188,   789.544250,   760.754089
-0.074715,   0.176615,   0.191292,   0.000000,   845.248657,   0.533951,   22.811810,   25.277912,   151.764114,   830.424255,   -101.392738,   0.416651,   785.779663,   758.233582
-0.073532,   0.172393,   0.186513,   0.000000,   840.011108,   0.533951,   22.811810,   24.607563,   147.777374,   825.636780,   -99.751610,   0.414982,   781.891907,   755.649353
-0.072344,   0.168128,   0.181686,   0.000000,   834.543152,   0.533951,   22.811810,   23.937216,   143.490753,   820.692017,   -97.835953,   0.413173,   777.868164,   752.986267
-0.071144,   0.163809,   0.176801,   0.000000,   828.820374,   0.533951,   22.811810,   23.266867,   138.886230,   815.562988,   -95.638573,   0.411209,   773.693848,   750.230469
-0.069926,   0.159423,   0.171843,   0.000000,   822.812561,   0.533950,   22.811810,   22.596519,   133.950073,   810.215088,   -93.155312,   0.409076,   769.348083,   747.359619
-0.068676,   0.154950,   0.166793,   0.000000,   816.484741,   0.533951,   22.811810,   21.926172,   128.673248,   804.607117,   -90.385696,   0.406762,   764.805054,   744.343567
-0.067384,   0.150375,   0.161635,   0.000000,   809.818298,   0.533951,   22.811810,   21.255823,   123.080055,   798.716064,   -87.317375,   0.404274,   760.041504,   741.141724
-0.066037,   0.145674,   0.156344,   0.000000,   802.773376,   0.533951,   22.811810,   20.585474,   117.163918,   792.489624,   -83.968132,   0.401598,   755.028442,   737.720703
-0.064607,   0.140816,   0.150886,   0.000000,   795.261292,   0.533950,   22.811810,   19.915127,   110.869370,   785.849487,   -80.258217,   0.398702,   749.699219,   734.015503
-0.063072,   0.135778,   0.145241,   0.000000,   787.348877,   0.533951,   22.811810,   19.244780,   104.458481,   778.823120,   -76.303055,   0.395717,   744.035461,   729.926819
-0.061448,   0.130526,   0.139368,   0.000000,   778.769897,   0.533951,   22.811810,   18.574430,   97.462189,   771.191284,   -71.856544,   0.392375,   737.945068,   725.476318
-0.059557,   0.125029,   0.133252,   0.000000,   769.771606,   0.533951,   22.811810,   17.904083,   90.613586,   763.104004,   -67.292938,   0.389068,   731.420532,   720.462952
-0.057610,   0.119136,   0.126695,   0.000000,   759.774658,   0.533951,   22.811810,   17.233734,   83.140739,   754.078186,   -62.084068,   0.385372,   724.164978,   714.759399
-0.055420,   0.113123,   0.120039,   0.000000,   749.426514,   0.533951,   22.811810,   16.563387,   75.844963,   744.708252,   -56.375050,   0.381733,   716.515808,   708.508057
-0.053067,   0.107008,   0.113294,   0.000000,   738.816162,   0.533951,   22.811810,   15.893039,   68.974869,   735.062439,   -50.143612,   0.378302,   708.460693,   701.658752
-0.050535,   0.100517,   0.106146,   0.000000,   727.313171,   0.533950,   22.811810,   15.222691,   62.058868,   724.580200,   -42.639469,   0.374837,   699.539490,   693.845886
-0.047820,   0.093688,   0.098645,   0.000000,   714.778809,   0.533950,   22.811810,   14.552342,   54.972271,   713.039978,   -33.871765,   0.371179,   689.704590,   685.059631
-0.044774,   0.086841,   0.091158,   0.000000,   702.094849,   0.533951,   22.811810,   13.881994,   48.846207,   701.201965,   -24.150684,   0.368002,   679.388611,   675.565308
-0.041688,   0.079936,   0.083624,   0.000000,   688.071411,   0.533950,   22.811810,   13.211646,   41.640907,   687.812988,   -12.925369,   0.363813,   668.341797,   665.450073
-0.038188,   0.072956,   0.076033,   0.000000,   673.612976,   0.533951,   22.811810,   12.541299,   35.535431,   673.605774,   -2.142659,   0.360023,   656.570190,   654.402161
-0.034574,   0.066215,   0.068737,   0.000000,   657.796814,   0.533951,   22.811810,   11.870951,   27.872677,   657.646912,   9.718038,   0.354613,   644.382874,   643.039062
-0.031729,   0.060045,   0.062060,   0.000000,   641.307861,   0.533951,   22.811810,   11.200602,   19.294920,   640.117371,   27.212486,   0.347544,   632.450073,   631.866699
-0.028710,   0.054404,   0.056002,   0.000000,   627.242737,   0.533950,   22.811810,   10.530254,   15.680111,   623.725159,   46.381229,   0.343074,   621.250793,   620.982849
-0.026208,   0.049079,   0.050326,   0.000000,   609.941650,   0.533951,   22.811810,   9.859906,   7.243304,   602.799316,   65.610146,   0.333416,   609.891174,   609.891174
-0.197386,   0.380511,   0.412211,   0.000000,   925.924622,   0.534530,   23.803621,   48.912712,   68.947060,   893.722900,   -166.120880,   0.353360,   908.109680,   906.434692
-0.186498,   0.373174,   0.404408,   0.000000,   931.923462,   0.534527,   23.803621,   48.236412,   85.649666,   902.810120,   -156.964462,   0.364081,   904.980713,   900.994507
-0.176307,   0.365509,   0.396382,   0.000000,   936.802307,   0.534530,   23.803621,   47.560112,   101.255394,   910.439087,   -148.417297,   0.373999,   901.691895,   894.654358
-0.166753,   0.357612,   0.388197,   0.000000,   940.612305,   0.534528,   23.803621,   46.883808,   115.686432,   916.661438,   -140.562134,   0.383090,   898.264709,   887.634155
-0.158072,   0.349568,   0.379887,   0.000000,   943.208374,   0.534528,   23.803621,   46.207512,   128.460983,   921.309570,   -133.573959,   0.391107,   894.699524,   880.252625
-0.149822,   0.341325,   0.371392,   0.000000,   944.899597,   0.534530,   23.803621,   45.531208,   140.117050,   924.816772,   -127.131149,   0.398418,   890.967651,   872.498169
-0.142348,   0.332804,   0.362565,   0.000000,   945.476135,   0.534528,   23.803621,   44.854908,   150.275528,   926.871521,   -121.632286,   0.404790,   887.000977,   864.602966
-0.135419,   0.324079,   0.353485,   0.000000,   945.109741,   0.534527,   23.803621,   44.178608,   159.129807,   927.683105,   -117.034218,   0.410352,   882.829102,   856.681274
-0.129033,   0.315447,   0.344464,   0.000000,   944.070923,   0.534530,   23.803621,   43.502308,   166.852829,   927.589355,   -113.180290,   0.415227,   878.589905,   848.911926
-0.123271,   0.307023,   0.335630,   0.000000,   942.490173,   0.534528,   23.803621,   42.826008,   173.558258,   926.671204,   -110.289261,   0.419443,   874.357910,   841.447998
-0.118036,   0.298693,   0.326833,   0.000000,   940.368591,   0.534528,   23.803621,   42.149708,   179.293976,   925.068298,   -107.910408,   0.423107,   870.041626,   834.198853
-0.113279,   0.290483,   0.318112,   0.000000,   937.745056,   0.534530,   23.803621,   41.473408,   184.110840,   922.721924,   -106.404526,   0.426192,   865.676208,   827.289917
-0.108986,   0.282414,   0.309475,   0.000000,   934.679932,   0.534527,   23.803621,   40.797108,   188.038284,   919.827148,   -105.307671,   0.428783,   861.247192,   820.687195
-0.105118,   0.274576,   0.301032,   0.000000,   931.261719,   0.534530,   23.803621,   40.120808,   191.125214,   916.468323,   -104.638062,   0.430896,   856.814026,   814.475647
-0.101636,   0.267005,   0.292828,   0.000000,   927.584778,   0.534528,   23.803621,   39.444504,   193.522659,   912.742249,   -104.380844,   0.432604,   852.407959,   808.646423
-0.098496,   0.259715,   0.284881,   0.000000,   923.704041,   0.534528,   23.803621,   38.768208,   195.305817,   908.725220,   -104.453651,   0.433952,   848.043762,   803.190063
-0.095657,   0.252708,   0.277203,   0.000000,   919.664673,   0.534530,   23.803621,   38.091904,   196.543671,   904.482971,   -104.776993,   0.434983,   843.731689,   798.088379
-0.093077,   0.245983,   0.269795,   0.000000,   915.501343,   0.534527,   23.803621,   37.415604,   197.292526,   900.069275,   -105.278023,   0.435732,   839.477539,   793.319397
-0.090722,   0.239529,   0.262655,   0.000000,   911.240051,   0.534528,   23.803621,   36.739307,   197.599091,   895.527283,   -105.892815,   0.436230,   835.283752,   788.859985
-0.088559,   0.233336,   0.255775,   0.000000,   906.899597,   0.534530,   23.803621,   36.063004,   197.499771,   890.890869,   -106.567375,   0.436499,   831.150879,   784.687439
-0.086560,   0.227389,   0.249144,   0.000000,   902.492737,   0.534528,   23.803621,   35.386703,   197.023239,   886.185730,   -107.257217,   0.436561,   827.077087,   780.780029
-0.084701,   0.221673,   0.242751,   0.000000,   898.027649,   0.534530,   23.803621,   34.710403,   196.191223,   881.431519,   -107.924759,   0.436430,   823.059326,   777.116943
-0.082961,   0.216172,   0.236581,   0.000000,   893.508728,   0.534528,   23.803621,   34.034103,   195.021408,   876.642761,   -108.538795,   0.436118,   819.093262,   773.678650
-0.081324,   0.210869,   0.230621,   0.000000,   888.937622,   0.534527,   23.803621,   33.357803,   193.527512,   871.830383,   -109.071381,   0.435637,   815.173340,   770.444275
-0.079776,   0.205750,   0.224855,   0.000000,   884.314148,   0.534530,   23.803621,   32.681503,   191.722015,   867.002502,   -109.498474,   0.434995,   811.293396,   767.393799
-0.078303,   0.200799,   0.219269,   0.000000,   879.636169,   0.534528,   23.803621,   32.005203,   189.614960,   862.164490,   -109.799004,   0.434200,   807.446350,   764.507019
-0.076896,   0.196000,   0.213846,   0.000000,   874.901123,   0.534529,   23.803621,   31.328901,   187.218781,   857.321167,   -109.952011,   0.433262,   803.624390,   761.761414
-0.075547,   0.191336,   0.208572,   0.000000,   870.104980,   0.534528,   23.803621,   30.652601,   184.544998,   852.475525,   -109.936539,   0.432190,   799.818359,   759.133301
-0.074248,   0.186793,   0.203430,   0.000000,   865.242004,   0.534529,   23.803621,   29.976301,   181.604492,   847.628235,   -109.733437,   0.430992,   796.018188,   756.598999
-0.072991,   0.182357,   0.198404,   0.000000,   860.308472,   0.534528,   23.803621,   29.300001,   178.413376,   842.781982,   -109.321732,   0.429680,   792.213928,   754.131897
-0.071774,   0.178012,   0.193480,   0.000000,   855.299011,   0.534529,   23.803621,   28.623699,   174.983368,   837.936096,   -108.684189,   0.428262,   788.395813,   751.709839
-0.070591,   0.173747,   0.188644,   0.000000,   850.204163,   0.534528,   23.803621,   27.947399,   171.320297,   833.084839,   -107.805496,   0.426742,   784.552551,   749.311584
-0.069436,   0.169545,   0.183879,   0.000000,   845.010193,   0.534528,   23.803621,   27.271099,   167.425476,   828.215942,   -106.674881,   0.425122,   780.670898,   746.918091
-0.068304,   0.165393,   0.179169,   0.000000,   839.704468,   0.534529,   23.803621,   26.594799,   163.304092,   823.317566,   -105.281143,   0.423404,   776.737610,   744.508057
-0.067190,   0.161278,   0.174503,   0.000000,   834.278015,   0.534529,   23.803621,   25.918497,   158.966690,   818.378723,   -103.619293,   0.421592,   772.741882,   742.062256
-0.066092,   0.157191,   0.169867,   0.000000,   828.710388,   0.534528,   23.803621,   25.242197,   154.398407,   813.376831,   -101.683739,   0.419675,   768.671204,   739.570557
-0.065002,   0.153113,   0.165246,   0.000000,   822.978271,   0.534529,   23.803621,   24.565897,   149.594528,   808.281250,   -99.482414,   0.417644,   764.508240,   737.015381
-0.063910,   0.149028,   0.160618,   0.000000,   817.058777,   0.534528,   23.803621,   23.889597,   144.558304,   803.066162,   -97.005463,   0.415498,   760.231995,   734.368896
-0.062808,   0.144922,   0.155970,   0.000000,   810.924011,   0.534529,   23.803621,   23.213297,   139.255753,   797.699768,   -94.245949,   0.413212,   755.830444,   731.628052
-0.061696,   0.140785,   0.151291,   0.000000,   804.542358,   0.534528,   23.803621,   22.536997,   133.698715,   792.141418,   -91.208992,   0.410787,   751.273804,   728.753479
-0.060560,   0.136590,   0.146555,   0.000000,   797.888733,   0.534528,   23.803621,   21.860695,   127.906898,   786.346619,   -87.937485,   0.408218,   746.539368,   725.714050
-0.059375,   0.132313,   0.141733,   0.000000,   790.902039,   0.534529,   23.803621,   21.184395,   121.821365,   780.268372,   -84.349121,   0.405478,   741.586243,   722.475891
-0.058132,   0.127937,   0.136812,   0.000000,   783.625122,   0.534529,   23.803621,   20.508095,   115.646484,   773.903503,   -80.584358,   0.402658,   736.398682,   718.959229
-0.056835,   0.123424,   0.131745,   0.000000,   775.821533,   0.534528,   23.803621,   19.831795,   108.956253,   767.065979,   -76.411919,   0.399523,   730.890808,   715.193115
-0.055345,   0.118744,   0.126518,   0.000000,   767.687866,   0.534529,   23.803621,   19.155495,   102.362312,   759.858276,   -72.174866,   0.396391,   725.058228,   710.995361
-0.053841,   0.113789,   0.120984,   0.000000,   758.746704,   0.534528,   23.803621,   18.479193,   95.168571,   751.888123,   -67.462738,   0.392880,   718.672607,   706.311096
-0.052181,   0.108750,   0.115380,   0.000000,   749.439026,   0.534529,   23.803621,   17.802893,   87.918503,   743.533264,   -62.504272,   0.389265,   711.984131,   701.239075
-0.050372,   0.103590,   0.109665,   0.000000,   739.745789,   0.534528,   23.803621,   17.126593,   80.751907,   734.758240,   -57.330425,   0.385626,   704.923950,   695.675354
-0.048544,   0.098027,   0.103508,   0.000000,   728.637756,   0.534528,   23.803621,   16.450293,   72.376625,   724.621826,   -51.337124,   0.381169,   696.976379,   689.373291
-0.046309,   0.092192,   0.097090,   0.000000,   717.123718,   0.534529,   23.803621,   15.773993,   64.804451,   713.932556,   -45.625187,   0.377082,   688.388184,   682.143311
-0.043958,   0.086010,   0.090304,   0.000000,   704.176147,   0.534528,   23.803621,   15.097692,   56.268517,   701.854553,   -38.783798,   0.372279,   678.812378,   673.964111
-0.041160,   0.079517,   0.083215,   0.000000,   690.824646,   0.534528,   23.803621,   14.421391,   49.080368,   689.279724,   -31.487482,   0.368263,   668.326050,   664.506592
-0.038108,   0.072409,   0.075471,   0.000000,   675.565002,   0.534529,   23.803621,   13.745091,   41.569679,   674.782166,   -22.278498,   0.363932,   656.123108,   653.261719
-0.034640,   0.064854,   0.067272,   0.000000,   658.892151,   0.534528,   23.803621,   13.068790,   34.870480,   658.686523,   -11.327216,   0.359956,   642.261719,   640.151917
-0.030707,   0.057151,   0.058948,   0.000000,   641.568359,   0.534529,   23.803621,   12.392490,   30.148813,   641.564880,   1.457837,   0.357082,   627.039368,   625.405945
-0.026857,   0.049750,   0.050967,   0.000000,   623.281311,   0.534528,   23.803621,   11.716190,   25.777580,   622.809021,   16.798664,   0.353826,   611.021790,   609.841064
-0.022941,   0.042318,   0.042989,   0.000000,   600.789856,   0.534529,   23.803621,   11.039889,   17.791485,   598.705383,   34.860264,   0.346487,   593.092346,   592.624084
-0.018562,   0.034840,   0.034987,   0.000000,   576.419861,   0.534528,   23.803621,   10.363589,   12.069921,   571.476929,   52.816158,   0.339534,   572.889648,   572.789856
-0.014893,   0.027676,   0.027353,   -6.411113,   547.400452,   0.534529,   23.803621,   9.687288,   3.898398,   537.090942,   74.854797,   0.327495,   550.634033,   550.550049
-0.201643,   0.391929,   0.426118,   0.000000,   931.103760,   0.535148,   24.786791,   49.127861,   77.701294,   882.543701,   -203.571289,   0.349099,   916.880554,   915.837708
-0.190210,   0.383304,   0.416781,   0.000000,   935.901245,   0.535147,   24.786791,   48.444141,   92.765762,   890.715393,   -195.186508,   0.359049,   913.041504,   910.245911
-0.179366,   0.374332,   0.407201,   0.000000,   940.007507,   0.535148,   24.786791,   47.760422,   107.393959,   898.186890,   -186.602356,   0.368751,   908.996521,   903.652161
-0.169121,   0.365052,   0.397381,   0.000000,   943.303162,   0.535148,   24.786791,   47.076702,   121.402039,   904.678162,   -178.173843,   0.378031,   904.759094,   896.180298
-0.159529,   0.355518,   0.387344,   0.000000,   945.593445,   0.535148,   24.786791,   46.392986,   134.341248,   909.898376,   -170.169632,   0.386613,   900.332581,   888.052185
-0.150537,   0.345784,   0.377122,   0.000000,   947.020874,   0.535148,   24.786791,   45.709267,   146.411957,   913.983398,   -162.634872,   0.394611,   895.731201,   879.371521
-0.142200,   0.335895,   0.366730,   0.000000,   947.460571,   0.535148,   24.786791,   45.025547,   157.281662,   916.706055,   -155.889664,   0.401809,   890.960876,   870.403687
-0.134412,   0.325880,   0.356190,   0.000000,   947.041199,   0.535147,   24.786791,   44.341827,   167.092484,   918.267944,   -149.805420,   0.408330,   886.016418,   861.222107
-0.127136,   0.315696,   0.345422,   0.000000,   945.766724,   0.535148,   24.786791,   43.658108,   175.798203,   918.797729,   -144.101654,   0.414227,   880.833130,   851.853638
-0.120498,   0.305567,   0.334669,   0.000000,   943.749146,   0.535148,   24.786791,   42.974388,   183.409332,   918.247314,   -139.248184,   0.419419,   875.541077,   842.606079
-0.114407,   0.295668,   0.324120,   0.000000,   941.166626,   0.535150,   24.786791,   42.290668,   190.006409,   916.883545,   -135.057281,   0.423988,   870.221558,   833.602295
-0.108862,   0.285922,   0.313692,   0.000000,   937.998657,   0.535148,   24.786791,   41.606945,   195.615540,   914.604370,   -131.785919,   0.427907,   864.845825,   824.931152
-0.103820,   0.276332,   0.303360,   0.000000,   934.321716,   0.535147,   24.786791,   40.923229,   200.320999,   911.666260,   -128.953918,   0.431316,   859.374939,   816.506531
-0.099256,   0.266977,   0.293221,   0.000000,   930.174500,   0.535148,   24.786791,   40.239510,   204.014893,   908.144897,   -126.479256,   0.434173,   853.853088,   808.472656
-0.095139,   0.257935,   0.283370,   0.000000,   925.691406,   0.535148,   24.786791,   39.555790,   206.890701,   904.147522,   -124.441833,   0.436553,   848.341980,   800.863037
-0.091434,   0.249244,   0.273852,   0.000000,   920.944031,   0.535148,   24.786791,   38.872070,   209.012161,   899.768738,   -122.781815,   0.438493,   842.872070,   793.704529
-0.088104,   0.240929,   0.264701,   0.000000,   915.993896,   0.535148,   24.786791,   38.188351,   210.439758,   895.092407,   -121.437836,   0.440029,   837.468628,   787.010071
-0.085111,   0.233002,   0.255935,   0.000000,   910.893372,   0.535147,   24.786791,   37.504631,   211.232056,   890.192322,   -120.348366,   0.441196,   832.151123,   780.779114
-0.082416,   0.225463,   0.247564,   0.000000,   905.685486,   0.535148,   24.786791,   36.820915,   211.443512,   885.131897,   -119.453598,   0.442025,   826.933472,   775.000244
-0.079984,   0.218307,   0.239586,   0.000000,   900.404419,   0.535148,   24.786791,   36.137192,   211.123810,   879.963623,   -118.699005,   0.442547,   821.825012,   769.655396
-0.077781,   0.211519,   0.231992,   0.000000,   895.076050,   0.535148,   24.786791,   35.453476,   210.316559,   874.729431,   -118.036232,   0.442787,   816.830566,   764.721313
-0.075776,   0.205083,   0.224768,   0.000000,   889.718689,   0.535148,   24.786791,   34.769756,   209.058197,   869.461426,   -117.423607,   0.442768,   811.951599,   760.173279
-0.073942,   0.198978,   0.217896,   0.000000,   884.343872,   0.535148,   24.786791,   34.086037,   207.379532,   864.182800,   -116.826004,   0.442509,   807.186035,   755.984680
-0.072255,   0.193181,   0.211356,   0.000000,   878.958069,   0.535147,   24.786791,   33.402317,   205.306839,   858.909729,   -116.213501,   0.442026,   802.529419,   752.127686
-0.070694,   0.187669,   0.205123,   0.000000,   873.563110,   0.535148,   24.786791,   32.718597,   202.863129,   853.652710,   -115.559181,   0.441332,   797.974609,   748.572632
-0.069241,   0.182416,   0.199174,   0.000000,   868.158508,   0.535148,   24.786791,   32.034878,   200.070892,   848.418274,   -114.839859,   0.440442,   793.512878,   745.288635
-0.067879,   0.177400,   0.193485,   0.000000,   862.739563,   0.535148,   24.786791,   31.351158,   196.947159,   843.207642,   -114.036049,   0.439365,   789.134094,   742.245605
-0.066596,   0.172597,   0.188032,   0.000000,   857.301758,   0.535147,   24.786791,   30.667439,   193.513306,   838.022278,   -113.126038,   0.438116,   784.826599,   739.409607
-0.065380,   0.167984,   0.182789,   0.000000,   851.835266,   0.535149,   24.786791,   29.983719,   189.783493,   832.856812,   -112.092407,   0.436703,   780.576660,   736.749084
-0.064219,   0.163535,   0.177730,   0.000000,   846.330017,   0.535147,   24.786791,   29.299999,   185.775970,   827.705383,   -110.916939,   0.435137,   776.369019,   734.228394
-0.063105,   0.159230,   0.172834,   0.000000,   840.781006,   0.535148,   24.786791,   28.616280,   181.518753,   822.568176,   -109.576630,   0.433437,   772.189758,   731.808533
-0.062031,   0.155052,   0.168081,   0.000000,   835.178101,   0.535148,   24.786791,   27.932560,   177.024338,   817.438782,   -108.051788,   0.431610,   768.025269,   729.460205
-0.060993,   0.150980,   0.163448,   0.000000,   829.508118,   0.535147,   24.786791,   27.248842,   172.306900,   812.306274,   -106.325249,   0.429666,   763.858826,   727.151367
-0.059978,   0.146989,   0.158909,   0.000000,   823.756409,   0.535148,   24.786791,   26.565123,   167.391129,   807.153442,   -104.391701,   0.427617,   759.670349,   724.844238
-0.058979,   0.143062,   0.154444,   0.000000,   817.912781,   0.535148,   24.786791,   25.881403,   162.284882,   801.976257,   -102.217491,   0.425471,   755.446167,   722.512695
-0.057993,   0.139185,   0.150038,   0.000000,   811.950439,   0.535147,   24.786791,   25.197683,   156.996735,   796.745789,   -99.791466,   0.423231,   751.159363,   720.120911
-0.057017,   0.135342,   0.145673,   0.000000,   805.870117,   0.535148,   24.786791,   24.513964,   151.569214,   791.445862,   -97.148460,   0.420912,   746.802795,   717.645813
-0.056034,   0.131505,   0.141323,   0.000000,   799.614624,   0.535147,   24.786791,   23.830246,   145.930908,   786.032104,   -94.226707,   0.418479,   742.342163,   715.072754
-0.055038,   0.127656,   0.136962,   0.000000,   793.160461,   0.535148,   24.786791,   23.146526,   140.105026,   780.471619,   -91.030212,   0.415938,   737.751221,   712.362915
-0.054028,   0.123791,   0.132589,   0.000000,   786.495605,   0.535148,   24.786791,   22.462807,   134.097000,   774.742981,   -87.563637,   0.413285,   733.021240,   709.503479
-0.052990,   0.119892,   0.128187,   0.000000,   779.651306,   0.535148,   24.786791,   21.779087,   128.073776,   768.834290,   -83.953072,   0.410594,   728.138672,   706.427734
-0.051914,   0.115911,   0.123700,   0.000000,   772.400391,   0.535148,   24.786791,   21.095367,   121.623993,   762.583130,   -79.930237,   0.407651,   723.010071,   703.165222
-0.050694,   0.111838,   0.119133,   0.000000,   764.933228,   0.535148,   24.786791,   20.411648,   115.297104,   756.073303,   -75.866592,   0.404728,   717.658997,   699.570312
-0.049483,   0.107573,   0.114349,   0.000000,   756.822632,   0.535147,   24.786791,   19.727928,   108.453957,   748.966614,   -71.369400,   0.401485,   711.874756,   695.613403
-0.048174,   0.103281,   0.109555,   0.000000,   748.453430,   0.535148,   24.786791,   19.044209,   101.546333,   741.583069,   -66.666832,   0.398138,   705.893372,   691.392700
-0.046777,   0.098940,   0.104725,   0.000000,   739.760803,   0.535147,   24.786791,   18.360491,   94.533981,   733.872314,   -61.639473,   0.394669,   699.662537,   686.858093
-0.045403,   0.094348,   0.099616,   0.000000,   730.161316,   0.535148,   24.786791,   17.676771,   86.857750,   725.251953,   -56.198082,   0.390720,   692.831543,   681.800171
-0.043707,   0.089558,   0.094325,   0.000000,   720.156250,   0.535148,   24.786791,   16.993052,   79.547470,   716.133057,   -50.767216,   0.386898,   685.521484,   676.066650
-0.041949,   0.084434,   0.088673,   0.000000,   708.787659,   0.535147,   24.786791,   16.309332,   71.129532,   705.668884,   -44.595116,   0.382274,   677.347900,   669.601624
-0.039951,   0.079079,   0.082796,   0.000000,   696.593079,   0.535149,   24.786791,   15.625613,   62.652378,   694.303162,   -38.100693,   0.377463,   668.458984,   662.285645
-0.037790,   0.073351,   0.076531,   0.000000,   682.859924,   0.535148,   24.786791,   14.941894,   53.392700,   681.318176,   -31.152637,   0.371930,   658.467346,   653.850586
-0.035137,   0.067176,   0.069811,   0.000000,   667.962280,   0.535148,   24.786791,   14.258174,   44.780174,   667.022949,   -24.194878,   0.366631,   647.156616,   643.802856
-0.032278,   0.060634,   0.062715,   0.000000,   650.929199,   0.535148,   24.786791,   13.574455,   35.090824,   650.496765,   -16.318464,   0.360280,   634.310486,   632.174927
-0.028884,   0.053572,   0.055087,   0.000000,   632.467773,   0.535148,   24.786791,   12.890736,   27.061098,   632.364441,   -7.910077,   0.354857,   619.429016,   618.107117
-0.025253,   0.046030,   0.046961,   0.000000,   611.100220,   0.535148,   24.786791,   12.207016,   18.832684,   611.077759,   3.646484,   0.348837,   601.915588,   601.253723
-0.021196,   0.037889,   0.038225,   0.000000,   586.307434,   0.535148,   24.786791,   11.523296,   11.948753,   585.691040,   18.815262,   0.343043,   580.724121,   580.475342
-0.016250,   0.029161,   0.028883,   0.000000,   558.432739,   0.535148,   24.786791,   10.839578,   10.501853,   555.962463,   36.790592,   0.340550,   554.460632,   554.329712
-0.011155,   0.020456,   0.019609,   0.000000,   524.377747,   0.535148,   24.786791,   10.155858,   10.843531,   517.626770,   58.879913,   0.337243,   522.343445,   522.307434
-0.006357,   0.012215,   0.010851,   -4.014094,   479.127625,   0.535148,   24.786791,   9.472138,   7.459966,   467.653564,   73.565910,   0.329153,   481.147247,   481.109589
-0.193296,   0.378680,   0.413154,   0.000000,   922.659668,   0.535738,   25.759434,   49.385132,   82.956619,   856.010986,   -236.569443,   0.342209,   914.614746,   914.287537
-0.182043,   0.368963,   0.402473,   0.000000,   925.090942,   0.535738,   25.759434,   48.692539,   94.891312,   860.987915,   -230.690887,   0.350105,   910.087402,   908.914612
-0.171366,   0.359221,   0.391890,   0.000000,   927.724854,   0.535738,   25.759434,   47.999950,   107.382538,   866.737183,   -223.675583,   0.358626,   905.419434,   902.739197
-0.161244,   0.349359,   0.381272,   0.000000,   930.182251,   0.535738,   25.759434,   47.307358,   120.022835,   872.620056,   -215.950333,   0.367410,   900.577881,   895.685242
-0.151681,   0.339354,   0.370568,   0.000000,   932.155396,   0.535738,   25.759434,   46.614769,   132.382248,   878.125793,   -207.873520,   0.376120,   895.553467,   887.792786
-0.142689,   0.329228,   0.359776,   0.000000,   933.505188,   0.535738,   25.759434,   45.922176,   144.271912,   882.933899,   -199.781189,   0.384566,   890.360413,   879.165161
-0.134281,   0.319039,   0.348937,   0.000000,   934.135010,   0.535738,   25.759434,   45.229588,   155.474167,   886.825134,   -191.933212,   0.392569,   885.024109,   869.967163
-0.126464,   0.308851,   0.338100,   0.000000,   934.044128,   0.535738,   25.759434,   44.536995,   165.905457,   889.750305,   -184.455429,   0.400067,   879.566528,   860.346741
-0.119184,   0.298649,   0.327229,   0.000000,   933.187317,   0.535738,   25.759434,   43.844406,   175.397339,   891.724060,   -177.258072,   0.407010,   873.951538,   850.401672
-0.112410,   0.288412,   0.316284,   0.000000,   931.518494,   0.535738,   25.759434,   43.151814,   183.860794,   892.626831,   -170.521683,   0.413322,   868.159668,   840.278809
-0.106201,   0.278202,   0.305325,   0.000000,   929.082581,   0.535739,   25.759434,   42.459225,   191.301971,   892.422119,   -164.460922,   0.418964,   862.226074,   830.161865
-0.100531,   0.268255,   0.294617,   0.000000,   926.116516,   0.535737,   25.759434,   41.766632,   197.867584,   891.390198,   -159.026367,   0.424026,   856.282043,   820.216064
-0.095343,   0.258630,   0.284223,   0.000000,   922.722839,   0.535738,   25.759434,   41.074043,   203.636414,   889.663086,   -154.184418,   0.428561,   850.363953,   810.520142
-0.090673,   0.249238,   0.274017,   0.000000,   918.773926,   0.535738,   25.759434,   40.381451,   208.283783,   887.276367,   -149.595139,   0.432493,   844.376831,   801.134705
-0.086458,   0.240162,   0.264105,   0.000000,   914.424255,   0.535738,   25.759434,   39.688862,   212.040955,   884.304443,   -145.449890,   0.435888,   838.399658,   792.144836
-0.082667,   0.231431,   0.254525,   0.000000,   909.739014,   0.535738,   25.759434,   38.996269,   214.947769,   880.833618,   -141.715210,   0.438773,   832.458252,   783.609375
-0.079268,   0.223071,   0.245309,   0.000000,   904.780640,   0.535738,   25.759434,   38.303680,   217.048615,   876.946960,   -138.355011,   0.441174,   826.578613,   775.573303
-0.076227,   0.215100,   0.236480,   0.000000,   899.606384,   0.535738,   25.759434,   37.611088,   218.390533,   872.721497,   -135.330795,   0.443118,   820.784058,   768.066528
-0.073507,   0.207522,   0.228051,   0.000000,   894.265930,   0.535738,   25.759434,   36.918499,   219.021408,   868.226929,   -132.599777,   0.444632,   815.092773,   761.102905
-0.071074,   0.200338,   0.220026,   0.000000,   888.802063,   0.535738,   25.759434,   36.225906,   218.991119,   863.525330,   -130.117767,   0.445745,   809.518738,   754.681152
-0.068893,   0.193538,   0.212400,   0.000000,   883.249207,   0.535738,   25.759434,   35.533318,   218.347290,   858.669556,   -127.840042,   0.446485,   804.070923,   748.788879
-0.066934,   0.187106,   0.205164,   0.000000,   877.635132,   0.535738,   25.759434,   34.840725,   217.137390,   853.703857,   -125.724083,   0.446880,   798.753784,   743.402710
-0.065164,   0.181025,   0.198300,   0.000000,   871.980286,   0.535738,   25.759434,   34.148136,   215.406204,   848.663269,   -123.730972,   0.446956,   793.567871,   738.493042
-0.063559,   0.175272,   0.191789,   0.000000,   866.299316,   0.535738,   25.759434,   33.455544,   213.194748,   843.574829,   -121.825600,   0.446737,   788.510742,   734.025818
-0.062093,   0.169823,   0.185609,   0.000000,   860.600342,   0.535738,   25.759434,   32.762955,   210.538452,   838.457031,   -119.977188,   0.446242,   783.576904,   729.964722
-0.060745,   0.164655,   0.179735,   0.000000,   854.886719,   0.535738,   25.759434,   32.070362,   207.471146,   833.322327,   -118.157204,   0.445493,   778.757629,   726.270142
-0.059497,   0.159741,   0.174142,   0.000000,   849.158081,   0.535738,   25.759434,   31.377773,   204.023102,   828.177734,   -116.340622,   0.444507,   774.042542,   722.901672
-0.058331,   0.155057,   0.168805,   0.000000,   843.412659,   0.535738,   25.759434,   30.685183,   200.225677,   823.027527,   -114.505165,   0.443300,   769.420349,   719.817078
-0.057237,   0.150581,   0.163698,   0.000000,   837.645447,   0.535739,   25.759434,   29.992590,   196.104691,   817.875183,   -112.620674,   0.441892,   764.877747,   716.973389
-0.056199,   0.146284,   0.158795,   0.000000,   831.843872,   0.535738,   25.759434,   29.299999,   191.683685,   812.707581,   -110.681038,   0.440292,   760.397461,   714.329956
-0.055204,   0.142142,   0.154067,   0.000000,   825.999023,   0.535737,   25.759434,   28.607409,   186.974075,   807.527832,   -108.644157,   0.438513,   755.965881,   711.849548
-0.054246,   0.138137,   0.149495,   0.000000,   820.094116,   0.535738,   25.759434,   27.914818,   182.011780,   802.323242,   -106.486038,   0.436576,   751.556030,   709.472473
-0.053322,   0.134253,   0.145063,   0.000000,   814.130676,   0.535738,   25.759434,   27.222227,   176.819519,   797.096497,   -104.192459,   0.434495,   747.163940,   707.173157
-0.052422,   0.130466,   0.140743,   0.000000,   808.101929,   0.535738,   25.759434,   26.529636,   171.456161,   791.828796,   -101.785217,   0.432294,   742.769714,   704.898682
-0.051530,   0.126747,   0.136505,   0.000000,   801.962402,   0.535738,   25.759434,   25.837046,   165.868057,   786.504211,   -99.160767,   0.429962,   738.338501,   702.617859
-0.050646,   0.123082,   0.132333,   0.000000,   795.711609,   0.535738,   25.759434,   25.144455,   160.111740,   781.111328,   -96.332458,   0.427524,   733.856506,   700.286865
-0.049753,   0.119459,   0.128213,   0.000000,   789.385193,   0.535738,   25.759434,   24.451864,   154.340851,   775.658447,   -93.365280,   0.425055,   729.316528,   697.834106
-0.048865,   0.115848,   0.124113,   0.000000,   782.849365,   0.535738,   25.759434,   23.759274,   148.285568,   770.056763,   -90.098373,   0.422421,   724.666077,   695.305664
-0.047966,   0.112237,   0.120019,   0.000000,   776.134399,   0.535738,   25.759434,   23.066683,   142.092133,   764.316711,   -86.561615,   0.419696,   719.892761,   692.624084
-0.047039,   0.108605,   0.115909,   0.000000,   769.195435,   0.535738,   25.759434,   22.374092,   135.742477,   758.385254,   -82.751083,   0.416864,   714.963196,   689.761475
-0.045997,   0.104934,   0.111777,   0.000000,   762.143433,   0.535739,   25.759434,   21.681501,   129.591553,   752.302917,   -78.896446,   0.414103,   709.884155,   686.606323
-0.044973,   0.101116,   0.107476,   0.000000,   754.523071,   0.535738,   25.759434,   20.988911,   122.925117,   745.717407,   -74.576492,   0.411038,   704.430664,   683.168152
-0.043883,   0.097312,   0.103209,   0.000000,   746.730347,   0.535738,   25.759434,   20.296320,   116.221230,   738.943604,   -70.068703,   0.407891,   698.851196,   679.537354
-0.042742,   0.093513,   0.098962,   0.000000,   738.720215,   0.535737,   25.759434,   19.603729,   109.422211,   731.956909,   -65.239006,   0.404636,   693.116272,   675.694092
-0.041639,   0.089550,   0.094532,   0.000000,   730.022766,   0.535738,   25.759434,   18.911140,   102.101547,   724.279358,   -60.053249,   0.401001,   686.931213,   671.473816
-0.040365,   0.085463,   0.089988,   0.000000,   720.835510,   0.535738,   25.759434,   18.218550,   94.621773,   716.083435,   -54.551010,   0.397190,   680.366943,   666.817139
-0.038944,   0.081219,   0.085291,   0.000000,   711.054504,   0.535738,   25.759434,   17.525959,   86.992310,   707.227051,   -48.873100,   0.393177,   673.335083,   661.632324
-0.037435,   0.076757,   0.080366,   0.000000,   700.425903,   0.535738,   25.759434,   16.833368,   79.010559,   697.478394,   -42.797707,   0.388831,   665.661743,   655.777771
-0.035702,   0.072125,   0.075283,   0.000000,   689.195129,   0.535738,   25.759434,   16.140778,   71.180435,   687.045776,   -36.446068,   0.384455,   657.403442,   649.174316
-0.033934,   0.067150,   0.069832,   0.000000,   676.065857,   0.535738,   25.759434,   15.448186,   61.632565,   674.695129,   -29.021036,   0.378746,   648.039795,   641.690552
-0.031769,   0.061912,   0.064131,   0.000000,   662.347168,   0.535738,   25.759434,   14.755594,   53.182217,   661.553467,   -21.988195,   0.373561,   637.768677,   632.900574
-0.029451,   0.056323,   0.058066,   0.000000,   646.327148,   0.535738,   25.759434,   14.063004,   43.043240,   646.018982,   -13.634797,   0.366881,   626.054504,   622.760254
-0.026788,   0.050316,   0.051575,   0.000000,   628.585571,   0.535738,   25.759434,   13.370413,   33.377251,   628.532654,   -5.613815,   0.360162,   612.603577,   610.559265
-0.023800,   0.043957,   0.044730,   0.000000,   607.923462,   0.535738,   25.759434,   12.677823,   22.409739,   607.904541,   3.326779,   0.351909,   597.043030,   596.097290
-0.020518,   0.036991,   0.037258,   0.000000,   582.773376,   0.535738,   25.759434,   11.985232,   9.894061,   582.472290,   13.133285,   0.341597,   578.036621,   577.857483
-0.016370,   0.029165,   0.028893,   -1.911679,   552.630493,   0.535738,   25.759434,   11.292642,   -0.919201,   551.638000,   23.438988,   0.331605,   553.588806,   553.581360
-0.011700,   0.020740,   0.019911,   -10.276566,   516.532532,   0.535738,   25.759434,   10.600051,   -7.819720,   514.075684,   35.892235,   0.323437,   521.746704,   521.518982
-0.006516,   0.011821,   0.010453,   -16.061768,   468.497467,   0.535738,   25.759434,   9.907460,   -10.735185,   463.170898,   50.523979,   0.316346,   476.731354,   476.122009
-0.001714,   0.003619,   0.001850,   -21.344366,   398.972229,   0.535738,   25.759434,   9.214869,   -11.868692,   389.496552,   62.393864,   0.306969,   410.061249,   408.808594
-0.175134,   0.346821,   0.379666,   0.000000,   906.347229,   0.536220,   26.719685,   49.684025,   91.902023,   820.324036,   -264.690765,   0.336582,   903.422180,   903.379089
-0.164657,   0.336616,   0.368305,   0.000000,   906.138489,   0.536219,   26.719685,   48.981129,   100.414886,   821.667603,   -260.883423,   0.342169,   898.272583,   897.954102
-0.154853,   0.326820,   0.357512,   0.000000,   906.642151,   0.536220,   26.719685,   48.278233,   109.716881,   824.558655,   -255.762405,   0.348683,   893.146118,   892.183533
-0.145629,   0.317251,   0.347061,   0.000000,   907.636536,   0.536220,   26.719685,   47.575333,   119.695099,   828.710938,   -249.376755,   0.356027,   887.954102,   885.844482
-0.136934,   0.307791,   0.336799,   0.000000,   908.814636,   0.536220,   26.719685,   46.872437,   130.081451,   833.627686,   -241.972244,   0.363946,   882.648560,   878.795715
-0.128752,   0.298381,   0.326644,   0.000000,   909.888428,   0.536219,   26.719685,   46.169540,   140.583191,   838.775513,   -233.896378,   0.372145,   877.218811,   870.997681
-0.121080,   0.289014,   0.316567,   0.000000,   910.649231,   0.536220,   26.719685,   45.466640,   150.949844,   843.742432,   -225.453049,   0.380377,   871.671753,   862.485840
-0.113931,   0.279714,   0.306579,   0.000000,   910.940552,   0.536220,   26.719685,   44.763744,   160.936005,   848.193909,   -216.933777,   0.388412,   866.030701,   853.372925
-0.107293,   0.270503,   0.296687,   0.000000,   910.687683,   0.536220,   26.719685,   44.060844,   170.371933,   851.992981,   -208.452911,   0.396126,   860.302734,   843.763855
-0.101119,   0.261358,   0.286853,   0.000000,   909.814636,   0.536219,   26.719685,   43.357948,   179.120819,   854.999634,   -200.132401,   0.403416,   854.470215,   833.763428
-0.095418,   0.252313,   0.277109,   0.000000,   908.295410,   0.536220,   26.719685,   42.655052,   187.111481,   857.027710,   -192.284775,   0.410157,   848.568054,   823.570740
-0.090187,   0.243494,   0.267576,   0.000000,   906.262512,   0.536219,   26.719685,   41.952156,   194.325043,   858.376709,   -184.639404,   0.416430,   842.640991,   813.270508
-0.085368,   0.234907,   0.258294,   0.000000,   903.746216,   0.536220,   26.719685,   41.249256,   200.893921,   858.750671,   -177.834824,   0.422122,   836.760986,   803.105774
-0.081050,   0.226495,   0.249134,   0.000000,   900.594360,   0.536219,   26.719685,   40.546360,   206.312927,   858.368958,   -171.220123,   0.427174,   830.794006,   793.097534
-0.077137,   0.218335,   0.240209,   0.000000,   896.980957,   0.536220,   26.719685,   39.843464,   210.858078,   857.272339,   -165.060593,   0.431655,   824.832825,   783.373596
-0.073606,   0.210454,   0.231550,   0.000000,   892.966736,   0.536220,   26.719685,   39.140564,   214.549500,   855.542542,   -159.339920,   0.435582,   818.899231,   774.019226
-0.070432,   0.202871,   0.223182,   0.000000,   888.608154,   0.536219,   26.719685,   38.437668,   217.413605,   853.256592,   -154.038223,   0.438972,   813.012451,   765.103699
-0.067586,   0.195602,   0.215123,   0.000000,   883.958374,   0.536220,   26.719685,   37.734772,   219.481873,   850.487549,   -149.132736,   0.441849,   807.190491,   756.680542
-0.065041,   0.188654,   0.207385,   0.000000,   879.065369,   0.536220,   26.719685,   37.031872,   220.787445,   847.302795,   -144.598022,   0.444233,   801.449341,   748.790833
-0.062766,   0.182029,   0.199977,   0.000000,   873.971802,   0.536220,   26.719685,   36.328976,   221.365921,   843.764282,   -140.405121,   0.446145,   795.802246,   741.459106
-0.060733,   0.175726,   0.192899,   0.000000,   868.716553,   0.536219,   26.719685,   35.626076,   221.261154,   839.930115,   -136.520767,   0.447613,   790.258789,   734.692383
-0.058913,   0.169734,   0.186146,   0.000000,   863.331177,   0.536220,   26.719685,   34.923180,   220.515076,   835.850891,   -132.908875,   0.448663,   784.824951,   728.484436
-0.057277,   0.164043,   0.179709,   0.000000,   857.841492,   0.536220,   26.719685,   34.220284,   219.171158,   831.570923,   -129.530869,   0.449322,   779.502808,   722.815979
-0.055801,   0.158635,   0.173576,   0.000000,   852.268005,   0.536220,   26.719685,   33.517384,   217.273361,   827.127747,   -126.348473,   0.449616,   774.291260,   717.657898
-0.054460,   0.153494,   0.167730,   0.000000,   846.627014,   0.536219,   26.719685,   32.814487,   214.865601,   822.553101,   -123.324623,   0.449573,   769.187439,   712.974060
-0.053233,   0.148602,   0.162154,   0.000000,   840.930847,   0.536220,   26.719685,   32.111591,   211.994736,   817.870667,   -120.429939,   0.449221,   764.185852,   708.722168
-0.052102,   0.143936,   0.156828,   0.000000,   835.184326,   0.536220,   26.719685,   31.408693,   208.677063,   813.100891,   -117.624092,   0.448572,   759.282471,   704.873657
-0.051048,   0.139476,   0.151730,   0.000000,   829.378235,   0.536220,   26.719685,   30.705795,   204.963516,   808.238281,   -114.891640,   0.447654,   754.453491,   701.362427
-0.050060,   0.135205,   0.146844,   0.000000,   823.519897,   0.536220,   26.719685,   30.002897,   200.871445,   803.310425,   -112.175720,   0.446484,   749.696655,   698.154358
-0.049126,   0.131104,   0.142150,   0.000000,   817.614746,   0.536220,   26.719685,   29.299999,   196.467651,   798.311523,   -109.499527,   0.445090,   745.002625,   695.196533
-0.048231,   0.127146,   0.137618,   0.000000,   811.626038,   0.536220,   26.719685,   28.597103,   191.705200,   793.233093,   -106.780991,   0.443460,   740.344055,   692.459656
-0.047367,   0.123314,   0.133233,   0.000000,   805.561035,   0.536220,   26.719685,   27.894205,   186.652725,   788.082764,   -104.006889,   0.441631,   735.709290,   689.879761
-0.046532,   0.119601,   0.128984,   0.000000,   799.420776,   0.536220,   26.719685,   27.191309,   181.335266,   782.864563,   -101.159065,   0.439615,   731.093628,   687.425110
-0.045712,   0.115989,   0.124856,   0.000000,   793.235352,   0.536220,   26.719685,   26.488411,   175.903931,   777.581604,   -98.303291,   0.437486,   726.489014,   685.008728
-0.044905,   0.112441,   0.120803,   0.000000,   786.884460,   0.536220,   26.719685,   25.785513,   170.125076,   772.179199,   -95.234390,   0.435143,   721.834473,   682.648865
-0.044103,   0.108952,   0.116825,   0.000000,   780.413879,   0.536220,   26.719685,   25.082615,   164.156738,   766.680298,   -91.996788,   0.432666,   717.133606,   680.266357
-0.043231,   0.105498,   0.112904,   0.000000,   773.881226,   0.536220,   26.719685,   24.379717,   158.241135,   761.098999,   -88.708900,   0.430174,   712.378113,   677.746826
-0.042387,   0.102023,   0.108955,   0.000000,   767.049316,   0.536220,   26.719685,   23.676821,   151.985733,   755.264038,   -85.139282,   0.427476,   707.446228,   675.120178
-0.041524,   0.098547,   0.105013,   0.000000,   759.996521,   0.536220,   26.719685,   22.973923,   145.540649,   749.236145,   -81.312729,   0.424645,   702.373047,   672.348511
-0.040628,   0.095014,   0.101017,   0.000000,   752.633179,   0.536220,   26.719685,   22.271025,   138.905579,   742.912842,   -77.237602,   0.421674,   697.077026,   669.345459
-0.039672,   0.091522,   0.097085,   0.000000,   745.175476,   0.536220,   26.719685,   21.568127,   132.295853,   736.495667,   -72.936241,   0.418673,   691.702087,   666.167297
-0.038702,   0.088087,   0.093228,   0.000000,   737.594116,   0.536220,   26.719685,   20.865231,   125.603157,   729.962646,   -68.340363,   0.415572,   686.255920,   662.864380
-0.037779,   0.084553,   0.089257,   0.000000,   729.490845,   0.536220,   26.719685,   20.162333,   118.509583,   722.912231,   -63.398743,   0.412180,   680.465149,   659.274902
-0.036726,   0.080953,   0.085236,   0.000000,   721.030823,   0.536219,   26.719685,   19.459436,   111.294846,   715.487671,   -58.136429,   0.408649,   674.402405,   655.358093
-0.035556,   0.077270,   0.081142,   0.000000,   712.175781,   0.536220,   26.719685,   18.756538,   104.027832,   707.609741,   -52.695438,   0.404996,   668.021484,   651.049744
-0.034340,   0.073331,   0.076768,   0.000000,   702.330994,   0.536220,   26.719685,   18.053640,   96.135376,   698.727600,   -46.737286,   0.400874,   660.940979,   646.127197
-0.032969,   0.069311,   0.072332,   0.000000,   692.008118,   0.536220,   26.719685,   17.350744,   88.216179,   689.299805,   -40.438484,   0.396613,   653.463623,   640.695740
-0.031560,   0.065172,   0.067778,   0.000000,   680.750916,   0.536220,   26.719685,   16.647846,   79.568016,   678.874878,   -33.583378,   0.391704,   645.421570,   634.773560
-0.029892,   0.060850,   0.063049,   0.000000,   668.969910,   0.536220,   26.719685,   15.944948,   71.554344,   667.782166,   -26.637625,   0.387061,   636.709534,   627.872192
-0.028151,   0.056218,   0.057995,   0.000000,   655.358398,   0.536220,   26.719685,   15.242051,   62.165794,   654.763123,   -18.791250,   0.381237,   626.845093,   619.987305
-0.026101,   0.051398,   0.052768,   0.000000,   640.848572,   0.536220,   26.719685,   14.539153,   53.244251,   640.648438,   -10.844849,   0.375458,   616.041687,   610.872131
-0.024022,   0.046225,   0.047169,   0.000000,   623.683655,   0.536220,   26.719685,   13.836256,   42.485455,   623.677979,   -1.817730,   0.367904,   603.565979,   600.188782
-0.021495,   0.040857,   0.041394,   0.000000,   605.381958,   0.536220,   26.719685,   13.133358,   32.879025,   605.292542,   7.154906,   0.360750,   589.671265,   587.614868
-0.018929,   0.035040,   0.035153,   0.000000,   582.738098,   0.536220,   26.719685,   12.430461,   20.560064,   582.161560,   18.003717,   0.350619,   573.007751,   572.222961
-0.015724,   0.028821,   0.028511,   0.000000,   557.138367,   0.536220,   26.719685,   11.727564,   9.673249,   555.736267,   27.705439,   0.340783,   553.049133,   552.909973
-0.012235,   0.022272,   0.021532,   -4.292909,   526.265259,   0.536220,   26.719685,   11.024666,   -1.831311,   523.803650,   36.054977,   0.329263,   528.424805,   528.385498
-0.008463,   0.015389,   0.014222,   -17.182430,   487.549530,   0.536220,   26.719685,   10.321769,   -13.825905,   484.192993,   41.022907,   0.315875,   496.363831,   495.694031
-0.004492,   0.008487,   0.006915,   -15.648027,   445.134949,   0.536220,   26.719685,   9.618871,   -13.323557,   442.810486,   32.644650,   0.315919,   453.161652,   452.553192
-0.000456,   0.001301,   0.000000,   -15.129400,   268.725983,   0.536220,   26.719685,   8.915974,   -10.086255,   263.682831,   37.497875,   0.305610,   276.601166,   275.667908
-0.152670,   0.306959,   0.337104,   0.000000,   887.529114,   0.536501,   27.665697,   50.023975,   108.092079,   780.564514,   -288.742371,   0.333969,   886.965942,   886.964233
-0.143373,   0.297177,   0.326080,   0.000000,   885.784851,   0.536499,   27.665697,   49.309357,   114.225502,   780.507507,   -285.004761,   0.338397,   881.344849,   881.242554
-0.134827,   0.288052,   0.315900,   0.000000,   884.528503,   0.536501,   27.665697,   48.594734,   120.533546,   781.432983,   -280.650055,   0.343238,   875.939697,   875.549011
-0.126903,   0.279426,   0.306362,   0.000000,   883.894653,   0.536501,   27.665697,   47.880116,   127.331093,   783.705688,   -275.316803,   0.348799,   870.640991,   869.688293
-0.119508,   0.271148,   0.297277,   0.000000,   883.841064,   0.536499,   27.665697,   47.165497,   134.726456,   787.347900,   -268.857666,   0.355180,   865.358093,   863.454651
-0.112579,   0.263101,   0.288498,   0.000000,   884.186218,   0.536499,   27.665697,   46.450878,   142.640778,   792.081665,   -261.342163,   0.362282,   860.032410,   856.682312
-0.106083,   0.255210,   0.279926,   0.000000,   884.686279,   0.536501,   27.665697,   45.736256,   150.879501,   797.458984,   -252.998001,   0.369878,   854.639832,   849.282288
-0.100016,   0.247442,   0.271512,   0.000000,   885.113098,   0.536501,   27.665697,   45.021637,   159.195312,   803.050049,   -244.071777,   0.377716,   849.178345,   841.242981
-0.094361,   0.239786,   0.263231,   0.000000,   885.303162,   0.536501,   27.665697,   44.307014,   167.428833,   808.467896,   -234.857574,   0.385580,   843.662354,   832.613708
-0.089097,   0.232224,   0.255054,   0.000000,   885.117981,   0.536499,   27.665697,   43.592396,   175.370941,   813.467285,   -225.508057,   0.393293,   838.085388,   823.460083
-0.084203,   0.224763,   0.246981,   0.000000,   884.468689,   0.536501,   27.665697,   42.877777,   182.910492,   817.759033,   -216.334671,   0.400681,   832.473083,   813.927002
-0.079698,   0.217360,   0.238941,   0.000000,   883.252563,   0.536499,   27.665697,   42.163158,   189.789719,   821.359741,   -207.172348,   0.407677,   826.757202,   804.047852
-0.075492,   0.210115,   0.231081,   0.000000,   881.598938,   0.536501,   27.665697,   41.448536,   196.320862,   823.942139,   -198.773621,   0.414188,   821.095825,   794.110352
-0.071721,   0.203089,   0.223417,   0.000000,   879.430725,   0.536499,   27.665697,   40.733917,   201.935043,   825.853882,   -190.520493,   0.420138,   815.437134,   784.206360
-0.068285,   0.196230,   0.215904,   0.000000,   876.791565,   0.536501,   27.665697,   40.019299,   206.836517,   826.984863,   -182.669785,   0.425558,   809.777344,   774.402588
-0.065165,   0.189551,   0.208559,   0.000000,   873.709351,   0.536501,   27.665697,   39.304676,   210.997116,   827.365906,   -175.249451,   0.430431,   804.126526,   764.806946
-0.062344,   0.183067,   0.201396,   0.000000,   870.222778,   0.536499,   27.665697,   38.590057,   214.408890,   827.047974,   -168.269592,   0.434757,   798.496704,   755.512390
-0.059799,   0.176791,   0.194432,   0.000000,   866.373840,   0.536501,   27.665697,   37.875439,   217.076324,   826.091309,   -161.726151,   0.438545,   792.899841,   746.596130
-0.057509,   0.170732,   0.187680,   0.000000,   862.205872,   0.536499,   27.665697,   37.160820,   219.016251,   824.560547,   -155.605576,   0.441811,   787.346985,   738.117310
-0.055452,   0.164897,   0.181148,   0.000000,   857.760620,   0.536501,   27.665697,   36.446198,   220.253036,   822.518494,   -149.890335,   0.444575,   781.848572,   730.120056
-0.053606,   0.159289,   0.174845,   0.000000,   853.079102,   0.536499,   27.665697,   35.731579,   220.800034,   820.028992,   -144.557556,   0.446849,   776.420288,   722.649719
-0.051948,   0.153906,   0.168772,   0.000000,   848.181458,   0.536501,   27.665697,   35.016960,   220.697601,   817.135376,   -139.574051,   0.448666,   771.051636,   715.697144
-0.050456,   0.148745,   0.162927,   0.000000,   843.102478,   0.536501,   27.665697,   34.302338,   219.969772,   813.894348,   -134.909363,   0.450042,   765.754639,   709.278076
-0.049107,   0.143797,   0.157306,   0.000000,   837.864929,   0.536501,   27.665697,   33.587719,   218.650513,   810.349976,   -130.528336,   0.451002,   760.529175,   703.380615
-0.047880,   0.139051,   0.151899,   0.000000,   832.490479,   0.536498,   27.665697,   32.873100,   216.785492,   806.543579,   -126.394745,   0.451578,   755.373047,   697.975952
-0.046754,   0.134496,   0.146700,   0.000000,   826.997437,   0.536502,   27.665697,   32.158482,   214.419907,   802.509949,   -122.476448,   0.451798,   750.283569,   693.030396
-0.045717,   0.130122,   0.141697,   0.000000,   821.390320,   0.536500,   27.665697,   31.443859,   211.557693,   798.283142,   -118.707664,   0.451676,   745.254517,   688.518677
-0.044749,   0.125912,   0.136875,   0.000000,   815.680481,   0.536500,   27.665697,   30.729240,   208.269562,   793.866821,   -115.108017,   0.451243,   740.278320,   684.391174
-0.043837,   0.121851,   0.132219,   0.000000,   809.852417,   0.536501,   27.665697,   30.014620,   204.517181,   789.289490,   -111.568153,   0.450498,   735.339539,   680.622009
-0.042969,   0.117937,   0.127731,   0.000000,   803.957825,   0.536499,   27.665697,   29.299999,   200.465302,   784.573853,   -108.157623,   0.449513,   730.449768,   677.130859
-0.042149,   0.114145,   0.123380,   0.000000,   797.923950,   0.536501,   27.665697,   28.585381,   195.953735,   779.697266,   -104.746895,   0.448221,   725.573425,   673.938721
-0.041358,   0.110466,   0.119159,   0.000000,   791.780640,   0.536500,   27.665697,   27.870760,   191.100586,   774.686584,   -101.331406,   0.446685,   720.707825,   670.959534
-0.040584,   0.106884,   0.115052,   0.000000,   785.519897,   0.536501,   27.665697,   27.156141,   185.933167,   769.543884,   -97.872383,   0.444923,   715.836731,   668.141174
-0.039768,   0.103385,   0.111057,   0.000000,   779.200745,   0.536499,   27.665697,   26.441521,   180.664978,   764.280640,   -94.499863,   0.443032,   710.968811,   665.384827
-0.038987,   0.099900,   0.107074,   0.000000,   772.597229,   0.536501,   27.665697,   25.726900,   174.953476,   758.751160,   -90.967049,   0.440863,   705.968079,   662.686401
-0.038197,   0.096441,   0.103126,   0.000000,   765.775635,   0.536500,   27.665697,   25.012281,   168.947021,   753.010315,   -87.285126,   0.438489,   700.860107,   659.980530
-0.037394,   0.093070,   0.099289,   0.000000,   758.882080,   0.536500,   27.665697,   24.297661,   162.820755,   747.175903,   -83.531967,   0.435983,   695.743835,   657.281006
-0.036590,   0.089772,   0.095545,   0.000000,   751.873535,   0.536500,   27.665697,   23.583042,   156.510681,   741.235535,   -79.583107,   0.433323,   690.590210,   654.566772
-0.035763,   0.086496,   0.091836,   0.000000,   744.673706,   0.536501,   27.665697,   22.868422,   150.034210,   735.107727,   -75.420860,   0.430523,   685.322754,   651.742371
-0.034901,   0.083238,   0.088161,   0.000000,   737.316956,   0.536499,   27.665697,   22.153801,   143.529495,   728.790161,   -71.155594,   0.427644,   679.942871,   648.752686
-0.034081,   0.079908,   0.084401,   0.000000,   729.384338,   0.536501,   27.665697,   21.439182,   136.321854,   721.965271,   -66.332291,   0.424324,   674.238647,   645.636719
-0.033169,   0.076576,   0.080658,   0.000000,   721.277954,   0.536500,   27.665697,   20.724562,   129.211273,   714.918945,   -61.359348,   0.420987,   668.374084,   642.230835
-0.032160,   0.073196,   0.076882,   0.000000,   712.862427,   0.536501,   27.665697,   20.009941,   122.076653,   707.527100,   -56.142971,   0.417565,   662.254395,   638.486206
-0.031124,   0.069618,   0.072888,   0.000000,   703.609863,   0.536499,   27.665697,   19.295322,   114.398773,   699.295593,   -50.418480,   0.413755,   655.537109,   634.239563
-0.029985,   0.066015,   0.068890,   0.000000,   693.954651,   0.536501,   27.665697,   18.580702,   106.553085,   690.622192,   -44.243355,   0.409732,   648.534546,   629.655090
-0.028751,   0.062430,   0.064934,   0.000000,   684.176697,   0.536500,   27.665697,   17.866083,   99.124123,   681.711670,   -37.975800,   0.405840,   641.333618,   624.630127
-0.027453,   0.058593,   0.060706,   0.000000,   673.048889,   0.536500,   27.665697,   17.151463,   90.614044,   671.407410,   -30.920254,   0.401105,   633.267761,   618.971558
-0.026022,   0.054579,   0.056303,   0.000000,   660.953796,   0.536500,   27.665697,   16.436844,   81.835625,   660.001831,   -23.479912,   0.395993,   624.453125,   612.501587
-0.024514,   0.050466,   0.051813,   0.000000,   647.686401,   0.536500,   27.665697,   15.722223,   72.218674,   647.282288,   -15.249484,   0.390016,   614.932251,   605.390015
-0.022719,   0.046244,   0.047235,   0.000000,   634.175049,   0.536501,   27.665697,   15.007604,   64.119461,   634.078552,   -7.415963,   0.384866,   604.710754,   597.014343
-0.020961,   0.041770,   0.042389,   0.000000,   618.026489,   0.536500,   27.665697,   14.292984,   53.597374,   618.020142,   1.888680,   0.377494,   593.049744,   587.565002
-0.018881,   0.037203,   0.037476,   0.000000,   601.189148,   0.536501,   27.665697,   13.578364,   44.423210,   600.974060,   10.942955,   0.370695,   580.349243,   576.542664
-0.016788,   0.032348,   0.032263,   0.000000,   580.836670,   0.536500,   27.665697,   12.863744,   32.822502,   580.001221,   21.396858,   0.361214,   565.521973,   563.481201
-0.014264,   0.027286,   0.026856,   0.000000,   558.813904,   0.536500,   27.665697,   12.149125,   23.052330,   557.060730,   30.647701,   0.352562,   548.474548,   547.542908
-0.011578,   0.022009,   0.021231,   0.000000,   533.767090,   0.536500,   27.665697,   11.434505,   14.240835,   530.739746,   39.658257,   0.343891,   528.249573,   527.981628
-0.008859,   0.016790,   0.015682,   0.000000,   505.946381,   0.536500,   27.665697,   10.719885,   6.906731,   501.519165,   47.003777,   0.335787,   504.711182,   504.697540
-0.006134,   0.011803,   0.010393,   -1.130725,   476.384521,   0.536500,   27.665697,   10.005265,   3.092987,   472.160797,   44.710701,   0.332147,   476.950867,   476.947845
-0.003430,   0.006627,   0.004966,   -15.392991,   430.534576,   0.536500,   27.665697,   9.290645,   -12.147912,   427.289490,   37.901711,   0.315625,   438.433777,   437.825165
-0.000236,   0.000565,   0.000000,   -15.306613,   114.164360,   0.536500,   27.665697,   8.576026,   -15.228041,   114.085785,   -3.188527,   0.268920,   122.536781,   120.357773
-0.130304,   0.266963,   0.294044,   0.000000,   868.314331,   0.536478,   28.595657,   50.404324,   130.057114,   738.670532,   -309.371124,   0.333571,   868.107788,   868.107483
-0.122400,   0.258361,   0.284220,   0.000000,   866.342712,   0.536478,   28.595657,   49.676586,   134.551880,   740.086914,   -303.961884,   0.338133,   862.224609,   862.134827
-0.115219,   0.250410,   0.275238,   0.000000,   864.373474,   0.536478,   28.595657,   48.948853,   138.595016,   741.354248,   -298.805420,   0.342383,   856.691711,   856.372986
-0.108647,   0.243025,   0.266975,   0.000000,   862.679810,   0.536478,   28.595657,   48.221115,   142.596481,   743.048157,   -293.504303,   0.346728,   851.429749,   850.732544
-0.102581,   0.236092,   0.259282,   0.000000,   861.459717,   0.536477,   28.595657,   47.493382,   146.884171,   745.687134,   -287.625214,   0.351545,   846.332947,   845.044861
-0.096941,   0.229495,   0.252012,   0.000000,   860.785339,   0.536478,   28.595657,   46.765648,   151.655319,   749.530396,   -280.881134,   0.357055,   841.312988,   839.126282
-0.091667,   0.223129,   0.245035,   0.000000,   860.568115,   0.536478,   28.595657,   46.037910,   156.969360,   754.491150,   -273.195190,   0.363298,   836.284119,   832.789368
-0.086740,   0.216930,   0.238264,   0.000000,   860.633667,   0.536478,   28.595657,   45.310177,   162.670425,   760.311829,   -264.614716,   0.370134,   831.214966,   825.929443
-0.082120,   0.210847,   0.231639,   0.000000,   860.827515,   0.536478,   28.595657,   44.582439,   168.767502,   766.538879,   -255.447403,   0.377394,   826.109924,   818.505249
-0.077797,   0.204839,   0.225104,   0.000000,   860.930359,   0.536478,   28.595657,   43.854706,   174.979370,   772.829712,   -245.830719,   0.384844,   820.946106,   810.506775
-0.073759,   0.198901,   0.218646,   0.000000,   860.815308,   0.536478,   28.595657,   43.126968,   181.202682,   778.832947,   -236.042923,   0.392295,   815.743469,   801.999207
-0.070001,   0.192992,   0.212207,   0.000000,   860.298340,   0.536477,   28.595657,   42.399235,   187.109879,   784.336487,   -226.134109,   0.399545,   810.460754,   793.041748
-0.066469,   0.187169,   0.205866,   0.000000,   859.443909,   0.536478,   28.595657,   41.671501,   192.903778,   789.093079,   -216.544830,   0.406526,   805.192993,   783.797546
-0.063290,   0.181477,   0.199638,   0.000000,   858.135376,   0.536478,   28.595657,   40.943764,   198.126923,   793.119019,   -207.150558,   0.413055,   799.929932,   774.423218
-0.060364,   0.175870,   0.193482,   0.000000,   856.370544,   0.536478,   28.595657,   40.216030,   202.843201,   796.326172,   -198.092545,   0.419122,   794.652954,   764.983459
-0.057681,   0.170357,   0.187409,   0.000000,   854.162231,   0.536478,   28.595657,   39.488293,   207.008865,   798.722595,   -189.414719,   0.424699,   789.367859,   755.580811
-0.055230,   0.164949,   0.181427,   0.000000,   851.529236,   0.536478,   28.595657,   38.760559,   210.589661,   800.333496,   -181.144623,   0.429771,   784.078979,   746.309814
-0.052999,   0.159656,   0.175546,   0.000000,   848.496887,   0.536478,   28.595657,   38.032822,   213.563873,   801.196838,   -173.298462,   0.434331,   778.791565,   737.256592
-0.050972,   0.154484,   0.169777,   0.000000,   845.093384,   0.536477,   28.595657,   37.305088,   215.916916,   801.358826,   -165.881714,   0.438380,   773.511108,   728.497437
-0.049136,   0.149444,   0.164130,   0.000000,   841.350952,   0.536478,   28.595657,   36.577354,   217.648239,   800.873596,   -158.889404,   0.441927,   768.243469,   720.093750
-0.047473,   0.144541,   0.158615,   0.000000,   837.299561,   0.536478,   28.595657,   35.849617,   218.755753,   799.795227,   -152.309158,   0.444980,   762.994690,   712.099182
-0.045969,   0.139780,   0.153238,   0.000000,   832.970764,   0.536478,   28.595657,   35.121883,   219.253281,   798.180420,   -146.121368,   0.447556,   757.769531,   704.547913
-0.044606,   0.135162,   0.148004,   0.000000,   828.392090,   0.536478,   28.595657,   34.394146,   219.155594,   796.081848,   -140.301804,   0.449675,   752.571228,   697.462891
-0.043367,   0.130688,   0.142916,   0.000000,   823.586548,   0.536478,   28.595657,   33.666412,   218.477737,   793.547302,   -134.822144,   0.451353,   747.401184,   690.856140
-0.042235,   0.126350,   0.137971,   0.000000,   818.577393,   0.536477,   28.595657,   32.938675,   217.260925,   790.617737,   -129.663467,   0.452619,   742.257507,   684.715637
-0.041188,   0.122142,   0.133162,   0.000000,   813.378662,   0.536479,   28.595657,   32.210941,   215.530838,   787.335266,   -124.779800,   0.453498,   737.133179,   679.018555
-0.040218,   0.118063,   0.128490,   0.000000,   807.992188,   0.536478,   28.595657,   31.483206,   213.246368,   783.746399,   -120.083626,   0.453988,   732.025696,   673.772766
-0.039313,   0.114110,   0.123959,   0.000000,   802.468933,   0.536479,   28.595657,   30.755470,   210.560242,   779.877197,   -115.638474,   0.454155,   726.945435,   668.913086
-0.038466,   0.110264,   0.119541,   0.000000,   796.748352,   0.536478,   28.595657,   30.027735,   207.321548,   775.741516,   -111.274323,   0.453952,   721.855286,   664.451172
-0.037623,   0.106530,   0.115260,   0.000000,   790.929260,   0.536478,   28.595657,   29.299999,   203.784836,   771.392700,   -107.101707,   0.453492,   716.790894,   660.286499
-0.036835,   0.102870,   0.111057,   0.000000,   784.890137,   0.536478,   28.595657,   28.572264,   199.750763,   766.766846,   -102.978928,   0.452695,   711.676514,   656.424377
-0.036061,   0.099280,   0.106936,   0.000000,   778.658020,   0.536478,   28.595657,   27.844528,   195.306519,   761.885803,   -98.914558,   0.451602,   706.516541,   652.806946
-0.035288,   0.095727,   0.102862,   0.000000,   772.193237,   0.536478,   28.595657,   27.116795,   190.468719,   756.732483,   -94.836166,   0.450236,   701.263306,   649.347046
-0.034516,   0.092286,   0.098924,   0.000000,   765.648193,   0.536478,   28.595657,   26.389059,   185.384354,   751.435669,   -90.813087,   0.448648,   696.031311,   646.079468
-0.033761,   0.088959,   0.095123,   0.000000,   759.008484,   0.536478,   28.595657,   25.661324,   179.987640,   746.013428,   -86.743370,   0.446813,   690.819458,   643.012085
-0.032993,   0.085685,   0.091393,   0.000000,   752.189331,   0.536478,   28.595657,   24.933588,   174.292465,   740.390259,   -82.575020,   0.444750,   685.541443,   640.024353
-0.032270,   0.082430,   0.087679,   0.000000,   745.061523,   0.536478,   28.595657,   24.205853,   168.166733,   734.434570,   -78.298439,   0.442376,   680.116638,   637.094055
-0.031492,   0.079197,   0.084008,   0.000000,   737.705322,   0.536478,   28.595657,   23.478117,   161.779648,   728.233643,   -73.857750,   0.439791,   674.572754,   634.131226
-0.030692,   0.075978,   0.080363,   0.000000,   730.092407,   0.536478,   28.595657,   22.750381,   155.146301,   721.764771,   -69.195030,   0.437005,   668.879272,   631.078918
-0.029816,   0.072786,   0.076770,   0.000000,   722.385742,   0.536478,   28.595657,   22.022648,   148.688492,   715.117188,   -64.575089,   0.434236,   663.084473,   627.794189
-0.028954,   0.069520,   0.073091,   0.000000,   714.016357,   0.536478,   28.595657,   21.294912,   141.404800,   707.871948,   -59.315655,   0.430942,   656.914429,   624.419983
-0.028043,   0.066172,   0.069333,   0.000000,   705.160950,   0.536478,   28.595657,   20.567177,   133.932755,   700.082092,   -53.862766,   0.427451,   650.378845,   620.678162
-0.027048,   0.062831,   0.065605,   0.000000,   695.987671,   0.536478,   28.595657,   19.839441,   126.298416,   691.945190,   -47.989037,   0.423766,   643.627808,   616.687195
-0.025980,   0.059532,   0.061947,   0.000000,   686.749573,   0.536478,   28.595657,   19.111706,   119.066727,   683.635010,   -42.048416,   0.420213,   636.741516,   612.309021
-0.024926,   0.056030,   0.058059,   0.000000,   676.139038,   0.536478,   28.595657,   18.383970,   110.353371,   673.965820,   -35.065418,   0.415601,   629.064514,   607.606079
-0.023668,   0.052493,   0.054168,   0.000000,   665.488525,   0.536478,   28.595657,   17.656237,   102.732727,   664.067688,   -28.276854,   0.411554,   621.061279,   602.047913
-0.022410,   0.048908,   0.050233,   0.000000,   653.901733,   0.536478,   28.595657,   16.928501,   94.276222,   653.133240,   -20.737812,   0.406737,   612.524536,   596.148865
-0.020991,   0.045252,   0.046246,   0.000000,   641.721924,   0.536479,   28.595657,   16.200766,   86.087654,   641.422058,   -12.908411,   0.401882,   603.419189,   589.465027
-0.019555,   0.041338,   0.041982,   0.000000,   627.506836,   0.536478,   28.595657,   15.473030,   76.352615,   627.476990,   -4.056407,   0.395605,   593.040405,   581.837158
-0.017948,   0.037441,   0.037766,   0.000000,   612.690430,   0.536478,   28.595657,   14.745295,   67.061180,   612.646362,   4.902089,   0.389239,   582.082520,   573.306580
-0.016269,   0.033423,   0.033434,   0.000000,   596.317810,   0.536478,   28.595657,   14.017559,   57.406456,   595.929321,   14.469175,   0.382100,   569.951904,   563.481812
-0.014448,   0.029313,   0.029023,   0.000000,   578.377563,   0.536478,   28.595657,   13.289824,   47.796116,   577.253296,   24.423349,   0.374386,   556.511353,   552.082520
-0.012516,   0.025101,   0.024520,   0.000000,   558.307068,   0.536478,   28.595657,   12.562089,   37.931591,   556.031311,   34.412804,   0.365722,   541.360474,   538.709229
-0.010408,   0.020865,   0.020003,   0.000000,   537.410461,   0.536478,   28.595657,   11.834353,   30.711660,   533.859497,   42.417797,   0.358897,   524.357971,   522.771790
-0.008416,   0.016763,   0.015639,   0.000000,   513.896118,   0.536478,   28.595657,   11.106618,   22.319887,   509.069519,   48.709908,   0.350491,   505.376617,   504.694702
-0.006355,   0.012720,   0.011349,   0.000000,   489.514099,   0.536478,   28.595657,   10.378882,   17.853746,   484.092651,   50.567635,   0.346109,   483.417847,   483.057922
-0.004268,   0.008565,   0.006978,   0.000000,   458.138763,   0.536478,   28.595657,   9.651148,   11.595691,   451.173004,   55.771954,   0.338399,   455.841400,   455.788452
-0.002032,   0.004320,   0.002557,   -8.974648,   413.174194,   0.536478,   28.595657,   8.923412,   -1.643035,   405.842590,   55.147797,   0.322534,   417.733856,   417.516846
-0.000400,   0.000182,   0.000000,   -79.637154,   14.266907,   0.536478,   28.595657,   8.195677,   -37.847126,   -27.523123,   -46.667408,   -0.248615,   87.645866,   -84.974342
-0.110137,   0.230461,   0.254477,   0.000000,   848.960144,   0.536039,   29.507784,   50.824341,   154.951736,   695.257874,   -326.604767,   0.334069,   848.336121,   848.334045
-0.103635,   0.223426,   0.246329,   0.000000,   847.593567,   0.536039,   29.507784,   50.082123,   157.807739,   700.164185,   -318.896088,   0.339474,   842.452393,   842.308533
-0.097780,   0.216902,   0.238861,   0.000000,   845.851929,   0.536040,   29.507784,   49.339905,   160.010239,   703.890503,   -312.030579,   0.344057,   836.973511,   836.535522
-0.092451,   0.210856,   0.232015,   0.000000,   843.993286,   0.536039,   29.507784,   48.597683,   161.885956,   706.933350,   -305.760651,   0.348144,   831.858154,   831.023987
-0.087562,   0.205220,   0.225692,   0.000000,   842.226196,   0.536039,   29.507784,   47.855469,   163.668701,   709.864563,   -299.691498,   0.352082,   827.017273,   825.682373
-0.083039,   0.199911,   0.219784,   0.000000,   840.757202,   0.536040,   29.507784,   47.113247,   165.632248,   713.273193,   -293.372894,   0.356259,   822.347046,   820.352661
-0.078826,   0.194850,   0.214189,   0.000000,   839.721191,   0.536039,   29.507784,   46.371029,   168.017975,   717.569702,   -286.442963,   0.360984,   817.753296,   814.851685
-0.074913,   0.189984,   0.208829,   0.000000,   839.102173,   0.536039,   29.507784,   45.628811,   170.812958,   722.908691,   -278.658997,   0.366353,   813.169373,   809.026794
-0.071210,   0.185245,   0.203634,   0.000000,   838.900391,   0.536040,   29.507784,   44.886593,   174.334991,   729.077209,   -270.156769,   0.372429,   808.576904,   802.756165
-0.067729,   0.180567,   0.198516,   0.000000,   838.880615,   0.536039,   29.507784,   44.144371,   178.303818,   735.781799,   -260.968750,   0.379012,   803.920654,   795.948853
-0.064458,   0.175925,   0.193442,   0.000000,   838.892334,   0.536039,   29.507784,   43.402153,   182.626099,   742.671387,   -251.289780,   0.385926,   799.200562,   788.589417
-0.061370,   0.171283,   0.188366,   0.000000,   838.746826,   0.536040,   29.507784,   42.659935,   187.080963,   749.405457,   -241.289749,   0.392954,   794.399536,   780.700134
-0.058501,   0.166676,   0.183317,   0.000000,   838.360657,   0.536039,   29.507784,   41.917717,   191.525223,   755.759827,   -231.147476,   0.399924,   789.553833,   772.378540
-0.055849,   0.162133,   0.178330,   0.000000,   837.670959,   0.536039,   29.507784,   41.175499,   195.868057,   761.453308,   -221.171204,   0.406652,   784.717285,   763.789551
-0.053385,   0.157614,   0.173357,   0.000000,   836.606018,   0.536040,   29.507784,   40.433281,   199.989639,   766.423401,   -211.375031,   0.413078,   779.847534,   754.966187
-0.051104,   0.153121,   0.168396,   0.000000,   835.133545,   0.536039,   29.507784,   39.691059,   203.796844,   770.598938,   -201.849091,   0.419125,   774.944824,   746.009033
-0.048999,   0.148662,   0.163454,   0.000000,   833.245605,   0.536039,   29.507784,   38.948841,   207.220383,   773.956116,   -192.656937,   0.424745,   770.012268,   737.017639
-0.047061,   0.144245,   0.158539,   0.000000,   830.947815,   0.536040,   29.507784,   38.206623,   210.207916,   776.502319,   -183.838257,   0.429909,   765.052795,   728.083862
-0.045282,   0.139877,   0.153660,   0.000000,   828.254272,   0.536039,   29.507784,   37.464405,   212.722137,   778.263733,   -175.415985,   0.434604,   760.068115,   719.289307
-0.043653,   0.135565,   0.148825,   0.000000,   825.183960,   0.536039,   29.507784,   36.722187,   214.735748,   779.279236,   -167.399094,   0.438824,   755.060120,   710.705688
-0.042162,   0.131318,   0.144043,   0.000000,   821.757019,   0.536040,   29.507784,   35.979969,   216.225220,   779.591431,   -159.789307,   0.442567,   750.031128,   702.399170
-0.040798,   0.127141,   0.139324,   0.000000,   817.997803,   0.536039,   29.507784,   35.237751,   217.182037,   779.249390,   -152.579956,   0.445840,   744.983643,   694.420898
-0.039550,   0.123042,   0.134674,   0.000000,   813.930054,   0.536039,   29.507784,   34.495529,   217.601807,   778.304199,   -145.755646,   0.448655,   739.920044,   686.811890
-0.038407,   0.119022,   0.130101,   0.000000,   809.576111,   0.536039,   29.507784,   33.753311,   217.484848,   776.805542,   -139.295242,   0.451022,   734.841858,   679.601562
-0.037352,   0.115083,   0.125608,   0.000000,   804.961243,   0.536040,   29.507784,   33.011093,   216.874771,   774.785522,   -133.213791,   0.452969,   729.749023,   672.795959
-0.036367,   0.111215,   0.121186,   0.000000,   800.091064,   0.536039,   29.507784,   32.268875,   215.764938,   772.303406,   -127.424652,   0.454519,   724.625549,   666.377136
-0.035455,   0.107418,   0.116834,   0.000000,   794.946594,   0.536040,   29.507784,   31.526657,   214.064133,   769.392212,   -121.836342,   0.455646,   719.458740,   660.380432
-0.034566,   0.103704,   0.112581,   0.000000,   789.623962,   0.536040,   29.507784,   30.784437,   211.992142,   766.104309,   -116.557678,   0.456444,   714.286682,   654.747253
-0.033738,   0.100020,   0.108350,   0.000000,   783.982849,   0.536039,   29.507784,   30.042219,   209.345306,   762.377258,   -111.424408,   0.456847,   709.006836,   649.460571
-0.032934,   0.096421,   0.104217,   0.000000,   778.163635,   0.536040,   29.507784,   29.299999,   206.294373,   758.338440,   -106.477402,   0.456928,   703.708679,   644.517578
-0.032164,   0.092923,   0.100200,   0.000000,   772.192017,   0.536040,   29.507784,   28.557781,   202.832169,   754.049133,   -101.635681,   0.456696,   698.408875,   639.918213
-0.031408,   0.089492,   0.096265,   0.000000,   766.028625,   0.536039,   29.507784,   27.815563,   198.981491,   749.463562,   -96.918365,   0.456160,   693.065247,   635.602478
-0.030647,   0.086118,   0.092402,   0.000000,   759.656555,   0.536040,   29.507784,   27.073343,   194.716766,   744.602478,   -92.220581,   0.455322,   687.658936,   631.535889
-0.029935,   0.082777,   0.088569,   0.000000,   752.984680,   0.536040,   29.507784,   26.331125,   189.954163,   739.387329,   -87.497055,   0.454141,   682.124390,   627.684753
-0.029198,   0.079489,   0.084811,   0.000000,   746.108032,   0.536039,   29.507784,   25.588907,   184.839722,   733.891968,   -82.803871,   0.452675,   676.520630,   624.018311
-0.028456,   0.076257,   0.081124,   0.000000,   739.035706,   0.536040,   29.507784,   24.846687,   179.424255,   728.156006,   -78.028336,   0.450970,   670.835815,   620.458313
-0.027675,   0.073049,   0.077478,   0.000000,   731.696167,   0.536040,   29.507784,   24.104469,   173.664169,   722.090576,   -73.213501,   0.448985,   665.021362,   616.977661
-0.026880,   0.069815,   0.073808,   0.000000,   723.955688,   0.536039,   29.507784,   23.362249,   167.502167,   715.599182,   -68.191063,   0.446717,   658.957336,   613.442566
-0.026061,   0.066569,   0.070134,   0.000000,   715.809631,   0.536040,   29.507784,   22.620031,   160.919067,   708.666443,   -62.957848,   0.444128,   652.653198,   609.861877
-0.025225,   0.063377,   0.066535,   0.000000,   707.456482,   0.536039,   29.507784,   21.877813,   154.180405,   701.448853,   -57.653225,   0.441338,   646.238403,   606.225403
-0.024355,   0.060228,   0.062999,   0.000000,   698.783936,   0.536040,   29.507784,   21.135595,   147.037872,   693.900024,   -51.910286,   0.438218,   639.665405,   602.569031
-0.023405,   0.057083,   0.059491,   0.000000,   689.934631,   0.536040,   29.507784,   20.393375,   140.170792,   686.050110,   -46.212296,   0.435155,   632.894226,   598.528259
-0.022478,   0.053790,   0.055813,   0.000000,   679.916138,   0.536039,   29.507784,   19.651157,   131.939651,   677.056335,   -39.586620,   0.431156,   625.447083,   594.360046
-0.021385,   0.050528,   0.052203,   0.000000,   669.963440,   0.536040,   29.507784,   18.908939,   124.686607,   667.945068,   -33.174694,   0.427642,   617.831055,   589.491150
-0.020291,   0.047164,   0.048486,   0.000000,   658.967468,   0.536040,   29.507784,   18.166719,   116.479950,   657.724365,   -25.968800,   0.423358,   609.573914,   584.308594
-0.019136,   0.043774,   0.044760,   0.000000,   647.193237,   0.536039,   29.507784,   17.424501,   107.742157,   646.588501,   -18.061342,   0.418492,   600.831787,   578.752930
-0.017888,   0.040355,   0.041021,   0.000000,   634.952637,   0.536040,   29.507784,   16.682283,   99.510406,   634.762268,   -10.096066,   0.413736,   591.579041,   572.368896
-0.016591,   0.036858,   0.037211,   0.000000,   621.547546,   0.536040,   29.507784,   15.940063,   90.670952,   621.543945,   -1.385491,   0.408236,   581.539246,   565.308960
-0.015154,   0.033432,   0.033507,   0.000000,   607.942810,   0.536039,   29.507784,   15.197845,   82.704285,   607.840393,   7.334238,   0.403022,   571.139465,   557.463013
-0.013789,   0.029809,   0.029587,   0.000000,   591.709106,   0.536039,   29.507784,   14.455626,   72.505569,   591.134094,   17.278139,   0.395572,   559.224182,   548.671692
-0.012211,   0.026267,   0.025787,   0.000000,   575.355957,   0.536039,   29.507784,   13.713408,   64.057434,   573.931885,   26.983805,   0.388968,   546.736633,   538.576599
-0.010675,   0.022670,   0.021933,   0.000000,   556.862610,   0.536040,   29.507784,   12.971189,   54.657162,   554.148193,   36.921459,   0.380889,   532.793579,   527.051941
-0.008995,   0.019162,   0.018193,   0.000000,   538.457397,   0.536040,   29.507784,   12.228970,   48.217140,   534.385010,   44.681614,   0.375051,   517.798279,   513.538879
-0.007464,   0.015838,   0.014654,   0.000000,   518.922180,   0.536039,   29.507784,   11.486752,   41.960094,   513.221802,   52.142757,   0.368811,   501.775879,   498.815552
-0.005925,   0.012600,   0.011220,   0.000000,   498.031128,   0.536040,   29.507784,   10.744533,   36.894398,   490.699860,   58.143951,   0.363411,   483.927307,   481.889343
-0.004372,   0.009306,   0.007750,   0.000000,   470.431183,   0.536039,   29.507784,   10.002314,   25.777136,   461.418091,   63.306412,   0.351301,   462.277191,   461.592529
-0.002656,   0.005792,   0.004078,   -0.547023,   433.000610,   0.536039,   29.507784,   9.260096,   9.537465,   422.916107,   65.348366,   0.332702,   433.274353,   433.273529
-0.000820,   0.002159,   0.000337,   -19.147409,   383.205231,   0.536039,   29.507784,   8.517877,   -4.411711,   368.469543,   75.576492,   0.308684,   393.128815,   392.077667
-0.000957,   0.000312,   0.000000,   -199.297791,   5.771055,   0.536039,   29.507784,   7.775658,   -51.638924,   -141.887817,   -92.071129,   -0.318964,   202.245087,   -202.059723
-0.092732,   0.198350,   0.219425,   0.000000,   829.154541,   0.535065,   30.400322,   51.283226,   180.532318,   650.672607,   -340.246002,   0.334571,   828.131226,   828.125488
-0.087500,   0.192969,   0.213104,   0.000000,   828.856628,   0.535064,   30.400322,   50.525185,   181.449951,   660.169861,   -330.467743,   0.341062,   822.549316,   822.326416
-0.082837,   0.187927,   0.207254,   0.000000,   827.946838,   0.535065,   30.400322,   49.767139,   181.930878,   667.612488,   -321.836182,   0.346457,   817.362549,   816.720215
-0.078568,   0.183176,   0.201810,   0.000000,   826.619812,   0.535064,   30.400322,   49.009098,   182.162048,   673.444336,   -314.189667,   0.351012,   812.514465,   811.349915
-0.074641,   0.178693,   0.196728,   0.000000,   825.019531,   0.535064,   30.400322,   48.251057,   182.174271,   678.137207,   -307.282654,   0.354935,   807.951904,   806.214966
-0.071018,   0.174459,   0.191971,   0.000000,   823.340027,   0.535065,   30.400322,   47.493015,   182.092194,   682.268433,   -300.768799,   0.358530,   803.615356,   801.254700
-0.067662,   0.170444,   0.187493,   0.000000,   821.794434,   0.535064,   30.400322,   46.734970,   182.114716,   686.461731,   -294.227081,   0.362165,   799.430725,   796.342224
-0.064610,   0.166622,   0.183241,   0.000000,   820.516052,   0.535064,   30.400322,   45.976933,   182.320038,   691.251953,   -287.220856,   0.366132,   795.316406,   791.320129
-0.061668,   0.162934,   0.179172,   0.000000,   819.720459,   0.535066,   30.400322,   45.218887,   183.267487,   696.880005,   -279.610718,   0.370789,   791.239380,   786.022888
-0.058896,   0.159324,   0.175200,   0.000000,   819.288452,   0.535064,   30.400322,   44.460846,   184.831070,   703.307129,   -271.265900,   0.376111,   787.125122,   780.307434
-0.056279,   0.155747,   0.171268,   0.000000,   819.098450,   0.535064,   30.400322,   43.702801,   186.970505,   710.308411,   -262.238861,   0.382012,   782.941223,   774.086243
-0.053767,   0.152153,   0.167327,   0.000000,   819.002502,   0.535065,   30.400322,   42.944759,   189.628418,   717.549561,   -252.689209,   0.388346,   778.668152,   767.315491
-0.051494,   0.148561,   0.163360,   0.000000,   818.781616,   0.535064,   30.400322,   42.186718,   192.357239,   724.818848,   -242.611954,   0.394847,   774.287537,   760.031128
-0.049298,   0.144975,   0.159411,   0.000000,   818.471252,   0.535064,   30.400322,   41.428677,   195.502731,   731.672852,   -232.535294,   0.401429,   769.896362,   752.340088
-0.047241,   0.141365,   0.155427,   0.000000,   817.890564,   0.535065,   30.400322,   40.670635,   198.705658,   737.976013,   -222.445221,   0.407906,   765.439819,   744.276917
-0.045317,   0.137738,   0.151411,   0.000000,   816.978638,   0.535065,   30.400322,   39.912590,   201.847839,   743.586853,   -212.474838,   0.414159,   760.926575,   735.937256
-0.043521,   0.134093,   0.147364,   0.000000,   815.696716,   0.535064,   30.400322,   39.154549,   204.832123,   748.424011,   -202.717865,   0.420108,   756.357727,   727.411377
-0.041849,   0.130437,   0.143290,   0.000000,   814.024414,   0.535065,   30.400322,   38.396507,   207.578262,   752.448425,   -193.242081,   0.425695,   751.733276,   718.787842
-0.040295,   0.126773,   0.139192,   0.000000,   811.954651,   0.535064,   30.400322,   37.638466,   210.020172,   755.651917,   -184.093933,   0.430881,   747.052795,   710.150879
-0.038854,   0.123109,   0.135079,   0.000000,   809.490173,   0.535064,   30.400322,   36.880424,   212.104568,   758.047791,   -175.302383,   0.435642,   742.315430,   701.578857
-0.037518,   0.119451,   0.130958,   0.000000,   806.641541,   0.535065,   30.400322,   36.122379,   213.793823,   759.665222,   -166.882645,   0.439969,   737.520691,   693.140015
-0.036282,   0.115807,   0.126838,   0.000000,   803.421814,   0.535064,   30.400322,   35.364338,   215.052734,   760.540100,   -158.840347,   0.443854,   732.668701,   684.898987
-0.035138,   0.112183,   0.122727,   0.000000,   799.847046,   0.535064,   30.400322,   34.606297,   215.856262,   760.714600,   -151.172012,   0.447295,   727.759949,   676.910217
-0.034078,   0.108588,   0.118636,   0.000000,   795.938782,   0.535065,   30.400322,   33.848255,   216.198929,   760.238159,   -143.864807,   0.450306,   722.794983,   669.211182
-0.033083,   0.105017,   0.114565,   0.000000,   791.721680,   0.535065,   30.400322,   33.090210,   216.140244,   759.127625,   -136.969162,   0.452915,   717.770813,   661.810059
-0.032127,   0.101463,   0.110508,   0.000000,   787.175964,   0.535064,   30.400322,   32.332169,   215.577789,   757.446716,   -130.357910,   0.455111,   712.664124,   654.731445
-0.031242,   0.097905,   0.106432,   0.000000,   782.241699,   0.535064,   30.400322,   31.574127,   214.434967,   755.167419,   -123.987755,   0.456872,   707.421204,   647.980408
-0.030393,   0.094406,   0.102422,   0.000000,   777.068726,   0.535064,   30.400322,   30.816084,   212.867020,   752.430176,   -117.902977,   0.458265,   702.139099,   641.591919
-0.029587,   0.090984,   0.098498,   0.000000,   771.691345,   0.535064,   30.400322,   30.058043,   210.869720,   749.305054,   -112.047798,   0.459301,   696.837463,   635.585144
-0.028835,   0.087583,   0.094587,   0.000000,   765.980591,   0.535065,   30.400322,   29.300001,   208.317017,   745.702271,   -106.341324,   0.459938,   691.412170,   629.920898
-0.028076,   0.084215,   0.090722,   0.000000,   760.019958,   0.535064,   30.400322,   28.541958,   205.359253,   741.712097,   -100.770256,   0.460259,   685.897766,   624.536316
-0.027329,   0.080888,   0.086907,   0.000000,   753.825928,   0.535064,   30.400322,   27.783916,   202.060913,   737.339844,   -95.375359,   0.460291,   680.294373,   619.398010
-0.026595,   0.077605,   0.083143,   0.000000,   747.369080,   0.535065,   30.400322,   27.025873,   198.301529,   732.607971,   -90.026833,   0.459986,   674.592590,   614.543762
-0.025844,   0.074345,   0.079416,   0.000000,   740.624329,   0.535064,   30.400322,   26.267830,   194.099808,   727.519226,   -84.630112,   0.459370,   668.755859,   609.897400
-0.025098,   0.071093,   0.075700,   0.000000,   733.539062,   0.535064,   30.400322,   25.509789,   189.472397,   721.983826,   -79.289413,   0.458428,   662.740417,   605.417664
-0.024337,   0.067835,   0.071983,   0.000000,   726.073059,   0.535064,   30.400322,   24.751747,   184.384766,   716.014526,   -73.814613,   0.457168,   656.504517,   601.035583
-0.023554,   0.064632,   0.068344,   0.000000,   718.380554,   0.535065,   30.400322,   23.993704,   179.005310,   709.715515,   -68.364510,   0.455637,   650.167114,   596.788086
-0.022770,   0.061497,   0.064791,   0.000000,   710.442261,   0.535064,   30.400322,   23.235661,   173.223068,   703.118408,   -62.725784,   0.453783,   643.730530,   592.703674
-0.021955,   0.058394,   0.061289,   0.000000,   702.232544,   0.535064,   30.400322,   22.477619,   167.225357,   696.154785,   -57.023121,   0.451702,   637.131042,   588.602417
-0.021129,   0.055262,   0.057760,   0.000000,   693.450867,   0.535064,   30.400322,   21.719578,   160.584122,   688.573242,   -50.981503,   0.449152,   630.193481,   584.516968
-0.020253,   0.052063,   0.054168,   0.000000,   684.017456,   0.535065,   30.400322,   20.961535,   153.439682,   680.271057,   -44.584373,   0.446208,   622.812317,   580.229187
-0.019276,   0.048916,   0.050664,   0.000000,   674.511841,   0.535064,   30.400322,   20.203493,   146.767441,   671.734131,   -38.287380,   0.443426,   615.285706,   575.517090
-0.018308,   0.045708,   0.047095,   0.000000,   664.096008,   0.535064,   30.400322,   19.445450,   139.123001,   662.229065,   -31.306211,   0.439905,   607.216187,   570.725891
-0.017316,   0.042509,   0.043552,   0.000000,   653.028198,   0.535064,   30.400322,   18.687408,   130.923019,   651.947083,   -23.757965,   0.435828,   598.760620,   565.769714
-0.016202,   0.039399,   0.040138,   0.000000,   642.082275,   0.535065,   30.400322,   17.929365,   123.768562,   641.558411,   -16.478092,   0.432248,   590.191223,   560.130493
-0.015127,   0.036114,   0.036525,   0.000000,   629.365479,   0.535064,   30.400322,   17.171324,   114.946121,   629.240967,   -8.003338,   0.427300,   580.534363,   554.115967
-0.013942,   0.032909,   0.033032,   0.000000,   616.296631,   0.535065,   30.400322,   16.413282,   106.395874,   616.295471,   0.760138,   0.422191,   570.587952,   547.599487
-0.012739,   0.029718,   0.029567,   0.000000,   602.460205,   0.535064,   30.400322,   15.655239,   97.926308,   602.262756,   9.981404,   0.416758,   560.028137,   540.341614
-0.011518,   0.026528,   0.026115,   0.000000,   587.558350,   0.535064,   30.400322,   14.897197,   89.252388,   586.798340,   19.460619,   0.410706,   548.690552,   532.279785
-0.010183,   0.023453,   0.022816,   0.000000,   572.718567,   0.535064,   30.400322,   14.139154,   82.216545,   571.068665,   28.448090,   0.405525,   536.987488,   523.130310
-0.008921,   0.020271,   0.019396,   0.000000,   555.103149,   0.535064,   30.400322,   13.381112,   73.061073,   551.976196,   38.824383,   0.397872,   523.650330,   512.986084
-0.007566,   0.017320,   0.016249,   0.000000,   538.650513,   0.535064,   30.400322,   12.623070,   67.491539,   534.024658,   46.685322,   0.393047,   510.131226,   501.305298
-0.006342,   0.014504,   0.013247,   0.000000,   521.013062,   0.535064,   30.400322,   11.865027,   61.673569,   514.610229,   54.231762,   0.387526,   495.694183,   488.689514
-0.005138,   0.011729,   0.010303,   0.000000,   500.533020,   0.535064,   30.400322,   11.106986,   53.748238,   491.933746,   61.984055,   0.379297,   479.555176,   474.738190
-0.003885,   0.009000,   0.007427,   0.000000,   477.907867,   0.535065,   30.400322,   10.348944,   46.328594,   466.870667,   69.017555,   0.370855,   461.275818,   458.223663
-0.002640,   0.006343,   0.004638,   0.000000,   453.024292,   0.535064,   30.400322,   9.590901,   40.899673,   438.973846,   76.095604,   0.363364,   440.214172,   438.366333
-0.001470,   0.003902,   0.002084,   0.000000,   427.544769,   0.535064,   30.400322,   8.832859,   38.036304,   414.422485,   71.492973,   0.362854,   415.648163,   413.963226
-0.000299,   0.001250,   0.000000,   0.000000,   267.686890,   0.535064,   30.400322,   8.074817,   35.104431,   250.119904,   63.920021,   0.366570,   259.363220,   258.024170
-0.001115,   0.000347,   0.000000,   -233.359665,   2.865558,   0.535064,   30.400322,   7.316774,   -45.928963,   -184.565140,   -95.632584,   -0.327213,   234.805557,   -234.766205
-0.077338,   0.169413,   0.187563,   0.000000,   808.087341,   0.533428,   31.271563,   51.780094,   206.130600,   604.918091,   -349.712860,   0.335167,   806.610718,   806.598450
-0.073418,   0.165732,   0.183166,   0.000000,   809.022034,   0.533425,   31.271563,   51.004917,   204.476746,   619.254028,   -338.708374,   0.342464,   801.768860,   801.465210
-0.069893,   0.162212,   0.179024,   0.000000,   809.235291,   0.533425,   31.271563,   50.229740,   202.933197,   630.873108,   -328.848511,   0.348625,   797.233765,   796.381226
-0.066633,   0.158826,   0.175094,   0.000000,   808.888428,   0.533425,   31.271563,   49.454567,   201.488022,   640.278748,   -320.021240,   0.353850,   792.960632,   791.424866
-0.063618,   0.155602,   0.171397,   0.000000,   808.088928,   0.533425,   31.271563,   48.679390,   199.982315,   647.882080,   -312.126312,   0.358223,   788.953552,   786.692871
-0.060824,   0.152538,   0.167920,   0.000000,   806.988037,   0.533425,   31.271563,   47.904217,   198.436111,   654.148438,   -304.976776,   0.361947,   785.183350,   782.196289
-0.058226,   0.149615,   0.164633,   0.000000,   805.721130,   0.533425,   31.271563,   47.129040,   196.864914,   659.583984,   -298.289337,   0.365258,   781.592896,   777.876221
-0.055780,   0.146723,   0.161400,   0.000000,   804.370056,   0.533426,   31.271563,   46.353867,   195.384018,   664.667908,   -291.679047,   0.368477,   778.024963,   773.522888
-0.053438,   0.143835,   0.158191,   0.000000,   803.131104,   0.533426,   31.271563,   45.578690,   194.268387,   669.906677,   -284.807617,   0.371969,   774.415649,   768.974731
-0.051232,   0.141014,   0.155069,   0.000000,   802.197754,   0.533425,   31.271563,   44.803513,   193.669907,   675.739258,   -277.404968,   0.375980,   770.792908,   764.158386
-0.049147,   0.138231,   0.151992,   0.000000,   801.589172,   0.533425,   31.271563,   44.028336,   193.690430,   682.271912,   -269.319153,   0.380632,   767.111389,   758.936401
-0.047171,   0.135503,   0.148984,   0.000000,   801.310181,   0.533425,   31.271563,   43.253162,   194.394562,   689.439819,   -260.568329,   0.385920,   763.400757,   753.267517
-0.045364,   0.132775,   0.145956,   0.000000,   801.100830,   0.533425,   31.271563,   42.477985,   195.366989,   697.039368,   -251.064850,   0.391625,   759.575073,   747.079163
-0.043567,   0.129961,   0.142846,   0.000000,   800.923157,   0.533426,   31.271563,   41.702808,   197.110275,   704.473816,   -241.324158,   0.397714,   755.638000,   740.328247
-0.041856,   0.127090,   0.139668,   0.000000,   800.602722,   0.533425,   31.271563,   40.927635,   199.168625,   711.607056,   -231.354767,   0.403929,   751.596985,   733.099548
-0.040236,   0.124165,   0.136423,   0.000000,   800.054565,   0.533426,   31.271563,   40.152458,   201.424011,   718.240051,   -221.306732,   0.410127,   747.462097,   725.461487
-0.038704,   0.121187,   0.133109,   0.000000,   799.208984,   0.533425,   31.271563,   39.377281,   203.754196,   724.219788,   -211.311783,   0.416184,   743.239746,   717.498230
-0.037259,   0.118159,   0.129730,   0.000000,   798.017883,   0.533425,   31.271563,   38.602108,   206.052109,   729.449036,   -201.470581,   0.422006,   738.931702,   709.294983
-0.035899,   0.115084,   0.126287,   0.000000,   796.451538,   0.533425,   31.271563,   37.826931,   208.228134,   733.875366,   -191.856140,   0.427527,   734.537170,   700.933655
-0.034621,   0.111966,   0.122784,   0.000000,   794.493774,   0.533425,   31.271563,   37.051758,   210.206528,   737.478760,   -182.518921,   0.432701,   730.053650,   692.492493
-0.033421,   0.108810,   0.119227,   0.000000,   792.137573,   0.533426,   31.271563,   36.276581,   211.923080,   740.261292,   -173.491714,   0.437498,   725.477661,   684.044495
-0.032293,   0.105622,   0.115622,   0.000000,   789.384155,   0.533425,   31.271563,   35.501404,   213.327682,   742.242065,   -164.792343,   0.441899,   720.805664,   675.654907
-0.031235,   0.102407,   0.111976,   0.000000,   786.239014,   0.533425,   31.271563,   34.726231,   214.378571,   743.448059,   -156.430405,   0.445894,   716.034363,   667.384033
-0.030237,   0.099171,   0.108296,   0.000000,   782.712036,   0.533426,   31.271563,   33.951054,   215.054459,   743.907043,   -148.418137,   0.449482,   711.160583,   659.280945
-0.029268,   0.095901,   0.104576,   0.000000,   778.817017,   0.533425,   31.271563,   33.175877,   215.426285,   743.616455,   -140.825027,   0.452698,   706.168823,   651.341736
-0.028367,   0.092629,   0.100839,   0.000000,   774.532837,   0.533425,   31.271563,   32.400703,   215.251724,   742.685181,   -133.460800,   0.455471,   701.060364,   643.683472
-0.027514,   0.089393,   0.097139,   0.000000,   769.967407,   0.533426,   31.271563,   31.625526,   214.663483,   741.199951,   -126.390930,   0.457857,   695.897400,   636.341797
-0.026725,   0.086145,   0.093412,   0.000000,   765.006775,   0.533425,   31.271563,   30.850351,   213.540192,   739.084045,   -119.563820,   0.459815,   690.584534,   629.304565
-0.025939,   0.082911,   0.089704,   0.000000,   759.768555,   0.533425,   31.271563,   30.075176,   212.086304,   736.441284,   -113.030655,   0.461453,   685.175171,   622.526489
-0.025182,   0.079673,   0.085989,   0.000000,   754.158142,   0.533426,   31.271563,   29.300001,   210.089218,   733.255737,   -106.641212,   0.462690,   679.609741,   616.058899
-0.024436,   0.076437,   0.082277,   0.000000,   748.210693,   0.533425,   31.271563,   28.524824,   207.637878,   729.573120,   -100.374146,   0.463582,   673.890442,   609.851013
-0.023677,   0.073221,   0.078595,   0.000000,   741.999512,   0.533425,   31.271563,   27.749649,   204.888779,   725.441772,   -94.304436,   0.464202,   668.049622,   603.853577
-0.022939,   0.069983,   0.074885,   0.000000,   735.359680,   0.533426,   31.271563,   26.974474,   201.613403,   720.750244,   -88.304771,   0.464451,   661.973694,   598.076904
-0.022185,   0.066770,   0.071211,   0.000000,   728.407959,   0.533425,   31.271563,   26.199297,   197.879532,   715.666992,   -82.215927,   0.464383,   655.742371,   592.524719
-0.021439,   0.063613,   0.067608,   0.000000,   721.234558,   0.533425,   31.271563,   25.424122,   193.887833,   710.198364,   -76.288193,   0.464054,   649.411316,   587.172119
-0.020677,   0.060482,   0.064045,   0.000000,   713.713196,   0.533426,   31.271563,   24.648947,   189.370682,   704.322144,   -70.172104,   0.463363,   642.903870,   582.050293
-0.019916,   0.057354,   0.060491,   0.000000,   705.810425,   0.533426,   31.271563,   23.873770,   184.507858,   697.934814,   -64.074760,   0.462380,   636.159119,   577.003479
-0.019127,   0.054207,   0.056924,   0.000000,   697.392761,   0.533425,   31.271563,   23.098595,   179.073380,   690.972229,   -57.687794,   0.461005,   629.093628,   572.040527
-0.018278,   0.051055,   0.053371,   0.000000,   688.598145,   0.533425,   31.271563,   22.323420,   173.504639,   683.479675,   -51.346676,   0.459449,   621.748230,   566.947510
-0.017415,   0.047897,   0.049820,   0.000000,   679.204224,   0.533426,   31.271563,   21.548244,   167.237976,   675.329956,   -44.536304,   0.457388,   614.042908,   561.948486
-0.016531,   0.044774,   0.046324,   0.000000,   669.433533,   0.533426,   31.271563,   20.773067,   160.809067,   666.648560,   -37.636677,   0.455091,   606.074463,   556.825134
-0.015644,   0.041680,   0.042869,   0.000000,   659.038208,   0.533425,   31.271563,   19.997892,   153.629211,   657.229980,   -30.230434,   0.452160,   597.766785,   551.832458
-0.014662,   0.038686,   0.039559,   0.000000,   648.703796,   0.533426,   31.271563,   19.222717,   147.187378,   647.644470,   -23.049097,   0.449525,   589.386230,   546.353821
-0.013718,   0.035558,   0.036091,   0.000000,   636.781494,   0.533425,   31.271563,   18.447540,   138.988785,   636.343933,   -14.758911,   0.445554,   580.052002,   540.909424
-0.012719,   0.032527,   0.032758,   0.000000,   624.691040,   0.533426,   31.271563,   17.672365,   131.313370,   624.604675,   -6.527335,   0.441661,   570.511292,   534.950073
-0.011639,   0.029598,   0.029565,   0.000000,   612.388977,   0.533425,   31.271563,   16.897190,   124.009033,   612.381836,   1.869472,   0.437729,   560.766724,   528.582397
-0.010617,   0.026570,   0.026256,   0.000000,   598.333374,   0.533426,   31.271563,   16.122015,   115.326271,   598.067261,   11.337173,   0.432433,   549.906616,   521.782166
-0.009525,   0.023683,   0.023130,   0.000000,   584.154175,   0.533425,   31.271563,   15.346839,   107.445595,   583.244141,   20.828186,   0.427266,   538.843872,   514.341858
-0.008440,   0.020856,   0.020080,   0.000000,   569.177612,   0.533426,   31.271563,   14.571663,   99.734673,   567.225830,   30.269724,   0.421754,   527.132629,   506.120941
-0.007313,   0.018099,   0.017120,   0.000000,   553.857910,   0.533425,   31.271563,   13.796487,   93.519295,   550.510986,   39.251972,   0.417067,   514.729980,   496.491425
-0.006238,   0.015499,   0.014339,   0.000000,   537.956177,   0.533426,   31.271563,   13.021312,   87.480606,   532.819092,   48.105431,   0.411987,   501.876587,   486.329498
-0.005230,   0.012994,   0.011664,   0.000000,   520.821960,   0.533425,   31.271563,   12.246136,   81.191269,   513.524719,   56.640011,   0.406153,   488.088348,   475.259033
-0.004259,   0.010659,   0.009186,   0.000000,   502.542938,   0.533426,   31.271563,   11.470961,   74.144875,   492.651459,   65.096039,   0.398847,   473.695923,   463.739777
-0.003280,   0.008418,   0.006820,   0.000000,   483.252716,   0.533425,   31.271563,   10.695785,   68.232704,   470.507965,   72.727753,   0.392065,   458.036438,   450.381775
-0.002341,   0.006239,   0.004527,   0.000000,   461.348969,   0.533425,   31.271563,   9.920609,   61.281452,   445.916321,   78.575424,   0.384050,   440.218903,   434.798615
-0.001439,   0.004160,   0.002346,   0.000000,   437.903809,   0.533425,   31.271563,   9.145433,   55.359413,   422.228821,   77.436272,   0.379516,   419.471863,   415.217010
-0.000629,   0.002193,   0.000318,   0.000000,   405.833649,   0.533425,   31.271563,   8.370258,   43.041428,   382.491974,   92.022728,   0.357876,   396.351135,   395.247406
-0.000099,   0.000520,   0.000000,   0.000000,   113.117584,   0.533425,   31.271563,   7.595082,   28.886906,   97.465057,   36.310097,   0.393196,   107.115341,   105.252396
-0.000983,   0.000291,   0.000000,   -206.812805,   0.000000,   0.533425,   31.271563,   6.819907,   -39.404049,   -168.347229,   -80.246338,   -0.335605,   206.345169,   -206.340363
-0.064381,   0.144365,   0.159756,   0.000000,   786.193237,   0.530986,   32.119831,   52.313992,   230.611282,   558.892456,   -355.364868,   0.335441,   784.543152,   784.527466
-0.061697,   0.142286,   0.157218,   0.000000,   788.703796,   0.530986,   32.119831,   51.520405,   226.232117,   578.362061,   -343.964020,   0.343456,   780.879822,   780.515930
-0.059067,   0.140164,   0.154679,   0.000000,   790.391235,   0.530985,   32.119831,   50.726818,   222.736420,   594.536987,   -333.433075,   0.350476,   777.298889,   776.251953
-0.056604,   0.137977,   0.152106,   0.000000,   791.248230,   0.530985,   32.119831,   49.933235,   219.641891,   607.807495,   -323.814575,   0.356452,   773.783020,   771.874268
-0.054290,   0.135739,   0.149513,   0.000000,   791.379578,   0.530986,   32.119831,   49.139648,   216.710052,   618.637878,   -315.070435,   0.361464,   770.337036,   767.506226
-0.052108,   0.133507,   0.146956,   0.000000,   790.941345,   0.530985,   32.119831,   48.346062,   213.865875,   627.417358,   -307.189972,   0.365611,   767.010437,   763.280212
-0.050071,   0.131335,   0.144492,   0.000000,   790.123657,   0.530986,   32.119831,   47.552475,   211.060486,   634.685669,   -300.014038,   0.369080,   763.832886,   759.256348
-0.048103,   0.129218,   0.142121,   0.000000,   789.117310,   0.530986,   32.119831,   46.758888,   208.464371,   640.903625,   -293.361084,   0.372146,   760.783447,   755.387817
-0.046314,   0.127157,   0.139816,   0.000000,   787.980347,   0.530986,   32.119831,   45.965305,   205.858673,   646.617310,   -286.863159,   0.374982,   757.793762,   751.581543
-0.044617,   0.125136,   0.137567,   0.000000,   786.964417,   0.530985,   32.119831,   45.171719,   203.614746,   652.382812,   -280.193054,   0.378014,   754.819153,   747.667480
-0.042995,   0.123120,   0.135332,   0.000000,   786.173035,   0.530985,   32.119831,   44.378132,   201.899048,   658.559937,   -273.058655,   0.381517,   751.787781,   743.463257
-0.041472,   0.121091,   0.133078,   0.000000,   785.631042,   0.530986,   32.119831,   43.584549,   200.775665,   665.311218,   -265.272858,   0.385620,   748.652527,   738.832214
-0.039996,   0.118993,   0.130747,   0.000000,   785.242371,   0.530985,   32.119831,   42.790962,   200.153275,   672.619019,   -256.699646,   0.390323,   745.342102,   733.645447
-0.038529,   0.116799,   0.128316,   0.000000,   785.006348,   0.530987,   32.119831,   41.997375,   200.438812,   680.086426,   -247.654556,   0.395632,   741.873230,   727.845764
-0.037113,   0.114533,   0.125802,   0.000000,   784.777222,   0.530985,   32.119831,   41.203789,   201.273254,   687.575500,   -238.154556,   0.401324,   738.263611,   721.483337
-0.035750,   0.112187,   0.123194,   0.000000,   784.433960,   0.530986,   32.119831,   40.410202,   202.526688,   694.816589,   -228.361511,   0.407226,   734.516968,   714.600769
-0.034443,   0.109759,   0.120489,   0.000000,   783.880920,   0.530985,   32.119831,   39.616615,   204.071564,   701.592407,   -218.429977,   0.413182,   730.641479,   707.264771
-0.033191,   0.107252,   0.117688,   0.000000,   783.044067,   0.530985,   32.119831,   38.823032,   205.785767,   707.741943,   -208.491653,   0.419063,   726.642639,   699.552429
-0.031995,   0.104666,   0.114791,   0.000000,   781.869263,   0.530986,   32.119831,   38.029446,   207.558594,   713.157593,   -198.650040,   0.424770,   722.521912,   691.543884
-0.030855,   0.102005,   0.111801,   0.000000,   780.319702,   0.530985,   32.119831,   37.235859,   209.294708,   717.776001,   -188.981506,   0.430229,   718.277100,   683.315796
-0.029767,   0.099270,   0.108720,   0.000000,   778.371460,   0.530987,   32.119831,   36.442272,   210.912750,   721.566467,   -179.539658,   0.435390,   713.903503,   674.940125
-0.028730,   0.096467,   0.105552,   0.000000,   776.009583,   0.530985,   32.119831,   35.648685,   212.342728,   724.520508,   -170.360443,   0.440217,   709.394653,   666.484314
-0.027740,   0.093598,   0.102302,   0.000000,   773.226624,   0.530986,   32.119831,   34.855103,   213.526382,   726.646790,   -161.464325,   0.444688,   704.743225,   658.009216
-0.026790,   0.090667,   0.098974,   0.000000,   770.021362,   0.530985,   32.119831,   34.061516,   214.435349,   727.950195,   -152.886032,   0.448792,   699.941589,   649.566528
-0.025866,   0.087714,   0.095621,   0.000000,   766.477539,   0.530985,   32.119831,   33.267929,   215.109909,   728.516479,   -144.673737,   0.452549,   695.045959,   641.236267
-0.025030,   0.084733,   0.092214,   0.000000,   762.485352,   0.530986,   32.119831,   32.474346,   215.243149,   728.360718,   -136.654495,   0.455853,   689.991089,   633.111572
-0.024211,   0.081730,   0.088783,   0.000000,   758.148865,   0.530985,   32.119831,   31.680758,   215.078781,   727.525513,   -128.959808,   0.458813,   684.812988,   625.157043
-0.023429,   0.078693,   0.085304,   0.000000,   753.380920,   0.530985,   32.119831,   30.887173,   214.407181,   725.992676,   -121.497101,   0.461348,   679.457458,   617.449341
-0.022659,   0.075628,   0.081795,   0.000000,   748.250305,   0.530985,   32.119831,   30.093586,   213.416412,   723.821350,   -114.304153,   0.463567,   673.932373,   609.906921
-0.021887,   0.072535,   0.078255,   0.000000,   742.717041,   0.530986,   32.119831,   29.299999,   211.957977,   721.038330,   -107.266800,   0.465417,   668.214905,   602.592041
-0.021138,   0.069399,   0.074660,   0.000000,   736.719482,   0.530985,   32.119831,   28.506414,   210.002579,   717.592773,   -100.371078,   0.466895,   662.244080,   595.477539
-0.020393,   0.066275,   0.071083,   0.000000,   730.398987,   0.530985,   32.119831,   27.712828,   207.678589,   713.622192,   -93.646049,   0.468056,   656.118652,   588.600281
-0.019651,   0.063180,   0.067546,   0.000000,   723.789795,   0.530986,   32.119831,   26.919241,   205.010254,   709.186523,   -87.039581,   0.468923,   649.855286,   581.954956
-0.018934,   0.060066,   0.063981,   0.000000,   716.676147,   0.530985,   32.119831,   26.125656,   201.648239,   704.169250,   -80.258369,   0.469353,   643.308655,   575.584229
-0.018170,   0.056958,   0.060442,   0.000000,   709.286316,   0.530985,   32.119831,   25.332071,   198.226822,   698.657654,   -73.701324,   0.469645,   636.568420,   569.210754
-0.017409,   0.053809,   0.056856,   0.000000,   701.313904,   0.530986,   32.119831,   24.538485,   194.165726,   692.490784,   -66.892609,   0.469539,   629.451904,   562.971130
-0.016608,   0.050688,   0.053318,   0.000000,   692.995605,   0.530985,   32.119831,   23.744898,   189.806992,   685.815369,   -60.108364,   0.469159,   622.122131,   556.850708
-0.015799,   0.047550,   0.049768,   0.000000,   684.130859,   0.530985,   32.119831,   22.951313,   184.972733,   678.492981,   -53.048840,   0.468448,   614.416382,   550.752441
-0.014985,   0.044486,   0.046315,   0.000000,   674.984558,   0.530985,   32.119831,   22.157726,   179.903351,   670.705261,   -46.028278,   0.467456,   606.551270,   544.789795
-0.014176,   0.041457,   0.042908,   0.000000,   665.284302,   0.530986,   32.119831,   21.364141,   174.112961,   662.272705,   -38.460533,   0.465924,   598.370972,   539.074829
-0.013287,   0.038488,   0.039598,   0.000000,   655.435242,   0.530985,   32.119831,   20.570555,   168.744873,   653.435120,   -31.199850,   0.464503,   590.007446,   533.004761
-0.012439,   0.035418,   0.036166,   0.000000,   644.211304,   0.530985,   32.119831,   19.776970,   161.740692,   643.120422,   -22.941828,   0.461930,   580.796143,   527.228516
-0.011546,   0.032454,   0.032876,   0.000000,   632.838318,   0.530986,   32.119831,   18.983383,   155.157745,   632.379089,   -14.810530,   0.459406,   571.416443,   521.091370
-0.010631,   0.029614,   0.029747,   0.000000,   621.140869,   0.530985,   32.119831,   18.189796,   148.277817,   621.059204,   -6.213589,   0.456393,   561.896240,   515.104126
-0.009715,   0.026756,   0.026605,   0.000000,   608.439697,   0.530985,   32.119831,   17.396212,   140.897400,   608.423828,   2.725955,   0.452768,   551.659851,   508.771240
-0.008789,   0.023956,   0.023539,   0.000000,   595.067322,   0.530985,   32.119831,   16.602625,   133.502228,   594.767212,   11.770054,   0.448793,   540.910095,   501.980499
-0.007828,   0.021317,   0.020676,   0.000000,   581.645691,   0.530985,   32.119831,   15.809039,   126.749908,   580.658020,   21.196724,   0.444848,   530.074341,   494.809326
-0.006906,   0.018662,   0.017794,   0.000000,   566.721985,   0.530986,   32.119831,   15.015453,   119.206909,   564.591248,   30.879305,   0.439855,   518.199768,   487.091309
-0.005934,   0.016146,   0.015089,   0.000000,   551.927185,   0.530985,   32.119831,   14.221868,   113.516960,   548.336731,   39.674877,   0.436004,   506.000000,   478.014008
-0.005076,   0.013796,   0.012560,   0.000000,   536.101990,   0.530985,   32.119831,   13.428282,   106.648582,   530.453796,   49.250648,   0.430402,   493.416534,   469.305756
-0.004216,   0.011647,   0.010267,   0.000000,   520.946594,   0.530986,   32.119831,   12.634696,   102.187531,   513.084412,   57.379162,   0.426584,   480.774567,   459.258820
-0.003423,   0.009628,   0.008120,   0.000000,   504.417145,   0.530985,   32.119831,   11.841109,   96.268143,   493.682739,   66.190933,   0.420593,   467.555359,   449.444855
-0.002652,   0.007662,   0.006038,   0.000000,   486.186188,   0.530985,   32.119831,   11.047523,   90.070412,   471.951843,   75.089615,   0.413507,   453.053741,   438.431671
-0.001925,   0.005856,   0.004131,   0.000000,   467.684082,   0.530986,   32.119831,   10.253938,   85.094772,   450.543823,   80.979485,   0.407936,   437.681366,   425.569580
-0.001273,   0.004234,   0.002422,   0.000000,   449.545654,   0.530985,   32.119831,   9.460352,   82.349930,   430.353516,   83.948029,   0.405430,   421.530457,   410.682953
-0.000722,   0.002786,   0.000909,   0.000000,   428.404694,   0.530985,   32.119831,   8.666766,   74.771545,   406.330811,   88.351898,   0.396323,   404.637756,   396.807343
-0.000263,   0.001377,   0.000000,   0.000000,   299.647888,   0.530986,   32.119831,   7.873180,   73.757118,   260.616211,   93.898315,   0.392619,   283.882568,   279.044281
-0.000114,   0.000278,   0.000000,   -6.946099,   56.314770,   0.530986,   32.119831,   7.079594,   34.791294,   14.577378,   29.972218,   0.273861,   60.089680,   59.176342
-0.000770,   0.000230,   0.000000,   -161.802567,   0.000000,   0.530985,   32.119831,   6.286008,   -31.826103,   -130.311249,   -63.977581,   -0.334368,   161.635437,   -161.634644
-0.053651,   0.122735,   0.135535,   0.000000,   763.397339,   0.527611,   32.943504,   52.883896,   253.418854,   513.005493,   -357.343597,   0.335318,   761.888367,   761.874756
-0.051773,   0.122080,   0.134698,   0.000000,   768.025146,   0.527612,   32.943504,   52.070660,   246.842178,   537.900879,   -346.318970,   0.344274,   759.804077,   759.390076
-0.049911,   0.121084,   0.133485,   0.000000,   771.262756,   0.527612,   32.943504,   51.257420,   241.450409,   558.445618,   -335.787384,   0.352058,   757.352234,   756.132996
-0.048062,   0.119871,   0.132045,   0.000000,   773.398560,   0.527611,   32.943504,   50.444183,   236.732193,   575.520020,   -325.875366,   0.358742,   754.722168,   752.467102
-0.046303,   0.118544,   0.130495,   0.000000,   774.684692,   0.527613,   32.943504,   49.630943,   232.446960,   589.769470,   -316.651276,   0.364435,   752.046265,   748.655579
-0.044689,   0.117133,   0.128860,   0.000000,   775.168030,   0.527611,   32.943504,   48.817707,   228.349670,   601.391235,   -308.260162,   0.369082,   749.373413,   744.882935
-0.043140,   0.115671,   0.127187,   0.000000,   775.106995,   0.527612,   32.943504,   48.004471,   224.457520,   611.084595,   -300.530975,   0.372980,   746.725891,   741.193665
-0.041642,   0.114210,   0.125536,   0.000000,   774.663879,   0.527612,   32.943504,   47.191231,   220.861404,   619.080383,   -293.534515,   0.376229,   744.175293,   737.692688
-0.040259,   0.112775,   0.123922,   0.000000,   773.904907,   0.527612,   32.943504,   46.377995,   217.208740,   625.958801,   -286.986145,   0.378933,   741.703125,   734.374329
-0.038943,   0.111338,   0.122316,   0.000000,   773.014099,   0.527612,   32.943504,   45.564754,   213.778214,   632.171326,   -280.649872,   0.381445,   739.249817,   731.089294
-0.037678,   0.109891,   0.120706,   0.000000,   772.163086,   0.527611,   32.943504,   44.751518,   210.735794,   638.236145,   -274.208405,   0.384098,   736.767639,   727.678284
-0.036472,   0.108411,   0.119059,   0.000000,   771.440308,   0.527612,   32.943504,   43.938282,   208.139877,   644.577881,   -267.323120,   0.387150,   734.183533,   723.958069
-0.035281,   0.106852,   0.117327,   0.000000,   770.897095,   0.527612,   32.943504,   43.125042,   206.169174,   651.395386,   -259.780579,   0.390819,   731.424561,   719.736572
-0.034096,   0.105202,   0.115498,   0.000000,   770.563416,   0.527612,   32.943504,   42.311806,   205.090485,   658.576660,   -251.645554,   0.395187,   728.487427,   714.918396
-0.032934,   0.103462,   0.113567,   0.000000,   770.338318,   0.527612,   32.943504,   41.498566,   204.711304,   666.030823,   -242.897354,   0.400139,   725.366882,   709.480530
-0.031792,   0.101618,   0.111517,   0.000000,   770.104797,   0.527612,   32.943504,   40.685329,   204.937012,   673.502319,   -233.659134,   0.405525,   722.058716,   703.425354
-0.030675,   0.099664,   0.109341,   0.000000,   769.750671,   0.527611,   32.943504,   39.872089,   205.651276,   680.739624,   -224.078308,   0.411185,   718.566040,   696.788818
-0.029584,   0.097598,   0.107036,   0.000000,   769.178772,   0.527612,   32.943504,   39.058853,   206.725571,   687.525452,   -214.303909,   0.416961,   714.895874,   689.633606
-0.028522,   0.095424,   0.104604,   0.000000,   768.312073,   0.527612,   32.943504,   38.245617,   208.035263,   693.694153,   -204.466858,   0.422720,   711.053772,   682.034607
-0.027492,   0.093144,   0.102046,   0.000000,   767.094360,   0.527612,   32.943504,   37.432377,   209.467957,   699.132568,   -194.672272,   0.428357,   707.042542,   674.069458
-0.026494,   0.090763,   0.099367,   0.000000,   765.485657,   0.527612,   32.943504,   36.619141,   210.922958,   703.771240,   -184.998642,   0.433795,   702.861633,   665.814575
-0.025530,   0.088285,   0.096573,   0.000000,   763.458374,   0.527611,   32.943504,   35.805901,   212.313019,   707.573242,   -175.501602,   0.438977,   698.507080,   657.341553
-0.024596,   0.085716,   0.093668,   0.000000,   760.996277,   0.527613,   32.943504,   34.992664,   213.567429,   710.527222,   -166.217331,   0.443866,   693.973450,   648.714600
-0.023687,   0.083057,   0.090657,   0.000000,   758.089355,   0.527611,   32.943504,   34.179428,   214.654434,   712.613342,   -157.204498,   0.448442,   689.252136,   639.987976
-0.022826,   0.080351,   0.087581,   0.000000,   754.766357,   0.527612,   32.943504,   33.366188,   215.453659,   713.907043,   -148.445099,   0.452653,   684.381104,   631.291443
-0.022010,   0.077601,   0.084446,   0.000000,   751.015869,   0.527612,   32.943504,   32.552952,   215.877930,   714.447327,   -139.890015,   0.456480,   679.347107,   622.682129
-0.021215,   0.074790,   0.081238,   0.000000,   746.842896,   0.527611,   32.943504,   31.739714,   216.045166,   714.197815,   -131.635635,   0.459978,   674.120789,   614.122375
-0.020434,   0.071918,   0.077957,   0.000000,   742.213257,   0.527611,   32.943504,   30.926476,   215.831589,   713.187744,   -123.606201,   0.463114,   668.675598,   605.665710
-0.019654,   0.068981,   0.074602,   0.000000,   737.111755,   0.527612,   32.943504,   30.113239,   215.228897,   711.415894,   -115.802544,   0.465895,   662.985291,   597.319580
-0.018901,   0.066016,   0.071211,   0.000000,   731.580322,   0.527612,   32.943504,   29.299999,   214.187485,   708.971619,   -108.155342,   0.468312,   657.082153,   589.158936
-0.018159,   0.063054,   0.067824,   0.000000,   725.698425,   0.527612,   32.943504,   28.486761,   212.790527,   705.930481,   -100.693275,   0.470405,   651.014404,   581.210083
-0.017448,   0.060060,   0.064393,   0.000000,   719.333374,   0.527612,   32.943504,   27.673523,   210.891449,   702.199829,   -93.334991,   0.472120,   644.675232,   573.465149
-0.016702,   0.057045,   0.060952,   0.000000,   712.596436,   0.527611,   32.943504,   26.860287,   208.763916,   697.876648,   -86.118073,   0.473615,   638.100037,   565.779419
-0.015970,   0.053960,   0.057425,   0.000000,   705.180420,   0.527611,   32.943504,   26.047049,   205.862167,   692.764893,   -78.735672,   0.474636,   631.099243,   558.311035
-0.015193,   0.050890,   0.053934,   0.000000,   697.469482,   0.527612,   32.943504,   25.233810,   202.914520,   687.124146,   -71.528564,   0.475534,   623.887390,   550.821228
-0.014423,   0.047803,   0.050425,   0.000000,   689.203979,   0.527612,   32.943504,   24.420572,   199.417068,   680.806702,   -64.131721,   0.476071,   616.310852,   543.469971
-0.013671,   0.044746,   0.046953,   0.000000,   680.479248,   0.527612,   32.943504,   23.607334,   195.443619,   673.868042,   -56.627346,   0.476243,   608.451416,   536.330017
-0.012894,   0.041757,   0.043576,   0.000000,   671.459534,   0.527611,   32.943504,   22.794098,   191.213181,   666.468201,   -48.959892,   0.476162,   600.413208,   529.342346
-0.012111,   0.038784,   0.040226,   0.000000,   661.941101,   0.527612,   32.943504,   21.980860,   186.690277,   658.355957,   -41.277763,   0.475797,   592.020935,   522.375305
-0.011304,   0.035749,   0.036812,   0.000000,   651.502136,   0.527612,   32.943504,   21.167622,   181.417542,   649.186646,   -32.992008,   0.474932,   582.964111,   515.387512
-0.010496,   0.032819,   0.033533,   0.000000,   640.803894,   0.527611,   32.943504,   20.354383,   176.148102,   639.476257,   -24.837238,   0.473872,   573.730042,   508.417114
-0.009681,   0.030021,   0.030420,   0.000000,   629.829895,   0.527611,   32.943504,   19.541147,   170.515747,   629.258911,   -16.194082,   0.472358,   564.385132,   501.787354
-0.008875,   0.027248,   0.027342,   0.000000,   618.101074,   0.527612,   32.943504,   18.727909,   164.416656,   617.981750,   -7.357371,   0.470317,   554.517944,   495.150726
-0.008052,   0.024461,   0.024258,   0.000000,   605.403870,   0.527612,   32.943504,   17.914671,   158.001923,   605.395203,   1.966910,   0.467855,   543.898865,   488.126404
-0.007220,   0.021844,   0.021385,   0.000000,   592.531860,   0.527612,   32.943504,   17.101433,   151.620941,   592.239075,   11.361344,   0.465008,   533.223633,   481.238953
-0.006421,   0.019347,   0.018654,   0.000000,   579.215149,   0.527612,   32.943504,   16.288195,   145.298569,   578.228149,   20.694654,   0.461815,   522.234192,   474.168030
-0.005597,   0.016841,   0.015923,   0.000000,   564.659973,   0.527612,   32.943504,   15.474957,   138.828613,   562.450623,   30.672770,   0.458122,   510.257080,   466.373199
-0.004787,   0.014569,   0.013470,   0.000000,   550.557373,   0.527612,   32.943504,   14.661719,   133.686493,   546.812927,   39.508747,   0.455072,   498.455383,   457.965851
-0.004065,   0.012457,   0.011191,   0.000000,   535.786255,   0.527612,   32.943504,   13.848482,   127.914230,   529.928223,   48.880718,   0.450840,   486.383179,   449.949646
-0.003363,   0.010508,   0.009101,   0.000000,   520.892212,   0.527612,   32.943504,   13.035244,   122.836784,   512.509644,   57.764408,   0.446664,   474.141479,   441.425934
-0.002712,   0.008654,   0.007118,   0.000000,   504.612793,   0.527612,   32.943504,   12.222006,   116.553841,   492.980774,   67.185631,   0.440550,   461.191650,   433.100006
-0.002085,   0.006930,   0.005285,   0.000000,   487.931335,   0.527612,   32.943504,   11.408768,   111.306572,   472.684326,   75.778610,   0.434810,   447.698486,   423.570648
-0.001516,   0.005405,   0.003669,   0.000000,   471.916351,   0.527611,   32.943504,   10.595531,   108.034546,   453.438660,   81.998177,   0.431118,   434.122284,   412.563507
-0.001027,   0.004062,   0.002247,   0.000000,   456.050476,   0.527612,   32.943504,   9.782292,   105.559921,   434.360077,   87.191055,   0.428062,   420.437134,   400.963043
-0.000615,   0.002842,   0.000963,   0.000000,   437.523621,   0.527612,   32.943504,   8.969054,   97.111603,   413.440735,   90.543404,   0.419208,   405.965942,   390.775787
-0.000321,   0.001731,   0.000000,   0.000000,   377.288177,   0.527611,   32.943504,   8.155817,   87.471779,   335.676117,   109.817383,   0.395565,   356.576996,   349.849945
-0.000201,   0.000907,   0.000000,   0.000000,   195.378555,   0.527612,   32.943504,   7.342579,   74.432190,   137.350327,   83.775307,   0.376071,   187.714905,   186.092087
-0.000185,   0.000298,   0.000000,   -21.938154,   56.032642,   0.527612,   32.943504,   6.529341,   42.473026,   -8.378540,   29.553186,   0.163186,   69.643318,   61.111759
-0.000532,   0.000166,   0.000000,   -111.336823,   1.561955,   0.527612,   32.943504,   5.716104,   -19.353466,   -90.421402,   -43.861950,   -0.326344,   112.125961,   -112.101471
-0.044165,   0.103076,   0.113342,   0.000000,   738.668030,   0.523154,   33.740997,   53.488712,   274.339813,   467.190704,   -355.041656,   0.335273,   737.240967,   737.228455
-0.043054,   0.103697,   0.114057,   0.000000,   745.643616,   0.523154,   33.740997,   52.654621,   265.840912,   496.967163,   -345.420929,   0.344907,   737.211243,   736.761414
-0.041829,   0.103869,   0.114240,   0.000000,   750.915405,   0.523154,   33.740997,   51.820526,   258.770752,   522.023315,   -335.630768,   0.353414,   736.430786,   735.065247
-0.040678,   0.103732,   0.114059,   0.000000,   754.623596,   0.523154,   33.740997,   50.986435,   252.260162,   542.848389,   -326.171906,   0.360487,   735.217590,   732.703430
-0.039549,   0.103389,   0.113640,   0.000000,   757.339417,   0.523155,   33.740997,   50.152340,   246.515305,   560.565613,   -317.043854,   0.366654,   733.734314,   729.926392
-0.038419,   0.102897,   0.113061,   0.000000,   759.244751,   0.523154,   33.740997,   49.318245,   241.396378,   575.537415,   -308.435669,   0.371956,   732.106934,   726.966858
-0.037301,   0.102236,   0.112297,   0.000000,   760.369080,   0.523154,   33.740997,   48.484154,   236.634720,   588.091370,   -300.379333,   0.376422,   730.320374,   723.899475
-0.036220,   0.101430,   0.111378,   0.000000,   760.780823,   0.523155,   33.740997,   47.650059,   232.150253,   598.341858,   -293.036163,   0.380037,   728.431213,   720.869141
-0.035180,   0.100562,   0.110395,   0.000000,   760.718872,   0.523154,   33.740997,   46.815964,   227.800812,   606.984497,   -286.230377,   0.383005,   726.522766,   717.955200
-0.034172,   0.099638,   0.109358,   0.000000,   760.291138,   0.523155,   33.740997,   45.981869,   223.626587,   614.301514,   -279.906128,   0.385468,   724.598755,   715.151611
-0.033189,   0.098664,   0.108273,   0.000000,   759.677307,   0.523152,   33.740997,   45.147778,   219.742065,   620.829346,   -273.804504,   0.387735,   722.634094,   712.340698
-0.032227,   0.097627,   0.107120,   0.000000,   758.995300,   0.523154,   33.740997,   44.313686,   216.160614,   627.104980,   -267.571716,   0.390094,   720.565430,   709.351990
-0.031263,   0.096501,   0.105874,   0.000000,   758.388855,   0.523155,   33.740997,   43.479591,   213.163254,   633.493896,   -260.951996,   0.392880,   718.333679,   705.978027
-0.030294,   0.095278,   0.104523,   0.000000,   757.948242,   0.523154,   33.740997,   42.645496,   210.945114,   640.216736,   -253.770569,   0.396309,   715.907227,   702.059875
-0.029322,   0.093947,   0.103051,   0.000000,   757.644104,   0.523155,   33.740997,   41.811405,   209.473114,   647.315369,   -245.924805,   0.400410,   713.258728,   697.503296
-0.028349,   0.092493,   0.101441,   0.000000,   757.403687,   0.523154,   33.740997,   40.977310,   208.724655,   654.647705,   -237.444809,   0.405127,   710.372131,   692.254395
-0.027374,   0.090907,   0.099682,   0.000000,   757.122375,   0.523154,   33.740997,   40.143215,   208.616531,   661.982422,   -228.439957,   0.410324,   707.245056,   686.314209
-0.026402,   0.089187,   0.097770,   0.000000,   756.693665,   0.523154,   33.740997,   39.309124,   209.033707,   669.079651,   -219.049500,   0.415843,   703.882446,   679.719788
-0.025440,   0.087333,   0.095703,   0.000000,   756.023621,   0.523154,   33.740997,   38.475029,   209.850464,   675.726685,   -209.418350,   0.421527,   700.293091,   672.534241
-0.024490,   0.085350,   0.093487,   0.000000,   755.036133,   0.523155,   33.740997,   37.640938,   210.940063,   681.758179,   -199.675385,   0.427240,   696.484436,   664.833801
-0.023558,   0.083245,   0.091127,   0.000000,   753.675842,   0.523154,   33.740997,   36.806843,   212.188477,   687.060181,   -189.925110,   0.432875,   692.462280,   656.697754
-0.022645,   0.081025,   0.088632,   0.000000,   751.904297,   0.523154,   33.740997,   35.972748,   213.493210,   691.562439,   -180.246246,   0.438350,   688.229736,   648.204956
-0.021755,   0.078699,   0.086010,   0.000000,   749.696045,   0.523155,   33.740997,   35.138653,   214.770294,   695.222839,   -170.701797,   0.443604,   683.787415,   639.430359
-0.020876,   0.076265,   0.083263,   0.000000,   747.034973,   0.523154,   33.740997,   34.304562,   215.993729,   697.999756,   -161.368271,   0.448612,   679.126282,   630.422241
-0.020059,   0.073747,   0.080403,   0.000000,   743.854797,   0.523154,   33.740997,   33.470467,   216.857391,   699.928589,   -152.147919,   0.453249,   674.232483,   621.329163
-0.019254,   0.071167,   0.077470,   0.000000,   740.262390,   0.523154,   33.740997,   32.636375,   217.552216,   701.063660,   -143.141861,   0.457599,   669.156250,   612.162598
-0.018466,   0.068505,   0.074440,   0.000000,   736.187195,   0.523154,   33.740997,   31.802280,   218.003052,   701.327698,   -134.401016,   0.461622,   663.841248,   602.955994
-0.017678,   0.065758,   0.071312,   0.000000,   731.616089,   0.523154,   33.740997,   30.968187,   218.180023,   700.760254,   -125.867027,   0.465340,   658.257629,   593.701965
-0.016916,   0.062960,   0.068119,   0.000000,   726.552246,   0.523154,   33.740997,   30.134094,   217.922485,   699.411255,   -117.493446,   0.468677,   652.428528,   584.553711
-0.016195,   0.060138,   0.064889,   0.000000,   721.034058,   0.523154,   33.740997,   29.300001,   217.236252,   697.335815,   -109.266266,   0.471642,   646.374146,   575.563110
-0.015469,   0.057278,   0.061620,   0.000000,   715.087097,   0.523154,   33.740997,   28.465906,   216.290543,   694.539062,   -101.238770,   0.474337,   640.071655,   566.624268
-0.014736,   0.054354,   0.058281,   0.000000,   708.573914,   0.523154,   33.740997,   27.631813,   214.861649,   690.945374,   -93.292130,   0.476674,   633.422180,   557.790649
-0.013994,   0.051393,   0.054903,   0.000000,   701.563965,   0.523154,   33.740997,   26.797718,   213.084839,   686.618347,   -85.443703,   0.478728,   626.453369,   549.017517
-0.013255,   0.048400,   0.051490,   0.000000,   693.990723,   0.523154,   33.740997,   25.963625,   210.802216,   681.542358,   -77.555870,   0.480436,   619.121704,   540.374084
-0.012533,   0.045403,   0.048073,   0.000000,   685.909668,   0.523154,   33.740997,   25.129532,   208.099152,   675.756165,   -69.652359,   0.481829,   611.458679,   531.862488
-0.011796,   0.042464,   0.044735,   0.000000,   677.516541,   0.523154,   33.740997,   24.295439,   205.133545,   669.456665,   -61.703777,   0.482977,   603.610840,   523.528442
-0.011066,   0.039515,   0.041388,   0.000000,   668.516968,   0.523154,   33.740997,   23.461344,   201.678207,   662.378906,   -53.530331,   0.483790,   595.339417,   515.287964
-0.010321,   0.036523,   0.038000,   0.000000,   658.768494,   0.523153,   33.740997,   22.627251,   197.775543,   654.333069,   -45.218472,   0.484285,   586.506592,   506.997314
-0.009575,   0.033600,   0.034701,   0.000000,   648.587280,   0.523154,   33.740997,   21.793158,   193.546417,   645.614685,   -36.778427,   0.484456,   577.390747,   498.896759
-0.008826,   0.030802,   0.031562,   0.000000,   638.220703,   0.523154,   33.740997,   20.959064,   189.267853,   636.468750,   -28.045401,   0.484447,   568.164917,   490.937073
-0.008102,   0.028038,   0.028462,   0.000000,   627.109009,   0.523154,   33.740997,   20.124969,   184.302582,   626.286255,   -19.087122,   0.483831,   558.452087,   483.309692
-0.007362,   0.025272,   0.025371,   0.000000,   615.176147,   0.523154,   33.740997,   19.290876,   179.145950,   614.960388,   -9.699509,   0.482969,   548.073120,   475.368835
-0.006633,   0.022637,   0.022442,   0.000000,   602.813599,   0.523154,   33.740997,   18.456783,   173.577835,   602.813538,   -0.187956,   0.481506,   537.474121,   467.882690
-0.005903,   0.020186,   0.019739,   0.000000,   590.562683,   0.523154,   33.740997,   17.622690,   168.704269,   590.353577,   9.391784,   0.480183,   526.923035,   460.185028
-0.005214,   0.017752,   0.017052,   0.000000,   577.094788,   0.523154,   33.740997,   16.788595,   162.944687,   576.194458,   19.309875,   0.477906,   515.540344,   452.689941
-0.004505,   0.015456,   0.014542,   0.000000,   563.435181,   0.523154,   33.740997,   15.954503,   157.892365,   561.388306,   28.811367,   0.475788,   503.922791,   444.651215
-0.003847,   0.013333,   0.012228,   0.000000,   549.450439,   0.523154,   33.740997,   15.120409,   152.673477,   545.675659,   38.700745,   0.472951,   492.193237,   437.042023
-0.003231,   0.011377,   0.010106,   0.000000,   535.293213,   0.523154,   33.740997,   14.286316,   147.815598,   529.347778,   47.997169,   0.469922,   480.337219,   429.264801
-0.002658,   0.009555,   0.008137,   0.000000,   520.392517,   0.523154,   33.740997,   13.452222,   142.172516,   511.581512,   57.727818,   0.465457,   468.180908,   422.170227
-0.002117,   0.007871,   0.006327,   0.000000,   505.017914,   0.523154,   33.740997,   12.618128,   136.673843,   492.734619,   67.264275,   0.460359,   455.737488,   414.891693
-0.001619,   0.006371,   0.004723,   0.000000,   489.960999,   0.523154,   33.740997,   11.784035,   132.363327,   473.992615,   75.566216,   0.455865,   443.374084,   406.816498
-0.001180,   0.005042,   0.003305,   0.000000,   475.145355,   0.523154,   33.740997,   10.949941,   128.905624,   455.417023,   82.648247,   0.451856,   431.054199,   398.124542
-0.000809,   0.003863,   0.002049,   0.000000,   459.842896,   0.523154,   33.740997,   10.115848,   124.326004,   436.070801,   89.308144,   0.446118,   418.721375,   390.144012
-0.000492,   0.002778,   0.000897,   0.000000,   442.479309,   0.523154,   33.740997,   9.281754,   115.313759,   415.030121,   94.765106,   0.435694,   405.746063,   383.454559
-0.000292,   0.001891,   0.000000,   0.000000,   416.074493,   0.523154,   33.740997,   8.447660,   106.661278,   372.813385,   115.695976,   0.411627,   388.276154,   376.365601
-0.000224,   0.001283,   0.000000,   0.000000,   280.543091,   0.523154,   33.740997,   7.613567,   100.797279,   216.860504,   106.989166,   0.401159,   263.950134,   257.981445
-0.000218,   0.000765,   0.000000,   0.000000,   161.385696,   0.523154,   33.740997,   6.779473,   83.588783,   80.500877,   79.325844,   0.341745,   160.050842,   159.999451
-0.000206,   0.000327,   0.000000,   -24.794916,   61.266911,   0.523154,   33.740997,   5.945380,   49.528896,   -13.056904,   29.536654,   0.158442,   76.730247,   66.782043
-0.000295,   0.000109,   0.000000,   -60.586014,   4.698329,   0.523154,   33.740997,   5.111286,   -3.240901,   -52.646782,   -21.337198,   -0.295390,   63.066570,   -62.671009
-0.036107,   0.085515,   0.093400,   0.000000,   711.881531,   0.517472,   34.510784,   54.127285,   291.543121,   422.274597,   -348.902435,   0.334694,   710.915405,   710.909424
-0.035651,   0.087418,   0.095662,   0.000000,   721.716980,   0.517472,   34.510784,   53.271168,   281.643433,   456.512634,   -341.627594,   0.344785,   713.639465,   713.213318
-0.035057,   0.088622,   0.097085,   0.000000,   729.095032,   0.517471,   34.510784,   52.415058,   272.968964,   485.402313,   -333.398560,   0.353599,   714.906616,   713.556030
-0.034448,   0.089476,   0.098076,   0.000000,   734.902527,   0.517472,   34.510784,   51.558945,   265.234039,   510.366913,   -324.741913,   0.361372,   715.422058,   712.810486
-0.033762,   0.090039,   0.098721,   0.000000,   739.455444,   0.517472,   34.510784,   50.702831,   258.500244,   531.790588,   -316.034027,   0.368231,   715.393677,   711.313049
-0.033037,   0.090270,   0.098981,   0.000000,   742.714661,   0.517472,   34.510784,   49.846718,   252.390930,   549.755432,   -307.591400,   0.374037,   714.854065,   709.263855
-0.032334,   0.090314,   0.099022,   0.000000,   745.039856,   0.517472,   34.510784,   48.990604,   246.765945,   564.904724,   -299.594147,   0.378899,   714.059875,   707.014954
-0.031623,   0.090240,   0.098933,   0.000000,   746.729431,   0.517472,   34.510784,   48.134491,   241.669174,   577.822144,   -292.075958,   0.383045,   713.137939,   704.714050
-0.030903,   0.090008,   0.098670,   0.000000,   747.751953,   0.517472,   34.510784,   47.278378,   236.901306,   588.649902,   -285.091919,   0.386468,   712.047180,   702.389526
-0.030168,   0.089612,   0.098227,   0.000000,   748.168030,   0.517472,   34.510784,   46.422264,   232.388611,   597.641724,   -278.636627,   0.389257,   710.781311,   700.057556
-0.029415,   0.089093,   0.097654,   0.000000,   748.156982,   0.517471,   34.510784,   45.566151,   228.136551,   605.252502,   -272.604584,   0.391598,   709.391602,   697.732605
-0.028651,   0.088461,   0.096959,   0.000000,   747.850281,   0.517472,   34.510784,   44.710037,   224.105515,   612.004578,   -266.736694,   0.393727,   707.859253,   695.318298
-0.027862,   0.087709,   0.096137,   0.000000,   747.420044,   0.517472,   34.510784,   43.853924,   220.541641,   618.337463,   -260.788879,   0.395989,   706.146729,   692.633484
-0.027050,   0.086833,   0.095180,   0.000000,   746.992554,   0.517472,   34.510784,   42.997814,   217.562149,   624.695190,   -254.456146,   0.398677,   704.209595,   689.488953
-0.026215,   0.085824,   0.094077,   0.000000,   746.635071,   0.517472,   34.510784,   42.141701,   215.273056,   631.322937,   -247.532822,   0.401985,   702.012695,   685.726807
-0.025358,   0.084671,   0.092814,   0.000000,   746.341003,   0.517472,   34.510784,   41.285587,   213.718521,   638.265747,   -239.923553,   0.405981,   699.528015,   681.233643
-0.024481,   0.083367,   0.091380,   0.000000,   746.049683,   0.517472,   34.510784,   40.429474,   212.888596,   645.395569,   -231.656799,   0.410616,   696.745483,   675.958069
-0.023591,   0.081907,   0.089771,   0.000000,   745.667114,   0.517471,   34.510784,   39.573360,   212.703278,   652.502563,   -222.830307,   0.415765,   693.666260,   669.902710
-0.022694,   0.080295,   0.087986,   0.000000,   745.093506,   0.517472,   34.510784,   38.717247,   213.048264,   659.355408,   -213.580292,   0.421268,   690.300110,   663.111267
-0.021797,   0.078535,   0.086031,   0.000000,   744.239746,   0.517472,   34.510784,   37.861134,   213.799255,   665.746826,   -204.048615,   0.426969,   686.658813,   655.651184
-0.020906,   0.076634,   0.083912,   0.000000,   743.033569,   0.517472,   34.510784,   37.005020,   214.831909,   671.514038,   -194.362335,   0.432731,   682.752808,   647.601746
-0.020026,   0.074601,   0.081638,   0.000000,   741.421204,   0.517473,   34.510784,   36.148907,   216.030716,   676.544067,   -184.623489,   0.438446,   678.589966,   639.045166
-0.019163,   0.072446,   0.079219,   0.000000,   739.364990,   0.517472,   34.510784,   35.292793,   217.301346,   680.756409,   -174.921143,   0.444028,   674.175110,   630.062927
-0.018314,   0.070196,   0.076689,   0.000000,   736.890198,   0.517472,   34.510784,   34.436680,   218.617111,   684.139038,   -165.346588,   0.449436,   669.547363,   620.747192
-0.017512,   0.067840,   0.074022,   0.000000,   733.861023,   0.517471,   34.510784,   33.580566,   219.624313,   686.670349,   -155.779205,   0.454531,   664.637451,   611.199158
-0.016713,   0.065376,   0.071230,   0.000000,   730.329346,   0.517472,   34.510784,   32.724453,   220.546753,   688.281494,   -146.407883,   0.459384,   659.454224,   601.399292
-0.015926,   0.062816,   0.068323,   0.000000,   726.269348,   0.517471,   34.510784,   31.868340,   221.273407,   688.973816,   -137.237381,   0.463948,   653.985901,   591.427246
-0.015150,   0.060199,   0.065350,   0.000000,   721.743896,   0.517472,   34.510784,   31.012226,   221.751205,   688.856079,   -128.232834,   0.468214,   648.284363,   581.386475
-0.014423,   0.057531,   0.062305,   0.000000,   716.696960,   0.517473,   34.510784,   30.156113,   221.830963,   687.917664,   -119.339417,   0.472122,   642.311401,   571.359131
-0.013704,   0.054800,   0.059186,   0.000000,   711.107727,   0.517471,   34.510784,   29.299999,   221.533112,   686.126465,   -110.590210,   0.475688,   636.032471,   561.348145
-0.012974,   0.051988,   0.055977,   0.000000,   704.940186,   0.517472,   34.510784,   28.443888,   220.939682,   683.443604,   -102.001755,   0.478979,   629.382874,   551.257202
-0.012235,   0.049117,   0.052705,   0.000000,   698.185120,   0.517472,   34.510784,   27.587774,   219.911240,   679.917847,   -93.470581,   0.481941,   622.364807,   541.198181
-0.011541,   0.046247,   0.049423,   0.000000,   690.905396,   0.517472,   34.510784,   26.731661,   218.353867,   675.624512,   -84.976418,   0.484503,   615.048523,   531.370422
-0.010839,   0.043406,   0.046186,   0.000000,   683.287048,   0.517471,   34.510784,   25.875547,   216.664398,   670.716980,   -76.586494,   0.486887,   607.520142,   521.576416
-0.010146,   0.040521,   0.042896,   0.000000,   674.942261,   0.517472,   34.510784,   25.019434,   214.262726,   664.898865,   -68.020523,   0.488820,   599.513428,   511.995941
-0.009449,   0.037590,   0.039558,   0.000000,   665.891785,   0.517472,   34.510784,   24.163321,   211.500656,   658.117737,   -59.434372,   0.490496,   590.979248,   502.337494
-0.008748,   0.034704,   0.036280,   0.000000,   656.348267,   0.517472,   34.510784,   23.307207,   208.308945,   650.639709,   -50.573200,   0.491851,   582.119873,   492.881104
-0.008070,   0.031929,   0.033137,   0.000000,   646.571472,   0.517471,   34.510784,   22.451094,   205.056747,   642.611816,   -41.811901,   0.493011,   573.123901,   483.614410
-0.007395,   0.029157,   0.030004,   0.000000,   636.025574,   0.517472,   34.510784,   21.594982,   201.164185,   633.575317,   -32.642380,   0.493708,   563.585510,   474.578308
-0.006718,   0.026400,   0.026895,   0.000000,   624.762817,   0.517472,   34.510784,   20.738867,   197.091232,   623.505310,   -23.190672,   0.494213,   553.470703,   465.352753
-0.006065,   0.023764,   0.023932,   0.000000,   613.080627,   0.517471,   34.510784,   19.882755,   192.626709,   612.642090,   -13.578774,   0.494226,   543.118103,   456.630310
-0.005416,   0.021287,   0.021167,   0.000000,   601.309082,   0.517472,   34.510784,   19.026642,   188.406006,   601.273193,   -3.849441,   0.494121,   532.716858,   448.027588
-0.004802,   0.018863,   0.018462,   0.000000,   588.690247,   0.517473,   34.510784,   18.170528,   183.670303,   588.596558,   6.160260,   0.493415,   521.715271,   439.705139
-0.004188,   0.016505,   0.015842,   0.000000,   575.307556,   0.517472,   34.510784,   17.314415,   178.844177,   574.617859,   16.535900,   0.492341,   510.121735,   431.302155
-0.003592,   0.014363,   0.013484,   0.000000,   562.133728,   0.517471,   34.510784,   16.458302,   174.604507,   560.339417,   26.369278,   0.491227,   498.713531,   423.024933
-0.003064,   0.012382,   0.011302,   0.000000,   548.494873,   0.517472,   34.510784,   15.602188,   169.691376,   544.941711,   36.687317,   0.488981,   487.157684,   415.855316
-0.002551,   0.010558,   0.009308,   0.000000,   534.841064,   0.517472,   34.510784,   14.746075,   165.555206,   529.023438,   46.350460,   0.486872,   475.538483,   408.282928
-0.002084,   0.008850,   0.007446,   0.000000,   520.280396,   0.517472,   34.510784,   13.889962,   160.104858,   511.368195,   56.656490,   0.482837,   463.560486,   402.200500
-0.001645,   0.007326,   0.005796,   0.000000,   505.984161,   0.517472,   34.510784,   13.033849,   155.593338,   493.465027,   66.231361,   0.478899,   451.770905,   395.767120
-0.001254,   0.005960,   0.004322,   0.000000,   491.600464,   0.517472,   34.510784,   12.177735,   151.147964,   474.945435,   75.301033,   0.474261,   440.048370,   389.619141
-0.000917,   0.004760,   0.003031,   0.000000,   477.360352,   0.517472,   34.510784,   11.321622,   146.770523,   456.314301,   83.412308,   0.469078,   428.559998,   383.659882
-0.000637,   0.003712,   0.001903,   0.000000,   462.741821,   0.517472,   34.510784,   10.465509,   140.654938,   436.855164,   91.311310,   0.461235,   417.365173,   379.354675
-0.000403,   0.002770,   0.000893,   0.000000,   447.212860,   0.517472,   34.510784,   9.609395,   132.593704,   415.956451,   99.165825,   0.450215,   406.139435,   376.084045
-0.000266,   0.002054,   0.000129,   0.000000,   431.988129,   0.517472,   34.510784,   8.753282,   124.979774,   388.577454,   115.444527,   0.430623,   397.530334,   378.007568
-0.000224,   0.001539,   0.000000,   0.000000,   339.648376,   0.517472,   34.510784,   7.897169,   120.323601,   274.257965,   119.756996,   0.416508,   315.785858,   304.756836
-0.000242,   0.001088,   0.000000,   0.000000,   234.282669,   0.517472,   34.510784,   7.041056,   108.072685,   145.653397,   105.763412,   0.375571,   225.191391,   223.291199
-0.000236,   0.000700,   0.000000,   -6.060009,   145.138153,   0.517472,   34.510784,   6.184943,   89.678795,   49.399349,   72.867088,   0.312687,   148.261078,   147.982040
-0.000207,   0.000375,   0.000000,   -21.797525,   72.217323,   0.517472,   34.510784,   5.328829,   58.018047,   -7.598253,   33.664864,   0.197185,   85.232811,   78.586334
-0.000117,   0.000102,   0.000000,   -19.830297,   15.566691,   0.517472,   34.510784,   4.472716,   15.512598,   -19.776203,   1.382688,   -0.046250,   30.728729,   -18.171347
-0.027888,   0.066760,   0.072067,   0.000000,   676.955933,   0.522564,   35.259705,   54.819710,   304.845062,   372.296722,   -336.700165,   0.333471,   676.863037,   676.862976
-0.028477,   0.070641,   0.076631,   0.000000,   691.927368,   0.522564,   35.259705,   53.939720,   293.488678,   413.030792,   -333.351440,   0.343932,   684.747925,   684.398010
-0.028735,   0.073583,   0.080078,   0.000000,   703.476318,   0.522564,   35.259705,   53.059731,   283.624756,   447.596069,   -327.767761,   0.353235,   690.022461,   688.765808
-0.028749,   0.075772,   0.082629,   0.000000,   712.338440,   0.522564,   35.259705,   52.179741,   274.842560,   476.970856,   -320.893066,   0.361391,   693.444214,   690.909424
-0.028641,   0.077348,   0.084450,   0.000000,   718.930481,   0.522564,   35.259705,   51.299751,   266.822510,   501.548187,   -313.496857,   0.368243,   695.529541,   691.559509
-0.028417,   0.078628,   0.085918,   0.000000,   724.402588,   0.522565,   35.259705,   50.419762,   259.981537,   523.070923,   -305.782043,   0.374524,   696.930969,   691.346008
-0.028123,   0.079596,   0.087022,   0.000000,   728.667603,   0.522564,   35.259705,   49.539768,   253.894394,   541.390808,   -298.184509,   0.379930,   697.747986,   690.538879
-0.027773,   0.080273,   0.087788,   0.000000,   731.923279,   0.522564,   35.259705,   48.659779,   248.435028,   557.023315,   -290.795593,   0.384614,   698.066650,   689.272034
-0.027351,   0.080721,   0.088301,   0.000000,   734.354187,   0.522564,   35.259705,   47.779793,   243.575027,   570.160950,   -283.870758,   0.388572,   698.056702,   687.792053
-0.026853,   0.080936,   0.088556,   0.000000,   736.077759,   0.522564,   35.259705,   46.899803,   239.210983,   581.253601,   -277.357117,   0.391973,   697.722229,   686.100342
-0.026293,   0.080911,   0.088548,   0.000000,   737.083740,   0.522564,   35.259705,   46.019814,   235.104767,   590.460999,   -271.296021,   0.394781,   697.067322,   684.261902
-0.025686,   0.080690,   0.088324,   0.000000,   737.550781,   0.522565,   35.259705,   45.139820,   231.223129,   598.268188,   -265.560974,   0.397181,   696.148987,   682.289124
-0.025020,   0.080284,   0.087904,   0.000000,   737.631714,   0.522564,   35.259705,   44.259830,   227.675461,   605.070984,   -260.000305,   0.399414,   694.973145,   680.098389
-0.024310,   0.079704,   0.087293,   0.000000,   737.464905,   0.522564,   35.259705,   43.379841,   224.489258,   611.395203,   -254.304321,   0.401764,   693.512756,   677.533630
-0.023557,   0.078952,   0.086493,   0.000000,   737.192322,   0.522564,   35.259705,   42.499851,   221.832886,   617.657959,   -248.199875,   0.404531,   691.739746,   674.406189
-0.022766,   0.078027,   0.085501,   0.000000,   736.885925,   0.522564,   35.259705,   41.619862,   219.804184,   624.122925,   -241.469833,   0.407916,   689.624207,   670.551453
-0.021942,   0.076927,   0.084313,   0.000000,   736.556030,   0.522565,   35.259705,   40.739872,   218.477432,   630.836243,   -234.032379,   0.411997,   687.151184,   665.858459
-0.021093,   0.075654,   0.082928,   0.000000,   736.152222,   0.522564,   35.259705,   39.859882,   217.833374,   637.694580,   -225.903625,   0.416730,   684.318604,   660.280518
-0.020228,   0.074210,   0.081349,   0.000000,   735.594177,   0.522564,   35.259705,   38.979893,   217.802414,   644.499817,   -217.181702,   0.421991,   681.137268,   653.828369
-0.019355,   0.072605,   0.079583,   0.000000,   734.792297,   0.522564,   35.259705,   38.099903,   218.277725,   651.029053,   -208.002243,   0.427625,   677.623535,   646.553040
-0.018483,   0.070847,   0.077640,   0.000000,   733.663696,   0.522564,   35.259705,   37.219910,   219.136856,   657.079895,   -198.505493,   0.433474,   673.793579,   638.528992
-0.017619,   0.068947,   0.075528,   0.000000,   732.140747,   0.522565,   35.259705,   36.339920,   220.257568,   662.494568,   -188.813980,   0.439403,   669.660461,   629.839600
-0.016766,   0.066914,   0.073259,   0.000000,   730.173401,   0.522565,   35.259705,   35.459930,   221.543762,   667.152466,   -179.037216,   0.445306,   665.231934,   620.564148
-0.015938,   0.064770,   0.070855,   0.000000,   727.739807,   0.522564,   35.259705,   34.579941,   222.888229,   670.985657,   -169.270233,   0.451087,   660.532654,   610.815796
-0.015130,   0.062510,   0.068311,   0.000000,   724.766663,   0.522564,   35.259705,   33.699951,   224.089050,   673.991272,   -159.443085,   0.456673,   655.524475,   600.649109
-0.014334,   0.060139,   0.065633,   0.000000,   721.253235,   0.522564,   35.259705,   32.819962,   225.239761,   676.035461,   -149.761856,   0.462043,   650.209717,   590.116028
-0.013547,   0.057666,   0.062837,   0.000000,   717.186768,   0.522564,   35.259705,   31.939970,   226.251770,   677.147888,   -140.201553,   0.467178,   644.579407,   579.267944
-0.012804,   0.055124,   0.059945,   0.000000,   712.547791,   0.522564,   35.259705,   31.059980,   226.925781,   677.361084,   -130.718872,   0.471983,   638.643005,   568.264954
-0.012083,   0.052530,   0.056991,   0.000000,   707.394287,   0.522564,   35.259705,   30.179991,   227.315781,   676.733337,   -121.324623,   0.476495,   632.429688,   557.144592
-0.011360,   0.049847,   0.053933,   0.000000,   701.609985,   0.522564,   35.259705,   29.299999,   227.401398,   675.123840,   -112.071190,   0.480711,   625.826904,   545.860779
-0.010637,   0.047096,   0.050799,   0.000000,   695.203247,   0.522564,   35.259705,   28.420010,   227.113113,   672.570435,   -102.928055,   0.484607,   618.841125,   534.503540
-0.009954,   0.044340,   0.047649,   0.000000,   688.272034,   0.522564,   35.259705,   27.540020,   226.390671,   669.224548,   -93.795921,   0.488162,   611.556274,   523.228333
-0.009300,   0.041574,   0.044483,   0.000000,   680.757996,   0.522564,   35.259705,   26.660030,   225.128662,   665.035645,   -84.637878,   0.491320,   603.926697,   512.131653
-0.008627,   0.038772,   0.041287,   0.000000,   672.652039,   0.522564,   35.259705,   25.780041,   223.637695,   659.917236,   -75.618141,   0.494255,   595.882935,   500.947937
-0.007975,   0.035962,   0.038077,   0.000000,   663.859070,   0.522564,   35.259705,   24.900049,   221.478653,   653.883850,   -66.429169,   0.496748,   587.395996,   490.025543
-0.007338,   0.033215,   0.034946,   0.000000,   654.681152,   0.522564,   35.259705,   24.020060,   219.135025,   647.144592,   -57.293198,   0.499012,   578.663757,   479.239716
-0.006722,   0.030460,   0.031803,   0.000000,   644.694519,   0.522564,   35.259705,   23.140070,   216.015945,   639.392517,   -47.674377,   0.500790,   569.372681,   468.762329
-0.006096,   0.027753,   0.028730,   0.000000,   634.239807,   0.522564,   35.259705,   22.260080,   212.958618,   630.761536,   -38.279633,   0.502470,   559.715454,   458.165070
-0.005498,   0.025095,   0.025714,   0.000000,   623.086243,   0.522564,   35.259705,   21.380089,   209.325592,   621.123474,   -28.497581,   0.503693,   549.573364,   447.931274
-0.004915,   0.022572,   0.022862,   0.000000,   611.656006,   0.522564,   35.259705,   20.500099,   205.547318,   610.810303,   -18.532204,   0.504601,   539.276245,   438.111206
-0.004356,   0.020127,   0.020105,   0.000000,   599.651672,   0.522564,   35.259705,   19.620110,   201.629486,   599.479126,   -8.286777,   0.505226,   528.548035,   428.421112
-0.003824,   0.017750,   0.017427,   0.000000,   586.854431,   0.522564,   35.259705,   18.740120,   197.237335,   586.841431,   2.250534,   0.505281,   517.255859,   419.183716
-0.003302,   0.015556,   0.014974,   0.000000,   574.066833,   0.522564,   35.259705,   17.860130,   193.292374,   573.656372,   12.501556,   0.505243,   505.993103,   410.113220
-0.002821,   0.013500,   0.012682,   0.000000,   560.824341,   0.522564,   35.259705,   16.980139,   188.919571,   559.378174,   23.191244,   0.504413,   494.500336,   402.006744
-0.002384,   0.011612,   0.010582,   0.000000,   547.432861,   0.522563,   35.259705,   16.100149,   184.684250,   544.306458,   33.676395,   0.503136,   482.965118,   394.419525
-0.001982,   0.009878,   0.008662,   0.000000,   533.712708,   0.522564,   35.259705,   15.220160,   179.950775,   528.143433,   44.386986,   0.500736,   471.368805,   388.146576
-0.001609,   0.008325,   0.006954,   0.000000,   520.173706,   0.522564,   35.259705,   14.340169,   175.648514,   511.550995,   54.504471,   0.497976,   459.995514,   382.244843
-0.001270,   0.006915,   0.005409,   0.000000,   506.415222,   0.522564,   35.259705,   13.460179,   171.179016,   493.863770,   64.866783,   0.494106,   448.650970,   377.343414
-0.000971,   0.005654,   0.004032,   0.000000,   492.559601,   0.522564,   35.259705,   12.580190,   166.485855,   475.428162,   74.740318,   0.489142,   437.442291,   373.249817
-0.000715,   0.004556,   0.002837,   0.000000,   478.854889,   0.522564,   35.259705,   11.700199,   161.387680,   456.561829,   84.126808,   0.482775,   426.665192,   370.247375
-0.000509,   0.003612,   0.001811,   0.000000,   464.996307,   0.522564,   35.259705,   10.820210,   154.379089,   436.931427,   93.367203,   0.473280,   416.462708,   369.532104
-0.000346,   0.002800,   0.000931,   0.000000,   451.163177,   0.522564,   35.259705,   9.940220,   146.907715,   416.258179,   103.053581,   0.461355,   406.892273,   369.754059
-0.000253,   0.002192,   0.000274,   0.000000,   437.977325,   0.522564,   35.259705,   9.060229,   138.031693,   393.549500,   115.437988,   0.443554,   399.486481,   373.598663
-0.000231,   0.001712,   0.000000,   0.000000,   379.140564,   0.522564,   35.259705,   8.180239,   130.681854,   313.657196,   127.553581,   0.421841,   351.111145,   337.085815
-0.000252,   0.001305,   0.000000,   0.000000,   283.659058,   0.522564,   35.259705,   7.300249,   120.755417,   195.184113,   120.053688,   0.391534,   268.975525,   264.564941
-0.000260,   0.000961,   0.000000,   0.000000,   203.857071,   0.522564,   35.259705,   6.420259,   110.575340,   99.797585,   98.523338,   0.349436,   200.678497,   200.440277
-0.000250,   0.000664,   0.000000,   -11.760138,   135.961166,   0.522564,   35.259705,   5.540269,   91.031990,   33.169037,   67.958557,   0.291129,   142.206406,   141.106155
-0.000196,   0.000417,   0.000000,   -16.298725,   82.689171,   0.522564,   35.259705,   4.660279,   63.799683,   2.590761,   38.897530,   0.240732,   91.928642,   88.590027
-0.000091,   0.000225,   0.000000,   -5.379537,   45.633896,   0.522564,   35.259705,   3.780289,   33.214272,   7.040088,   21.893393,   0.276390,   48.547718,   47.870274
-0.021404,   0.051511,   0.054796,   -0.571478,   642.813965,   0.537509,   36.001991,   55.549416,   308.842743,   333.399750,   -321.458313,   0.332889,   643.099915,   643.099304
-0.022887,   0.056335,   0.060409,   0.000000,   659.921448,   0.537508,   36.001991,   54.644264,   295.870087,   372.973267,   -323.208740,   0.340115,   655.506104,   655.369385
-0.023688,   0.060225,   0.064933,   0.000000,   674.566772,   0.537508,   36.001991,   53.739113,   285.473572,   410.125702,   -320.768158,   0.349039,   664.300293,   663.550537
-0.024159,   0.063352,   0.068563,   0.000000,   686.515076,   0.537509,   36.001991,   52.833961,   276.720642,   442.892731,   -315.966888,   0.357708,   670.578796,   668.737244
-0.024465,   0.066016,   0.071641,   0.000000,   696.370667,   0.537508,   36.001991,   51.928806,   268.830261,   471.687012,   -309.937653,   0.365482,   675.380371,   672.122620
-0.024675,   0.068185,   0.074128,   0.000000,   704.239197,   0.537509,   36.001991,   51.023655,   261.903931,   496.280823,   -303.294098,   0.372275,   678.875793,   674.028259
-0.024733,   0.069986,   0.076186,   0.000000,   710.719971,   0.537509,   36.001991,   50.118504,   256.011658,   517.531982,   -296.385193,   0.378363,   681.483398,   674.922363
-0.024674,   0.071468,   0.077879,   0.000000,   716.083130,   0.537508,   36.001991,   49.213352,   250.987976,   535.969788,   -289.430237,   0.383840,   683.407776,   675.065186
-0.024485,   0.072571,   0.079144,   0.000000,   720.285828,   0.537508,   36.001991,   48.308201,   246.737137,   551.528625,   -282.691986,   0.388658,   684.634766,   674.534912
-0.024180,   0.073363,   0.080065,   0.000000,   723.563721,   0.537509,   36.001991,   47.403046,   243.091553,   564.697449,   -276.280334,   0.392888,   685.343750,   673.552429
-0.023768,   0.073866,   0.080670,   0.000000,   726.008728,   0.537508,   36.001991,   46.497894,   239.802475,   575.834167,   -270.214355,   0.396555,   685.602783,   672.232788
-0.023257,   0.074071,   0.080948,   0.000000,   727.654602,   0.537509,   36.001991,   45.592743,   236.757568,   585.133118,   -264.505920,   0.399706,   685.412537,   670.605469
-0.022656,   0.073983,   0.080905,   0.000000,   728.567810,   0.537508,   36.001991,   44.687592,   233.884644,   592.860168,   -259.098999,   0.402439,   684.778198,   668.669128
-0.021990,   0.073658,   0.080602,   0.000000,   728.965027,   0.537509,   36.001991,   43.782436,   231.187790,   599.587708,   -253.773666,   0.404999,   683.768311,   666.395142
-0.021263,   0.073111,   0.080056,   0.000000,   729.002869,   0.537508,   36.001991,   42.877285,   228.784515,   605.770142,   -248.280655,   0.407670,   682.377380,   663.637390
-0.020485,   0.072351,   0.079274,   0.000000,   728.813293,   0.537508,   36.001991,   41.972134,   226.789795,   611.847778,   -242.320923,   0.410747,   680.579712,   660.201111
-0.019668,   0.071390,   0.078265,   0.000000,   728.488281,   0.537510,   36.001991,   41.066982,   225.354980,   618.062195,   -235.709625,   0.414436,   678.365295,   655.923218
-0.018821,   0.070234,   0.077035,   0.000000,   728.044861,   0.537508,   36.001991,   40.161827,   224.533127,   624.483887,   -228.350998,   0.418815,   675.729553,   650.694824
-0.017954,   0.068894,   0.075593,   0.000000,   727.445740,   0.537508,   36.001991,   39.256676,   224.320496,   631.012207,   -220.268356,   0.423842,   672.682373,   644.474609
-0.017078,   0.067379,   0.073950,   0.000000,   726.619324,   0.537509,   36.001991,   38.351524,   224.654938,   637.453003,   -211.561646,   0.429396,   669.241516,   637.278992
-0.016202,   0.065703,   0.072116,   0.000000,   725.483887,   0.537508,   36.001991,   37.446369,   225.437592,   643.587463,   -202.365997,   0.435322,   665.427734,   629.164001
-0.015335,   0.063876,   0.070104,   0.000000,   723.962036,   0.537508,   36.001991,   36.541222,   226.550125,   649.217224,   -192.818420,   0.441464,   661.259827,   620.209839
-0.014476,   0.061907,   0.067922,   0.000000,   721.987976,   0.537511,   36.001991,   35.636066,   227.900543,   654.173828,   -183.046738,   0.447700,   656.744873,   610.487000
-0.013649,   0.059811,   0.065582,   0.000000,   719.488220,   0.537508,   36.001991,   34.730915,   229.300369,   658.331848,   -173.141891,   0.453878,   651.888062,   600.121277
-0.012835,   0.057595,   0.063099,   0.000000,   716.449219,   0.537508,   36.001991,   33.825764,   230.690170,   661.680237,   -163.108932,   0.459967,   646.690918,   589.145264
-0.012040,   0.055267,   0.060480,   0.000000,   712.831848,   0.537509,   36.001991,   32.920609,   232.055222,   664.054016,   -153.138031,   0.465886,   641.150452,   577.657532
-0.011269,   0.052866,   0.057769,   0.000000,   708.682617,   0.537509,   36.001991,   32.015457,   233.306442,   665.535400,   -143.217178,   0.471597,   635.318054,   565.772888
-0.010544,   0.050390,   0.054956,   0.000000,   703.907837,   0.537509,   36.001991,   31.110304,   234.219681,   666.082397,   -133.289810,   0.477004,   629.137146,   553.596863
-0.009826,   0.047824,   0.052038,   0.000000,   698.484009,   0.537508,   36.001991,   30.205153,   234.867859,   665.630554,   -123.415550,   0.482145,   622.563965,   541.096130
-0.009117,   0.045189,   0.049039,   0.000000,   692.430420,   0.537509,   36.001991,   29.300001,   235.250900,   664.178223,   -113.650002,   0.487012,   615.610413,   528.344727
-0.008452,   0.042541,   0.046014,   0.000000,   685.805176,   0.537509,   36.001991,   28.394848,   235.202896,   661.836426,   -103.924866,   0.491519,   608.344543,   515.581604
-0.007824,   0.039881,   0.042965,   0.000000,   678.582581,   0.537508,   36.001991,   27.489697,   234.676300,   658.601624,   -94.178986,   0.495660,   600.732788,   502.857727
-0.007186,   0.037163,   0.039856,   0.000000,   670.626282,   0.537509,   36.001991,   26.584543,   233.681107,   654.323486,   -84.400475,   0.499469,   592.632568,   490.070312
-0.006580,   0.034462,   0.036762,   0.000000,   662.083618,   0.537508,   36.001991,   25.679390,   232.230469,   649.098999,   -74.709282,   0.502888,   584.178345,   477.491089
-0.006011,   0.031797,   0.033703,   0.000000,   652.965576,   0.537509,   36.001991,   24.774239,   230.240860,   643.028748,   -64.811615,   0.505921,   575.366821,   465.181244
-0.005440,   0.029157,   0.030684,   0.000000,   643.284302,   0.537509,   36.001991,   23.869085,   227.999344,   636.000488,   -54.998737,   0.508682,   566.168884,   452.972961
-0.004888,   0.026496,   0.027638,   0.000000,   632.662170,   0.537508,   36.001991,   22.963934,   224.968658,   627.741821,   -44.788467,   0.510944,   556.297119,   441.089996
-0.004361,   0.023948,   0.024728,   0.000000,   621.690369,   0.537509,   36.001991,   22.058783,   221.815308,   618.683533,   -34.674877,   0.512928,   546.209595,   429.549744
-0.003865,   0.021509,   0.021946,   0.000000,   610.291321,   0.537509,   36.001991,   21.153629,   218.325882,   608.794495,   -24.222069,   0.514517,   535.855835,   418.548828
-0.003390,   0.019100,   0.019200,   0.000000,   598.011475,   0.537508,   36.001991,   20.248476,   214.404495,   597.529724,   -13.594206,   0.515675,   524.835632,   407.855621
-0.002929,   0.016835,   0.016632,   0.000000,   585.467041,   0.537509,   36.001991,   19.343325,   210.526794,   585.447510,   -2.707150,   0.516544,   513.653503,   397.610626
-0.002513,   0.014753,   0.014276,   0.000000,   572.826050,   0.537509,   36.001991,   18.438171,   206.586594,   572.649475,   8.041074,   0.516915,   502.491516,   388.315033
-0.002137,   0.012796,   0.012063,   0.000000,   559.700562,   0.537508,   36.001991,   17.533020,   202.218933,   558.675781,   19.139839,   0.516503,   491.055267,   380.188599
-0.001788,   0.011007,   0.010052,   0.000000,   546.544922,   0.537509,   36.001991,   16.627869,   198.079071,   543.950256,   30.069216,   0.515651,   479.671265,   372.797791
-0.001483,   0.009375,   0.008219,   0.000000,   533.138611,   0.537508,   36.001991,   15.722715,   193.323425,   528.125610,   41.273373,   0.513527,   468.296936,   367.343475
-0.001205,   0.007902,   0.006573,   0.000000,   519.715759,   0.537509,   36.001991,   14.817563,   188.580276,   511.467224,   52.262665,   0.510545,   457.058807,   362.989166
-0.000963,   0.006579,   0.005101,   0.000000,   506.170319,   0.537509,   36.001991,   13.912411,   183.297501,   493.776672,   63.257954,   0.506042,   445.993347,   360.421082
-0.000749,   0.005421,   0.003818,   0.000000,   492.898438,   0.537508,   36.001991,   13.007258,   178.082108,   475.561676,   73.877571,   0.500438,   435.381226,   358.873077
-0.000569,   0.004416,   0.002708,   0.000000,   479.716187,   0.537509,   36.001991,   12.102106,   171.939346,   456.551788,   84.436142,   0.492571,   425.313812,   359.355896
-0.000425,   0.003561,   0.001768,   0.000000,   466.695404,   0.537509,   36.001991,   11.196954,   164.656830,   436.694092,   95.192184,   0.481799,   416.045166,   361.913239
-0.000318,   0.002852,   0.000992,   0.000000,   453.995514,   0.537509,   36.001991,   10.291800,   156.714951,   415.904633,   106.412766,   0.468017,   407.834290,   365.894897
-0.000260,   0.002301,   0.000390,   0.000000,   441.360931,   0.537508,   36.001991,   9.386649,   145.574936,   394.635620,   117.561462,   0.448856,   401.176239,   372.267578
-0.000253,   0.001847,   0.000000,   0.000000,   408.577515,   0.537509,   36.001991,   8.481497,   135.332275,   342.585815,   134.282959,   0.420667,   378.698669,   364.002838
-0.000269,   0.001475,   0.000000,   0.000000,   321.882202,   0.537509,   36.001991,   7.576344,   125.531212,   236.519989,   129.464096,   0.397253,   303.795990,   297.733337
-0.000283,   0.001154,   0.000000,   0.000000,   246.598434,   0.537509,   36.001991,   6.671192,   118.174965,   142.951477,   115.372017,   0.363183,   239.664917,   238.671204
-0.000282,   0.000868,   0.000000,   -4.944924,   180.821396,   0.537509,   36.001991,   5.766040,   105.079910,   70.796555,   91.287697,   0.319757,   183.343872,   183.193741
-0.000252,   0.000634,   0.000000,   -14.187206,   128.806183,   0.537509,   36.001991,   4.860888,   86.528893,   28.090082,   65.253380,   0.279994,   136.454056,   134.779770
-0.000184,   0.000451,   0.000000,   -11.158557,   91.276039,   0.537509,   36.001991,   3.955735,   64.544281,   15.573199,   44.985218,   0.274367,   97.336212,   95.881386
-0.000118,   0.000358,   0.000000,   -2.389466,   74.496483,   0.537509,   36.001991,   3.050583,   45.205173,   26.901842,   37.337772,   0.317430,   75.719498,   75.634598
-0.016699,   0.040141,   0.042063,   -1.786496,   612.812744,   0.552449,   36.744282,   56.279121,   299.252594,   311.773651,   -307.235840,   0.331877,   613.707947,   613.702087
-0.018571,   0.044775,   0.047373,   0.000000,   628.277039,   0.552447,   36.744282,   55.348808,   286.864502,   342.009277,   -312.626648,   0.333808,   627.978943,   627.978333
-0.019937,   0.049153,   0.052406,   0.000000,   644.421326,   0.552447,   36.744282,   54.418495,   276.548218,   377.164551,   -313.554749,   0.340568,   639.826172,   639.674377
-0.020842,   0.053059,   0.056893,   0.000000,   659.332458,   0.552449,   36.744282,   53.488178,   268.669037,   411.589355,   -311.101532,   0.349322,   649.122498,   648.362915
-0.021525,   0.056440,   0.060769,   0.000000,   671.972656,   0.552447,   36.744282,   52.557865,   261.331451,   443.100983,   -306.568359,   0.357755,   656.345093,   654.535522
-0.022026,   0.059466,   0.064230,   0.000000,   682.911194,   0.552448,   36.744282,   51.627552,   255.814072,   470.678070,   -301.071686,   0.365698,   662.197144,   658.959045
-0.022352,   0.062013,   0.067136,   0.000000,   692.036865,   0.552448,   36.744282,   50.697235,   251.314194,   494.717072,   -294.895447,   0.373007,   666.681580,   661.735535
-0.022504,   0.064141,   0.069567,   0.000000,   699.637451,   0.552448,   36.744282,   49.766922,   247.758972,   515.413940,   -288.524933,   0.379613,   670.132446,   663.305420
-0.022467,   0.065893,   0.071584,   0.000000,   706.073425,   0.552447,   36.744282,   48.836605,   245.189865,   533.377380,   -282.121918,   0.385756,   672.762268,   663.889648
-0.022263,   0.067226,   0.073138,   0.000000,   711.270752,   0.552449,   36.744282,   47.906292,   243.231949,   548.646790,   -275.888245,   0.391290,   674.588501,   663.623718
-0.021915,   0.068165,   0.074257,   0.000000,   715.343689,   0.552447,   36.744282,   46.975975,   241.580795,   561.625000,   -269.863312,   0.396228,   675.710510,   662.676147
-0.021424,   0.068732,   0.074973,   0.000000,   718.391235,   0.552448,   36.744282,   46.045662,   240.154312,   572.466125,   -264.171875,   0.400571,   676.218628,   661.205872
-0.020815,   0.068950,   0.075309,   0.000000,   720.518372,   0.552447,   36.744282,   45.115349,   238.815475,   581.512390,   -258.765533,   0.404404,   676.161316,   659.282043
-0.020112,   0.068834,   0.075276,   0.000000,   721.796448,   0.552450,   36.744282,   44.185036,   237.454742,   589.054321,   -253.559769,   0.407818,   675.554382,   656.923401
-0.019334,   0.068409,   0.074901,   0.000000,   722.367126,   0.552447,   36.744282,   43.254719,   236.101166,   595.492065,   -248.384827,   0.411016,   674.420654,   654.075989
-0.018504,   0.067726,   0.074239,   0.000000,   722.445007,   0.552448,   36.744282,   42.324406,   234.845520,   601.383667,   -242.959732,   0.414298,   672.808167,   650.631226
-0.017635,   0.066812,   0.073316,   0.000000,   722.199463,   0.552448,   36.744282,   41.394089,   233.892105,   607.139099,   -237.033371,   0.417971,   670.725586,   646.402893
-0.016740,   0.065686,   0.072150,   0.000000,   721.714844,   0.552447,   36.744282,   40.463776,   233.344971,   613.013977,   -230.404495,   0.422227,   668.169861,   641.225891
-0.015831,   0.064363,   0.070757,   0.000000,   721.016846,   0.552448,   36.744282,   39.533463,   233.283798,   619.062378,   -222.994553,   0.427146,   665.148132,   634.987671
-0.014919,   0.062859,   0.069149,   0.000000,   720.071838,   0.552448,   36.744282,   38.603146,   233.715240,   625.175476,   -214.833572,   0.432685,   661.675598,   627.644958
-0.014012,   0.061186,   0.067342,   0.000000,   718.812439,   0.552448,   36.744282,   37.672832,   234.586304,   631.155212,   -206.024063,   0.438724,   657.772766,   619.214966
-0.013119,   0.059357,   0.065346,   0.000000,   717.156189,   0.552447,   36.744282,   36.742519,   235.801651,   636.777954,   -196.698792,   0.445109,   653.457397,   609.754333
-0.012247,   0.057396,   0.063189,   0.000000,   715.056885,   0.552450,   36.744282,   35.812202,   237.278442,   641.862183,   -187.004944,   0.451697,   648.768555,   599.358154
-0.011407,   0.055309,   0.060875,   0.000000,   712.422241,   0.552447,   36.744282,   34.881889,   238.840729,   646.243958,   -177.033356,   0.458332,   643.699585,   588.122559
-0.010590,   0.053102,   0.058411,   0.000000,   709.208496,   0.552448,   36.744282,   33.951572,   240.428513,   649.824036,   -166.847931,   0.464949,   638.244141,   576.086792
-0.009796,   0.050789,   0.055817,   0.000000,   705.387512,   0.552448,   36.744282,   33.021259,   242.003098,   652.458313,   -156.609573,   0.471452,   632.416077,   563.361938
-0.009048,   0.048394,   0.053114,   0.000000,   700.933594,   0.552448,   36.744282,   32.090942,   243.388977,   654.142517,   -146.318192,   0.477748,   626.224060,   550.083069
-0.008329,   0.045928,   0.050318,   0.000000,   695.834351,   0.552448,   36.744282,   31.160629,   244.507095,   654.879150,   -135.956573,   0.483805,   619.661499,   536.318420
-0.007637,   0.043395,   0.047437,   0.000000,   690.068359,   0.552448,   36.744282,   30.230314,   245.353561,   654.591553,   -125.606804,   0.489598,   612.709839,   522.130920
-0.006981,   0.040847,   0.044530,   0.000000,   683.736145,   0.552448,   36.744282,   29.299999,   245.905228,   653.372437,   -115.300323,   0.495095,   605.458252,   507.697418
-0.006375,   0.038276,   0.041582,   0.000000,   676.735413,   0.552448,   36.744282,   28.369686,   245.976944,   651.152954,   -104.975548,   0.500218,   597.825928,   493.135162
-0.005779,   0.035648,   0.038566,   0.000000,   668.946899,   0.552448,   36.744282,   27.439371,   245.499634,   647.822327,   -94.578751,   0.504963,   589.694092,   478.441467
-0.005212,   0.033029,   0.035557,   0.000000,   660.536987,   0.552448,   36.744282,   26.509056,   244.583466,   643.527771,   -84.113327,   0.509367,   581.186707,   463.743073
-0.004702,   0.030458,   0.032590,   0.000000,   651.553650,   0.552448,   36.744282,   25.578741,   243.105347,   638.260315,   -73.686104,   0.513289,   572.364319,   449.430481
-0.004192,   0.027878,   0.029619,   0.000000,   641.808777,   0.552448,   36.744282,   24.648426,   241.085098,   631.879822,   -63.077541,   0.516833,   563.021912,   435.254242
-0.003721,   0.025347,   0.026700,   0.000000,   631.425415,   0.552448,   36.744282,   23.718113,   238.533112,   624.420837,   -52.459988,   0.519909,   553.272583,   421.571014
-0.003273,   0.022920,   0.023906,   0.000000,   620.657715,   0.552448,   36.744282,   22.787798,   235.696396,   616.141052,   -41.698303,   0.522630,   543.301575,   408.376587
-0.002858,   0.020532,   0.021153,   0.000000,   609.089600,   0.552448,   36.744282,   21.857483,   232.212677,   606.575317,   -30.782858,   0.524796,   532.770752,   395.910797
-0.002472,   0.018242,   0.018515,   0.000000,   596.988525,   0.552448,   36.744282,   20.927168,   228.339859,   595.941162,   -19.649933,   0.526475,   521.887146,   384.252747
-0.002112,   0.016119,   0.016078,   0.000000,   584.796021,   0.552448,   36.744282,   19.996855,   224.568726,   584.585327,   -8.712441,   0.527826,   510.998291,   373.346130
-0.001792,   0.014066,   0.013718,   0.000000,   571.778076,   0.552448,   36.744282,   19.066540,   220.052658,   571.751770,   3.040633,   0.528361,   499.535248,   363.833466
-0.001499,   0.012192,   0.011573,   0.000000,   558.764893,   0.552448,   36.744282,   18.136225,   215.726379,   558.160156,   14.402886,   0.528446,   488.152771,   355.365601
-0.001255,   0.010493,   0.009627,   0.000000,   545.661743,   0.552448,   36.744282,   17.205910,   210.867599,   543.615479,   26.174177,   0.527383,   476.872406,   349.303802
-0.001042,   0.008961,   0.007877,   0.000000,   532.578979,   0.552448,   36.744282,   16.275597,   205.824158,   528.231934,   37.688499,   0.525348,   465.758453,   345.075012
-0.000856,   0.007564,   0.006287,   0.000000,   519.271667,   0.552448,   36.744282,   15.345281,   200.169357,   511.532715,   49.694157,   0.521742,   454.696442,   343.328857
-0.000704,   0.006344,   0.004903,   0.000000,   506.244904,   0.552448,   36.744282,   14.414967,   194.075226,   494.163849,   61.411194,   0.516518,   444.153290,   343.853119
-0.000578,   0.005282,   0.003703,   0.000000,   493.390656,   0.552448,   36.744282,   13.484652,   187.126251,   475.925629,   73.136299,   0.509048,   434.177399,   346.874359
-0.000475,   0.004364,   0.002672,   0.000000,   480.667786,   0.552448,   36.744282,   12.554337,   179.066177,   456.831635,   84.788124,   0.498883,   424.880951,   352.027161
-0.000392,   0.003585,   0.001801,   0.000000,   468.088715,   0.552448,   36.744282,   11.624022,   169.953644,   436.747620,   96.663719,   0.485604,   416.458282,   358.765991
-0.000329,   0.002932,   0.001078,   0.000000,   455.642792,   0.552448,   36.744282,   10.693707,   160.099274,   415.644165,   108.725952,   0.469186,   409.037292,   366.102020
-0.000289,   0.002400,   0.000495,   0.000000,   443.127655,   0.552448,   36.744282,   9.763393,   148.799332,   393.400269,   120.980095,   0.448653,   402.834808,   373.921844
-0.000293,   0.001989,   0.000051,   0.000000,   429.340363,   0.552448,   36.744282,   8.833078,   137.357483,   362.489014,   139.712036,   0.417803,   398.789581,   384.389984
-0.000308,   0.001652,   0.000000,   0.000000,   359.881378,   0.552448,   36.744282,   7.902764,   125.759605,   277.414062,   138.951065,   0.394912,   340.306854,   334.027252
-0.000323,   0.001327,   0.000000,   0.000000,   283.816101,   0.552448,   36.744282,   6.972449,   116.352028,   184.822845,   128.754868,   0.364336,   275.547119,   274.312866
-0.000322,   0.001036,   0.000000,   -2.495053,   216.732727,   0.552448,   36.744282,   6.042135,   105.397293,   108.840385,   109.600372,   0.327594,   217.990967,   217.958832
-0.000298,   0.000792,   0.000000,   -14.027044,   162.154129,   0.552448,   36.744282,   5.111820,   91.318466,   56.808624,   86.384140,   0.291125,   169.603256,   168.290802
-0.000246,   0.000599,   0.000000,   -15.302374,   121.185852,   0.552448,   36.744282,   4.181505,   74.438202,   31.445280,   64.770065,   0.272509,   129.516815,   127.459229
-0.000178,   0.000469,   0.000000,   -8.668061,   95.834602,   0.552448,   36.744282,   3.251191,   58.254280,   28.912264,   50.149410,   0.289255,   100.449524,   99.602882
-0.000140,   0.000435,   0.000000,   -2.124027,   90.719749,   0.552448,   36.744282,   2.320876,   48.588158,   40.007565,   46.223209,   0.321698,   91.800194,   91.744888
-0.012377,   0.029356,   0.030097,   -6.850673,   577.547119,   0.567390,   37.486568,   57.008831,   272.754730,   297.941742,   -291.927399,   0.327420,   581.002747,   580.911865
-0.014552,   0.034075,   0.035424,   -9.810512,   593.340942,   0.567390,   37.486568,   56.053352,   263.442749,   320.087677,   -300.242828,   0.325101,   598.306519,   598.125549
-0.016534,   0.038837,   0.040825,   -6.696774,   610.309082,   0.567390,   37.486568,   55.097878,   253.570480,   350.041840,   -304.708679,   0.327862,   613.684875,   613.602661
-0.018126,   0.043489,   0.046095,   0.000000,   627.541016,   0.567390,   37.486568,   54.142399,   246.449448,   382.717407,   -305.450806,   0.334630,   626.729614,   626.724854
-0.019442,   0.047947,   0.051139,   0.000000,   644.039307,   0.567390,   37.486568,   53.186924,   240.896225,   415.927704,   -303.251709,   0.343306,   637.743103,   637.454712
-0.020378,   0.051942,   0.055659,   0.000000,   658.806091,   0.567390,   37.486568,   52.231445,   238.281479,   445.776215,   -299.306366,   0.352671,   646.550232,   645.439331
-0.021028,   0.055466,   0.059652,   0.000000,   671.646484,   0.567390,   37.486568,   51.275970,   236.876129,   472.407440,   -294.318237,   0.361709,   653.641113,   651.196472
-0.021375,   0.058435,   0.063032,   0.000000,   682.608826,   0.567391,   37.486568,   50.320492,   236.611618,   495.737213,   -288.693970,   0.370351,   659.147827,   654.905518
-0.021453,   0.060844,   0.065800,   0.000000,   691.789551,   0.567389,   37.486568,   49.365013,   237.127625,   515.868896,   -282.815186,   0.378405,   663.307434,   656.908936
-0.021267,   0.062728,   0.067999,   0.000000,   699.415527,   0.567391,   37.486568,   48.409538,   238.206650,   533.177734,   -276.894104,   0.385874,   666.352356,   657.523254
-0.020868,   0.064089,   0.069630,   0.000000,   705.557556,   0.567390,   37.486568,   47.454060,   239.449554,   548.017334,   -270.981110,   0.392725,   668.377808,   656.943665
-0.020280,   0.064936,   0.070703,   0.000000,   710.288086,   0.567390,   37.486568,   46.498585,   240.755386,   560.455383,   -265.238281,   0.398926,   669.473511,   655.366760
-0.019552,   0.065338,   0.071289,   0.000000,   713.772888,   0.567390,   37.486568,   45.543106,   241.926773,   570.809631,   -259.724213,   0.404469,   669.797058,   653.044373
-0.018716,   0.065335,   0.071432,   0.000000,   716.131470,   0.567390,   37.486568,   44.587631,   242.856995,   579.326355,   -254.453079,   0.409391,   669.435730,   650.132507
-0.017803,   0.064974,   0.071179,   0.000000,   717.529419,   0.567390,   37.486568,   43.632153,   243.539383,   586.388245,   -249.318298,   0.413853,   668.455505,   646.680969
-0.016852,   0.064301,   0.070574,   0.000000,   718.119507,   0.567391,   37.486568,   42.676678,   243.954865,   592.417542,   -244.138123,   0.418038,   666.903015,   642.677551
-0.015866,   0.063355,   0.069660,   0.000000,   718.119995,   0.567389,   37.486568,   41.721199,   244.324036,   597.912537,   -238.649963,   0.422295,   664.808777,   637.955933
-0.014866,   0.062168,   0.068468,   0.000000,   717.668762,   0.567390,   37.486568,   40.765724,   244.763428,   603.273376,   -232.590164,   0.426891,   662.180603,   632.332886
-0.013866,   0.060769,   0.067025,   0.000000,   716.861633,   0.567390,   37.486568,   39.810246,   245.415604,   608.736572,   -225.776749,   0.432025,   659.030334,   625.630249
-0.012877,   0.059180,   0.065356,   0.000000,   715.726440,   0.567390,   37.486568,   38.854771,   246.368790,   614.336304,   -218.147263,   0.437766,   655.376282,   617.731628
-0.011909,   0.057424,   0.063482,   0.000000,   714.234863,   0.567391,   37.486568,   37.899292,   247.642166,   619.949890,   -209.744354,   0.444070,   651.242554,   608.594299
-0.010969,   0.055519,   0.061425,   0.000000,   712.328308,   0.567389,   37.486568,   36.943813,   249.197052,   625.377258,   -200.673279,   0.450819,   646.655273,   598.235168
-0.010068,   0.053484,   0.059200,   0.000000,   709.932251,   0.567391,   37.486568,   35.988338,   250.944214,   630.387695,   -191.075912,   0.457855,   641.638123,   586.727417
-0.009199,   0.051326,   0.056821,   0.000000,   706.974976,   0.567389,   37.486568,   35.032864,   252.785553,   634.798889,   -181.056900,   0.465047,   636.197266,   574.130676
-0.008373,   0.049057,   0.054297,   0.000000,   703.380249,   0.567391,   37.486568,   34.077385,   254.592880,   638.436890,   -170.721298,   0.472256,   630.329285,   560.539978
-0.007592,   0.046714,   0.051672,   0.000000,   699.178223,   0.567390,   37.486568,   33.121906,   256.346588,   641.221680,   -160.202988,   0.479395,   624.098389,   546.087097
-0.006863,   0.044307,   0.048955,   0.000000,   694.305847,   0.567390,   37.486568,   32.166431,   257.841064,   643.081665,   -149.524414,   0.486335,   617.491577,   530.921387
-0.006172,   0.041843,   0.046161,   0.000000,   688.757263,   0.567390,   37.486568,   31.210953,   259.064819,   643.979065,   -138.711411,   0.493060,   610.502930,   515.080139
-0.005522,   0.039333,   0.043300,   0.000000,   682.502380,   0.567390,   37.486568,   30.255476,   259.960449,   643.821777,   -127.844398,   0.499506,   603.117126,   498.678925
-0.004930,   0.036801,   0.040395,   0.000000,   675.537170,   0.567390,   37.486568,   29.299999,   260.376312,   642.609131,   -116.920662,   0.505583,   595.343140,   481.932343
-0.004370,   0.034254,   0.037466,   0.000000,   667.880066,   0.567390,   37.486568,   28.344522,   260.344177,   640.344666,   -105.932411,   0.511311,   587.175781,   464.877899
-0.003851,   0.031718,   0.034540,   0.000000,   659.557922,   0.567391,   37.486568,   27.389046,   259.779999,   637.057922,   -94.841995,   0.516640,   578.635071,   447.717590
-0.003389,   0.029222,   0.031646,   0.000000,   650.618713,   0.567390,   37.486568,   26.433569,   258.651611,   632.765503,   -83.653290,   0.521521,   569.754883,   430.685150
-0.002951,   0.026735,   0.028758,   0.000000,   640.932800,   0.567390,   37.486568,   25.478092,   256.947601,   627.258545,   -72.461777,   0.525932,   560.406006,   413.865204
-0.002549,   0.024299,   0.025926,   0.000000,   630.620483,   0.567390,   37.486568,   24.522615,   254.685410,   620.686279,   -61.111595,   0.529880,   550.672546,   397.450317
-0.002197,   0.021950,   0.023186,   0.000000,   619.761169,   0.567391,   37.486568,   23.567139,   251.760666,   613.065735,   -49.637928,   0.533223,   540.628296,   382.000763
-0.001867,   0.019656,   0.020511,   0.000000,   608.248413,   0.567390,   37.486568,   22.611660,   248.488541,   604.202271,   -38.152821,   0.536153,   530.128784,   367.091949
-0.001572,   0.017470,   0.017961,   0.000000,   596.244080,   0.567390,   37.486568,   21.656183,   244.531143,   594.249084,   -26.489086,   0.538357,   519.345825,   353.811127
-0.001321,   0.015404,   0.015545,   0.000000,   583.796753,   0.567390,   37.486568,   20.700708,   240.105759,   583.175049,   -14.617367,   0.539900,   508.292450,   342.136078
-0.001101,   0.013468,   0.013283,   0.000000,   571.018799,   0.567390,   37.486568,   19.745232,   235.408997,   570.994019,   -2.882213,   0.540792,   497.050659,   332.161865
-0.000906,   0.011680,   0.011198,   0.000000,   558.062012,   0.567391,   37.486568,   18.789755,   230.455185,   557.795105,   9.351408,   0.540908,   485.757690,   324.306488
-0.000756,   0.010052,   0.009295,   0.000000,   544.974670,   0.567390,   37.486568,   17.834278,   224.941589,   543.520203,   21.574759,   0.539841,   474.498718,   319.538513
-0.000635,   0.008582,   0.007580,   0.000000,   531.877930,   0.567390,   37.486568,   16.878801,   218.939270,   528.128174,   34.255482,   0.537373,   463.407043,   318.047760
-0.000546,   0.007292,   0.006075,   0.000000,   519.039734,   0.567390,   37.486568,   15.923324,   212.170334,   511.917999,   46.748703,   0.533057,   452.790009,   320.287537
-0.000476,   0.006161,   0.004763,   0.000000,   506.438751,   0.567390,   37.486568,   14.967846,   204.640778,   494.612213,   59.743000,   0.526472,   442.729004,   325.975647
-0.000433,   0.005192,   0.003641,   0.000000,   494.084503,   0.567390,   37.486568,   14.012369,   195.590485,   476.313568,   72.832115,   0.516707,   433.452881,   335.281342
-0.000406,   0.004378,   0.002705,   0.000000,   482.093140,   0.567390,   37.486568,   13.056892,   185.356140,   457.304474,   85.765465,   0.503821,   425.190826,   346.394958
-0.000390,   0.003693,   0.001925,   0.000000,   470.149658,   0.567390,   37.486568,   12.101416,   173.779190,   437.220886,   98.788223,   0.487332,   417.921967,   358.370117
-0.000379,   0.003112,   0.001272,   0.000000,   458.049896,   0.567390,   37.486568,   11.145939,   161.267807,   416.118530,   111.554802,   0.467631,   411.568726,   369.532196
-0.000371,   0.002622,   0.000731,   0.000000,   445.642487,   0.567390,   37.486568,   10.190462,   148.192780,   393.661224,   124.345528,   0.444681,   406.174744,   379.244141
-0.000376,   0.002216,   0.000293,   0.000000,   432.189697,   0.567390,   37.486568,   9.234985,   134.780258,   366.590393,   139.677689,   0.415639,   402.087860,   388.358154
-0.000378,   0.001854,   0.000000,   0.000000,   401.578583,   0.567390,   37.486568,   8.279508,   125.848801,   316.783142,   152.907242,   0.385527,   382.706909,   377.705322
-0.000399,   0.001517,   0.000000,   0.000000,   322.352417,   0.567390,   37.486568,   7.324031,   107.761002,   227.538483,   142.640305,   0.353604,   316.077820,   315.480347
-0.000395,   0.001205,   0.000000,   -7.688612,   250.794556,   0.567390,   37.486568,   6.368554,   94.534554,   148.571396,   126.385887,   0.318128,   254.725906,   254.464645
-0.000367,   0.000934,   0.000000,   -19.935638,   190.121109,   0.567390,   37.486568,   5.413077,   81.295509,   88.889961,   104.959709,   0.282467,   200.832397,   198.587997
-0.000314,   0.000715,   0.000000,   -22.864683,   143.334656,   0.567390,   37.486568,   4.457601,   67.442375,   53.027592,   82.786522,   0.257367,   156.028580,   152.190887
-0.000243,   0.000555,   0.000000,   -17.575026,   111.225761,   0.567390,   37.486568,   3.502124,   54.107971,   39.542763,   63.987297,   0.258045,   120.974571,   118.051071
-0.000176,   0.000461,   0.000000,   -8.634604,   94.140755,   0.567390,   37.486568,   2.546647,   44.181870,   41.324284,   51.367813,   0.288653,   98.741615,   97.886826
-0.000140,   0.000435,   0.000000,   -2.107122,   90.800690,   0.567390,   37.486568,   1.591170,   42.895657,   45.797913,   46.431236,   0.321800,   91.872375,   91.817986
-0.007012,   0.015893,   0.015245,   -20.505972,   514.978027,   0.582331,   38.228855,   57.738537,   209.537369,   284.934662,   -265.074677,   0.313633,   525.531128,   524.629822
-0.010231,   0.021965,   0.022038,   -33.418957,   539.069458,   0.582333,   38.228855,   56.757896,   200.710938,   304.939575,   -281.460205,   0.302858,   556.531982,   554.267700
-0.013619,   0.028490,   0.029363,   -39.087502,   562.607788,   0.582333,   38.228855,   55.777256,   194.175217,   329.345093,   -293.157959,   0.299256,   583.134888,   580.176514
-0.016652,   0.035087,   0.036749,   -34.710999,   586.926025,   0.582332,   38.228855,   54.796619,   192.894272,   359.320770,   -299.472382,   0.304236,   605.028748,   602.782471
-0.019004,   0.041269,   0.043645,   -23.518217,   610.175354,   0.582332,   38.228855,   53.815979,   195.035156,   391.621979,   -301.214691,   0.314258,   622.267883,   621.266785
-0.020555,   0.046745,   0.049751,   -8.159581,   631.393616,   0.582332,   38.228855,   52.835342,   200.306808,   422.927246,   -299.778442,   0.326893,   635.512695,   635.394836
-0.021507,   0.051444,   0.055011,   0.000000,   649.918701,   0.582333,   38.228855,   51.854702,   206.633377,   451.864136,   -296.301697,   0.339955,   645.672058,   645.543884
-0.021924,   0.055297,   0.059362,   0.000000,   665.514771,   0.582333,   38.228855,   50.874062,   213.268143,   477.434021,   -291.648590,   0.352425,   653.285400,   652.191589
-0.021894,   0.058319,   0.062820,   0.000000,   678.432617,   0.582331,   38.228855,   49.893421,   219.882141,   499.732300,   -286.257080,   0.364099,   658.807739,   655.902527
-0.021519,   0.060578,   0.065464,   0.000000,   688.967651,   0.582333,   38.228855,   48.912785,   226.247345,   518.927002,   -280.501831,   0.374843,   662.654541,   657.259460
-0.020878,   0.062169,   0.067392,   0.000000,   697.410889,   0.582333,   38.228855,   47.932144,   232.112106,   535.324158,   -274.624725,   0.384582,   665.168396,   656.798950
-0.020030,   0.063169,   0.068687,   0.000000,   704.083191,   0.582332,   38.228855,   46.951504,   237.522369,   549.286438,   -268.741699,   0.393455,   666.581543,   654.883179
-0.019041,   0.063638,   0.069408,   0.000000,   709.146240,   0.582332,   38.228855,   45.970867,   242.357834,   560.993896,   -262.974884,   0.401444,   667.051453,   651.833130
-0.017952,   0.063639,   0.069618,   0.000000,   712.768555,   0.582332,   38.228855,   44.990227,   246.581161,   570.630249,   -257.416138,   0.408579,   666.711060,   647.921753
-0.016803,   0.063231,   0.069377,   0.000000,   715.136414,   0.582333,   38.228855,   44.009590,   250.211426,   578.481323,   -252.060211,   0.414971,   665.662659,   643.327637
-0.015626,   0.062456,   0.068721,   0.000000,   716.403015,   0.582333,   38.228855,   43.028946,   253.287003,   584.884033,   -246.796600,   0.420802,   663.947144,   638.095459
-0.014434,   0.061359,   0.067698,   0.000000,   716.786316,   0.582331,   38.228855,   42.048309,   255.997238,   590.311829,   -241.408478,   0.426393,   661.603088,   632.126892
-0.013253,   0.059994,   0.066361,   0.000000,   716.480347,   0.582333,   38.228855,   41.067673,   258.486084,   595.242493,   -235.640076,   0.432047,   658.669495,   625.270996
-0.012098,   0.058400,   0.064749,   0.000000,   715.634094,   0.582332,   38.228855,   40.087032,   260.914429,   600.071716,   -229.234528,   0.438051,   655.164429,   617.303406
-0.010979,   0.056610,   0.062897,   0.000000,   714.322083,   0.582333,   38.228855,   39.106392,   263.387268,   605.006226,   -222.023254,   0.444574,   651.104797,   608.027100
-0.009906,   0.054653,   0.060832,   0.000000,   712.546082,   0.582332,   38.228855,   38.125751,   265.932129,   610.046448,   -213.957413,   0.451643,   646.512878,   597.325928
-0.008886,   0.052555,   0.058584,   0.000000,   710.262024,   0.582332,   38.228855,   37.145115,   268.509979,   615.046326,   -205.089600,   0.459167,   641.419373,   585.177307
-0.007925,   0.050336,   0.056173,   0.000000,   707.394104,   0.582333,   38.228855,   36.164474,   271.028809,   619.781128,   -195.528137,   0.466994,   635.846252,   571.628296
-0.007023,   0.048022,   0.053631,   0.000000,   703.906006,   0.582332,   38.228855,   35.183834,   273.415833,   624.061340,   -185.397812,   0.474977,   629.839294,   556.772644
-0.006188,   0.045636,   0.050981,   0.000000,   699.745239,   0.582332,   38.228855,   34.203197,   275.556488,   627.689514,   -174.829178,   0.482949,   623.423889,   540.750732
-0.005418,   0.043190,   0.048240,   0.000000,   694.874084,   0.582333,   38.228855,   33.222557,   277.393250,   630.503906,   -163.930801,   0.490802,   616.607300,   523.663147
-0.004709,   0.040693,   0.045417,   0.000000,   689.246460,   0.582332,   38.228855,   32.241917,   278.804291,   632.383728,   -152.770645,   0.498422,   609.381897,   505.651001
-0.004061,   0.038164,   0.042536,   0.000000,   682.869385,   0.582332,   38.228855,   31.261278,   279.777527,   633.262817,   -141.407181,   0.505763,   601.757874,   486.801819
-0.003471,   0.035641,   0.039646,   0.000000,   675.830078,   0.582332,   38.228855,   30.280640,   280.315765,   633.146545,   -129.930588,   0.512765,   593.815125,   467.309357
-0.002947,   0.033116,   0.036731,   0.000000,   668.040161,   0.582332,   38.228855,   29.300001,   280.272064,   631.935547,   -118.322464,   0.519354,   585.475586,   447.305298
-0.002467,   0.030622,   0.033843,   0.000000,   659.626282,   0.582333,   38.228855,   28.319361,   279.756958,   629.710144,   -106.603088,   0.525560,   576.823792,   426.864960
-0.002051,   0.028166,   0.030980,   0.000000,   650.542603,   0.582332,   38.228855,   27.338722,   278.662537,   626.388916,   -94.774849,   0.531308,   567.812988,   406.208557
-0.001682,   0.025726,   0.028121,   0.000000,   640.673462,   0.582332,   38.228855,   26.358082,   276.892822,   621.823792,   -82.807854,   0.536555,   558.325439,   385.499237
-0.001353,   0.023365,   0.025349,   0.000000,   630.282288,   0.582332,   38.228855,   25.377443,   274.638550,   616.196777,   -70.777359,   0.541314,   548.563354,   365.006287
-0.001083,   0.021080,   0.022650,   0.000000,   619.286865,   0.582332,   38.228855,   24.396805,   271.758606,   609.401794,   -58.611763,   0.545501,   538.441345,   345.135956
-0.000850,   0.018862,   0.020023,   0.000000,   607.632385,   0.582332,   38.228855,   23.416164,   268.192749,   601.314697,   -46.308563,   0.549042,   527.893860,   326.383453
-0.000658,   0.016774,   0.017543,   0.000000,   595.655029,   0.582333,   38.228855,   22.435526,   264.198517,   592.171692,   -33.979176,   0.551942,   517.185730,   309.252655
-0.000515,   0.014787,   0.015172,   0.000000,   583.145203,   0.582332,   38.228855,   21.454885,   259.457214,   581.723511,   -21.451805,   0.553994,   506.130890,   294.808838
-0.000398,   0.012928,   0.012952,   0.000000,   570.321655,   0.582332,   38.228855,   20.474247,   254.227280,   570.071960,   -8.884522,   0.555200,   494.896484,   283.523315
-0.000327,   0.011225,   0.010910,   0.000000,   557.368286,   0.582332,   38.228855,   19.493608,   248.265564,   557.320374,   3.848235,   0.555206,   483.655640,   277.057953
-0.000277,   0.009671,   0.009047,   0.000000,   544.364075,   0.582333,   38.228855,   18.512968,   241.855209,   543.416687,   16.929014,   0.554020,   472.469330,   275.108185
-0.000258,   0.008276,   0.007371,   0.000000,   531.419495,   0.582332,   38.228855,   17.532330,   234.418289,   528.331177,   30.285978,   0.550914,   461.505127,   279.372864
-0.000257,   0.007048,   0.005899,   0.000000,   518.750854,   0.582333,   38.228855,   16.551691,   226.000061,   512.082703,   44.182667,   0.545476,   451.032501,   289.174713
-0.000276,   0.006006,   0.004651,   0.000000,   506.641815,   0.582333,   38.228855,   15.571051,   216.247192,   494.936859,   58.301430,   0.536985,   441.467773,   303.860138
-0.000306,   0.005138,   0.003618,   0.000000,   495.123810,   0.582332,   38.228855,   14.590412,   205.263580,   476.831543,   72.816208,   0.525032,   433.049561,   321.394470
-0.000343,   0.004419,   0.002770,   0.000000,   483.920319,   0.582332,   38.228855,   13.609773,   192.793564,   457.745819,   87.293190,   0.509262,   425.805634,   339.901276
-0.000385,   0.003831,   0.002083,   0.000000,   472.844849,   0.582332,   38.228855,   12.629134,   179.174698,   437.838440,   101.391975,   0.489974,   419.758850,   357.326416
-0.000427,   0.003344,   0.001524,   0.000000,   461.597290,   0.582332,   38.228855,   11.648495,   164.826492,   417.032776,   115.001923,   0.467632,   414.755798,   372.392700
-0.000469,   0.002924,   0.001053,   0.000000,   449.597778,   0.582332,   38.228855,   10.667855,   149.581421,   394.762726,   128.263077,   0.442008,   410.508575,   384.736755
-0.000509,   0.002534,   0.000630,   0.000000,   435.448273,   0.582332,   38.228855,   9.687216,   132.473816,   368.060883,   142.886887,   0.410111,   406.828827,   394.859833
-0.000534,   0.002152,   0.000232,   0.000000,   418.212830,   0.582332,   38.228855,   8.706576,   114.818825,   334.476990,   159.389297,   0.371101,   403.570068,   400.863678
-0.000538,   0.001773,   0.000000,   -1.336796,   371.903198,   0.582332,   38.228855,   7.725937,   96.149872,   274.416534,   163.958145,   0.331538,   372.573395,   372.568024
-0.000529,   0.001416,   0.000000,   -24.030455,   290.162659,   0.582332,   38.228855,   6.745298,   74.268822,   191.863373,   145.678436,   0.292877,   302.893646,   300.737762
-0.000489,   0.001099,   0.000000,   -36.709667,   219.774963,   0.582332,   38.228855,   5.764659,   57.461628,   125.603668,   123.633560,   0.254001,   240.242584,   233.807510
-0.000419,   0.000835,   0.000000,   -38.826138,   163.632294,   0.582332,   38.228855,   4.784020,   44.592999,   80.213150,   99.650162,   0.223537,   186.108047,   176.647736
-0.000331,   0.000637,   0.000000,   -32.211758,   124.048950,   0.582332,   38.228855,   3.803381,   35.298100,   56.539097,   77.405151,   0.214216,   142.904083,   134.366669
-0.000244,   0.000508,   0.000000,   -21.049747,   100.462471,   0.582332,   38.228855,   2.822742,   29.271770,   50.140953,   59.853355,   0.235350,   112.474480,   107.908524
-0.000177,   0.000434,   0.000000,   -10.784615,   87.960823,   0.582332,   38.228855,   1.842103,   25.897076,   51.279137,   47.713764,   0.274202,   93.819183,   92.409203
-0.000125,   0.000353,   0.000000,   -4.412694,   72.713135,   0.582332,   38.228855,   0.861463,   24.888321,   43.412121,   37.434151,   0.303489,   75.016884,   74.724045
