MinPrincipalStrain,MaxPrincipalStrain,EqPlasticStrain,MinPrincipalStress,MaxPrincipalStress,ElemVolume,IntegrationPoint_CoordX,IntegrationPoint_CoordY,Stress_xx,Stress_yy,Stress_xy,StressTriaxility,MisesStress,ThirdInvStress
-0.040429,   0.018629,   0.042680,   -603.679443,   31.707838,   0.582331,   0.371144,   57.738537,   -232.809799,   -339.161835,   -313.211700,   -0.307441,   620.141663,   -618.313904
-0.052151,   0.024618,   0.055914,   -632.112610,   35.253822,   0.582334,   0.371144,   56.757896,   -234.105682,   -362.753082,   -327.424713,   -0.305867,   650.456360,   -648.301697
-0.063931,   0.029940,   0.069195,   -663.437073,   22.714014,   0.582334,   0.371144,   55.777256,   -237.961029,   -402.762054,   -333.033020,   -0.316369,   675.080750,   -674.220215
-0.074437,   0.033299,   0.080990,   -696.741394,   0.000000,   0.582333,   0.371144,   54.796619,   -246.872314,   -457.899323,   -327.792114,   -0.339112,   692.761169,   -692.656433
-0.082372,   0.034084,   0.089929,   -728.196045,   0.000000,   0.582333,   0.371144,   53.815979,   -259.641693,   -521.630066,   -311.106720,   -0.370361,   703.162109,   -698.634033
-0.087120,   0.032584,   0.095454,   -754.264099,   0.000000,   0.582333,   0.371144,   52.835342,   -274.696075,   -585.894470,   -284.156128,   -0.405678,   707.121948,   -688.792236
-0.088612,   0.029494,   0.097540,   -772.245605,   0.000000,   0.582334,   0.371144,   51.854702,   -289.426575,   -643.034119,   -249.771408,   -0.440312,   705.908447,   -663.124084
-0.086937,   0.025582,   0.096209,   -780.659546,   0.000000,   0.582334,   0.371144,   50.874062,   -300.852966,   -687.008301,   -211.977524,   -0.470119,   700.434021,   -625.704163
-0.082052,   0.021440,   0.091224,   -778.550110,   0.000000,   0.582331,   0.371144,   49.893421,   -304.260834,   -713.133789,   -176.142715,   -0.490910,   690.821655,   -586.509399
-0.073276,   0.017387,   0.081548,   -764.104614,   0.000000,   0.582334,   0.371144,   48.912785,   -294.466858,   -717.484924,   -147.967407,   -0.499577,   675.205811,   -558.153809
-0.059992,   0.014064,   0.066171,   -716.268250,   0.000000,   0.582334,   0.371144,   47.932144,   -273.601685,   -602.873596,   -224.044693,   -0.448702,   651.118530,   -604.340271
-0.045203,   0.011977,   0.051228,   -471.592407,   259.273438,   0.582333,   0.371144,   46.951504,   -195.814072,   -16.504889,   -354.264404,   -0.110274,   641.789307,   -501.851257
-0.036931,   0.013039,   0.044284,   -404.703735,   321.665955,   0.582333,   0.371144,   45.970867,   -116.670578,   33.632816,   -355.324432,   -0.043906,   630.423279,   -366.469208
-0.033453,   0.016105,   0.039148,   -437.567535,   271.975037,   0.582333,   0.371144,   44.990227,   -98.211121,   -67.381378,   -354.436249,   -0.089023,   620.034851,   -453.424133
-0.033104,   0.021829,   0.038875,   -367.120148,   347.830078,   0.582334,   0.371144,   44.009590,   -61.543106,   42.253033,   -353.687775,   -0.010384,   619.240173,   -223.015137
-0.034769,   0.027128,   0.040463,   -392.519165,   327.918182,   0.582334,   0.371144,   43.028946,   -50.687645,   -13.913317,   -359.749084,   -0.034467,   624.752563,   -335.273010
-0.037911,   0.032676,   0.044924,   -363.675201,   370.401093,   0.582331,   0.371144,   42.048309,   -37.974045,   44.699951,   -364.702972,   0.003527,   635.737610,   159.757202
-0.040569,   0.036746,   0.049006,   -376.895264,   368.943268,   0.582334,   0.371144,   41.067673,   -32.073971,   24.122000,   -371.859222,   -0.004104,   645.927368,   -170.727585
-0.043145,   0.040787,   0.053234,   -359.971588,   396.102386,   0.582333,   0.371144,   40.087032,   -24.594225,   60.725014,   -375.622314,   0.018386,   655.028442,   285.331299
-0.046117,   0.044642,   0.057693,   -366.022491,   401.072693,   0.582334,   0.371144,   39.106392,   -22.305027,   57.355209,   -381.473877,   0.017581,   664.555054,   285.198242
-0.048918,   0.048191,   0.061901,   -359.015961,   417.076416,   0.582333,   0.371144,   38.125751,   -17.559044,   75.619499,   -385.239258,   0.028768,   672.742371,   340.039886
-0.051063,   0.051026,   0.065203,   -361.552795,   421.882660,   0.582333,   0.371144,   37.145115,   -14.144053,   74.473915,   -389.203674,   0.029611,   679.145264,   346.578552
-0.052861,   0.053380,   0.067969,   -356.912537,   431.850555,   0.582334,   0.371144,   36.164474,   -10.508086,   85.446129,   -391.452423,   0.036513,   684.115723,   374.200256
-0.054353,   0.055261,   0.070215,   -358.188843,   435.213348,   0.582333,   0.371144,   35.183834,   -8.516879,   85.541397,   -393.903564,   0.037308,   688.184937,   379.115082
-0.055433,   0.056827,   0.071990,   -353.943054,   442.580841,   0.582333,   0.371144,   34.203197,   -4.604639,   93.242424,   -395.245575,   0.042744,   691.232178,   398.281708
-0.056043,   0.057847,   0.073087,   -353.088379,   445.553284,   0.582334,   0.371144,   33.222557,   -1.189730,   93.654625,   -396.494965,   0.044464,   693.187378,   404.633636
-0.056176,   0.058392,   0.073557,   -347.388733,   451.634735,   0.582333,   0.371144,   32.241917,   3.345952,   100.900070,   -396.522919,   0.050075,   693.934937,   421.214172
-0.055920,   0.058499,   0.073473,   -345.915710,   452.940491,   0.582333,   0.371144,   31.261278,   7.733014,   99.291763,   -396.795990,   0.051412,   693.896240,   424.850067
-0.055101,   0.058083,   0.072677,   -335.970612,   460.322601,   0.582333,   0.371144,   30.280640,   13.951897,   110.400070,   -395.215332,   0.059865,   692.407410,   445.578552
-0.053977,   0.057315,   0.071439,   -335.009277,   459.032501,   0.582333,   0.371144,   29.300001,   20.050758,   103.972466,   -394.797241,   0.059875,   690.450684,   444.345825
-0.052207,   0.055961,   0.069394,   -318.454773,   469.552002,   0.582333,   0.371144,   28.319361,   29.355518,   121.741699,   -391.286163,   0.073355,   686.602905,   471.951141
-0.050066,   0.054335,   0.066944,   -306.915466,   474.747955,   0.582333,   0.371144,   27.338722,   39.880436,   127.952057,   -388.342987,   0.082015,   682.121826,   485.973511
-0.047613,   0.052174,   0.063895,   -310.833282,   465.536987,   0.582333,   0.371144,   26.358082,   52.619812,   102.083893,   -387.396484,   0.076195,   676.791260,   470.930603
-0.043527,   0.049480,   0.059753,   -174.001419,   559.247864,   0.582333,   0.371144,   25.377443,   90.734993,   294.511475,   -352.182373,   0.193518,   663.584717,   609.006409
-0.039305,   0.048451,   0.057814,   -20.123667,   639.991028,   0.582333,   0.371144,   24.396805,   147.539047,   472.328308,   -287.342712,   0.317741,   650.286438,   649.585327
-0.035526,   0.049141,   0.057986,   0.000000,   667.786621,   0.582333,   0.371144,   23.416164,   187.983871,   522.361816,   -264.149994,   0.365654,   647.556824,   644.398926
-0.032538,   0.051435,   0.059839,   0.000000,   679.444519,   0.582333,   0.371144,   22.435526,   206.464340,   535.292542,   -261.114960,   0.380078,   650.530457,   643.764771
-0.030263,   0.055102,   0.062970,   0.000000,   688.148010,   0.582333,   0.371144,   21.454885,   216.406860,   540.613892,   -263.814178,   0.384415,   656.427063,   648.223511
-0.028717,   0.059524,   0.066817,   0.000000,   695.654419,   0.582333,   0.371144,   20.474247,   221.728851,   543.440430,   -268.585358,   0.384333,   663.633240,   655.366943
-0.027794,   0.064442,   0.071155,   0.000000,   702.366028,   0.582333,   0.371144,   19.493608,   224.455002,   544.519592,   -274.657135,   0.381695,   671.543823,   664.050903
-0.027887,   0.069534,   0.075945,   0.000000,   708.303162,   0.582334,   0.371144,   18.512968,   225.089096,   543.870483,   -281.879761,   0.376937,   680.006958,   673.880310
-0.028241,   0.074031,   0.080605,   0.000000,   713.216431,   0.582333,   0.371144,   17.532330,   225.509445,   541.312683,   -289.549042,   0.371532,   687.981689,   683.259338
-0.028481,   0.077489,   0.084470,   0.000000,   716.309509,   0.582333,   0.371144,   16.551691,   225.122818,   537.143555,   -296.654572,   0.365873,   694.472473,   691.038818
-0.028803,   0.080778,   0.088349,   0.000000,   719.656250,   0.582333,   0.371144,   15.571051,   224.812531,   534.516357,   -302.680206,   0.361243,   700.662781,   698.129089
-0.029395,   0.084204,   0.092393,   0.000000,   723.782593,   0.582333,   0.371144,   14.590412,   224.884689,   534.322449,   -307.443085,   0.358081,   706.736450,   704.734802
-0.030298,   0.087271,   0.095932,   0.000000,   727.369019,   0.582333,   0.371144,   13.609773,   224.741928,   534.753845,   -311.148865,   0.355644,   711.849548,   710.215698
-0.031367,   0.089580,   0.098521,   0.000000,   729.514893,   0.582333,   0.371144,   12.629134,   224.110764,   534.187195,   -314.196442,   0.353243,   715.557617,   714.253357
-0.032424,   0.090856,   0.099883,   0.000000,   729.681213,   0.582333,   0.371144,   11.648495,   222.991852,   531.415405,   -316.952972,   0.350412,   717.637756,   716.678467
-0.033379,   0.090961,   0.099886,   0.000000,   727.544678,   0.582333,   0.371144,   10.667855,   221.216019,   525.810425,   -319.599487,   0.346808,   718.002075,   717.407104
-0.034078,   0.089813,   0.098470,   0.000000,   722.997131,   0.582333,   0.371144,   9.687216,   218.899582,   517.118835,   -322.153290,   0.342378,   716.575195,   716.308960
-0.034437,   0.087345,   0.095579,   0.000000,   715.803711,   0.582333,   0.371144,   8.706576,   215.975555,   505.010803,   -324.592438,   0.336960,   713.226562,   713.184204
-0.034291,   0.083501,   0.091177,   -3.968466,   705.767029,   0.582333,   0.371144,   7.725937,   212.669434,   489.129120,   -326.838837,   0.330526,   707.759583,   707.734558
-0.033530,   0.078202,   0.085180,   -14.484687,   692.444580,   0.582333,   0.371144,   6.745298,   209.039658,   468.920227,   -328.713806,   0.322931,   699.799377,   699.461914
-0.032007,   0.071416,   0.077555,   -25.722561,   675.598999,   0.582333,   0.371144,   5.764659,   205.563354,   444.313080,   -329.715973,   0.314488,   688.820557,   687.738708
-0.029520,   0.063282,   0.068447,   -35.793396,   655.650757,   0.582333,   0.371144,   4.784020,   203.464890,   416.392487,   -328.921295,   0.306438,   674.260376,   672.117859
-0.025875,   0.053942,   0.057981,   -43.148209,   632.551819,   0.582333,   0.371144,   3.803381,   203.785675,   385.617950,   -325.387299,   0.299863,   655.192383,   651.984253
-0.021196,   0.043854,   0.046632,   -45.025803,   607.085571,   0.582333,   0.371144,   2.822742,   207.343719,   354.716034,   -317.620300,   0.297007,   630.804810,   627.174072
-0.015937,   0.033773,   0.035255,   -37.240963,   581.275513,   0.582333,   0.371144,   1.842103,   216.668564,   327.365997,   -304.264984,   0.301858,   600.762329,   598.157043
-0.010947,   0.024432,   0.024738,   -21.556448,   554.444397,   0.582333,   0.371144,   0.861463,   227.488007,   305.399963,   -285.353607,   0.314093,   565.530884,   564.605408
-0.059580,   0.025445,   0.063892,   -657.810547,   8.357331,   0.567391,   1.113431,   57.008831,   -305.373932,   -344.079254,   -332.521240,   -0.327001,   662.028748,   -661.910034
-0.068032,   0.029053,   0.073562,   -678.398499,   4.013085,   0.567391,   1.113431,   56.053352,   -289.970490,   -384.414948,   -337.922272,   -0.330380,   680.413940,   -680.387268
-0.076758,   0.032165,   0.083580,   -702.408630,   0.000000,   0.567391,   1.113431,   55.097878,   -271.526123,   -442.906799,   -334.387177,   -0.341928,   696.474304,   -696.240723
-0.085045,   0.034200,   0.093061,   -727.738831,   0.000000,   0.567391,   1.113431,   54.142399,   -256.757996,   -511.293732,   -319.282776,   -0.361380,   708.443115,   -705.855591
-0.092228,   0.035005,   0.101275,   -752.141296,   0.000000,   0.567391,   1.113431,   53.186924,   -249.967529,   -580.686218,   -293.428436,   -0.386645,   716.120300,   -706.340027
-0.097112,   0.034418,   0.106943,   -772.193176,   0.000000,   0.567391,   1.113431,   52.231445,   -251.441818,   -641.739380,   -260.641510,   -0.413872,   719.370728,   -695.926270
-0.098764,   0.032492,   0.109050,   -785.326172,   0.000000,   0.567391,   1.113431,   51.275970,   -258.418793,   -688.318420,   -226.084305,   -0.439309,   718.352600,   -675.720093
-0.096585,   0.029579,   0.106847,   -788.923523,   0.000000,   0.567392,   1.113431,   50.320492,   -263.148895,   -716.520020,   -195.110062,   -0.458034,   712.952087,   -651.735229
-0.089652,   0.025915,   0.099134,   -782.038879,   0.000000,   0.567390,   1.113431,   49.365013,   -266.165833,   -723.477295,   -173.811234,   -0.470142,   701.662109,   -626.770325
-0.077128,   0.021998,   0.084759,   -750.976929,   0.000000,   0.567392,   1.113431,   48.409538,   -239.920349,   -673.585571,   -198.875214,   -0.444955,   684.343811,   -638.717529
-0.060609,   0.018547,   0.067179,   -586.800232,   151.287857,   0.567391,   1.113431,   47.454060,   -227.733810,   -207.778580,   -368.909149,   -0.214980,   675.276489,   -635.445618
-0.050900,   0.019134,   0.061390,   -425.128082,   337.461334,   0.567391,   1.113431,   46.498585,   -168.254074,   80.587326,   -360.423553,   -0.044151,   661.874878,   -385.457855
-0.046276,   0.021618,   0.055643,   -488.181763,   255.611603,   0.567391,   1.113431,   45.543106,   -175.830185,   -56.739971,   -367.098785,   -0.118437,   654.556091,   -523.145508
-0.042597,   0.024605,   0.050517,   -424.366058,   315.641846,   0.567391,   1.113431,   44.587631,   -143.413788,   34.689583,   -359.127716,   -0.056348,   643.167175,   -405.791412
-0.042937,   0.029543,   0.049960,   -430.413208,   310.109406,   0.567391,   1.113431,   43.632153,   -126.593071,   6.289270,   -364.251282,   -0.062257,   644.126160,   -419.834076
-0.043995,   0.033903,   0.050962,   -404.696899,   341.745148,   0.567392,   1.113431,   42.676678,   -100.794830,   37.843086,   -366.727173,   -0.032422,   647.203674,   -340.358307
-0.046414,   0.038490,   0.054506,   -403.061188,   353.864746,   0.567390,   1.113431,   41.721199,   -84.680946,   35.484482,   -373.663330,   -0.024999,   655.978455,   -316.468018
-0.047944,   0.041917,   0.057356,   -389.818298,   374.902283,   0.567391,   1.113431,   40.765724,   -68.628441,   53.712437,   -377.435516,   -0.007507,   662.309448,   -214.090530
-0.050629,   0.046197,   0.061761,   -384.992645,   390.296295,   0.567391,   1.113431,   39.810246,   -57.415257,   62.718929,   -382.962372,   0.002633,   671.425171,   153.068146
-0.052912,   0.049517,   0.065404,   -378.624969,   404.713928,   0.567391,   1.113431,   38.854771,   -47.575142,   73.664093,   -386.949890,   0.012817,   678.516785,   262.110840
-0.054570,   0.052178,   0.068241,   -375.339081,   414.111084,   0.567392,   1.113431,   37.899292,   -38.976635,   77.748657,   -390.386597,   0.018896,   683.958679,   300.654694
-0.056258,   0.054732,   0.071050,   -370.302368,   424.779083,   0.567390,   1.113431,   36.943813,   -30.269409,   84.746132,   -393.359222,   0.026352,   689.099304,   338.314087
-0.057789,   0.057115,   0.073662,   -367.411041,   432.818756,   0.567392,   1.113431,   35.988338,   -22.446705,   87.854416,   -396.295776,   0.031425,   693.790527,   361.101624
-0.058888,   0.058936,   0.075617,   -362.914429,   440.864136,   0.567390,   1.113431,   35.032864,   -15.142138,   93.091835,   -398.229004,   0.037269,   697.182861,   383.938721
-0.059612,   0.060415,   0.077107,   -359.312561,   447.143341,   0.567392,   1.113431,   34.077385,   -7.657659,   95.488441,   -399.916229,   0.041837,   699.790588,   400.371002
-0.060065,   0.061589,   0.078219,   -354.126953,   454.067963,   0.567391,   1.113431,   33.121906,   0.368889,   99.572136,   -401.041687,   0.047476,   701.698914,   418.533295
-0.060156,   0.062374,   0.078836,   -349.296204,   459.694458,   0.567391,   1.113431,   32.166431,   7.895272,   102.502998,   -401.719818,   0.052363,   702.777588,   432.879883
-0.060061,   0.062970,   0.079207,   -343.842896,   465.392151,   0.567391,   1.113431,   31.210953,   16.390461,   105.158791,   -402.175812,   0.057597,   703.448303,   447.014252
-0.059457,   0.063046,   0.078898,   -336.631683,   471.327026,   0.567391,   1.113431,   30.255476,   24.546251,   110.149078,   -401.705566,   0.063872,   702.946411,   462.005096
-0.058782,   0.063082,   0.078524,   -329.907990,   476.671112,   0.567391,   1.113431,   29.299999,   34.063480,   112.699661,   -401.368347,   0.069652,   702.361877,   474.774750
-0.057662,   0.062637,   0.077533,   -321.887939,   481.919617,   0.567391,   1.113431,   28.344522,   43.137188,   116.894493,   -400.208221,   0.076129,   700.701416,   487.433380
-0.056162,   0.061996,   0.076201,   -303.330536,   495.186432,   0.567391,   1.113431,   27.389046,   53.769257,   138.086639,   -397.026428,   0.091601,   698.157715,   515.189636
-0.055211,   0.061831,   0.075526,   -311.089172,   487.637207,   0.567391,   1.113431,   26.433569,   65.715736,   110.832298,   -398.725586,   0.084393,   697.327209,   501.359406
-0.052023,   0.059674,   0.072171,   -241.513260,   536.197266,   0.567391,   1.113431,   25.478092,   75.816307,   218.867676,   -382.220459,   0.142474,   689.445312,   582.175110
-0.047835,   0.057781,   0.069239,   -104.580032,   616.965515,   0.567391,   1.113431,   24.522615,   98.911667,   413.473785,   -324.683929,   0.252896,   675.355957,   656.767395
-0.043645,   0.057191,   0.068193,   -12.770830,   661.018127,   0.567391,   1.113431,   23.567139,   136.800186,   511.447113,   -280.013947,   0.323721,   667.495178,   667.220215
-0.039719,   0.057479,   0.068020,   0.000000,   677.553894,   0.567391,   1.113431,   22.611660,   164.479797,   537.051697,   -268.492126,   0.351175,   665.888916,   664.916626
-0.036435,   0.059103,   0.069027,   0.000000,   688.102417,   0.567391,   1.113431,   21.656183,   185.196152,   546.449646,   -266.904602,   0.365423,   667.396912,   664.189697
-0.033995,   0.062036,   0.071178,   0.000000,   696.512756,   0.567390,   1.113431,   20.700708,   199.865662,   550.623962,   -269.175110,   0.372736,   671.154175,   666.244568
-0.032464,   0.066005,   0.074298,   0.000000,   703.967834,   0.567391,   1.113431,   19.745232,   210.037292,   552.477539,   -273.542847,   0.375662,   676.596802,   670.862244
-0.031627,   0.070745,   0.078184,   0.000000,   710.968567,   0.567391,   1.113431,   18.789755,   217.195801,   553.202087,   -279.107117,   0.375880,   683.195251,   677.343262
-0.031485,   0.075810,   0.082883,   0.000000,   718.020142,   0.567391,   1.113431,   17.834278,   224.089859,   551.601379,   -286.704132,   0.374192,   690.991943,   685.545898
-0.031529,   0.079989,   0.087165,   0.000000,   723.345581,   0.567391,   1.113431,   16.878801,   229.330887,   547.961487,   -294.350647,   0.371233,   697.937561,   693.223633
-0.031578,   0.083360,   0.090952,   0.000000,   727.462280,   0.567391,   1.113431,   15.923324,   232.686462,   544.608521,   -300.785004,   0.368105,   703.870178,   699.884827
-0.031962,   0.086779,   0.094975,   0.000000,   731.799438,   0.567391,   1.113431,   14.967846,   235.030411,   542.905823,   -306.327454,   0.365302,   709.856445,   706.471313
-0.032700,   0.090165,   0.098942,   0.000000,   735.980835,   0.567391,   1.113431,   14.012369,   236.757187,   542.062439,   -311.140869,   0.362820,   715.523865,   712.630066
-0.033556,   0.092998,   0.102215,   0.000000,   739.304626,   0.567391,   1.113431,   13.056892,   238.288605,   541.141052,   -315.092255,   0.360806,   720.081055,   717.559265
-0.034351,   0.094903,   0.104386,   0.000000,   741.212646,   0.567391,   1.113431,   12.101416,   240.012070,   538.834656,   -318.483887,   0.359016,   723.130493,   720.922241
-0.034992,   0.095695,   0.105259,   0.000000,   741.315735,   0.567391,   1.113431,   11.145939,   241.703430,   534.437866,   -321.494507,   0.357078,   724.530945,   722.644165
-0.035363,   0.095312,   0.104786,   0.000000,   739.496033,   0.567391,   1.113431,   10.190462,   243.515274,   527.462708,   -324.290710,   0.354831,   724.268433,   722.726624
-0.035446,   0.093742,   0.102963,   0.000000,   735.528442,   0.567391,   1.113431,   9.234985,   245.216309,   517.454651,   -326.992676,   0.351945,   722.339722,   721.191040
-0.035139,   0.090940,   0.099752,   0.000000,   729.229980,   0.567391,   1.113431,   8.279508,   247.085800,   503.853455,   -329.642181,   0.348324,   718.621277,   717.882874
-0.034398,   0.086986,   0.095251,   0.000000,   720.611633,   0.567391,   1.113431,   7.324031,   249.352783,   486.569092,   -332.106323,   0.344011,   713.079773,   712.709839
-0.033209,   0.081981,   0.089570,   0.000000,   709.581604,   0.567391,   1.113431,   6.368554,   252.360016,   465.187561,   -334.278687,   0.338962,   705.632385,   705.531128
-0.031494,   0.075855,   0.082622,   0.000000,   695.860535,   0.567391,   1.113431,   5.413077,   256.852661,   439.176666,   -335.687714,   0.333455,   695.776184,   695.776123
-0.029185,   0.068777,   0.074585,   -7.038205,   679.641052,   0.567391,   1.113431,   4.457601,   263.560272,   409.042572,   -335.545563,   0.328169,   683.187378,   683.105774
-0.026439,   0.061280,   0.066056,   -11.968691,   662.098145,   0.567391,   1.113431,   3.502124,   272.287018,   377.842407,   -332.875397,   0.324337,   668.162903,   667.921631
-0.023030,   0.053408,   0.057080,   -12.562869,   643.625732,   0.567391,   1.113431,   2.546647,   284.570953,   346.491913,   -326.630249,   0.323623,   649.998230,   649.724976
-0.019374,   0.045522,   0.048132,   -7.794354,   625.290649,   0.567391,   1.113431,   1.591170,   295.900940,   321.595337,   -316.281677,   0.327121,   629.223999,   629.115417
-0.075748,   0.031707,   0.081949,   -691.370850,   0.178505,   0.552450,   1.855719,   56.279121,   -330.127045,   -361.065277,   -345.428467,   -0.333204,   691.460083,   -691.460022
-0.085143,   0.035307,   0.092880,   -713.973389,   0.000000,   0.552448,   1.855719,   55.348808,   -302.332397,   -420.687958,   -347.459808,   -0.339689,   709.493225,   -709.363403
-0.094082,   0.037665,   0.103270,   -738.690247,   0.000000,   0.552448,   1.855719,   54.418495,   -275.893188,   -495.497620,   -335.482971,   -0.355695,   722.894836,   -721.227905
-0.101941,   0.038898,   0.112355,   -761.782654,   0.000000,   0.552450,   1.855719,   53.488178,   -255.189880,   -572.009399,   -310.060913,   -0.377060,   731.272095,   -724.645386
-0.107745,   0.039158,   0.119032,   -780.153870,   0.000000,   0.552448,   1.855719,   52.557865,   -242.255005,   -638.543762,   -275.992615,   -0.399446,   735.017639,   -719.270020
-0.110535,   0.038229,   0.122256,   -792.793274,   0.000000,   0.552449,   1.855719,   51.627552,   -238.853119,   -688.614868,   -240.226181,   -0.420751,   734.771606,   -706.198364
-0.109131,   0.036013,   0.120712,   -797.368042,   0.000000,   0.552449,   1.855719,   50.697235,   -239.843475,   -718.917847,   -209.136124,   -0.437686,   730.173767,   -688.304199
-0.102257,   0.032478,   0.112900,   -792.916138,   0.000000,   0.552449,   1.855719,   49.766922,   -246.576767,   -727.315063,   -189.315704,   -0.451063,   719.701050,   -665.556274
-0.088802,   0.027744,   0.097517,   -769.256042,   0.000000,   0.552448,   1.855719,   48.836605,   -232.529587,   -704.083008,   -187.029663,   -0.445541,   700.730347,   -653.456177
-0.070092,   0.022715,   0.076702,   -662.535828,   50.553555,   0.552450,   1.855719,   47.906292,   -234.865219,   -377.117035,   -349.378326,   -0.295985,   689.204529,   -685.014526
-0.057839,   0.021206,   0.067906,   -464.689453,   307.293121,   0.552448,   1.855719,   46.975975,   -197.747559,   40.351223,   -367.173676,   -0.077938,   673.172485,   -471.828156
-0.053511,   0.024446,   0.065076,   -489.827362,   275.334991,   0.552449,   1.855719,   46.045662,   -190.214264,   -24.278097,   -373.476440,   -0.106510,   671.272522,   -519.303223
-0.050106,   0.027785,   0.060039,   -453.661224,   306.040619,   0.552448,   1.855719,   45.115349,   -166.904572,   19.283995,   -368.266449,   -0.074325,   662.048401,   -457.003967
-0.051338,   0.033932,   0.060540,   -446.624054,   316.273956,   0.552450,   1.855719,   44.185036,   -155.140396,   24.790279,   -370.687988,   -0.065447,   663.895935,   -439.806824
-0.053293,   0.039195,   0.062063,   -435.336670,   333.558167,   0.552448,   1.855719,   43.254719,   -138.768295,   36.989784,   -374.268738,   -0.050801,   667.824158,   -407.285278
-0.056150,   0.044498,   0.065706,   -429.406586,   349.219574,   0.552449,   1.855719,   42.324406,   -125.744095,   45.557095,   -379.774475,   -0.039569,   675.500916,   -379.432159
-0.057493,   0.048120,   0.068160,   -418.937103,   366.551056,   0.552449,   1.855719,   41.394089,   -109.806465,   57.420403,   -383.740417,   -0.025651,   680.756775,   -331.241180
-0.058623,   0.051250,   0.070559,   -409.417389,   382.020599,   0.552448,   1.855719,   40.463776,   -96.533867,   69.137085,   -386.951935,   -0.013321,   685.542236,   -268.251770
-0.060349,   0.054381,   0.073610,   -401.692596,   396.769806,   0.552449,   1.855719,   39.533463,   -81.751389,   76.828575,   -391.278229,   -0.002373,   691.493103,   -152.273453
-0.062011,   0.057296,   0.076572,   -395.884857,   408.888336,   0.552449,   1.855719,   38.603146,   -69.432625,   82.436104,   -395.156860,   0.006219,   696.984375,   211.599823
-0.063292,   0.059697,   0.078980,   -389.065002,   420.580475,   0.552449,   1.855719,   37.672832,   -57.183006,   88.698479,   -398.197296,   0.014978,   701.350586,   285.362976
-0.064350,   0.061757,   0.081044,   -384.064331,   429.600311,   0.552448,   1.855719,   36.742519,   -46.727535,   92.263504,   -400.852722,   0.021529,   705.021973,   323.654938
-0.065021,   0.063496,   0.082660,   -377.618011,   439.040344,   0.552450,   1.855719,   35.812202,   -35.002842,   96.425171,   -403.006683,   0.028922,   707.913391,   358.450226
-0.065696,   0.065122,   0.084217,   -372.519379,   446.888794,   0.552448,   1.855719,   34.881889,   -24.925091,   99.294518,   -404.968903,   0.034886,   710.601868,   382.868774
-0.066144,   0.066500,   0.085464,   -366.896759,   454.550781,   0.552449,   1.855719,   33.951572,   -14.649343,   102.303391,   -406.539703,   0.040994,   712.743164,   405.052612
-0.066379,   0.067661,   0.086434,   -361.298553,   461.574127,   0.552449,   1.855719,   33.021259,   -4.976811,   105.252357,   -407.728149,   0.046788,   714.390198,   424.064484
-0.066318,   0.068495,   0.086995,   -355.240479,   468.233276,   0.552448,   1.855719,   32.090942,   5.046123,   107.946655,   -408.509644,   0.052649,   715.383545,   441.432617
-0.066137,   0.069222,   0.087412,   -349.111450,   474.592804,   0.552449,   1.855719,   31.160629,   14.548027,   110.933334,   -409.022797,   0.058409,   716.102600,   457.141907
-0.065611,   0.069565,   0.087346,   -342.225403,   480.739502,   0.552448,   1.855719,   30.230314,   24.577225,   113.936874,   -409.049530,   0.064479,   716.065613,   472.077484
-0.064924,   0.069782,   0.087101,   -334.374939,   487.296173,   0.552449,   1.855719,   29.299999,   34.045212,   118.876022,   -408.640167,   0.071224,   715.684143,   487.282257
-0.064037,   0.069783,   0.086581,   -327.763641,   492.269775,   0.552449,   1.855719,   28.369686,   44.548260,   119.957878,   -408.279388,   0.076702,   714.917297,   498.521423
-0.062479,   0.069143,   0.085208,   -311.558533,   503.710175,   0.552448,   1.855719,   27.439371,   54.605343,   137.546295,   -405.519379,   0.089889,   712.550232,   522.680664
-0.061637,   0.069350,   0.084895,   -309.839264,   504.736542,   0.552449,   1.855719,   26.509056,   64.835625,   130.061646,   -405.980072,   0.091226,   712.142212,   524.827576
-0.058880,   0.067480,   0.081936,   -277.199646,   526.197205,   0.552448,   1.855719,   25.578741,   80.120293,   168.877258,   -399.239502,   0.117427,   706.813171,   563.442017
-0.054220,   0.064446,   0.077423,   -158.183563,   601.093079,   0.552449,   1.855719,   24.648426,   102.314240,   340.595276,   -360.459137,   0.212781,   693.842896,   651.392944
-0.049938,   0.063384,   0.075705,   -49.868801,   656.690186,   0.552449,   1.855719,   23.718113,   126.969879,   479.851501,   -306.063782,   0.296159,   682.991394,   678.877136
-0.045877,   0.063567,   0.075626,   0.000000,   680.826843,   0.552448,   1.855719,   22.787798,   150.758759,   532.736633,   -280.174744,   0.335295,   679.496460,   679.484741
-0.042301,   0.064692,   0.076359,   0.000000,   691.742310,   0.552449,   1.855719,   21.857483,   167.466660,   548.578430,   -273.965973,   0.351045,   679.916809,   678.938477
-0.039351,   0.066859,   0.077848,   0.000000,   700.487549,   0.552448,   1.855719,   20.927168,   182.462387,   556.380615,   -273.223389,   0.361053,   682.119080,   679.686462
-0.037090,   0.069950,   0.079995,   0.000000,   708.198853,   0.552448,   1.855719,   19.996855,   195.647339,   560.281555,   -275.345673,   0.367537,   685.581055,   681.827881
-0.035587,   0.073863,   0.082844,   0.000000,   715.043091,   0.552449,   1.855719,   19.066540,   205.977386,   561.787842,   -279.315247,   0.370797,   690.193909,   685.641479
-0.035302,   0.079054,   0.087245,   0.000000,   722.855530,   0.552449,   1.855719,   18.136225,   216.022430,   561.369812,   -286.087921,   0.371679,   697.188782,   692.365356
-0.035409,   0.084522,   0.092481,   0.000000,   731.011902,   0.552448,   1.855719,   17.205910,   225.499542,   560.456116,   -293.629089,   0.371533,   705.147217,   700.306946
-0.035412,   0.088613,   0.096741,   0.000000,   736.642151,   0.552449,   1.855719,   16.275597,   232.109573,   557.908630,   -300.294647,   0.370141,   711.457336,   706.931580
-0.035464,   0.091958,   0.100555,   0.000000,   741.127014,   0.552449,   1.855719,   15.345281,   236.622086,   555.670227,   -305.882080,   0.368380,   716.914978,   712.789795
-0.035979,   0.095511,   0.104728,   0.000000,   745.723816,   0.552449,   1.855719,   14.414967,   240.325134,   553.976624,   -311.301758,   0.366378,   722.660461,   718.973206
-0.036747,   0.098877,   0.108670,   0.000000,   749.895020,   0.552449,   1.855719,   13.484652,   243.813721,   552.204163,   -316.303101,   0.364512,   727.930359,   724.631836
-0.037513,   0.101597,   0.111842,   0.000000,   753.169312,   0.552449,   1.855719,   12.554337,   247.646057,   549.639099,   -320.763580,   0.363008,   732.109009,   729.109497
-0.038122,   0.103350,   0.113881,   0.000000,   755.082153,   0.552449,   1.855719,   11.624022,   251.595261,   545.797424,   -324.610748,   0.361708,   734.841064,   732.092957
-0.038501,   0.104011,   0.114655,   0.000000,   755.434570,   0.552449,   1.855719,   10.693707,   255.871994,   539.992065,   -328.065552,   0.360420,   736.053040,   733.548584
-0.038608,   0.103571,   0.114165,   0.000000,   754.074768,   0.552449,   1.855719,   9.763393,   260.300781,   531.839783,   -331.261017,   0.358866,   735.780762,   733.560425
-0.038419,   0.102054,   0.112443,   0.000000,   750.888000,   0.552449,   1.855719,   8.833078,   265.058441,   520.727539,   -334.393097,   0.356821,   734.061401,   732.191406
-0.037910,   0.099471,   0.109505,   0.000000,   745.748291,   0.552449,   1.855719,   7.902764,   270.187134,   506.346405,   -337.417023,   0.354173,   730.842102,   729.381165
-0.037100,   0.095867,   0.105393,   0.000000,   738.431702,   0.552449,   1.855719,   6.972449,   275.790466,   488.034790,   -340.358521,   0.350667,   726.067993,   725.067932
-0.035960,   0.091334,   0.100209,   0.000000,   728.866272,   0.552449,   1.855719,   6.042135,   282.495056,   465.137451,   -343.104889,   0.346286,   719.666748,   719.115906
-0.034572,   0.085958,   0.094035,   0.000000,   717.021179,   0.552449,   1.855719,   5.111820,   290.509949,   437.805237,   -345.092377,   0.341239,   711.441467,   711.239685
-0.032806,   0.079539,   0.086640,   0.000000,   702.363098,   0.552449,   1.855719,   4.181505,   299.558411,   406.206177,   -345.388763,   0.335758,   700.668518,   700.649963
-0.030303,   0.072229,   0.078197,   -2.646701,   685.546692,   0.552449,   1.855719,   3.251191,   311.375702,   371.524261,   -342.779907,   0.331405,   686.873840,   686.862427
-0.026981,   0.064300,   0.069072,   -2.884811,   668.455994,   0.552449,   1.855719,   2.320876,   325.667267,   339.903900,   -335.594910,   0.331178,   669.903076,   669.889099
-0.096179,   0.040297,   0.105030,   -724.561646,   0.397698,   0.537507,   2.598006,   55.549416,   -331.507812,   -392.656158,   -361.187958,   -0.333059,   724.760620,   -724.760376
-0.107578,   0.043774,   0.118405,   -752.134338,   0.000000,   0.537506,   2.598006,   54.644264,   -297.623566,   -475.075806,   -354.860687,   -0.347094,   742.065613,   -741.424133
-0.116655,   0.045310,   0.129008,   -776.790955,   0.000000,   0.537506,   2.598006,   53.739113,   -269.590942,   -560.157288,   -331.476379,   -0.367937,   751.712646,   -747.498474
-0.122927,   0.045613,   0.136279,   -795.476562,   0.000000,   0.537507,   2.598006,   52.833961,   -249.545654,   -633.896362,   -297.004425,   -0.389862,   755.345215,   -743.690491
-0.125553,   0.044756,   0.139278,   -806.862793,   0.000000,   0.537506,   2.598006,   51.928806,   -237.691833,   -688.807983,   -259.216858,   -0.409487,   754.194885,   -732.388977
-0.123286,   0.042350,   0.136660,   -810.104370,   0.000000,   0.537507,   2.598006,   51.023655,   -232.953506,   -721.993164,   -225.507126,   -0.425401,   748.272034,   -715.705383
-0.115051,   0.038374,   0.127203,   -804.396484,   0.000000,   0.537507,   2.598006,   50.118504,   -235.250671,   -731.990662,   -203.001129,   -0.437705,   736.600464,   -694.345581
-0.099804,   0.032747,   0.109763,   -783.358887,   0.000000,   0.537506,   2.598006,   49.213352,   -228.339035,   -717.015320,   -191.890625,   -0.439964,   716.235352,   -673.139832
-0.079050,   0.026436,   0.086288,   -707.966614,   0.000000,   0.537506,   2.598006,   48.308201,   -228.611496,   -504.726440,   -312.128540,   -0.351403,   695.628052,   -694.585876
-0.063486,   0.022751,   0.072418,   -522.900940,   247.093246,   0.537507,   2.598006,   47.403046,   -233.053909,   -42.753780,   -373.053925,   -0.135012,   680.944763,   -566.021179
-0.058519,   0.025893,   0.071161,   -486.483337,   291.744171,   0.537506,   2.598006,   46.497894,   -195.938980,   1.199825,   -376.422089,   -0.095326,   680.962097,   -508.856873
-0.057100,   0.030741,   0.069001,   -476.522827,   299.032440,   0.537507,   2.598006,   45.592743,   -188.124710,   10.634330,   -374.826904,   -0.087328,   677.488159,   -492.424133
-0.058205,   0.036932,   0.069277,   -460.599335,   318.021179,   0.537506,   2.598006,   44.687592,   -177.312973,   34.734798,   -374.595001,   -0.070091,   678.063110,   -459.281250
-0.061123,   0.043483,   0.071627,   -453.675903,   332.353729,   0.537507,   2.598006,   43.782436,   -162.315536,   40.993362,   -379.640656,   -0.059174,   683.419189,   -438.133545
-0.064466,   0.049633,   0.075517,   -444.764282,   351.017792,   0.537506,   2.598006,   42.877285,   -148.857498,   55.110996,   -384.599121,   -0.045238,   690.759644,   -405.516541
-0.066873,   0.054514,   0.079111,   -437.516968,   367.131409,   0.537506,   2.598006,   41.972134,   -133.062958,   62.677399,   -390.238617,   -0.033626,   697.734009,   -371.386688
-0.067876,   0.057826,   0.081314,   -427.662567,   382.223145,   0.537508,   2.598006,   41.066982,   -120.751160,   75.311722,   -392.897644,   -0.021584,   701.749512,   -322.423767
-0.069767,   0.061511,   0.084690,   -419.830841,   397.310364,   0.537506,   2.598006,   40.161827,   -106.432961,   83.912498,   -397.331207,   -0.010607,   707.754639,   -256.701904
-0.071404,   0.064652,   0.087720,   -413.005188,   410.317169,   0.537506,   2.598006,   39.256676,   -93.081032,   90.393013,   -401.309418,   -0.001257,   713.019348,   -127.030678
-0.072554,   0.066941,   0.089931,   -407.148773,   420.613373,   0.537507,   2.598006,   38.351524,   -81.014755,   94.479347,   -404.472504,   0.006261,   716.894653,   218.129639
-0.073238,   0.068913,   0.091669,   -400.410675,   430.739594,   0.537506,   2.598006,   37.446369,   -68.730469,   99.059387,   -407.018829,   0.014042,   719.956970,   286.704620
-0.073863,   0.070739,   0.093299,   -393.989807,   440.203583,   0.537506,   2.598006,   36.541222,   -56.408875,   102.622658,   -409.447052,   0.021312,   722.802124,   330.701721
-0.074353,   0.072317,   0.094695,   -388.238251,   448.430084,   0.537508,   2.598006,   35.636066,   -45.184601,   105.376427,   -411.504944,   0.027667,   725.200806,   361.839203
-0.074619,   0.073689,   0.095821,   -381.765656,   456.772461,   0.537506,   2.598006,   34.730915,   -33.324211,   108.331032,   -413.243256,   0.034383,   727.163086,   389.915833
-0.074684,   0.074837,   0.096671,   -375.982422,   463.887146,   0.537506,   2.598006,   33.825764,   -22.251110,   110.155838,   -414.683411,   0.040212,   728.675171,   411.484222
-0.074565,   0.075774,   0.097267,   -369.206635,   471.371857,   0.537507,   2.598006,   32.920609,   -10.971382,   113.136612,   -415.682983,   0.046667,   729.752380,   432.812286
-0.074247,   0.076491,   0.097591,   -363.197845,   477.622406,   0.537507,   2.598006,   32.015457,   -0.315603,   114.740158,   -416.455536,   0.052219,   730.415833,   449.498077
-0.073816,   0.077091,   0.097767,   -356.029968,   484.559998,   0.537507,   2.598006,   31.110304,   10.725865,   117.804146,   -416.871002,   0.058625,   730.803406,   467.087891
-0.073195,   0.077483,   0.097683,   -349.389496,   490.513367,   0.537506,   2.598006,   30.205153,   21.071285,   120.052582,   -417.025024,   0.064370,   730.791748,   481.521332
-0.072343,   0.077658,   0.097308,   -341.050995,   497.389740,   0.537507,   2.598006,   29.300001,   32.179279,   124.159454,   -416.690094,   0.071358,   730.306519,   497.539551
-0.071530,   0.077908,   0.097020,   -333.616425,   503.484039,   0.537507,   2.598006,   28.394848,   42.527882,   127.339722,   -416.396484,   0.077575,   729.908630,   510.829041
-0.070078,   0.077455,   0.095844,   -321.980927,   511.641113,   0.537506,   2.598006,   27.489697,   53.433098,   136.227097,   -414.750183,   0.086824,   728.139465,   528.267700
-0.069058,   0.077642,   0.095421,   -310.585541,   520.521729,   0.537507,   2.598006,   26.584543,   64.577141,   145.359055,   -413.586029,   0.096207,   727.373901,   545.114868
-0.067256,   0.076899,   0.093854,   -300.552521,   526.378845,   0.537506,   2.598006,   25.679390,   72.625847,   153.200455,   -411.498230,   0.103830,   724.990295,   556.438843
-0.062306,   0.072949,   0.088217,   -222.023743,   576.496704,   0.537507,   2.598006,   24.774239,   89.253357,   265.219604,   -389.445374,   0.165512,   713.890015,   628.875061
-0.057075,   0.069964,   0.083911,   -100.254761,   644.170288,   0.537507,   2.598006,   23.869085,   116.114113,   427.801392,   -338.016144,   0.259116,   699.705261,   683.265869
-0.052394,   0.069154,   0.082604,   -21.453228,   681.111938,   0.537506,   2.598006,   22.963934,   142.653305,   517.005432,   -297.261810,   0.317714,   692.088013,   691.339294
-0.048109,   0.069611,   0.082743,   0.000000,   696.662781,   0.537507,   2.598006,   22.058783,   161.495300,   547.862915,   -282.192932,   0.342485,   690.402588,   690.139893
-0.044580,   0.071354,   0.083986,   0.000000,   705.706299,   0.537507,   2.598006,   21.153629,   174.863663,   559.618896,   -278.476959,   0.353916,   691.767212,   690.418640
-0.041898,   0.074329,   0.086172,   0.000000,   713.959473,   0.537506,   2.598006,   20.248476,   187.275253,   566.521118,   -278.663666,   0.361586,   694.897949,   692.321777
-0.040236,   0.078268,   0.089102,   0.000000,   721.377686,   0.537507,   2.598006,   19.343325,   197.564056,   570.386108,   -281.232025,   0.366080,   699.255615,   695.753357
-0.039179,   0.083237,   0.093035,   0.000000,   729.399536,   0.537507,   2.598006,   18.438171,   208.450684,   572.390198,   -285.996185,   0.369146,   705.087646,   700.846985
-0.039384,   0.089276,   0.098426,   0.000000,   737.924805,   0.537506,   2.598006,   17.533020,   218.293503,   572.726990,   -292.987976,   0.369880,   712.861511,   708.392273
-0.039749,   0.095000,   0.104097,   0.000000,   746.015564,   0.537507,   2.598006,   16.627869,   227.363174,   572.271423,   -300.187958,   0.369840,   720.703552,   716.195374
-0.039736,   0.099011,   0.108362,   0.000000,   751.300964,   0.537506,   2.598006,   15.722715,   233.593552,   570.203674,   -306.195038,   0.368811,   726.476746,   722.190857
-0.039926,   0.102465,   0.112341,   0.000000,   755.740173,   0.537507,   2.598006,   14.817563,   238.443985,   567.985107,   -311.648804,   0.367370,   731.713684,   727.747803
-0.040561,   0.106180,   0.116701,   0.000000,   760.459106,   0.537507,   2.598006,   13.912411,   243.414307,   565.864929,   -317.196930,   0.365894,   737.262329,   733.612427
-0.041382,   0.109722,   0.120856,   0.000000,   764.815186,   0.537506,   2.598006,   13.007258,   248.658157,   563.197571,   -322.593140,   0.364512,   742.413452,   739.049316
-0.042198,   0.112626,   0.124255,   0.000000,   768.213318,   0.537507,   2.598006,   12.102106,   253.902634,   559.652222,   -327.513672,   0.363238,   746.575928,   743.468628
-0.042835,   0.114620,   0.126596,   0.000000,   770.447266,   0.537507,   2.598006,   11.196954,   259.646057,   554.653076,   -332.005951,   0.362160,   749.484131,   746.589600
-0.043215,   0.115567,   0.127727,   0.000000,   771.329468,   0.537507,   2.598006,   10.291800,   265.727142,   548.022339,   -336.012787,   0.361176,   751.018494,   748.315857
-0.043324,   0.115469,   0.127655,   0.000000,   770.722961,   0.537506,   2.598006,   9.386649,   272.234985,   539.118835,   -339.782074,   0.360010,   751.231995,   748.753906
-0.043170,   0.114322,   0.126371,   0.000000,   768.376892,   0.537507,   2.598006,   8.481497,   278.983368,   527.335815,   -343.458771,   0.358304,   750.125732,   747.962158
-0.042752,   0.112159,   0.123911,   0.000000,   764.204346,   0.537507,   2.598006,   7.576344,   286.108887,   512.301819,   -347.035217,   0.355946,   747.688232,   745.924683
-0.042104,   0.109017,   0.120308,   0.000000,   757.954468,   0.537507,   2.598006,   6.671192,   293.918671,   493.047913,   -350.608215,   0.352644,   743.872864,   742.598389
-0.041234,   0.104942,   0.115603,   0.000000,   749.510132,   0.537507,   2.598006,   5.766040,   302.485138,   469.442352,   -353.832306,   0.348395,   738.556641,   737.790588
-0.039968,   0.099641,   0.109446,   0.000000,   738.026001,   0.537507,   2.598006,   4.860888,   312.022247,   440.114960,   -356.246002,   0.342938,   731.072571,   730.765991
-0.038301,   0.092960,   0.101656,   0.000000,   723.067017,   0.537507,   2.598006,   3.955735,   322.826202,   404.948944,   -356.824677,   0.336594,   720.724487,   720.689880
-0.035514,   0.084704,   0.092013,   -2.672325,   704.979492,   0.537507,   2.598006,   3.050583,   336.776154,   365.531036,   -353.533691,   0.331440,   706.319458,   706.308105
-0.128357,   0.054170,   0.141655,   -767.866516,   0.000000,   0.522564,   3.340294,   54.819710,   -320.837830,   -447.107574,   -378.666687,   -0.333385,   767.827087,   -767.827026
-0.138955,   0.055809,   0.154146,   -796.031189,   0.000000,   0.522564,   3.340294,   53.939720,   -287.816589,   -544.115784,   -357.808746,   -0.356119,   778.701538,   -776.836243
-0.145136,   0.055663,   0.161388,   -815.724121,   0.000000,   0.522564,   3.340294,   53.059731,   -262.672577,   -626.575195,   -323.433289,   -0.379262,   781.560303,   -773.722351
-0.146242,   0.053712,   0.162712,   -826.692749,   0.000000,   0.522564,   3.340294,   52.179741,   -246.828644,   -688.002258,   -283.587097,   -0.400384,   778.278748,   -761.101196
-0.141776,   0.050197,   0.157567,   -828.914795,   0.000000,   0.522564,   3.340294,   51.299751,   -239.360199,   -725.677856,   -246.705887,   -0.417803,   769.931580,   -742.130981
-0.130632,   0.044929,   0.144786,   -820.842041,   0.000000,   0.522565,   3.340294,   50.419762,   -236.708267,   -738.375366,   -219.480209,   -0.430146,   755.621704,   -718.911499
-0.112425,   0.037933,   0.123977,   -800.983704,   0.000000,   0.522564,   3.340294,   49.539768,   -236.603226,   -727.173767,   -204.100220,   -0.438120,   733.267944,   -690.831543
-0.089170,   0.030271,   0.097525,   -745.533081,   0.000000,   0.522564,   3.340294,   48.659779,   -233.996216,   -596.615112,   -276.001892,   -0.391699,   706.844604,   -695.185242
-0.069737,   0.024638,   0.078038,   -581.058655,   180.865662,   0.522564,   3.340294,   47.779793,   -268.025116,   -132.167908,   -374.857147,   -0.193465,   689.518066,   -632.763855
-0.062561,   0.026345,   0.075423,   -489.283691,   296.482574,   0.522564,   3.340294,   46.899803,   -202.993027,   10.191893,   -378.147064,   -0.093508,   687.287781,   -510.479095
-0.062611,   0.032404,   0.076125,   -493.598633,   292.737396,   0.522564,   3.340294,   46.019814,   -206.130753,   5.269528,   -378.693237,   -0.097267,   688.352783,   -517.648438
-0.064007,   0.039240,   0.076699,   -470.227753,   320.758575,   0.522565,   3.340294,   45.139820,   -192.638931,   43.169758,   -377.509491,   -0.072304,   689.078979,   -471.453156
-0.067961,   0.047144,   0.080141,   -465.733093,   334.332458,   0.522564,   3.340294,   44.259830,   -178.839584,   47.438972,   -383.700043,   -0.062933,   695.985046,   -455.231720
-0.072481,   0.054473,   0.085080,   -457.446014,   353.513275,   0.522564,   3.340294,   43.379841,   -167.308624,   63.375874,   -388.728577,   -0.049194,   704.231323,   -424.981354
-0.075983,   0.060799,   0.089895,   -450.484711,   371.252289,   0.522564,   3.340294,   42.499851,   -150.294937,   71.062538,   -395.680603,   -0.037055,   712.746948,   -391.763611
-0.078223,   0.065364,   0.093523,   -442.741638,   386.178467,   0.522564,   3.340294,   41.619862,   -139.832031,   83.268852,   -399.166168,   -0.026244,   718.422729,   -352.232147
-0.079668,   0.069152,   0.096517,   -433.718689,   401.619110,   0.522565,   3.340294,   40.739872,   -123.864426,   91.764847,   -403.513702,   -0.014787,   723.601746,   -293.157898
-0.081744,   0.072837,   0.100080,   -427.465088,   414.437805,   0.522564,   3.340294,   39.859882,   -111.846428,   98.819145,   -407.559967,   -0.005956,   729.138367,   -218.192291
-0.083142,   0.075615,   0.102747,   -421.439880,   425.496552,   0.522564,   3.340294,   38.979893,   -98.860367,   102.917061,   -411.274597,   0.001844,   733.471252,   148.482361
-0.084114,   0.078093,   0.104976,   -414.876404,   436.100891,   0.522564,   3.340294,   38.099903,   -86.295067,   107.519539,   -414.306122,   0.009599,   737.044373,   258.582123
-0.084523,   0.079914,   0.106447,   -407.938721,   445.777222,   0.522564,   3.340294,   37.219910,   -73.324036,   111.162544,   -416.772003,   0.017054,   739.581726,   314.199982
-0.084757,   0.081363,   0.107579,   -401.997986,   453.760651,   0.522565,   3.340294,   36.339920,   -61.851807,   113.614471,   -418.788269,   0.023267,   741.560547,   349.326660
-0.084823,   0.082630,   0.108496,   -395.780762,   461.568756,   0.522565,   3.340294,   35.459930,   -50.114086,   115.902084,   -420.561188,   0.029506,   743.214783,   378.829346
-0.084683,   0.083707,   0.109166,   -389.522125,   468.912506,   0.522564,   3.340294,   34.579941,   -38.640583,   118.030968,   -422.008301,   0.035546,   744.485168,   403.621216
-0.084478,   0.084670,   0.109727,   -383.279510,   475.972534,   0.522564,   3.340294,   33.699951,   -27.032709,   119.725746,   -423.313141,   0.041441,   745.575989,   425.232330
-0.084130,   0.085473,   0.110091,   -376.965454,   482.665741,   0.522564,   3.340294,   32.819962,   -15.981883,   121.682198,   -424.268311,   0.047209,   746.336060,   444.332062
-0.083621,   0.086095,   0.110235,   -370.341309,   489.222046,   0.522564,   3.340294,   31.939970,   -4.715957,   123.596672,   -424.966187,   0.053064,   746.773071,   461.989319
-0.082989,   0.086579,   0.110209,   -363.848999,   495.296631,   0.522564,   3.340294,   31.059980,   6.079503,   125.368118,   -425.411987,   0.058661,   746.939087,   477.495483
-0.082219,   0.086930,   0.110009,   -356.337921,   501.907928,   0.522565,   3.340294,   30.179991,   17.243780,   128.326233,   -425.513397,   0.064973,   746.817993,   493.574249
-0.081247,   0.087061,   0.109533,   -349.320709,   507.584473,   0.522565,   3.340294,   29.299999,   27.790365,   130.473404,   -425.365326,   0.070687,   746.308716,   506.893555
-0.080248,   0.087200,   0.109055,   -340.419037,   514.747742,   0.522564,   3.340294,   28.420010,   39.066383,   135.262329,   -424.869568,   0.077925,   745.707947,   522.642090
-0.078855,   0.086925,   0.108046,   -331.613129,   520.947021,   0.522564,   3.340294,   27.540020,   49.346416,   139.987488,   -423.864075,   0.084783,   744.382935,   535.979553
-0.077366,   0.086622,   0.106979,   -318.821655,   530.200989,   0.522565,   3.340294,   26.660030,   60.557274,   150.822052,   -422.105347,   0.094853,   742.832336,   554.222351
-0.075893,   0.086451,   0.106042,   -306.756958,   538.824036,   0.522564,   3.340294,   25.780041,   72.154800,   159.912262,   -420.507385,   0.104333,   741.430481,   569.913330
-0.071637,   0.083142,   0.101189,   -268.136414,   562.118591,   0.522565,   3.340294,   24.900049,   82.182350,   211.799835,   -410.037415,   0.133526,   733.893005,   608.043518
-0.065547,   0.078384,   0.094557,   -165.564987,   622.283325,   0.522564,   3.340294,   24.020060,   102.004623,   354.713715,   -373.109589,   0.211591,   719.497498,   674.610535
-0.060108,   0.075956,   0.091086,   -61.956345,   674.262329,   0.522564,   3.340294,   23.140070,   128.994980,   483.311005,   -322.675568,   0.288574,   707.278687,   701.134399
-0.055259,   0.075514,   0.090248,   -6.734252,   699.033020,   0.522565,   3.340294,   22.260080,   152.164627,   540.134155,   -294.782593,   0.328528,   702.424377,   702.351807
-0.051025,   0.076531,   0.090897,   0.000000,   711.180420,   0.522564,   3.340294,   21.380089,   168.400711,   561.184753,   -285.332428,   0.346353,   702.158813,   701.615845
-0.047543,   0.078939,   0.092651,   0.000000,   719.957703,   0.522564,   3.340294,   20.500099,   181.073700,   571.473450,   -282.870605,   0.356204,   704.228760,   702.529114
-0.044860,   0.082441,   0.095165,   0.000000,   727.724060,   0.522565,   3.340294,   19.620110,   191.908707,   577.977417,   -283.260559,   0.362682,   707.585754,   704.751282
-0.043406,   0.087240,   0.098887,   0.000000,   735.576233,   0.522564,   3.340294,   18.740120,   201.838440,   581.880249,   -286.414642,   0.366536,   712.725464,   709.053467
-0.043224,   0.093455,   0.104148,   0.000000,   744.115051,   0.522565,   3.340294,   17.860130,   211.056442,   584.272339,   -291.899841,   0.368271,   719.875732,   715.759827
-0.043806,   0.100507,   0.110822,   0.000000,   753.486023,   0.522565,   3.340294,   16.980139,   220.394867,   585.690796,   -299.082214,   0.368777,   728.611633,   724.321472
-0.044485,   0.106398,   0.116785,   0.000000,   760.780396,   0.522564,   3.340294,   16.100149,   228.017838,   584.659851,   -306.317566,   0.367958,   736.204956,   732.072571
-0.044525,   0.110828,   0.121618,   0.000000,   766.559753,   0.522565,   3.340294,   15.220160,   234.009430,   584.171448,   -311.658386,   0.367509,   742.096985,   738.041260
-0.045080,   0.115170,   0.126627,   0.000000,   772.032043,   0.522565,   3.340294,   14.340169,   239.771591,   582.770386,   -317.390106,   0.366524,   748.057068,   744.205933
-0.046029,   0.119551,   0.131740,   0.000000,   777.122986,   0.522564,   3.340294,   13.460179,   245.351044,   580.369263,   -323.462708,   0.365040,   753.999878,   750.464050
-0.047180,   0.123680,   0.136556,   0.000000,   781.650452,   0.522565,   3.340294,   12.580190,   250.881943,   577.277405,   -329.355072,   0.363484,   759.464783,   756.250732
-0.048273,   0.127164,   0.140625,   0.000000,   785.339722,   0.522565,   3.340294,   11.700199,   257.077728,   572.814636,   -335.065521,   0.362064,   764.038208,   761.107422
-0.049163,   0.129733,   0.143635,   0.000000,   787.968201,   0.522565,   3.340294,   10.820210,   263.683411,   567.131775,   -340.266327,   0.360859,   767.442322,   764.744263
-0.049797,   0.131285,   0.145470,   0.000000,   789.390625,   0.522564,   3.340294,   9.940220,   270.794495,   559.822205,   -345.040985,   0.359758,   769.606140,   767.115906
-0.050205,   0.131853,   0.146165,   0.000000,   789.501404,   0.522565,   3.340294,   9.060229,   278.231964,   550.539856,   -349.533600,   0.358488,   770.617004,   768.360840
-0.050394,   0.131464,   0.145750,   0.000000,   788.158569,   0.522564,   3.340294,   8.180239,   285.909546,   538.821838,   -353.877289,   0.356784,   770.523438,   768.566895
-0.050379,   0.130084,   0.144179,   0.000000,   785.029297,   0.522565,   3.340294,   7.300249,   293.953094,   523.600281,   -358.303741,   0.354249,   769.283081,   767.733887
-0.050130,   0.127588,   0.141298,   0.000000,   779.703796,   0.522564,   3.340294,   6.420259,   302.351379,   504.089783,   -362.718903,   0.350618,   766.684875,   765.634766
-0.049598,   0.123974,   0.137092,   0.000000,   771.959900,   0.522565,   3.340294,   5.540269,   311.588409,   479.510559,   -366.926910,   0.345804,   762.570557,   762.029846
-0.048822,   0.119149,   0.131435,   0.000000,   761.297180,   0.522564,   3.340294,   4.660279,   321.341034,   449.412628,   -370.426147,   0.339563,   756.613281,   756.480286
-0.047466,   0.112369,   0.123439,   -3.139196,   745.851257,   0.522565,   3.340294,   3.780289,   332.817017,   409.895020,   -372.506927,   0.331231,   747.425781,   747.410950
-0.171787,   0.073000,   0.191127,   -815.812134,   0.000000,   0.517473,   4.089216,   54.127285,   -306.355103,   -515.549866,   -391.114716,   -0.337074,   812.782837,   -812.731445
-0.176225,   0.071202,   0.196447,   -836.863037,   0.000000,   0.517473,   4.089216,   53.271168,   -275.567627,   -610.153564,   -356.722595,   -0.362910,   813.535095,   -810.224365
-0.174628,   0.067199,   0.194702,   -848.736877,   0.000000,   0.517472,   4.089216,   52.415058,   -256.775177,   -682.356995,   -313.832001,   -0.387746,   807.343689,   -795.838806
-0.166092,   0.061078,   0.184987,   -850.604370,   0.000000,   0.517473,   4.089216,   51.558945,   -248.675049,   -727.279907,   -272.456604,   -0.409014,   795.372070,   -772.679382
-0.150461,   0.053402,   0.167148,   -841.179016,   0.000000,   0.517473,   4.089216,   50.702831,   -244.846436,   -745.101807,   -239.361618,   -0.424392,   777.542847,   -744.505249
-0.128390,   0.044349,   0.141993,   -823.294250,   0.000000,   0.517473,   4.089216,   49.846718,   -253.543869,   -739.771912,   -218.144165,   -0.439818,   752.823303,   -707.665161
-0.101940,   0.034943,   0.111895,   -781.268433,   0.000000,   0.517473,   4.089216,   48.990604,   -247.847366,   -666.924561,   -246.968460,   -0.421276,   723.810364,   -695.295959
-0.077998,   0.027343,   0.086272,   -640.839844,   108.753258,   0.517473,   4.089216,   48.134491,   -296.198242,   -235.888321,   -373.581482,   -0.252809,   701.567078,   -682.215576
-0.067254,   0.026767,   0.080111,   -499.531952,   292.211700,   0.517473,   4.089216,   47.278378,   -217.944397,   10.624138,   -379.016632,   -0.099655,   693.461548,   -525.469299
-0.067648,   0.033274,   0.082542,   -510.758087,   283.567444,   0.517473,   4.089216,   46.422264,   -224.556931,   -2.633714,   -381.347321,   -0.108617,   697.222107,   -542.656250
-0.070167,   0.041389,   0.084618,   -481.821136,   320.854218,   0.517472,   4.089216,   45.566151,   -209.733566,   48.766651,   -379.955719,   -0.076675,   699.781006,   -487.911835
-0.075143,   0.050609,   0.089079,   -477.929413,   335.249329,   0.517473,   4.089216,   44.710037,   -196.471985,   53.791889,   -386.855164,   -0.067191,   707.837646,   -472.933350
-0.080792,   0.059473,   0.095124,   -467.349976,   358.364838,   0.517473,   4.089216,   43.853924,   -182.744049,   73.758911,   -392.431885,   -0.050656,   717.163208,   -436.964447
-0.085769,   0.067371,   0.101470,   -462.191803,   376.188141,   0.517473,   4.089216,   42.997814,   -166.092621,   80.088974,   -400.710480,   -0.039415,   727.330627,   -408.019592
-0.088762,   0.073139,   0.106132,   -453.905548,   392.993866,   0.517473,   4.089216,   42.141701,   -153.921799,   93.010101,   -405.050385,   -0.027659,   734.068481,   -366.231567
-0.090945,   0.077812,   0.109944,   -446.007538,   408.011353,   0.517473,   4.089216,   41.285587,   -139.599838,   101.603661,   -409.624573,   -0.017119,   739.846008,   -314.710083
-0.092789,   0.081941,   0.113576,   -437.950470,   422.483093,   0.517473,   4.089216,   40.429474,   -125.376862,   109.909492,   -413.819489,   -0.006919,   745.197449,   -234.420731
-0.094859,   0.085483,   0.117133,   -432.854797,   433.601562,   0.517472,   4.089216,   39.573360,   -112.580322,   113.327087,   -418.244080,   0.000332,   750.373291,   85.757820
-0.095747,   0.087963,   0.119257,   -426.631775,   443.485718,   0.517473,   4.089216,   38.717247,   -100.624207,   117.478142,   -421.169739,   0.007455,   753.590942,   243.032135
-0.096175,   0.089997,   0.120859,   -419.959686,   453.010101,   0.517473,   4.089216,   37.861134,   -87.730743,   120.781166,   -423.851105,   0.014569,   756.194580,   304.850037
-0.096549,   0.091774,   0.122295,   -413.989197,   461.374603,   0.517473,   4.089216,   37.005020,   -76.208527,   123.593918,   -426.128143,   0.020825,   758.457458,   344.358612
-0.096663,   0.093284,   0.123407,   -407.769592,   469.456238,   0.517474,   4.089216,   36.148907,   -64.147011,   125.833679,   -428.203369,   0.027044,   760.325684,   376.509491
-0.096532,   0.094472,   0.124158,   -401.902191,   476.560089,   0.517473,   4.089216,   35.292793,   -52.913403,   127.571274,   -429.860809,   0.032672,   761.685913,   401.582916
-0.096192,   0.095400,   0.124607,   -395.731201,   483.451447,   0.517473,   4.089216,   34.436680,   -41.481335,   129.201569,   -431.227753,   0.038340,   762.656738,   423.945465
-0.095691,   0.096142,   0.124834,   -389.798157,   489.707550,   0.517472,   4.089216,   33.580566,   -30.528397,   130.437805,   -432.325165,   0.043630,   763.310669,   442.796722
-0.095073,   0.096746,   0.124899,   -383.460846,   496.017670,   0.517473,   4.089216,   32.724453,   -19.369759,   131.926575,   -433.183533,   0.049126,   763.727112,   460.674927
-0.094319,   0.097191,   0.124772,   -377.172119,   501.915405,   0.517472,   4.089216,   31.868340,   -8.635345,   133.378616,   -433.770355,   0.054435,   763.862793,   476.526489
-0.093473,   0.097531,   0.124516,   -370.630859,   507.778229,   0.517473,   4.089216,   31.012226,   2.323347,   134.824036,   -434.179138,   0.059852,   763.809021,   491.494446
-0.092519,   0.097756,   0.124119,   -363.683044,   513.686829,   0.517473,   4.089216,   30.156113,   12.911119,   137.092667,   -434.268585,   0.065488,   763.517334,   505.905151
-0.091416,   0.097826,   0.123523,   -356.427094,   519.514709,   0.517472,   4.089216,   29.299999,   23.797806,   139.289810,   -434.147339,   0.071252,   762.958008,   519.536438
-0.090234,   0.097831,   0.122840,   -348.660309,   525.532776,   0.517473,   4.089216,   28.443888,   34.238998,   142.633453,   -433.723450,   0.077350,   762.221130,   532.945129
-0.088835,   0.097635,   0.121889,   -339.280579,   532.448547,   0.517473,   4.089216,   27.587774,   45.126007,   148.041931,   -432.816345,   0.084601,   761.092773,   547.635498
-0.087175,   0.097190,   0.120611,   -329.295990,   539.298035,   0.517473,   4.089216,   26.731661,   55.578327,   154.423676,   -431.475708,   0.092165,   759.517517,   561.556213
-0.085573,   0.096941,   0.119544,   -315.317322,   549.449219,   0.517472,   4.089216,   25.875547,   65.797279,   168.334610,   -429.332977,   0.102960,   758.004150,   580.256042
-0.082251,   0.094766,   0.116066,   -293.278290,   562.564880,   0.517473,   4.089216,   25.019434,   75.820724,   193.465897,   -423.859406,   0.119157,   753.312317,   603.185120
-0.075997,   0.089405,   0.108627,   -227.595871,   600.989685,   0.517473,   4.089216,   24.163321,   90.486633,   282.907196,   -402.966614,   0.167863,   741.465637,   655.683472
-0.069426,   0.084703,   0.102138,   -119.879608,   658.938599,   0.517473,   4.089216,   23.307207,   113.507904,   425.551086,   -356.786652,   0.247387,   726.336365,   703.561096
-0.063562,   0.082544,   0.099081,   -37.878807,   696.729065,   0.517472,   4.089216,   22.451094,   139.252579,   519.597656,   -314.239685,   0.306548,   716.419861,   714.161621
-0.058290,   0.082302,   0.098369,   0.000000,   714.309326,   0.517473,   4.089216,   21.594982,   159.182724,   557.657043,   -294.892975,   0.335106,   713.047485,   713.037354
-0.053871,   0.083743,   0.099294,   0.000000,   724.653625,   0.517473,   4.089216,   20.738867,   173.534775,   574.191956,   -287.962250,   0.349374,   713.396973,   712.556702
-0.050632,   0.087048,   0.101844,   0.000000,   733.557861,   0.517472,   4.089216,   19.882755,   185.019592,   584.217102,   -286.215149,   0.357925,   716.385071,   714.381958
-0.048712,   0.091862,   0.105640,   0.000000,   742.057983,   0.517473,   4.089216,   19.026642,   194.866287,   590.948120,   -287.551849,   0.363210,   721.176025,   718.180298
-0.047530,   0.097789,   0.110496,   0.000000,   750.766602,   0.517473,   4.089216,   18.170528,   204.374359,   595.827271,   -290.959839,   0.366740,   727.310181,   723.515747
-0.047877,   0.105168,   0.117041,   0.000000,   759.866516,   0.517473,   4.089216,   17.314415,   212.556564,   598.913940,   -296.801208,   0.367802,   735.423645,   731.333618
-0.048875,   0.113213,   0.124935,   0.000000,   769.809509,   0.517472,   4.089216,   16.458302,   221.761719,   600.776611,   -304.365112,   0.368102,   744.846252,   740.629639
-0.049641,   0.119474,   0.131391,   0.000000,   776.929688,   0.517473,   4.089216,   15.602188,   227.935181,   601.003418,   -310.777313,   0.367303,   752.274780,   748.213867
-0.050097,   0.124412,   0.136867,   0.000000,   782.581909,   0.517473,   4.089216,   14.746075,   233.782501,   599.617676,   -316.876404,   0.366273,   758.450684,   754.606079
-0.051024,   0.129530,   0.142764,   0.000000,   788.276367,   0.517473,   4.089216,   13.889962,   239.226334,   598.254578,   -323.003845,   0.364981,   764.862061,   761.288940
-0.052515,   0.135005,   0.149096,   0.000000,   794.009705,   0.517473,   4.089216,   13.033849,   244.562408,   596.589478,   -329.350861,   0.363418,   771.519531,   768.269104
-0.054163,   0.140138,   0.155048,   0.000000,   799.015198,   0.517473,   4.089216,   12.177735,   250.468765,   593.148376,   -336.046875,   0.361598,   777.674072,   774.788513
-0.055749,   0.144541,   0.160158,   0.000000,   803.043640,   0.517473,   4.089216,   11.321622,   256.724030,   588.306458,   -342.513000,   0.359789,   782.895081,   780.355896
-0.057146,   0.148043,   0.164231,   0.000000,   806.087463,   0.517473,   4.089216,   10.465509,   263.468018,   582.193237,   -348.553253,   0.358158,   787.047119,   784.803955
-0.058370,   0.150654,   0.167272,   0.000000,   808.199280,   0.517473,   4.089216,   9.609395,   270.682098,   574.883118,   -354.134796,   0.356698,   790.179199,   788.187744
-0.059439,   0.152354,   0.169253,   0.000000,   809.108643,   0.517473,   4.089216,   8.753282,   277.923553,   565.875061,   -359.446869,   0.354985,   792.333435,   790.622070
-0.060360,   0.153183,   0.170225,   0.000000,   808.720276,   0.517473,   4.089216,   7.897169,   285.298553,   554.570984,   -364.729034,   0.352766,   793.604309,   792.227112
-0.061142,   0.153147,   0.170190,   0.000000,   806.773438,   0.517473,   4.089216,   7.041056,   292.917847,   540.042175,   -370.217957,   0.349688,   794.004028,   793.031555
-0.061782,   0.152088,   0.168956,   0.000000,   802.852783,   0.517473,   4.089216,   6.184943,   300.911255,   521.278076,   -375.944214,   0.345446,   793.361267,   792.830811
-0.062305,   0.149865,   0.166344,   0.000000,   796.418274,   0.517473,   4.089216,   5.328829,   308.706024,   497.694672,   -381.695129,   0.339620,   791.474304,   791.332642
-0.062450,   0.146315,   0.162146,   -1.626291,   787.149536,   0.517473,   4.089216,   4.472716,   318.349854,   467.173370,   -387.304413,   0.332301,   787.963928,   787.960144
-0.216506,   0.093255,   0.241929,   -855.161926,   0.000000,   0.523154,   4.859001,   53.488712,   -285.935974,   -581.256714,   -394.859436,   -0.340392,   849.210510,   -849.018738
-0.212059,   0.086381,   0.236873,   -870.851196,   0.000000,   0.523154,   4.859001,   52.654621,   -265.342987,   -669.557190,   -349.120605,   -0.370701,   840.658691,   -835.142761
-0.199029,   0.076903,   0.222027,   -874.857788,   0.000000,   0.523154,   4.859001,   51.820526,   -258.407257,   -726.037231,   -302.886963,   -0.397496,   825.537781,   -808.930725
-0.178095,   0.065624,   0.198247,   -867.224609,   0.000000,   0.523154,   4.859001,   50.986435,   -259.485229,   -752.838989,   -263.660065,   -0.419417,   804.548584,   -774.285828
-0.150938,   0.053489,   0.167433,   -850.789551,   0.000000,   0.523155,   4.859001,   50.152340,   -273.736206,   -754.695740,   -235.480881,   -0.441003,   777.343811,   -729.547302
-0.120038,   0.041640,   0.132363,   -814.248901,   0.000000,   0.523154,   4.859001,   49.318245,   -267.654938,   -714.712219,   -233.251282,   -0.439795,   744.563599,   -699.921936
-0.090876,   0.031789,   0.100099,   -705.516357,   27.562075,   0.523154,   4.859001,   48.484154,   -317.249268,   -360.705017,   -365.894653,   -0.314001,   719.693298,   -718.504456
-0.074776,   0.028149,   0.087609,   -526.095764,   271.731262,   0.523155,   4.859001,   47.650059,   -248.093399,   -6.271118,   -380.147980,   -0.120687,   702.546326,   -564.717468
-0.073271,   0.033755,   0.089558,   -527.798462,   273.731079,   0.523154,   4.859001,   46.815964,   -246.997635,   -7.069732,   -382.388611,   -0.120012,   705.673279,   -566.267395
-0.076739,   0.043203,   0.093110,   -496.067200,   317.544434,   0.523155,   4.859001,   45.981869,   -229.060745,   50.537971,   -382.030243,   -0.083785,   710.239746,   -509.468140
-0.082889,   0.054139,   0.098836,   -487.969116,   338.539124,   0.523152,   4.859001,   45.147778,   -212.684570,   63.254570,   -389.542511,   -0.069213,   719.666077,   -485.476471
-0.089305,   0.064277,   0.105461,   -476.676208,   362.853912,   0.523154,   4.859001,   44.313686,   -197.550827,   83.728516,   -395.503723,   -0.052025,   729.278442,   -448.251312
-0.096065,   0.074306,   0.113752,   -470.822632,   383.559326,   0.523155,   4.859001,   43.479591,   -180.669724,   93.406433,   -404.614258,   -0.039244,   741.201782,   -415.203979
-0.099955,   0.081471,   0.119565,   -462.193085,   402.168640,   0.523154,   4.859001,   42.645496,   -165.763565,   105.739113,   -410.307037,   -0.026707,   749.160583,   -369.442078
-0.103281,   0.087449,   0.124816,   -455.549652,   417.353943,   0.523155,   4.859001,   41.811405,   -152.184174,   113.988472,   -415.665985,   -0.016837,   756.197876,   -319.891266
-0.105393,   0.092241,   0.128942,   -447.516937,   432.039307,   0.523154,   4.859001,   40.977310,   -137.858902,   122.381287,   -420.087555,   -0.006773,   761.757324,   -237.933838
-0.107942,   0.096439,   0.133150,   -442.818085,   443.168762,   0.523154,   4.859001,   40.143215,   -125.479805,   125.830467,   -424.798737,   0.000152,   767.287170,   67.653725
-0.109336,   0.099806,   0.136191,   -436.343933,   454.318756,   0.523154,   4.859001,   39.309124,   -112.389542,   130.364349,   -428.471283,   0.007767,   771.388855,   252.197861
-0.110081,   0.102479,   0.138391,   -429.947418,   464.205200,   0.523154,   4.859001,   38.475029,   -99.141182,   133.398972,   -431.692596,   0.014743,   774.548340,   313.488342
-0.110309,   0.104214,   0.139683,   -424.160309,   472.093933,   0.523155,   4.859001,   37.640938,   -87.916290,   135.849899,   -433.935577,   0.020575,   776.548828,   351.160522
-0.110194,   0.105575,   0.140529,   -418.221527,   479.512482,   0.523154,   4.859001,   36.806843,   -76.378876,   137.669846,   -435.921295,   0.026258,   778.064209,   381.539825
-0.109794,   0.106665,   0.141037,   -412.381958,   486.299530,   0.523154,   4.859001,   35.972748,   -65.259727,   139.177292,   -437.559692,   0.031623,   779.158020,   406.376312
-0.109370,   0.107632,   0.141462,   -406.524292,   492.903870,   0.523155,   4.859001,   35.138653,   -54.082176,   140.461761,   -439.068237,   0.036908,   780.124146,   428.236572
-0.108795,   0.108403,   0.141666,   -400.886047,   498.916809,   0.523154,   4.859001,   34.304562,   -43.448502,   141.479263,   -440.297302,   0.041851,   780.792175,   446.764618
-0.108098,   0.109013,   0.141688,   -395.046265,   504.810760,   0.523154,   4.859001,   33.470467,   -32.698730,   142.463226,   -441.322144,   0.046834,   781.229187,   463.889221
-0.107290,   0.109482,   0.141548,   -389.250916,   510.362152,   0.523154,   4.859001,   32.636375,   -22.310167,   143.421402,   -442.107666,   0.051662,   781.437622,   479.208344
-0.106363,   0.109806,   0.141236,   -383.126648,   515.916626,   0.523154,   4.859001,   31.802280,   -11.803879,   144.593826,   -442.667633,   0.056645,   781.420105,   493.865021
-0.105345,   0.110021,   0.140793,   -377.067078,   521.159546,   0.523154,   4.859001,   30.968187,   -1.580319,   145.672806,   -443.037140,   0.061482,   781.216370,   507.116119
-0.104230,   0.110133,   0.140222,   -370.431671,   526.661011,   0.523154,   4.859001,   30.134094,   8.829631,   147.399719,   -443.162964,   0.066694,   780.822266,   520.444763
-0.102985,   0.110108,   0.139476,   -363.638824,   531.986816,   0.523154,   4.859001,   29.300001,   18.916485,   149.431488,   -443.032471,   0.071926,   780.188538,   532.886902
-0.101641,   0.109991,   0.138611,   -356.296661,   537.550232,   0.523154,   4.859001,   28.465906,   29.353289,   151.900284,   -442.703217,   0.077520,   779.381104,   545.329346
-0.100131,   0.109729,   0.137548,   -347.742188,   543.767334,   0.523154,   4.859001,   27.631813,   39.345291,   156.679825,   -441.877197,   0.083958,   778.266235,   558.631775
-0.098351,   0.109203,   0.136142,   -338.423096,   550.108032,   0.523154,   4.859001,   26.797718,   49.669689,   162.015259,   -440.700043,   0.090844,   776.735718,   571.671753
-0.096461,   0.108660,   0.134680,   -325.849945,   558.863281,   0.523154,   4.859001,   25.963625,   60.304848,   172.708496,   -438.771851,   0.100222,   774.991577,   588.291687
-0.093681,   0.107222,   0.132070,   -307.316193,   570.703430,   0.523154,   4.859001,   25.129532,   69.149796,   194.237442,   -434.531799,   0.113768,   771.707214,   609.252258
-0.088091,   0.102551,   0.125455,   -271.944641,   589.918640,   0.523154,   4.859001,   24.295439,   78.345566,   239.628403,   -423.319061,   0.138888,   763.140259,   639.637817
-0.080622,   0.096128,   0.116697,   -188.807678,   636.231873,   0.523154,   4.859001,   23.461344,   96.714317,   350.709869,   -392.484558,   0.199198,   748.708740,   692.039612
-0.073598,   0.091615,   0.110523,   -87.796288,   686.391418,   0.523153,   4.859001,   22.627251,   121.555687,   477.039429,   -343.874207,   0.271754,   734.237000,   722.286011
-0.067417,   0.089813,   0.107918,   -23.906374,   714.366333,   0.523154,   4.859001,   21.793158,   145.553146,   544.906799,   -310.468689,   0.316747,   726.614502,   725.728882
-0.062069,   0.090032,   0.107643,   0.000000,   728.202515,   0.523154,   4.859001,   20.959064,   162.357605,   573.304688,   -296.054321,   0.338468,   724.501465,   724.415039
-0.057759,   0.092195,   0.109170,   0.000000,   738.052490,   0.523154,   4.859001,   20.124969,   175.371933,   588.156921,   -290.419189,   0.350733,   725.649780,   724.642456
-0.054407,   0.096180,   0.112196,   0.000000,   747.124268,   0.523154,   4.859001,   19.290876,   186.569427,   598.280334,   -288.851501,   0.358873,   728.994019,   726.792908
-0.052616,   0.102011,   0.116973,   0.000000,   756.345947,   0.523154,   4.859001,   18.456783,   196.193695,   605.811584,   -290.382751,   0.363929,   734.581299,   731.378418
-0.052384,   0.109407,   0.123276,   0.000000,   765.455444,   0.523154,   4.859001,   17.622690,   203.885986,   611.119446,   -294.398346,   0.366168,   741.922485,   738.185913
-0.053274,   0.118487,   0.131832,   0.000000,   776.381531,   0.523154,   4.859001,   16.788595,   213.143021,   615.548218,   -300.977600,   0.367526,   751.593201,   747.481201
-0.054983,   0.127536,   0.140862,   0.000000,   786.158752,   0.523154,   4.859001,   15.954503,   220.144562,   618.301208,   -308.236542,   0.367081,   761.363037,   757.307739
-0.055732,   0.134742,   0.148500,   0.000000,   794.188904,   0.523154,   4.859001,   15.120409,   227.246811,   619.326599,   -314.859955,   0.366799,   769.335388,   765.307434
-0.056735,   0.140768,   0.155226,   0.000000,   800.339600,   0.523154,   4.859001,   14.286316,   232.246445,   618.947144,   -321.010620,   0.365556,   776.163086,   772.401489
-0.058416,   0.147120,   0.162488,   0.000000,   806.370239,   0.523154,   4.859001,   13.452222,   236.617996,   618.156372,   -327.467957,   0.363754,   783.290649,   779.915100
-0.060535,   0.153688,   0.170046,   0.000000,   812.175781,   0.523154,   4.859001,   12.618128,   241.592377,   615.793945,   -334.742035,   0.361519,   790.540710,   787.624207
-0.062847,   0.159909,   0.177211,   0.000000,   817.298035,   0.523154,   4.859001,   11.784035,   246.941650,   612.052795,   -342.144623,   0.359141,   797.268005,   794.809265
-0.065138,   0.165475,   0.183629,   0.000000,   821.608948,   0.523154,   4.859001,   10.949941,   252.719238,   607.084412,   -349.343414,   0.356827,   803.193054,   801.145935
-0.067282,   0.170163,   0.189042,   0.000000,   825.087769,   0.523154,   4.859001,   10.115848,   259.134918,   600.973022,   -356.143738,   0.354765,   808.146912,   806.437073
-0.069279,   0.173933,   0.193395,   0.000000,   827.613708,   0.523154,   4.859001,   9.281754,   265.632385,   593.883545,   -362.425171,   0.352781,   812.132690,   810.721069
-0.071167,   0.176849,   0.196766,   0.000000,   829.150330,   0.523154,   4.859001,   8.447660,   272.192474,   585.444763,   -368.420593,   0.350651,   815.280212,   814.159363
-0.072955,   0.178909,   0.199158,   0.000000,   829.411560,   0.523154,   4.859001,   7.613567,   278.846008,   574.569153,   -374.576385,   0.347904,   817.674072,   816.880798
-0.074655,   0.180090,   0.200545,   0.000000,   828.218811,   0.523154,   4.859001,   6.779473,   285.811615,   560.497986,   -381.069153,   0.344312,   819.323242,   818.873718
-0.076238,   0.180264,   0.200770,   0.000000,   825.104675,   0.523154,   4.859001,   5.945380,   292.394318,   542.764832,   -387.821289,   0.339444,   820.123657,   819.984985
-0.077684,   0.179304,   0.199675,   -0.534652,   819.675598,   0.523154,   4.859001,   5.111286,   300.030548,   519.110413,   -395.205292,   0.333007,   819.943054,   819.942627
-0.263770,   0.114972,   0.295280,   -891.393433,   0.000000,   0.527610,   5.656495,   52.883896,   -269.725281,   -644.549072,   -391.733704,   -0.346247,   880.176086,   -879.506531
-0.243967,   0.099771,   0.272582,   -900.001953,   0.000000,   0.527611,   5.656495,   52.070660,   -264.357117,   -719.711609,   -338.527161,   -0.380956,   861.052002,   -851.745667
-0.215726,   0.083131,   0.240544,   -895.595581,   0.000000,   0.527611,   5.656495,   51.257420,   -271.062469,   -759.176086,   -291.887787,   -0.410564,   836.441589,   -811.522034
-0.181812,   0.066648,   0.202190,   -880.375366,   0.000000,   0.527610,   5.656495,   50.444183,   -287.640259,   -769.708130,   -256.117828,   -0.436966,   806.583862,   -761.039917
-0.145041,   0.051247,   0.160611,   -848.671265,   0.000000,   0.527612,   5.656495,   49.630943,   -290.906189,   -747.609497,   -237.421005,   -0.448716,   771.471558,   -716.031616
-0.109982,   0.038628,   0.121299,   -765.425110,   0.000000,   0.527610,   5.656495,   48.817707,   -328.193237,   -483.333710,   -351.197021,   -0.363858,   743.447021,   -740.220703
-0.086952,   0.031604,   0.100296,   -572.012573,   233.131317,   0.527611,   5.656495,   48.004471,   -290.307404,   -48.573845,   -383.999207,   -0.157421,   717.567200,   -623.406189
-0.080927,   0.034925,   0.098846,   -543.754150,   267.989716,   0.527611,   5.656495,   47.191231,   -268.842743,   -6.921709,   -384.163208,   -0.128313,   716.385071,   -586.553894
-0.084637,   0.045339,   0.103344,   -512.114258,   313.994598,   0.527611,   5.656495,   46.377995,   -248.059311,   49.939655,   -385.244232,   -0.091435,   722.256714,   -532.668213
-0.091969,   0.058164,   0.110403,   -497.731415,   343.573151,   0.527611,   5.656495,   45.564754,   -228.350357,   74.192093,   -392.511597,   -0.070137,   732.656921,   -496.364655
-0.099791,   0.070599,   0.118412,   -484.727905,   371.160828,   0.527610,   5.656495,   44.751518,   -211.031845,   97.464790,   -399.178955,   -0.050923,   743.393250,   -453.728821
-0.107246,   0.081908,   0.127299,   -477.256805,   393.435760,   0.527611,   5.656495,   43.938282,   -193.163818,   109.342781,   -408.226440,   -0.036997,   755.205688,   -414.886505
-0.113527,   0.091535,   0.135837,   -470.476746,   413.156036,   0.527611,   5.656495,   43.125042,   -177.491394,   120.170692,   -415.994049,   -0.024951,   765.784973,   -369.205505
-0.116543,   0.097997,   0.141022,   -461.917480,   429.682343,   0.527611,   5.656495,   42.311806,   -162.264069,   130.028946,   -421.163574,   -0.013913,   772.316284,   -306.609955
-0.120122,   0.104326,   0.146881,   -456.035706,   443.740692,   0.527611,   5.656495,   41.498566,   -149.178314,   136.883301,   -426.546112,   -0.005259,   779.253479,   -223.724503
-0.121994,   0.108884,   0.150856,   -448.280914,   457.343323,   0.527611,   5.656495,   40.685329,   -133.780334,   142.842743,   -431.171356,   0.003852,   784.306702,   202.968979
-0.123975,   0.112616,   0.154449,   -443.936310,   466.654541,   0.527610,   5.656495,   39.872089,   -122.357597,   145.075836,   -435.216919,   0.009602,   788.676636,   276.724579
-0.124622,   0.115399,   0.156619,   -437.695831,   476.153656,   0.527611,   5.656495,   39.058853,   -109.338493,   147.796341,   -438.463959,   0.016193,   791.650452,   330.572723
-0.125285,   0.117814,   0.158645,   -432.362213,   484.328979,   0.527611,   5.656495,   38.245617,   -98.016296,   149.983078,   -441.253632,   0.021808,   794.302979,   366.204010
-0.125478,   0.119734,   0.160071,   -426.780823,   491.977112,   0.527611,   5.656495,   37.432377,   -86.681908,   151.878189,   -443.622925,   0.027290,   796.335144,   395.528809
-0.125186,   0.121173,   0.160887,   -421.097473,   498.930695,   0.527611,   5.656495,   36.619141,   -75.643684,   153.476898,   -445.520935,   0.032523,   797.717590,   419.944031
-0.124630,   0.122049,   0.161164,   -415.756012,   504.880280,   0.527610,   5.656495,   35.805901,   -65.188164,   154.312439,   -447.043243,   0.037203,   798.538757,   439.498505
-0.123889,   0.122751,   0.161215,   -410.500916,   510.411499,   0.527612,   5.656495,   34.992664,   -55.009476,   154.920074,   -448.332825,   0.041676,   799.096558,   456.608704
-0.123009,   0.123262,   0.161057,   -405.018799,   515.843506,   0.527610,   5.656495,   34.179428,   -44.783447,   155.608124,   -449.396973,   0.046211,   799.412903,   472.599152
-0.122048,   0.123649,   0.160769,   -399.724670,   520.872803,   0.527611,   5.656495,   33.366188,   -34.889919,   156.038071,   -450.290527,   0.050506,   799.558655,   486.695618
-0.121005,   0.123913,   0.160347,   -394.205902,   525.879333,   0.527611,   5.656495,   32.552952,   -24.961367,   156.634766,   -450.993256,   0.054896,   799.532410,   500.156311
-0.119873,   0.124072,   0.159800,   -388.632141,   530.709717,   0.527610,   5.656495,   31.739714,   -15.246469,   157.324020,   -451.499969,   0.059248,   799.336365,   512.656006
-0.118658,   0.124121,   0.159126,   -382.834961,   535.525024,   0.527610,   5.656495,   30.926476,   -5.455927,   158.145981,   -451.834991,   0.063702,   798.978943,   524.667786
-0.117373,   0.124092,   0.158356,   -376.859467,   540.299133,   0.527611,   5.656495,   30.113239,   4.146247,   159.293411,   -451.970490,   0.068230,   798.475464,   536.151978
-0.115983,   0.123953,   0.157447,   -370.363556,   545.290100,   0.527611,   5.656495,   29.299999,   13.905313,   161.021194,   -451.878998,   0.073088,   797.788208,   547.732605
-0.114498,   0.123722,   0.156418,   -363.737305,   550.168152,   0.527611,   5.656495,   28.486761,   23.416370,   163.014450,   -451.590393,   0.077978,   796.935669,   558.667419
-0.112876,   0.123373,   0.155229,   -355.916382,   555.784607,   0.527611,   5.656495,   27.673523,   33.238335,   166.629868,   -450.944946,   0.083712,   795.855408,   570.722839
-0.111017,   0.122810,   0.153752,   -347.236053,   561.683533,   0.527610,   5.656495,   26.860287,   42.657795,   171.789703,   -449.849915,   0.089981,   794.416809,   582.921387
-0.108956,   0.122079,   0.152048,   -337.058838,   568.434753,   0.527610,   5.656495,   26.047049,   52.224594,   179.151337,   -448.276764,   0.097298,   792.668091,   596.155762
-0.106331,   0.120855,   0.149680,   -320.467163,   579.388672,   0.527611,   5.656495,   25.233810,   62.021011,   196.900482,   -444.844910,   0.109253,   789.978149,   615.957764
-0.101718,   0.117413,   0.144543,   -296.097656,   592.888367,   0.527611,   5.656495,   24.420572,   69.746910,   227.043839,   -437.479675,   0.126178,   784.055664,   638.744141
-0.094413,   0.110902,   0.135624,   -248.560196,   617.859802,   0.527611,   5.656495,   23.607334,   80.061089,   289.238495,   -420.395172,   0.159306,   772.727783,   673.561523
-0.086275,   0.104106,   0.126442,   -157.845917,   665.883301,   0.527610,   5.656495,   22.794098,   100.178482,   407.858887,   -382.054504,   0.223634,   757.246887,   718.821167
-0.078768,   0.099748,   0.120512,   -68.122543,   707.695496,   0.527611,   5.656495,   21.980860,   125.718147,   513.854797,   -335.873322,   0.286509,   744.099182,   737.034485
-0.072015,   0.097910,   0.117819,   -17.178740,   728.879089,   0.527611,   5.656495,   21.167622,   146.890915,   564.809448,   -309.009064,   0.321621,   737.618530,   737.168213
-0.066173,   0.098324,   0.117571,   0.000000,   740.929077,   0.527610,   5.656495,   20.354383,   162.632706,   588.463196,   -296.935150,   0.340217,   735.898376,   735.740356
-0.061729,   0.101110,   0.119588,   0.000000,   750.749878,   0.527610,   5.656495,   19.541147,   174.926437,   603.030762,   -291.650726,   0.351608,   737.522705,   736.392334
-0.059109,   0.106421,   0.123899,   0.000000,   760.413513,   0.527611,   5.656495,   18.727909,   184.760773,   613.840942,   -290.473602,   0.358733,   742.056763,   739.841125
-0.057882,   0.113653,   0.130034,   0.000000,   770.556946,   0.527611,   5.656495,   17.914671,   193.819504,   622.621094,   -292.096100,   0.363507,   748.670349,   745.497009
-0.058041,   0.122763,   0.138189,   0.000000,   781.426697,   0.527611,   5.656495,   17.101433,   202.432693,   629.699036,   -296.393982,   0.366248,   757.348267,   753.515198
-0.059781,   0.133326,   0.148306,   0.000000,   792.553345,   0.527610,   5.656495,   16.288195,   210.139221,   634.612000,   -303.294067,   0.366748,   767.786377,   763.778992
-0.061621,   0.143369,   0.158557,   0.000000,   802.896301,   0.527610,   5.656495,   15.474957,   217.724335,   637.808716,   -310.812866,   0.366592,   777.914673,   773.892822
-0.062960,   0.151734,   0.167499,   0.000000,   811.225586,   0.527610,   5.656495,   14.661719,   223.587387,   640.000305,   -317.204193,   0.366073,   786.353149,   782.416260
-0.064723,   0.159557,   0.176249,   0.000000,   818.412231,   0.527611,   5.656495,   13.848482,   227.560623,   641.522705,   -323.288513,   0.364721,   794.289795,   790.641174
-0.067344,   0.167756,   0.185574,   0.000000,   825.252502,   0.527611,   5.656495,   13.035244,   231.575241,   641.204834,   -330.552460,   0.362505,   802.544922,   799.369385
-0.070447,   0.175993,   0.194980,   0.000000,   831.464294,   0.527610,   5.656495,   12.222006,   235.617935,   639.198608,   -338.468353,   0.359715,   810.658081,   808.043823
-0.073771,   0.183847,   0.203961,   0.000000,   836.911987,   0.527611,   5.656495,   11.408768,   239.956436,   635.709167,   -346.567627,   0.356734,   818.223755,   816.155029
-0.077000,   0.190891,   0.212042,   0.000000,   841.443420,   0.527610,   5.656495,   10.595531,   244.947784,   630.571472,   -354.660706,   0.353774,   824.933533,   823.347839
-0.080133,   0.197000,   0.219054,   0.000000,   845.117310,   0.527611,   5.656495,   9.782292,   250.079453,   624.738464,   -362.123962,   0.351051,   830.665344,   829.469360
-0.083192,   0.202218,   0.225052,   0.000000,   848.006042,   0.527611,   5.656495,   8.969054,   255.393600,   618.149231,   -369.074493,   0.348498,   835.530334,   834.651672
-0.086143,   0.206565,   0.230073,   0.000000,   849.978516,   0.527610,   5.656495,   8.155817,   260.847504,   610.202087,   -375.845337,   0.345802,   839.641296,   839.046082
-0.088930,   0.210099,   0.234196,   0.000000,   851.044434,   0.527611,   5.656495,   7.342579,   266.751587,   600.395142,   -382.691223,   0.342837,   843.108582,   842.762512
-0.091858,   0.212817,   0.237405,   0.000000,   850.562439,   0.527611,   5.656495,   6.529341,   271.944275,   587.815308,   -389.910583,   0.338754,   846.001343,   845.888916
-0.094773,   0.214652,   0.239644,   0.000000,   848.354858,   0.527611,   5.656495,   5.716104,   277.515869,   570.861694,   -397.999878,   0.333347,   848.343445,   848.343506
-0.307972,   0.135343,   0.344737,   -922.862915,   0.000000,   0.530988,   6.480167,   52.313992,   -260.473816,   -701.025757,   -383.330811,   -0.354471,   904.163879,   -902.303833
-0.268078,   0.109509,   0.299309,   -924.269165,   0.000000,   0.530988,   6.480167,   51.520405,   -274.305420,   -760.067383,   -326.688202,   -0.394303,   874.431702,   -858.628723
-0.224222,   0.085725,   0.249835,   -911.830750,   0.000000,   0.530986,   6.480167,   50.726818,   -295.578461,   -782.433350,   -282.385254,   -0.427201,   841.143555,   -802.953857
-0.179357,   0.065147,   0.199276,   -884.238037,   0.000000,   0.530986,   6.480167,   49.933235,   -310.826782,   -770.058594,   -255.874527,   -0.448042,   804.154236,   -747.128662
-0.136716,   0.048554,   0.151277,   -818.946960,   0.000000,   0.530988,   6.480167,   49.139648,   -330.685669,   -593.604675,   -331.701569,   -0.399251,   771.686951,   -755.256104
-0.104663,   0.037477,   0.119110,   -638.005920,   171.271973,   0.530986,   6.480167,   48.346062,   -338.985718,   -127.748215,   -390.611511,   -0.210614,   738.686768,   -691.864258
-0.091457,   0.037260,   0.111181,   -558.656494,   267.585846,   0.530988,   6.480167,   47.552475,   -287.671875,   -3.398777,   -387.899872,   -0.132873,   730.197144,   -604.104187
-0.093592,   0.047533,   0.115055,   -529.502136,   309.971954,   0.530988,   6.480167,   46.758888,   -266.194153,   46.663956,   -389.498566,   -0.099527,   735.245483,   -556.907288
-0.101802,   0.062409,   0.123126,   -506.504608,   349.887756,   0.530988,   6.480167,   45.965305,   -242.862198,   86.245354,   -395.315094,   -0.070001,   745.780212,   -504.940125
-0.111222,   0.077293,   0.132669,   -492.352539,   379.944702,   0.530986,   6.480167,   45.171719,   -224.255341,   111.847488,   -402.472778,   -0.049463,   757.519470,   -457.957703
-0.120189,   0.090624,   0.143035,   -483.228363,   404.824982,   0.530986,   6.480167,   44.378132,   -205.241348,   126.837959,   -411.813690,   -0.033938,   770.075195,   -411.146271
-0.127349,   0.102125,   0.152798,   -474.457794,   427.492096,   0.530988,   6.480167,   43.584549,   -185.948166,   138.982483,   -420.693970,   -0.020033,   781.464417,   -350.258789
-0.132246,   0.110687,   0.160223,   -467.518646,   444.235565,   0.530986,   6.480167,   42.790962,   -171.419998,   148.136932,   -426.959930,   -0.009828,   789.688110,   -279.236664
-0.135303,   0.117436,   0.165890,   -459.143829,   460.026764,   0.530989,   6.480167,   41.997375,   -156.189163,   157.072098,   -432.071167,   0.000370,   796.025208,   94.324669
-0.138569,   0.123350,   0.171554,   -454.022491,   472.273590,   0.530986,   6.480167,   41.203789,   -142.682709,   160.933807,   -437.561829,   0.007583,   802.247803,   260.200287
-0.140774,   0.127681,   0.175664,   -449.313690,   482.129944,   0.530988,   6.480167,   40.410202,   -130.730484,   163.546738,   -441.867676,   0.013558,   806.820679,   317.564270
-0.141939,   0.131441,   0.178833,   -443.219788,   492.278290,   0.530986,   6.480167,   39.616615,   -117.433556,   166.492050,   -445.685669,   0.020175,   810.536316,   364.144073
-0.142575,   0.133997,   0.180893,   -438.434967,   499.783173,   0.530986,   6.480167,   38.823032,   -106.401939,   167.750137,   -448.635132,   0.025150,   813.099548,   393.053650
-0.142513,   0.135718,   0.181988,   -433.416412,   506.440338,   0.530988,   6.480167,   38.029446,   -95.706383,   168.730316,   -450.944550,   0.029875,   814.758362,   417.013306
-0.141912,   0.136978,   0.182475,   -428.147644,   512.646606,   0.530986,   6.480167,   37.235859,   -85.075798,   169.574753,   -452.837402,   0.034524,   815.846375,   438.060944
-0.141345,   0.138019,   0.182864,   -423.173584,   518.365356,   0.530989,   6.480167,   36.442272,   -74.956268,   170.148056,   -454.538086,   0.038848,   816.784607,   456.014221
-0.140558,   0.138828,   0.182971,   -418.238098,   523.666138,   0.530986,   6.480167,   35.648685,   -65.280426,   170.708466,   -455.931152,   0.042992,   817.414490,   471.888092
-0.139632,   0.139387,   0.182824,   -413.331451,   528.629639,   0.530988,   6.480167,   34.855103,   -55.673672,   170.971863,   -457.143982,   0.046995,   817.796692,   486.152466
-0.138540,   0.139706,   0.182412,   -408.510895,   533.184387,   0.530986,   6.480167,   34.061516,   -46.423367,   171.096832,   -458.114319,   0.050810,   817.910950,   498.846497
-0.137352,   0.139883,   0.181846,   -403.565247,   537.626953,   0.530986,   6.480167,   33.267929,   -37.155704,   171.217392,   -458.918121,   0.054640,   817.847900,   510.831757
-0.136079,   0.139946,   0.181149,   -398.589172,   541.897034,   0.530988,   6.480167,   32.474346,   -28.032883,   171.340759,   -459.555359,   0.058424,   817.630737,   521.997681
-0.134738,   0.139898,   0.180335,   -393.434875,   546.135803,   0.530987,   6.480167,   31.680758,   -18.976784,   171.677673,   -460.011932,   0.062281,   817.266296,   532.752502
-0.133346,   0.139780,   0.179441,   -388.223785,   550.272339,   0.530987,   6.480167,   30.887173,   -10.054545,   172.103088,   -460.324219,   0.066132,   816.790161,   542.925842
-0.131901,   0.139597,   0.178471,   -382.691528,   554.542908,   0.530987,   6.480167,   30.093586,   -1.043860,   172.895233,   -460.476257,   0.070183,   816.204285,   553.085327
-0.130374,   0.139331,   0.177395,   -376.896484,   558.853760,   0.530988,   6.480167,   29.299999,   7.831186,   174.126099,   -460.427673,   0.074377,   815.474426,   563.038147
-0.128759,   0.138980,   0.176207,   -370.670349,   563.351379,   0.530987,   6.480167,   28.506414,   16.867775,   175.813293,   -460.199127,   0.078845,   814.603577,   573.080627
-0.127034,   0.138531,   0.174887,   -363.918427,   568.067139,   0.530987,   6.480167,   27.712828,   25.680309,   178.468399,   -459.688171,   0.083645,   813.552063,   583.264221
-0.125107,   0.137907,   0.173329,   -355.918457,   573.495544,   0.530988,   6.480167,   26.919241,   34.732162,   182.844955,   -458.768188,   0.089294,   812.214722,   594.534668
-0.122943,   0.137092,   0.171503,   -346.866058,   579.409241,   0.530986,   6.480167,   26.125656,   43.669994,   188.873199,   -457.411743,   0.095631,   810.560669,   606.310059
-0.120328,   0.135864,   0.169131,   -334.202209,   587.513672,   0.530987,   6.480167,   25.332071,   52.240261,   201.071213,   -454.810272,   0.104474,   808.215210,   621.508667
-0.116341,   0.133204,   0.164933,   -313.873810,   599.512329,   0.530988,   6.480167,   24.538485,   60.381844,   225.256668,   -449.191071,   0.118453,   803.805298,   642.457458
-0.109810,   0.127631,   0.157124,   -284.514435,   613.994080,   0.530987,   6.480167,   23.744898,   67.483650,   261.996002,   -438.600769,   0.138081,   795.378784,   665.522400
-0.101118,   0.119752,   0.146475,   -227.450653,   643.162170,   0.530987,   6.480167,   22.951313,   79.899681,   335.811859,   -416.075623,   0.177178,   782.099182,   701.698120
-0.092234,   0.112596,   0.136869,   -135.503723,   689.321411,   0.530987,   6.480167,   22.157726,   101.052109,   452.765564,   -373.039581,   0.240964,   766.114136,   738.428101
-0.084140,   0.108137,   0.130869,   -57.320763,   723.776306,   0.530988,   6.480167,   21.364141,   125.566528,   540.889038,   -330.764221,   0.294603,   754.072449,   749.147339
-0.077137,   0.106642,   0.128525,   -14.488309,   741.455750,   0.530986,   6.480167,   20.570555,   144.706024,   582.261414,   -308.219360,   0.323612,   748.805054,   748.489624
-0.071480,   0.107730,   0.128946,   0.000000,   752.874268,   0.530987,   6.480167,   19.776970,   158.572922,   604.252563,   -297.197021,   0.339964,   747.948303,   747.799377
-0.067236,   0.111416,   0.131745,   0.000000,   763.047302,   0.530988,   6.480167,   18.983383,   170.007828,   619.356995,   -291.914398,   0.350719,   750.234802,   749.195129
-0.064413,   0.117709,   0.136959,   0.000000,   773.875427,   0.530987,   6.480167,   18.189796,   180.831146,   631.630615,   -290.443604,   0.358550,   755.321838,   753.099487
-0.063665,   0.126238,   0.144234,   0.000000,   784.397217,   0.530987,   6.480167,   17.396212,   188.853180,   641.321289,   -291.904144,   0.362899,   762.539856,   759.439148
-0.064708,   0.137280,   0.154452,   0.000000,   796.585205,   0.530987,   6.480167,   16.602625,   197.613327,   649.533691,   -296.782288,   0.365522,   772.546265,   768.810303
-0.067028,   0.149726,   0.166610,   0.000000,   808.970215,   0.530987,   6.480167,   15.809039,   205.347778,   656.362305,   -303.508759,   0.366405,   783.932007,   779.925537
-0.069450,   0.161370,   0.178629,   0.000000,   820.057922,   0.530987,   6.480167,   15.015453,   212.345551,   661.180115,   -310.728210,   0.366408,   794.674255,   790.612183
-0.071674,   0.171136,   0.189123,   0.000000,   828.349976,   0.530987,   6.480167,   14.221868,   216.014374,   664.319214,   -316.925690,   0.365153,   803.620178,   799.824158
-0.074468,   0.181096,   0.200250,   0.000000,   836.621582,   0.530987,   6.480167,   13.428282,   219.643860,   667.117737,   -323.388489,   0.363705,   812.712463,   809.221619
-0.078264,   0.191667,   0.212203,   0.000000,   844.454468,   0.530987,   6.480167,   12.634696,   222.853699,   668.128052,   -331.065918,   0.361228,   822.178833,   819.208862
-0.082573,   0.202043,   0.223975,   0.000000,   851.271301,   0.530987,   6.480167,   11.841109,   225.874359,   666.999878,   -339.474304,   0.358044,   831.251038,   828.903748
-0.087062,   0.211779,   0.235063,   0.000000,   856.926331,   0.530987,   6.480167,   11.047523,   229.196823,   663.433838,   -348.512451,   0.354369,   839.643677,   837.933105
-0.091558,   0.220670,   0.245202,   0.000000,   861.664551,   0.530987,   6.480167,   10.253938,   232.584549,   658.930115,   -357.122070,   0.350796,   847.134033,   845.949585
-0.096013,   0.228675,   0.254352,   0.000000,   865.650024,   0.530987,   6.480167,   9.460352,   236.220383,   653.722290,   -365.230865,   0.347459,   853.762939,   852.984802
-0.100459,   0.235807,   0.262535,   0.000000,   868.976074,   0.530987,   6.480167,   8.666766,   240.129974,   647.905518,   -372.852997,   0.344358,   859.604858,   859.129211
-0.104753,   0.242083,   0.269798,   0.000000,   871.613342,   0.530987,   6.480167,   7.873180,   244.385284,   641.083313,   -380.256378,   0.341312,   864.768982,   864.519165
-0.109256,   0.247641,   0.276288,   0.000000,   873.251770,   0.530987,   6.480167,   7.079594,   248.061691,   632.935242,   -387.612579,   0.337778,   869.405090,   869.327454
-0.113834,   0.252573,   0.282153,   0.000000,   873.870544,   0.530987,   6.480167,   6.286008,   251.909073,   622.300293,   -395.559082,   0.333527,   873.701172,   873.701050
-0.343071,   0.151544,   0.383517,   -947.810425,   0.000000,   0.533427,   7.328438,   51.780094,   -256.543579,   -749.152039,   -370.575195,   -0.364290,   920.234314,   -916.124756
-0.282755,   0.114918,   0.315342,   -942.328186,   0.000000,   0.533425,   7.328438,   51.004917,   -290.824677,   -789.337341,   -315.712006,   -0.408442,   881.530457,   -856.783020
-0.225577,   0.085562,   0.251131,   -918.998108,   0.000000,   0.533425,   7.328438,   50.229740,   -319.014740,   -785.363403,   -283.158295,   -0.437329,   841.759766,   -793.858337
-0.172716,   0.062841,   0.191714,   -866.364624,   0.000000,   0.533425,   7.328438,   49.454567,   -330.744965,   -679.693237,   -316.203827,   -0.418886,   804.067566,   -774.224426
-0.129460,   0.046654,   0.145684,   -718.939270,   89.144516,   0.533425,   7.328438,   48.679390,   -375.033752,   -254.760986,   -399.541565,   -0.273560,   767.404663,   -755.624207
-0.106171,   0.041358,   0.127653,   -577.302612,   267.353912,   0.533425,   7.328438,   47.904217,   -305.756592,   -4.192137,   -394.494476,   -0.138173,   747.730286,   -625.775574
-0.103891,   0.049950,   0.128449,   -547.777466,   305.992065,   0.533425,   7.328438,   47.129040,   -283.342590,   41.557182,   -394.766571,   -0.107574,   749.204163,   -581.378357
-0.111978,   0.066364,   0.136623,   -515.551270,   355.567291,   0.533426,   7.328438,   46.353867,   -256.660950,   96.676956,   -398.120544,   -0.070294,   758.639832,   -514.340759
-0.123085,   0.083971,   0.147794,   -499.111633,   389.307037,   0.533426,   7.328438,   45.578690,   -235.739639,   125.935028,   -405.733643,   -0.047451,   771.349487,   -459.999054
-0.133697,   0.099994,   0.159797,   -486.056335,   419.074982,   0.533425,   7.328438,   44.803513,   -214.302597,   147.321243,   -414.876770,   -0.028457,   784.581848,   -395.143738
-0.142583,   0.113925,   0.171521,   -476.753510,   443.342285,   0.533425,   7.328438,   44.028336,   -194.469193,   161.057953,   -424.316132,   -0.013974,   797.001404,   -316.870911
-0.148941,   0.124688,   0.181087,   -469.463531,   461.976440,   0.533425,   7.328438,   43.253162,   -178.401306,   170.914200,   -431.728821,   -0.003094,   806.659363,   -194.055038
-0.152860,   0.132579,   0.187878,   -462.171539,   477.162537,   0.533425,   7.328438,   42.477985,   -163.738144,   178.729126,   -437.339874,   0.006142,   813.521667,   245.963181
-0.156655,   0.139736,   0.194574,   -456.466583,   490.419250,   0.533426,   7.328438,   41.702808,   -149.456070,   183.408737,   -443.225067,   0.013798,   820.202881,   324.728180
-0.158950,   0.144733,   0.199166,   -451.110260,   501.031860,   0.533425,   7.328438,   40.927635,   -136.385773,   186.307373,   -447.896118,   0.020171,   824.956970,   370.598755
-0.160443,   0.148547,   0.202493,   -447.225616,   508.848022,   0.533426,   7.328438,   40.152458,   -125.078392,   186.700806,   -451.904449,   0.024791,   828.557129,   398.618774
-0.160929,   0.151394,   0.204656,   -442.216858,   516.532043,   0.533425,   7.328438,   39.377281,   -113.543030,   187.858215,   -455.070526,   0.029805,   831.131958,   425.059723
-0.161084,   0.153717,   0.206319,   -437.381561,   523.441223,   0.533425,   7.328438,   38.602108,   -102.709229,   188.768875,   -457.772034,   0.034429,   833.208801,   446.975494
-0.160754,   0.155323,   0.207210,   -433.167328,   528.939575,   0.533425,   7.328438,   37.826931,   -93.090714,   188.862930,   -459.932556,   0.038251,   834.583923,   463.575073
-0.160027,   0.156354,   0.207482,   -428.609131,   534.142761,   0.533425,   7.328438,   37.051758,   -83.475433,   189.009033,   -461.693451,   0.042107,   835.435669,   478.994537
-0.159002,   0.156876,   0.207231,   -424.421356,   538.443848,   0.533426,   7.328438,   36.276581,   -74.684189,   188.706696,   -463.069824,   0.045474,   835.812378,   491.509888
-0.157693,   0.157174,   0.206665,   -419.818268,   542.809753,   0.533425,   7.328438,   35.501404,   -65.553123,   188.544632,   -464.243225,   0.049044,   835.925415,   503.947571
-0.156379,   0.157335,   0.206013,   -415.483582,   546.771790,   0.533425,   7.328438,   34.726231,   -56.891056,   188.179260,   -465.262268,   0.052353,   835.919067,   514.856934
-0.155007,   0.157375,   0.205243,   -411.102417,   550.605957,   0.533426,   7.328438,   33.951054,   -48.341450,   187.844986,   -466.127380,   0.055638,   835.779602,   525.133057
-0.153583,   0.157296,   0.204361,   -406.773560,   554.228027,   0.533425,   7.328438,   33.175877,   -40.023636,   187.478119,   -466.842316,   0.058828,   835.511047,   534.614075
-0.152087,   0.157153,   0.203392,   -402.221619,   557.916199,   0.533425,   7.328438,   32.400703,   -31.610790,   187.305359,   -467.423889,   0.062143,   835.139954,   544.010742
-0.150573,   0.156903,   0.202336,   -397.688171,   561.439026,   0.533425,   7.328438,   31.625526,   -23.462204,   187.213074,   -467.851715,   0.065397,   834.654053,   552.789673
-0.149015,   0.156601,   0.201218,   -392.956940,   565.030090,   0.533425,   7.328438,   30.850351,   -15.270452,   187.343582,   -468.157745,   0.068767,   834.090332,   561.489624
-0.147421,   0.156253,   0.200045,   -388.070801,   568.632690,   0.533425,   7.328438,   30.075176,   -7.146228,   187.708130,   -468.325043,   0.072216,   833.433777,   569.994141
-0.145774,   0.155850,   0.198805,   -382.813293,   572.429199,   0.533426,   7.328438,   29.300001,   1.045625,   188.570282,   -468.327545,   0.075906,   832.679260,   578.694885
-0.144057,   0.155381,   0.197476,   -377.308502,   576.286499,   0.533425,   7.328438,   28.524824,   9.140649,   189.837372,   -468.159210,   0.079737,   831.808655,   587.299744
-0.142248,   0.154834,   0.196040,   -371.216217,   580.474243,   0.533425,   7.328438,   27.749649,   17.376509,   191.881531,   -467.777405,   0.083958,   830.802856,   596.342285
-0.140278,   0.154140,   0.194408,   -364.391632,   585.002991,   0.533426,   7.328438,   26.974474,   25.384659,   195.226700,   -467.039581,   0.088645,   829.566162,   605.833801
-0.138049,   0.153268,   0.192505,   -356.291779,   590.253479,   0.533425,   7.328438,   26.199297,   33.694904,   200.266830,   -465.886719,   0.094183,   828.037109,   616.416077
-0.135461,   0.152052,   0.190155,   -345.982849,   596.748657,   0.533425,   7.328438,   25.424122,   41.809372,   208.956451,   -463.897766,   0.101197,   826.001160,   628.911743
-0.131923,   0.149891,   0.186581,   -330.409851,   606.055481,   0.533425,   7.328438,   24.648947,   49.142563,   226.503036,   -459.758240,   0.111693,   822.630310,   645.795959
-0.126401,   0.145555,   0.180275,   -307.719879,   617.894226,   0.533425,   7.328438,   23.873770,   55.584259,   254.590088,   -451.984009,   0.126632,   816.469910,   665.868591
-0.118381,   0.138361,   0.170433,   -274.754242,   633.081299,   0.533425,   7.328438,   23.098595,   62.256279,   296.070740,   -438.604645,   0.148125,   806.364441,   688.579773
-0.108845,   0.129670,   0.158802,   -211.990433,   664.508972,   0.533425,   7.328438,   22.323420,   75.494156,   377.024384,   -411.500519,   0.190436,   792.074280,   724.011108
-0.099325,   0.122242,   0.148886,   -122.438820,   707.659241,   0.533425,   7.328438,   21.548244,   97.252625,   487.967773,   -366.198181,   0.251333,   776.155762,   753.968140
-0.090654,   0.117564,   0.142651,   -53.559765,   736.764954,   0.533425,   7.328438,   20.773067,   120.382263,   562.822937,   -327.436798,   0.297711,   764.952454,   760.716675
-0.083034,   0.115873,   0.139966,   -15.815489,   751.789429,   0.533425,   7.328438,   19.997892,   137.304291,   598.669678,   -306.740662,   0.322872,   759.820679,   759.450195
-0.076852,   0.117177,   0.140436,   0.000000,   763.134949,   0.533425,   7.328438,   19.222717,   151.249741,   620.127075,   -295.811432,   0.338748,   759.047607,   758.946899
-0.072694,   0.121809,   0.144121,   0.000000,   774.126038,   0.533425,   7.328438,   18.447540,   162.722321,   636.257935,   -290.332672,   0.349509,   762.002930,   761.090149
-0.070748,   0.129456,   0.150555,   0.000000,   785.217834,   0.533425,   7.328438,   17.672365,   171.436905,   649.916626,   -288.175781,   0.356589,   767.787964,   765.871155
-0.070352,   0.139959,   0.159958,   0.000000,   797.965820,   0.533425,   7.328438,   16.897190,   181.357285,   661.559265,   -290.016266,   0.361860,   776.466858,   773.531311
-0.072232,   0.152826,   0.171859,   0.000000,   810.684814,   0.533425,   7.328438,   16.122015,   188.674286,   671.564880,   -294.166718,   0.364317,   787.078491,   783.557251
-0.075493,   0.167545,   0.186508,   0.000000,   824.324585,   0.533425,   7.328438,   15.346839,   196.348648,   679.904053,   -301.152161,   0.365276,   799.626160,   795.819275
-0.078808,   0.181095,   0.200535,   0.000000,   836.046875,   0.533425,   7.328438,   14.571663,   201.827560,   687.068176,   -307.384430,   0.365388,   810.915100,   807.026855
-0.081811,   0.193283,   0.213708,   0.000000,   846.110413,   0.533425,   7.328438,   13.796487,   205.750671,   693.227783,   -312.889587,   0.365014,   820.954102,   817.110962
-0.086105,   0.205773,   0.227615,   0.000000,   855.105530,   0.533425,   7.328438,   13.021312,   208.169113,   697.017761,   -319.801086,   0.363005,   831.197205,   827.792358
-0.091268,   0.218718,   0.242171,   0.000000,   863.446838,   0.533425,   7.328438,   12.246136,   210.189117,   698.922546,   -327.836487,   0.360097,   841.544128,   838.749756
-0.097038,   0.231566,   0.256681,   0.000000,   870.734253,   0.533425,   7.328438,   11.470961,   212.103653,   698.345642,   -336.957550,   0.356380,   851.571533,   849.484131
-0.103103,   0.243815,   0.270546,   0.000000,   876.903809,   0.533425,   7.328438,   10.695785,   213.848938,   696.065247,   -346.274292,   0.352322,   860.873413,   859.447754
-0.109247,   0.255117,   0.283376,   0.000000,   881.972229,   0.533425,   7.328438,   9.920609,   215.567383,   692.385071,   -355.445923,   0.348165,   869.273376,   868.399170
-0.115401,   0.265500,   0.295208,   0.000000,   886.365417,   0.533425,   7.328438,   9.145433,   217.638489,   688.119507,   -364.104889,   0.344331,   876.829956,   876.347229
-0.121601,   0.274984,   0.306090,   0.000000,   890.043701,   0.533425,   7.328438,   8.370258,   219.841690,   683.125183,   -372.393890,   0.340619,   883.652954,   883.440369
-0.127861,   0.283702,   0.316170,   0.000000,   893.229553,   0.533425,   7.328438,   7.595082,   221.915100,   678.166931,   -379.966614,   0.337176,   889.823059,   889.763733
-0.134363,   0.291887,   0.325763,   0.000000,   895.885193,   0.533425,   7.328438,   6.819907,   224.098221,   672.292297,   -387.565247,   0.333615,   895.632690,   895.632324
-0.364614,   0.161689,   0.406726,   -964.767822,   0.000000,   0.535065,   8.199678,   51.283226,   -256.041718,   -786.561829,   -355.386017,   -0.374377,   928.300537,   -920.915955
-0.287280,   0.116477,   0.319925,   -949.377075,   0.000000,   0.535064,   8.199678,   50.525185,   -304.356140,   -795.888550,   -314.647888,   -0.415035,   883.655762,   -853.956726
-0.219826,   0.083632,   0.244447,   -907.580017,   0.000000,   0.535065,   8.199678,   49.767139,   -328.655853,   -733.911499,   -317.081818,   -0.421218,   840.868042,   -807.789185
-0.163020,   0.060246,   0.182114,   -801.712341,   1.220152,   0.535064,   8.199678,   49.009098,   -378.858612,   -421.633575,   -400.896149,   -0.332573,   802.323120,   -802.321045
-0.126287,   0.048040,   0.148957,   -613.299805,   249.147278,   0.535064,   8.199678,   48.251057,   -331.140503,   -33.012016,   -404.640076,   -0.157893,   768.773682,   -668.452393
-0.115771,   0.052745,   0.143414,   -565.358704,   303.767426,   0.535065,   8.199678,   47.493015,   -297.650055,   36.058769,   -401.253876,   -0.114138,   763.965149,   -603.739136
-0.121862,   0.069293,   0.150148,   -525.633423,   359.077087,   0.535064,   8.199678,   46.734970,   -269.628326,   103.071999,   -401.187958,   -0.072037,   770.694336,   -526.664551
-0.134340,   0.089839,   0.162611,   -504.838379,   398.200317,   0.535064,   8.199678,   45.976933,   -245.535858,   138.897781,   -408.561401,   -0.045347,   783.869995,   -460.540771
-0.146831,   0.109263,   0.176572,   -487.167938,   433.621338,   0.535066,   8.199678,   45.218887,   -221.621841,   168.075241,   -417.129791,   -0.022370,   797.876221,   -370.977264
-0.157835,   0.125961,   0.190663,   -476.879883,   460.012360,   0.535064,   8.199678,   44.460846,   -201.433914,   184.566391,   -426.840393,   -0.006929,   811.416321,   -255.381165
-0.165380,   0.138753,   0.201860,   -468.476135,   480.443268,   0.535064,   8.199678,   43.702801,   -184.118195,   196.085327,   -434.710632,   0.004854,   821.810120,   229.719528
-0.171297,   0.148956,   0.211212,   -462.073883,   496.478546,   0.535065,   8.199678,   42.944759,   -169.025513,   203.430176,   -441.616211,   0.013812,   830.308960,   328.836456
-0.174534,   0.156379,   0.217720,   -455.544403,   509.698364,   0.535064,   8.199678,   42.186718,   -154.800156,   208.954117,   -447.039276,   0.021583,   836.363220,   384.268463
-0.178549,   0.163062,   0.224433,   -452.450439,   519.570251,   0.535064,   8.199678,   41.428677,   -142.594437,   209.714233,   -452.963257,   0.026557,   842.463318,   414.675201
-0.179791,   0.167472,   0.228047,   -447.202148,   528.687439,   0.535065,   8.199678,   40.670635,   -129.983246,   211.468536,   -457.102600,   0.032101,   846.126648,   443.505371
-0.180737,   0.170967,   0.230912,   -443.429993,   535.577332,   0.535065,   8.199678,   39.912590,   -119.280624,   211.427948,   -460.729614,   0.036175,   849.096130,   463.012939
-0.180869,   0.173094,   0.232383,   -439.915894,   540.964844,   0.535064,   8.199678,   39.154549,   -109.560028,   210.608963,   -463.578156,   0.039582,   850.968811,   478.044189
-0.180124,   0.174623,   0.232956,   -435.608093,   546.297119,   0.535065,   8.199678,   38.396507,   -99.565063,   210.254074,   -465.872803,   0.043298,   852.153931,   493.091492
-0.179295,   0.175606,   0.233133,   -431.775574,   550.742493,   0.535064,   8.199678,   37.638466,   -90.574615,   209.541504,   -467.779877,   0.046492,   852.962219,   505.262695
-0.178219,   0.176240,   0.232932,   -428.142181,   554.607910,   0.535064,   8.199678,   36.880424,   -82.222481,   208.688187,   -469.352936,   0.049395,   853.432312,   515.708069
-0.176889,   0.176524,   0.232348,   -424.363586,   558.222595,   0.535065,   8.199678,   36.122379,   -74.158226,   208.017212,   -470.598724,   0.052274,   853.572632,   525.470459
-0.175431,   0.176547,   0.231510,   -420.649963,   561.522034,   0.535064,   8.199678,   35.364338,   -66.326225,   207.198273,   -471.658295,   0.055018,   853.497253,   534.301270
-0.173839,   0.176377,   0.230460,   -416.864716,   564.664795,   0.535064,   8.199678,   34.606297,   -58.599052,   206.399155,   -472.539978,   0.057741,   853.235840,   542.641235
-0.172200,   0.176094,   0.229308,   -413.106934,   567.643127,   0.535065,   8.199678,   33.848255,   -51.067959,   205.604141,   -473.283752,   0.060399,   852.861816,   550.427185
-0.170536,   0.175741,   0.228092,   -409.285248,   570.575623,   0.535065,   8.199678,   33.090210,   -43.594273,   204.884659,   -473.916016,   0.063072,   852.407837,   557.947693
-0.168894,   0.175343,   0.226859,   -405.471680,   573.428345,   0.535064,   8.199678,   32.332169,   -36.311378,   204.268005,   -474.438293,   0.065718,   851.901550,   565.111877
-0.167245,   0.174940,   0.225620,   -401.461548,   576.397278,   0.535064,   8.199678,   31.574127,   -28.995581,   203.931290,   -474.856018,   0.068493,   851.355713,   572.372437
-0.165571,   0.174484,   0.224329,   -397.349640,   579.360291,   0.535064,   8.199678,   30.816084,   -21.742025,   203.752655,   -475.161652,   0.071315,   850.737122,   579.473816
-0.163870,   0.173988,   0.222994,   -393.037079,   582.410583,   0.535064,   8.199678,   30.058043,   -14.457610,   203.831100,   -475.354645,   0.074260,   850.052490,   586.613892
-0.162128,   0.173452,   0.221606,   -388.494049,   585.559448,   0.535065,   8.199678,   29.300001,   -7.203340,   204.268738,   -475.410278,   0.077345,   849.290161,   593.812866
-0.160323,   0.172858,   0.220141,   -383.580231,   588.906372,   0.535064,   8.199678,   28.541958,   0.128006,   205.198120,   -475.309479,   0.080669,   848.432251,   601.269470
-0.158430,   0.172193,   0.218575,   -378.328522,   592.391846,   0.535064,   8.199678,   27.783916,   7.402793,   206.660568,   -475.024841,   0.084199,   847.454590,   608.849670
-0.156394,   0.171411,   0.216845,   -372.316925,   596.319824,   0.535065,   8.199678,   27.025873,   14.810614,   209.192291,   -474.466248,   0.088227,   846.307983,   617.134644
-0.154168,   0.170455,   0.214882,   -365.500092,   600.618774,   0.535064,   8.199678,   26.267830,   21.987282,   213.131363,   -473.510712,   0.092760,   844.902039,   625.956909
-0.151636,   0.169264,   0.212583,   -357.064514,   605.850952,   0.535064,   8.199678,   25.509789,   29.170382,   219.616058,   -471.947205,   0.098358,   843.135986,   636.269043
-0.148425,   0.167420,   0.209428,   -345.041565,   613.057983,   0.535064,   8.199678,   24.751747,   36.046413,   231.969986,   -468.926605,   0.106294,   840.490479,   649.801697
-0.143729,   0.164012,   0.204282,   -327.477112,   622.594360,   0.535065,   8.199678,   23.993704,   41.865807,   253.251450,   -463.128479,   0.117683,   835.912964,   666.795776
-0.136738,   0.158026,   0.195920,   -303.818726,   633.455200,   0.535064,   8.199678,   23.235661,   46.814518,   282.821960,   -453.536896,   0.132661,   828.267395,   684.915405
-0.127407,   0.149400,   0.184291,   -268.567810,   648.764709,   0.535064,   8.199678,   22.477619,   52.950058,   327.246826,   -437.681458,   0.155146,   816.860840,   706.776062
-0.116934,   0.139922,   0.171656,   -203.080475,   680.698975,   0.535064,   8.199678,   21.719578,   66.670837,   410.947632,   -406.982666,   0.198569,   801.766418,   740.510803
-0.106599,   0.131930,   0.161069,   -117.292999,   720.555664,   0.535065,   8.199678,   20.961535,   88.658653,   514.604004,   -360.749542,   0.255903,   785.795288,   765.728516
-0.097238,   0.126837,   0.154340,   -54.832340,   746.054810,   0.535064,   8.199678,   20.203493,   110.283592,   580.938904,   -323.999939,   0.297328,   774.927307,   770.544678
-0.089282,   0.125340,   0.151807,   -19.419277,   760.377502,   0.535064,   8.199678,   19.445450,   126.516861,   614.441345,   -304.143341,   0.320648,   770.270752,   769.719666
-0.083250,   0.127121,   0.152704,   0.000000,   771.629578,   0.535064,   8.199678,   18.687408,   139.045334,   636.207520,   -292.687317,   0.335684,   769.824341,   769.805115
-0.078999,   0.132337,   0.156798,   0.000000,   782.733032,   0.535065,   8.199678,   17.929365,   149.365662,   653.635132,   -285.948242,   0.346361,   772.798462,   772.200195
-0.077252,   0.141508,   0.164739,   0.000000,   795.544373,   0.535064,   8.199678,   17.171324,   159.742264,   668.799622,   -283.874207,   0.354273,   779.569519,   777.995911
-0.077941,   0.153766,   0.175671,   0.000000,   808.587036,   0.535065,   8.199678,   16.413282,   167.331879,   682.491516,   -284.357849,   0.359131,   788.777649,   786.347046
-0.080833,   0.169262,   0.190366,   0.000000,   823.192932,   0.535064,   8.199678,   15.655239,   175.110840,   694.801270,   -288.458557,   0.362076,   800.856018,   797.781372
-0.085116,   0.186378,   0.207390,   0.000000,   838.011047,   0.535064,   8.199678,   14.897197,   182.208267,   705.923889,   -294.318054,   0.363642,   814.108459,   810.626282
-0.089311,   0.202105,   0.223747,   0.000000,   850.662720,   0.535064,   8.199678,   14.139154,   187.185028,   715.057556,   -299.951630,   0.364065,   826.081360,   822.446655
-0.093728,   0.216929,   0.239798,   0.000000,   861.820801,   0.535064,   8.199678,   13.381112,   190.323242,   723.252747,   -305.037903,   0.363767,   837.143982,   833.533081
-0.099505,   0.232589,   0.257164,   0.000000,   872.328796,   0.535064,   8.199678,   12.623070,   192.343536,   729.588501,   -311.546631,   0.362132,   848.615112,   845.344238
-0.106395,   0.248743,   0.275233,   0.000000,   881.818665,   0.535064,   8.199678,   11.865027,   193.622589,   733.399658,   -319.595673,   0.359266,   860.108276,   857.429565
-0.114017,   0.264606,   0.293048,   0.000000,   889.871033,   0.535064,   8.199678,   11.106986,   194.333420,   734.439331,   -328.798706,   0.355414,   871.071899,   869.114258
-0.121948,   0.279624,   0.309967,   0.000000,   896.353088,   0.535065,   8.199678,   10.348944,   194.421799,   733.108276,   -338.506500,   0.350867,   881.178345,   879.936096
-0.129995,   0.293652,   0.325832,   0.000000,   901.762207,   0.535064,   8.199678,   9.590901,   194.593536,   730.358643,   -348.154053,   0.346271,   890.393799,   889.713928
-0.138387,   0.306783,   0.340757,   0.000000,   906.191345,   0.535064,   8.199678,   8.832859,   194.364258,   726.771240,   -357.373901,   0.341612,   898.812439,   898.532898
-0.146828,   0.319113,   0.354869,   0.000000,   910.268433,   0.535064,   8.199678,   8.074817,   194.375610,   723.461304,   -365.696411,   0.337499,   906.507874,   906.436707
-0.155442,   0.330729,   0.368307,   0.000000,   914.028564,   0.535064,   8.199678,   7.316774,   194.600571,   720.234436,   -373.391144,   0.333775,   913.625671,   913.624817
-0.367843,   0.163918,   0.409202,   -971.573608,   0.000000,   0.536039,   9.092217,   50.824341,   -261.052032,   -804.791687,   -344.241455,   -0.382831,   928.036560,   -917.171692
-0.279731,   0.114079,   0.311007,   -941.103149,   0.000000,   0.536039,   9.092217,   50.082123,   -313.781860,   -763.225403,   -334.045624,   -0.407472,   881.047852,   -856.988770
-0.206778,   0.080034,   0.230221,   -868.093506,   0.000000,   0.536040,   9.092217,   49.339905,   -348.416016,   -582.429382,   -385.296265,   -0.370052,   838.480530,   -833.172913
-0.153090,   0.058626,   0.176019,   -685.939819,   185.312408,   0.536039,   9.092217,   48.597683,   -362.681183,   -137.946213,   -420.884369,   -0.209916,   794.963684,   -744.002319
-0.129025,   0.055763,   0.158826,   -579.670898,   305.216644,   0.536039,   9.092217,   47.855469,   -306.637238,   32.182968,   -408.725708,   -0.117510,   778.524719,   -620.741089
-0.129986,   0.070414,   0.161638,   -537.305237,   358.179535,   0.536040,   9.092217,   47.113247,   -280.317719,   101.192032,   -405.075073,   -0.076484,   780.667175,   -543.872681
-0.142604,   0.093399,   0.174282,   -508.121124,   405.681549,   0.536039,   9.092217,   46.371029,   -252.392975,   149.953384,   -410.229431,   -0.043058,   793.032166,   -458.042877
-0.157461,   0.116196,   0.190625,   -488.121735,   444.589447,   0.536039,   9.092217,   45.628811,   -228.377182,   184.844894,   -418.090210,   -0.017958,   808.044800,   -349.235077
-0.170795,   0.135956,   0.207252,   -476.177460,   473.756653,   0.536040,   9.092217,   44.886593,   -208.099335,   205.678543,   -427.540253,   -0.000981,   822.667969,   -134.947647
-0.181046,   0.152443,   0.221998,   -466.230133,   497.980011,   0.536039,   9.092217,   44.144371,   -188.952972,   220.702866,   -436.429626,   0.012672,   835.181335,   321.411896
-0.187753,   0.164394,   0.232850,   -458.406311,   515.842407,   0.536039,   9.092217,   43.402153,   -173.054077,   230.490158,   -443.371338,   0.022678,   844.212708,   394.308807
-0.193259,   0.174166,   0.242144,   -453.416107,   529.315857,   0.536040,   9.092217,   42.659935,   -159.165497,   235.065247,   -450.095612,   0.029698,   851.916504,   435.169464
-0.196138,   0.180934,   0.248189,   -448.090210,   540.361572,   0.536039,   9.092217,   41.917717,   -145.373489,   237.644836,   -455.613281,   0.035878,   857.266663,   466.197510
-0.199000,   0.186484,   0.253555,   -445.743958,   547.823181,   0.536039,   9.092217,   41.175499,   -134.434601,   236.513840,   -460.861420,   0.039475,   861.966858,   483.791504
-0.199671,   0.190186,   0.256377,   -441.880402,   554.667419,   0.536040,   9.092217,   40.433281,   -123.124596,   235.911636,   -464.811951,   0.043469,   864.876282,   501.106232
-0.200045,   0.192824,   0.258377,   -438.746521,   559.998596,   0.536039,   9.092217,   39.691059,   -113.538055,   234.790161,   -468.016907,   0.046614,   867.060791,   514.059143
-0.199835,   0.194786,   0.259574,   -436.004486,   564.253357,   0.536039,   9.092217,   38.948841,   -104.943497,   233.192398,   -470.685638,   0.049216,   868.618896,   524.258362
-0.199107,   0.195931,   0.259920,   -432.976959,   568.054871,   0.536040,   9.092217,   38.206623,   -96.730606,   231.808533,   -472.791382,   0.051781,   869.545898,   533.643311
-0.197972,   0.196604,   0.259711,   -429.841736,   571.469421,   0.536039,   9.092217,   37.464405,   -88.904564,   230.532257,   -474.495575,   0.054261,   870.047485,   542.197449
-0.196538,   0.196799,   0.259001,   -426.768463,   574.404236,   0.536039,   9.092217,   36.722187,   -81.452980,   229.088760,   -475.896698,   0.056554,   870.177673,   549.672302
-0.194904,   0.196665,   0.257946,   -423.716553,   577.005127,   0.536040,   9.092217,   35.979969,   -74.358856,   227.647430,   -477.031464,   0.058729,   870.032898,   556.397400
-0.193159,   0.196325,   0.256686,   -420.633026,   579.429321,   0.536039,   9.092217,   35.237751,   -67.488968,   226.285248,   -477.970032,   0.060862,   869.711243,   562.699036
-0.191344,   0.195830,   0.255278,   -417.534241,   581.705627,   0.536039,   9.092217,   34.495529,   -60.827774,   224.999161,   -478.743988,   0.062955,   869.251587,   568.628052
-0.189504,   0.195248,   0.253796,   -414.390411,   583.919861,   0.536039,   9.092217,   33.753311,   -54.284454,   223.813919,   -479.396698,   0.065050,   868.707458,   574.352234
-0.187671,   0.194626,   0.252290,   -411.224213,   586.090759,   0.536040,   9.092217,   33.011093,   -47.857071,   222.723602,   -479.953949,   0.067144,   868.114258,   579.890381
-0.185844,   0.193937,   0.250741,   -408.023865,   588.212402,   0.536039,   9.092217,   32.268875,   -41.559395,   221.747940,   -480.405029,   0.069240,   867.457214,   585.249390
-0.184001,   0.193260,   0.249192,   -404.642639,   590.454712,   0.536040,   9.092217,   31.526657,   -35.184422,   220.996521,   -480.778046,   0.071457,   866.773132,   590.777527
-0.182184,   0.192583,   0.247661,   -401.119263,   592.786072,   0.536040,   9.092217,   30.784437,   -28.844374,   220.511200,   -481.058624,   0.073769,   866.065735,   596.390076
-0.180382,   0.191912,   0.246144,   -397.461517,   595.198853,   0.536039,   9.092217,   30.042219,   -22.538019,   220.275360,   -481.252594,   0.076170,   865.335754,   602.061951
-0.178581,   0.191244,   0.244631,   -393.569855,   597.768188,   0.536040,   9.092217,   29.299999,   -16.211979,   220.410294,   -481.342133,   0.078728,   864.573608,   607.946411
-0.176756,   0.190560,   0.243095,   -389.418915,   600.490295,   0.536040,   9.092217,   28.557781,   -9.911451,   220.982819,   -481.302399,   0.081455,   863.757996,   614.032043
-0.174880,   0.189845,   0.241509,   -384.889313,   603.444946,   0.536039,   9.092217,   27.815563,   -3.559726,   222.115402,   -481.112091,   0.084430,   862.870300,   620.467102
-0.172916,   0.189079,   0.239838,   -379.898285,   606.658325,   0.536040,   9.092217,   27.073343,   2.711359,   224.048676,   -480.703583,   0.087700,   861.873230,   627.290527
-0.170778,   0.188128,   0.237935,   -374.144867,   610.255310,   0.536040,   9.092217,   26.331125,   8.913095,   227.197357,   -479.946808,   0.091446,   860.650818,   634.758728
-0.168352,   0.186961,   0.235716,   -367.302551,   614.417786,   0.536039,   9.092217,   25.588907,   15.043690,   232.071548,   -478.715393,   0.095879,   859.126038,   643.161133
-0.165416,   0.185325,   0.232870,   -358.185394,   619.791748,   0.536040,   9.092217,   24.846687,   20.862749,   240.743607,   -476.469238,   0.101753,   856.994141,   653.627808
-0.161400,   0.182604,   0.228621,   -344.887939,   627.150696,   0.536040,   9.092217,   24.104469,   26.048199,   256.214569,   -472.197662,   0.110230,   853.558655,   667.362305
-0.155515,   0.177865,   0.221821,   -326.707947,   635.901245,   0.536039,   9.092217,   23.362249,   30.080606,   279.112701,   -464.919220,   0.121559,   847.857605,   683.006958
-0.147260,   0.170457,   0.211690,   -303.204529,   645.359314,   0.536040,   9.092217,   22.620031,   33.481808,   308.673004,   -453.884125,   0.135921,   839.105164,   698.867249
-0.136963,   0.160797,   0.198772,   -267.028534,   660.425842,   0.536039,   9.092217,   21.877813,   38.987141,   354.410187,   -436.084839,   0.158577,   826.933533,   719.890381
-0.125665,   0.150579,   0.185213,   -201.698425,   691.436279,   0.536040,   9.092217,   21.135595,   52.202721,   437.535156,   -402.867401,   0.201212,   811.312561,   751.734436
-0.114501,   0.141908,   0.173803,   -119.551407,   728.713501,   0.536040,   9.092217,   20.393375,   74.276527,   534.885559,   -356.157501,   0.255331,   795.257568,   774.653015
-0.104420,   0.136274,   0.166407,   -60.563671,   752.318787,   0.536039,   9.092217,   19.651157,   95.063667,   596.691467,   -319.823181,   0.293980,   784.356262,   779.069580
-0.095942,   0.134371,   0.163348,   -27.013227,   765.482422,   0.536040,   9.092217,   18.908939,   109.475166,   628.994019,   -299.227966,   0.315852,   779.340210,   778.285889
-0.089624,   0.136351,   0.164350,   -3.865725,   776.908630,   0.536040,   9.092217,   18.166719,   121.417953,   651.624939,   -286.569855,   0.330849,   778.848694,   778.827087
-0.085762,   0.142504,   0.169277,   0.000000,   788.915955,   0.536039,   9.092217,   17.424501,   131.998291,   670.328735,   -279.109406,   0.341868,   782.296692,   782.037964
-0.084337,   0.152664,   0.177970,   0.000000,   801.882080,   0.536040,   9.092217,   16.682283,   140.752686,   687.393005,   -275.121948,   0.349837,   789.078125,   788.093872
-0.085668,   0.166683,   0.190467,   0.000000,   816.144592,   0.536040,   9.092217,   15.940063,   148.662323,   703.192078,   -274.579285,   0.355433,   798.888428,   797.089844
-0.089398,   0.184229,   0.207112,   0.000000,   831.900940,   0.536039,   9.092217,   15.197845,   156.653839,   717.421997,   -278.031616,   0.358977,   811.635742,   809.164856
-0.094547,   0.203216,   0.225973,   0.000000,   847.356812,   0.536039,   9.092217,   14.455626,   163.189301,   730.329041,   -282.960388,   0.360910,   825.244873,   822.332581
-0.099585,   0.221360,   0.244798,   0.000000,   861.419678,   0.536039,   9.092217,   13.713408,   168.184677,   742.444275,   -287.189667,   0.362267,   837.899475,   834.639038
-0.105761,   0.238904,   0.263785,   0.000000,   873.530457,   0.536040,   9.092217,   12.971189,   170.633255,   752.171387,   -292.066681,   0.361899,   849.965271,   846.742859
-0.113248,   0.257284,   0.284059,   0.000000,   885.034607,   0.536040,   9.092217,   12.228970,   172.246750,   760.380127,   -298.080841,   0.360551,   862.224121,   859.261414
-0.121868,   0.276451,   0.305390,   0.000000,   895.560181,   0.536039,   9.092217,   11.486752,   173.126099,   765.963318,   -305.982300,   0.357909,   874.608337,   872.166077
-0.131457,   0.295473,   0.326647,   0.000000,   904.569153,   0.536040,   9.092217,   10.744533,   173.168091,   768.762573,   -315.165131,   0.354184,   886.479065,   884.704956
-0.141401,   0.313564,   0.346944,   0.000000,   911.854370,   0.536039,   9.092217,   10.002314,   172.584534,   768.792236,   -325.209991,   0.349646,   897.457458,   896.363892
-0.151845,   0.330891,   0.366433,   0.000000,   917.860962,   0.536039,   9.092217,   9.260096,   171.036896,   767.765930,   -334.805298,   0.344804,   907.571289,   907.027344
-0.162674,   0.347277,   0.385002,   0.000000,   922.830933,   0.536039,   9.092217,   8.517877,   169.269470,   765.512207,   -344.309967,   0.339829,   916.914062,   916.738770
-0.173659,   0.362563,   0.402468,   0.000000,   927.138123,   0.536039,   9.092217,   7.775658,   167.533997,   763.087402,   -353.006531,   0.335214,   925.401428,   925.386658
-0.347409,   0.156160,   0.385233,   -962.257263,   0.000000,   0.536478,   10.004342,   50.404324,   -266.576508,   -792.239990,   -343.915314,   -0.384551,   917.795105,   -906.261780
-0.256712,   0.106510,   0.285101,   -911.875916,   0.000000,   0.536478,   10.004342,   49.676586,   -318.512939,   -681.780518,   -369.499817,   -0.382797,   871.039368,   -860.856384
-0.185648,   0.074080,   0.208677,   -787.291931,   72.448807,   0.536478,   10.004342,   48.948853,   -364.764099,   -350.079010,   -429.807648,   -0.288510,   825.903015,   -818.708008
-0.143241,   0.059587,   0.172111,   -599.315552,   296.610046,   0.536478,   10.004342,   48.221115,   -317.491150,   14.785677,   -416.015259,   -0.127640,   790.518616,   -646.235718
-0.134490,   0.068613,   0.168133,   -551.886719,   349.097961,   0.536476,   10.004342,   47.493382,   -287.670410,   84.881630,   -410.176300,   -0.085909,   786.835999,   -568.931458
-0.145005,   0.091546,   0.179164,   -512.000061,   405.431458,   0.536478,   10.004342,   46.765648,   -259.078613,   152.510025,   -409.962006,   -0.044610,   796.303711,   -465.328003
-0.161899,   0.117617,   0.197385,   -489.952972,   447.468262,   0.536478,   10.004342,   46.037910,   -235.684799,   193.200089,   -416.778229,   -0.017438,   812.108459,   -347.577606
-0.178180,   0.141824,   0.217445,   -473.694550,   483.172058,   0.536478,   10.004342,   45.310177,   -213.326035,   222.803528,   -425.847595,   0.003812,   828.684326,   213.721329
-0.191430,   0.161873,   0.235929,   -462.014954,   511.278290,   0.536478,   10.004342,   44.582439,   -193.434525,   242.697861,   -435.054108,   0.019473,   843.256531,   374.409363
-0.200761,   0.177181,   0.250432,   -453.385590,   532.134766,   0.536478,   10.004342,   43.854706,   -176.425171,   255.174377,   -442.993286,   0.030723,   854.393433,   441.374420
-0.207831,   0.189128,   0.262144,   -447.623657,   547.575317,   0.536478,   10.004342,   43.126968,   -161.782944,   261.734619,   -450.292664,   0.038592,   863.315369,   480.940948
-0.212748,   0.198033,   0.270897,   -443.584412,   558.962158,   0.536476,   10.004342,   42.399235,   -148.635651,   264.013397,   -456.842529,   0.044199,   870.145203,   506.930084
-0.215998,   0.204612,   0.277163,   -440.569427,   567.430847,   0.536478,   10.004342,   41.671501,   -136.810349,   263.671753,   -462.514496,   0.048314,   875.255310,   525.064636
-0.218009,   0.209503,   0.281654,   -438.229767,   573.841614,   0.536478,   10.004342,   40.943764,   -126.375854,   261.987701,   -467.296021,   0.051421,   879.098450,   538.271912
-0.218824,   0.212758,   0.284319,   -435.982574,   578.745972,   0.536478,   10.004342,   40.216030,   -117.068413,   259.831818,   -471.067993,   0.053974,   881.675049,   548.492859
-0.218644,   0.214861,   0.285639,   -433.588684,   582.742981,   0.536478,   10.004342,   39.488293,   -108.496101,   257.650391,   -474.042938,   0.056285,   883.322876,   557.108154
-0.217917,   0.216100,   0.286046,   -431.330200,   585.907715,   0.536478,   10.004342,   38.760559,   -100.642136,   255.219681,   -476.480682,   0.058265,   884.337769,   564.082703
-0.216770,   0.216610,   0.285699,   -429.283905,   588.271667,   0.536478,   10.004342,   38.032822,   -93.660477,   252.648224,   -478.406097,   0.059895,   884.807190,   569.487671
-0.215252,   0.216741,   0.284889,   -426.914917,   590.555237,   0.536476,   10.004342,   37.305088,   -86.782990,   250.423294,   -479.983704,   0.061639,   884.945557,   574.926147
-0.213579,   0.216538,   0.283762,   -424.546173,   592.546753,   0.536478,   10.004342,   36.577354,   -80.373940,   248.374542,   -481.249023,   0.063290,   884.824585,   579.813965
-0.211776,   0.216084,   0.282384,   -422.163849,   594.322388,   0.536478,   10.004342,   35.849617,   -74.288956,   246.447495,   -482.279053,   0.064880,   884.501465,   584.295471
-0.209891,   0.215454,   0.280838,   -419.765503,   595.945862,   0.536478,   10.004342,   35.121883,   -68.460709,   244.641068,   -483.124420,   0.066431,   884.031677,   588.480530
-0.207955,   0.214700,   0.279175,   -417.310913,   597.492432,   0.536478,   10.004342,   34.394146,   -62.813015,   242.994522,   -483.814941,   0.067984,   883.451050,   592.517090
-0.206005,   0.213872,   0.277453,   -414.819031,   598.989502,   0.536478,   10.004342,   33.666412,   -57.304630,   241.475128,   -484.390961,   0.069540,   882.799805,   596.434875
-0.204061,   0.213006,   0.275709,   -412.271881,   600.481750,   0.536476,   10.004342,   32.938675,   -51.883804,   240.093674,   -484.876038,   0.071122,   882.104370,   600.312805
-0.202132,   0.212127,   0.273966,   -409.670868,   601.981689,   0.536479,   10.004342,   32.210941,   -46.562847,   238.873703,   -485.274902,   0.072731,   881.377625,   604.167358
-0.200242,   0.211262,   0.272255,   -406.953156,   603.572021,   0.536477,   10.004342,   31.483206,   -41.235130,   237.853973,   -485.610535,   0.074422,   880.644958,   608.154297
-0.198372,   0.210412,   0.270569,   -404.101837,   605.255981,   0.536479,   10.004342,   30.755470,   -35.941269,   237.095413,   -485.863708,   0.076204,   879.896667,   612.280396
-0.196527,   0.209582,   0.268914,   -401.090424,   607.061218,   0.536478,   10.004342,   30.027735,   -30.660780,   236.631561,   -486.036133,   0.078096,   879.137817,   616.590759
-0.194701,   0.208775,   0.267289,   -397.908081,   608.993958,   0.536477,   10.004342,   29.299999,   -25.400864,   236.486755,   -486.124115,   0.080105,   878.366760,   621.088379
-0.192873,   0.207980,   0.265673,   -394.474854,   611.106323,   0.536478,   10.004342,   28.572264,   -20.137941,   236.769409,   -486.104950,   0.082285,   877.569031,   625.875122
-0.191017,   0.207175,   0.264036,   -390.766205,   613.392334,   0.536478,   10.004342,   27.844528,   -14.907416,   237.533508,   -485.954712,   0.084643,   876.721924,   630.935364
-0.189093,   0.206327,   0.262331,   -386.633759,   615.939331,   0.536478,   10.004342,   27.116795,   -9.666518,   238.972092,   -485.626312,   0.087276,   875.791016,   636.437622
-0.187020,   0.205368,   0.260464,   -381.973938,   618.744995,   0.536477,   10.004342,   26.389059,   -4.593722,   241.364792,   -485.011047,   0.090230,   874.696533,   642.389709
-0.184734,   0.204226,   0.258346,   -376.448273,   622.018188,   0.536478,   10.004342,   25.661324,   0.454057,   245.115829,   -484.013397,   0.093725,   873.371399,   649.165283
-0.182042,   0.202730,   0.255743,   -369.484253,   626.005554,   0.536478,   10.004342,   24.933588,   5.242776,   251.278549,   -482.303436,   0.098103,   871.608215,   657.220642
-0.178557,   0.200460,   0.252127,   -359.722931,   631.316711,   0.536477,   10.004342,   24.205853,   9.422639,   262.171143,   -479.134064,   0.104186,   868.942139,   667.633911
-0.173622,   0.196687,   0.246584,   -345.960266,   638.082947,   0.536478,   10.004342,   23.478117,   12.691650,   279.431030,   -473.600861,   0.112619,   864.632690,   680.493835
-0.166583,   0.190611,   0.238137,   -328.250275,   645.314087,   0.536478,   10.004342,   22.750381,   14.836460,   302.227356,   -465.089783,   0.123193,   857.906189,   693.894409
-0.157227,   0.181931,   0.226433,   -305.754639,   653.014832,   0.536477,   10.004342,   22.022648,   16.549919,   330.710266,   -452.918915,   0.136457,   848.278625,   707.326111
-0.146009,   0.171248,   0.212248,   -270.183716,   666.881470,   0.536478,   10.004342,   21.294912,   20.760845,   375.936951,   -433.572693,   0.158285,   835.410461,   726.895874
-0.133941,   0.160236,   0.197712,   -207.215652,   695.844543,   0.536478,   10.004342,   20.567177,   32.685623,   455.943298,   -398.864227,   0.198788,   819.346008,   756.950684
-0.122116,   0.150717,   0.185334,   -128.720367,   730.846008,   0.536478,   10.004342,   19.839441,   53.692768,   548.432861,   -351.456451,   0.249954,   802.981689,   779.261597
-0.111350,   0.144404,   0.177102,   -70.943764,   753.792236,   0.536477,   10.004342,   19.111706,   73.913391,   608.935059,   -313.823700,   0.287521,   791.651794,   784.452148
-0.102307,   0.141931,   0.173337,   -37.521267,   766.657104,   0.536478,   10.004342,   18.383970,   87.895958,   641.239868,   -291.767609,   0.309183,   786.089600,   784.071045
-0.095469,   0.143479,   0.173669,   -14.228010,   777.685669,   0.536478,   10.004342,   17.656237,   99.299751,   664.157898,   -277.516907,   0.324229,   784.896362,   784.606140
-0.091425,   0.149643,   0.178408,   0.000000,   789.584473,   0.536477,   10.004342,   16.928501,   109.041740,   684.051514,   -267.991943,   0.335558,   787.835938,   787.818359
-0.090130,   0.160258,   0.187098,   0.000000,   802.548340,   0.536478,   10.004342,   16.200766,   117.279091,   702.291199,   -262.112854,   0.343993,   794.174194,   793.763611
-0.091946,   0.175519,   0.200777,   0.000000,   817.733032,   0.536477,   10.004342,   15.473030,   125.800186,   719.026978,   -261.338806,   0.350030,   804.528198,   803.500793
-0.096366,   0.194388,   0.218364,   0.000000,   833.838440,   0.536478,   10.004342,   14.745295,   132.980453,   735.057129,   -263.119110,   0.354037,   817.275696,   815.663452
-0.102352,   0.215059,   0.238756,   0.000000,   850.218140,   0.536477,   10.004342,   14.017559,   139.429550,   750.177429,   -266.660461,   0.356746,   831.223938,   829.120300
-0.108806,   0.235405,   0.259854,   0.000000,   865.275391,   0.536478,   10.004342,   13.289824,   143.935486,   764.236450,   -269.969269,   0.358404,   844.644470,   842.188416
-0.116298,   0.255902,   0.281965,   0.000000,   879.370544,   0.536478,   10.004342,   12.562089,   147.087372,   777.124939,   -273.628784,   0.359128,   857.829102,   855.186157
-0.125447,   0.276994,   0.305138,   0.000000,   892.264526,   0.536478,   10.004342,   11.834353,   149.238571,   787.228882,   -279.363983,   0.358386,   871.004700,   868.475708
-0.135790,   0.298666,   0.329122,   0.000000,   903.836609,   0.536478,   10.004342,   11.106618,   150.314713,   794.576416,   -286.931915,   0.356284,   884.024597,   881.875854
-0.147243,   0.320244,   0.353135,   0.000000,   913.509033,   0.536478,   10.004342,   10.378882,   150.292725,   798.004639,   -296.908844,   0.352545,   896.621216,   895.100891
-0.159306,   0.341032,   0.376289,   0.000000,   921.627075,   0.536478,   10.004342,   9.651148,   149.132217,   800.020996,   -306.496429,   0.348373,   908.176941,   907.237610
-0.172072,   0.361289,   0.399001,   0.000000,   928.242004,   0.536478,   10.004342,   8.923412,   147.008453,   799.752319,   -316.828735,   0.343357,   919.122498,   918.702698
-0.185360,   0.380711,   0.420933,   0.000000,   933.904724,   0.536478,   10.004342,   8.195677,   144.766220,   798.380615,   -327.027985,   0.338293,   929.318176,   929.214661
-0.301036,   0.137324,   0.332594,   -931.569092,   0.000000,   0.536501,   10.934303,   50.023975,   -266.142700,   -744.922607,   -352.419464,   -0.376782,   894.474365,   -886.474365
-0.218131,   0.093009,   0.242275,   -856.604248,   0.000000,   0.536499,   10.934303,   49.309357,   -314.832550,   -555.800659,   -403.691559,   -0.341555,   849.676636,   -849.416016
-0.157983,   0.066125,   0.181493,   -671.480713,   218.398163,   0.536501,   10.934303,   48.594734,   -331.405212,   -121.677353,   -432.405670,   -0.188017,   803.264771,   -731.868164
-0.133105,   0.063527,   0.165230,   -553.793152,   345.264008,   0.536501,   10.934303,   47.880116,   -282.353912,   73.824783,   -412.747040,   -0.088485,   785.556458,   -573.363464
-0.138276,   0.082642,   0.172735,   -516.573792,   393.662170,   0.536499,   10.934303,   47.165497,   -263.806458,   140.894867,   -407.659882,   -0.051817,   790.679443,   -485.352753
-0.156164,   0.110864,   0.192013,   -491.513824,   439.844696,   0.536499,   10.934303,   46.450878,   -242.070007,   190.400894,   -412.431091,   -0.021342,   806.993774,   -369.393799
-0.175678,   0.138728,   0.215441,   -472.465210,   481.049347,   0.536501,   10.934303,   45.736256,   -220.473297,   229.057449,   -420.449799,   0.003465,   825.778992,   206.300262
-0.192766,   0.163030,   0.238538,   -459.278290,   514.092712,   0.536501,   10.934303,   45.021637,   -200.083832,   254.898224,   -430.244812,   0.021664,   843.409424,   387.986755
-0.206017,   0.182992,   0.258390,   -448.895142,   540.306824,   0.536501,   10.934303,   44.307014,   -181.370346,   272.782043,   -439.393372,   0.035518,   857.892395,   464.983276
-0.215760,   0.198105,   0.273912,   -441.656647,   559.425171,   0.536499,   10.934303,   43.592396,   -165.472107,   283.240662,   -447.443207,   0.045176,   868.959717,   509.899109
-0.223286,   0.209996,   0.286272,   -437.124420,   573.450134,   0.536501,   10.934303,   42.877777,   -151.226059,   287.551788,   -455.174408,   0.051766,   877.833618,   538.678101
-0.228227,   0.218762,   0.295083,   -433.885742,   583.585999,   0.536499,   10.934303,   42.163158,   -138.713516,   288.413788,   -461.738831,   0.056427,   884.329712,   558.201965
-0.231766,   0.225147,   0.301575,   -432.090881,   590.688843,   0.536501,   10.934303,   41.448536,   -127.957451,   286.555389,   -467.508667,   0.059447,   889.295837,   570.975464
-0.233444,   0.229519,   0.305550,   -430.389954,   595.905579,   0.536499,   10.934303,   40.733917,   -118.344742,   283.860382,   -472.099976,   0.061807,   892.642578,   580.443420
-0.234101,   0.232319,   0.307851,   -429.125824,   599.507446,   0.536501,   10.934303,   40.019299,   -110.093918,   280.475525,   -475.799835,   0.063465,   894.886719,   586.935181
-0.233859,   0.234095,   0.308936,   -427.610016,   602.443359,   0.536501,   10.934303,   39.304676,   -102.499557,   277.332916,   -478.731995,   0.065019,   896.325378,   592.517639
-0.233106,   0.235030,   0.309135,   -426.105225,   604.690552,   0.536499,   10.934303,   38.590057,   -95.768341,   274.353668,   -481.027435,   0.066353,   897.149963,   596.986145
-0.231949,   0.235377,   0.308687,   -424.700531,   606.357483,   0.536501,   10.934303,   37.875439,   -89.720619,   271.377594,   -482.879059,   0.067466,   897.530090,   600.468384
-0.230478,   0.235261,   0.307730,   -423.144562,   607.781616,   0.536499,   10.934303,   37.160820,   -83.953888,   268.590942,   -484.386444,   0.068569,   897.568542,   603.659424
-0.228754,   0.234786,   0.306378,   -421.500549,   608.969788,   0.536501,   10.934303,   36.446198,   -78.561470,   266.030701,   -485.573212,   0.069640,   897.322693,   606.528442
-0.226887,   0.234067,   0.304772,   -419.768402,   610.019104,   0.536499,   10.934303,   35.731579,   -73.458290,   263.709015,   -486.513245,   0.070708,   896.881042,   609.220642
-0.224939,   0.233187,   0.303007,   -417.987732,   610.963135,   0.536501,   10.934303,   35.016960,   -68.584824,   261.560211,   -487.274078,   0.071767,   896.306152,   611.759949
-0.222949,   0.232205,   0.301147,   -416.158020,   611.846985,   0.536501,   10.934303,   34.302338,   -63.894779,   259.583771,   -487.892395,   0.072830,   895.639038,   614.213074
-0.220950,   0.231167,   0.299242,   -414.254639,   612.727783,   0.536501,   10.934303,   33.587719,   -59.333344,   257.806488,   -488.394104,   0.073926,   894.912048,   616.677490
-0.218982,   0.230116,   0.297349,   -412.303955,   613.622498,   0.536498,   10.934303,   32.873100,   -54.866329,   256.184845,   -488.818024,   0.075049,   894.162231,   619.158997
-0.217036,   0.229071,   0.295475,   -410.277802,   614.559631,   0.536502,   10.934303,   32.158482,   -50.490379,   254.772202,   -489.159088,   0.076219,   893.393250,   621.713379
-0.215134,   0.228050,   0.293644,   -408.175110,   615.559326,   0.536500,   10.934303,   31.443859,   -46.168724,   253.552979,   -489.438232,   0.077444,   892.623230,   624.366211
-0.213273,   0.227062,   0.291863,   -405.944183,   616.669617,   0.536500,   10.934303,   30.729240,   -41.871807,   252.597244,   -489.649597,   0.078759,   891.855042,   627.210022
-0.211442,   0.226105,   0.290123,   -403.573730,   617.894714,   0.536501,   10.934303,   30.014620,   -37.603485,   251.924454,   -489.788544,   0.080172,   891.084534,   630.249512
-0.209636,   0.225181,   0.288425,   -401.037598,   619.255249,   0.536499,   10.934303,   29.299999,   -33.354286,   251.571945,   -489.850616,   0.081701,   890.310547,   633.519104
-0.207842,   0.224281,   0.286752,   -398.306915,   620.763245,   0.536501,   10.934303,   28.585381,   -29.136835,   251.593155,   -489.820038,   0.083362,   889.522156,   637.039856
-0.206034,   0.223387,   0.285079,   -395.326355,   622.445557,   0.536500,   10.934303,   27.870760,   -24.945490,   252.064697,   -489.674652,   0.085188,   888.701660,   640.864075
-0.204173,   0.222465,   0.283359,   -392.051208,   624.301880,   0.536501,   10.934303,   27.156141,   -20.826166,   253.076828,   -489.374786,   0.087199,   887.814880,   644.996216
-0.202203,   0.221467,   0.281523,   -388.314240,   626.418274,   0.536499,   10.934303,   26.441521,   -16.769398,   254.873428,   -488.848724,   0.089498,   886.811707,   649.609619
-0.200042,   0.220323,   0.279476,   -383.991272,   628.814758,   0.536501,   10.934303,   25.726900,   -12.889675,   257.713135,   -487.993378,   0.092148,   885.616577,   654.751404
-0.197585,   0.218912,   0.277068,   -378.683746,   631.694458,   0.536500,   10.934303,   25.012281,   -9.187663,   262.198395,   -486.624542,   0.095392,   884.110718,   660.806519
-0.194537,   0.216949,   0.273924,   -371.572906,   635.392822,   0.536500,   10.934303,   24.297661,   -5.969191,   269.789093,   -484.235809,   0.099708,   881.977966,   668.428223
-0.190411,   0.213898,   0.269372,   -361.543610,   640.225159,   0.536500,   10.934303,   23.583042,   -3.610234,   282.291779,   -480.052277,   0.105720,   878.675903,   678.185242
-0.184567,   0.209028,   0.262498,   -348.100952,   645.805054,   0.536501,   10.934303,   22.868422,   -2.345264,   300.049347,   -473.393768,   0.113603,   873.523743,   689.327637
-0.176537,   0.201737,   0.252576,   -331.579926,   651.164124,   0.536499,   10.934303,   22.153801,   -2.165070,   321.749268,   -463.914154,   0.123018,   865.952026,   700.102722
-0.166269,   0.191923,   0.239495,   -310.710022,   656.830078,   0.536501,   10.934303,   21.439182,   -2.377961,   348.498016,   -450.838074,   0.134845,   855.599304,   710.939331
-0.154224,   0.180199,   0.224046,   -277.254639,   668.494385,   0.536500,   10.934303,   20.724562,   -0.132662,   391.372406,   -430.454712,   0.154870,   842.079651,   728.232300
-0.141205,   0.167953,   0.208014,   -218.570969,   693.947266,   0.536501,   10.934303,   20.009941,   9.330078,   466.046204,   -394.999969,   0.192017,   825.234985,   755.890015
-0.128364,   0.157168,   0.194056,   -142.873383,   727.052246,   0.536499,   10.934303,   19.295322,   29.527039,   554.651794,   -346.776062,   0.240992,   808.018677,   778.835999
-0.116679,   0.149629,   0.184327,   -84.036682,   750.186218,   0.536501,   10.934303,   18.580702,   50.215897,   615.933655,   -306.549866,   0.279118,   795.540527,   785.461365
-0.106976,   0.146044,   0.179256,   -50.055622,   762.547363,   0.536500,   10.934303,   17.866083,   63.448204,   649.043518,   -281.692078,   0.301099,   788.767273,   785.181824
-0.099600,   0.146860,   0.178668,   -26.491879,   773.095398,   0.536500,   10.934303,   17.151463,   74.299828,   672.303711,   -265.391785,   0.316354,   786.675964,   785.671387
-0.094887,   0.152014,   0.182007,   -8.469088,   783.947571,   0.536500,   10.934303,   16.436844,   83.126465,   692.351990,   -253.361588,   0.327947,   788.216187,   788.113770
-0.093652,   0.162793,   0.190652,   0.000000,   797.198792,   0.536500,   10.934303,   15.722223,   91.862671,   710.905029,   -246.710617,   0.336832,   794.429016,   794.385132
-0.095828,   0.178428,   0.204188,   0.000000,   812.256287,   0.536501,   10.934303,   15.007604,   99.354706,   729.026733,   -243.586655,   0.343307,   804.314880,   803.951050
-0.100761,   0.198101,   0.222293,   0.000000,   828.882690,   0.536500,   10.934303,   14.292984,   106.348778,   746.539001,   -243.918198,   0.347914,   817.144592,   816.350708
-0.107244,   0.219931,   0.243551,   0.000000,   846.166382,   0.536501,   10.934303,   13.578364,   112.796616,   763.967773,   -245.523880,   0.351568,   831.289856,   830.021423
-0.114785,   0.241823,   0.266215,   0.000000,   862.318359,   0.536500,   10.934303,   12.863744,   117.418381,   779.937378,   -247.720779,   0.353842,   845.344360,   843.708374
-0.123578,   0.264213,   0.290307,   0.000000,   877.544678,   0.536500,   10.934303,   12.149125,   121.076614,   793.960327,   -251.453522,   0.354908,   859.412109,   857.569214
-0.133998,   0.287298,   0.315532,   0.000000,   891.538086,   0.536500,   10.934303,   11.434505,   123.641594,   805.487305,   -257.056580,   0.354623,   873.349609,   871.526733
-0.146165,   0.310756,   0.341388,   0.000000,   903.872681,   0.536500,   10.934303,   10.719885,   125.246567,   813.309082,   -265.546997,   0.352692,   887.039917,   885.512390
-0.159111,   0.334307,   0.367389,   0.000000,   914.693604,   0.536500,   10.934303,   10.005265,   125.621025,   819.007812,   -274.778137,   0.349824,   900.099365,   898.978394
-0.173180,   0.357511,   0.393115,   0.000000,   923.892090,   0.536500,   10.934303,   9.290645,   124.920235,   822.286499,   -284.921021,   0.346027,   912.458130,   911.787659
-0.188201,   0.380481,   0.418756,   0.000000,   931.685547,   0.536500,   10.934303,   8.576026,   123.505714,   823.047974,   -296.308411,   0.341344,   924.341125,   924.071960
-0.232128,   0.108341,   0.255084,   -874.090576,   0.000000,   0.536220,   11.880316,   49.684025,   -248.281555,   -669.175415,   -358.102966,   -0.358423,   853.234314,   -850.749390
-0.166823,   0.073871,   0.185175,   -764.465454,   88.845055,   0.536219,   11.880316,   48.981129,   -283.896820,   -391.723602,   -423.235229,   -0.277164,   812.539185,   -801.502014
-0.125089,   0.056257,   0.148212,   -560.573364,   318.849854,   0.536220,   11.880316,   48.278233,   -280.650269,   38.926758,   -409.651001,   -0.104488,   771.133240,   -593.019226
-0.119817,   0.066298,   0.150585,   -519.482910,   367.232758,   0.536220,   11.880316,   47.575333,   -262.363007,   110.112862,   -402.345123,   -0.065765,   771.682251,   -512.017334
-0.136485,   0.093345,   0.169541,   -487.684753,   420.760529,   0.536220,   11.880316,   46.872437,   -246.166504,   179.242294,   -401.341553,   -0.028330,   787.447998,   -395.995605
-0.159442,   0.124030,   0.196468,   -470.881317,   464.600464,   0.536219,   11.880316,   46.169540,   -228.493088,   222.212234,   -409.875244,   -0.002584,   810.157043,   -183.546890
-0.180803,   0.152453,   0.224508,   -456.883118,   503.580750,   0.536220,   11.880316,   45.466640,   -208.818481,   255.516113,   -420.382050,   0.018706,   832.113770,   364.556854
-0.198638,   0.176896,   0.250158,   -445.587585,   535.538025,   0.536220,   11.880316,   44.763744,   -189.689331,   279.639771,   -430.795105,   0.035239,   850.869202,   459.973846
-0.213105,   0.197013,   0.272033,   -437.089386,   560.603821,   0.536220,   11.880316,   44.060844,   -171.504913,   295.019348,   -440.949799,   0.047529,   866.231934,   516.862122
-0.223837,   0.212608,   0.288933,   -431.120667,   578.887207,   0.536219,   11.880316,   43.357948,   -155.901398,   303.667908,   -449.697662,   0.056112,   877.807312,   553.071533
-0.232495,   0.225144,   0.302711,   -427.723297,   592.365051,   0.536220,   11.880316,   42.655052,   -141.872574,   306.514313,   -458.129181,   0.061855,   887.249573,   577.080444
-0.237982,   0.233750,   0.311975,   -425.265564,   601.730713,   0.536219,   11.880316,   41.952156,   -129.894135,   306.359253,   -464.866730,   0.065813,   893.770630,   593.162964
-0.241906,   0.240565,   0.319006,   -424.027405,   608.435791,   0.536220,   11.880316,   41.249256,   -119.380554,   303.788940,   -470.878937,   0.068384,   898.880859,   604.013550
-0.244036,   0.245004,   0.323386,   -422.843231,   613.230652,   0.536219,   11.880316,   40.546360,   -110.391640,   300.779083,   -475.496521,   0.070334,   902.301880,   611.852356
-0.245158,   0.248018,   0.326163,   -422.190125,   616.424011,   0.536220,   11.880316,   39.843464,   -102.881660,   297.115570,   -479.249817,   0.071565,   904.694031,   616.924133
-0.245329,   0.249810,   0.327512,   -421.450989,   618.725891,   0.536220,   11.880316,   39.140564,   -96.159836,   293.434753,   -482.230255,   0.072565,   906.203796,   620.725891
-0.244773,   0.250681,   0.327794,   -420.637207,   620.341675,   0.536219,   11.880316,   38.437668,   -90.273170,   289.977631,   -484.522034,   0.073392,   907.027161,   623.564697
-0.243795,   0.250961,   0.327412,   -419.735199,   621.557190,   0.536220,   11.880316,   37.734772,   -84.932831,   286.754822,   -486.348145,   0.074138,   907.414124,   625.868835
-0.242499,   0.250784,   0.326519,   -418.803955,   622.427612,   0.536220,   11.880316,   37.031872,   -80.070511,   283.694153,   -487.811035,   0.074796,   907.462402,   627.685364
-0.240981,   0.250274,   0.325261,   -417.763885,   623.118042,   0.536220,   11.880316,   36.328976,   -75.536301,   280.890442,   -488.977295,   0.075449,   907.259033,   629.301697
-0.239277,   0.249506,   0.323714,   -416.637695,   623.653381,   0.536219,   11.880316,   35.626076,   -71.339981,   278.355652,   -489.877136,   0.076094,   906.845093,   630.739624
-0.237467,   0.248559,   0.321979,   -415.416504,   624.115723,   0.536220,   11.880316,   34.923180,   -67.351707,   276.050903,   -490.586853,   0.076760,   906.288696,   632.120605
-0.235606,   0.247513,   0.320143,   -414.121887,   624.543884,   0.536220,   11.880316,   34.220284,   -63.527130,   273.949127,   -491.155884,   0.077448,   905.643066,   633.485718
-0.233717,   0.246400,   0.318246,   -412.761688,   624.955872,   0.536220,   11.880316,   33.517384,   -59.848816,   272.042999,   -491.605927,   0.078162,   904.930847,   634.854248
-0.231833,   0.245279,   0.316347,   -411.301880,   625.427063,   0.536219,   11.880316,   32.814487,   -56.199902,   270.325104,   -491.982819,   0.078938,   904.194458,   636.349670
-0.229965,   0.244130,   0.314438,   -409.810547,   625.884583,   0.536220,   11.880316,   32.111591,   -52.714035,   268.788055,   -492.265381,   0.079724,   903.421448,   637.829346
-0.228140,   0.243023,   0.312586,   -408.234222,   626.423279,   0.536220,   11.880316,   31.408693,   -49.275150,   267.464172,   -492.491699,   0.080573,   902.656433,   639.453735
-0.226353,   0.241952,   0.310785,   -406.553650,   627.054932,   0.536220,   11.880316,   30.705795,   -45.880028,   266.381317,   -492.655945,   0.081496,   901.895325,   641.246094
-0.224598,   0.240917,   0.309030,   -404.746613,   627.795166,   0.536220,   11.880316,   30.002897,   -42.519913,   265.568451,   -492.753510,   0.082506,   901.135193,   643.235229
-0.222865,   0.239914,   0.307314,   -402.795227,   628.654907,   0.536220,   11.880316,   29.299999,   -39.191597,   265.051270,   -492.779266,   0.083617,   900.372192,   645.440002
-0.221143,   0.238934,   0.305624,   -400.671875,   629.647156,   0.536220,   11.880316,   28.597103,   -35.900921,   264.876190,   -492.719604,   0.084844,   899.597351,   647.885437
-0.219413,   0.237966,   0.303940,   -398.348602,   630.780457,   0.536220,   11.880316,   27.894205,   -32.662167,   265.094025,   -492.556580,   0.086201,   898.797058,   650.588623
-0.217645,   0.236983,   0.302226,   -395.775787,   632.069519,   0.536220,   11.880316,   27.191309,   -29.488424,   265.782135,   -492.260406,   0.087716,   897.946594,   653.583069
-0.215792,   0.235939,   0.300422,   -392.880127,   633.528137,   0.536220,   11.880316,   26.488411,   -26.438412,   267.086426,   -491.771576,   0.089427,   897.002380,   656.908386
-0.213784,   0.234774,   0.298443,   -389.521332,   635.207581,   0.536220,   11.880316,   25.785513,   -23.546051,   269.232300,   -491.006653,   0.091411,   895.903137,   660.677490
-0.211527,   0.233417,   0.296186,   -385.478149,   637.210999,   0.536220,   11.880316,   25.082615,   -20.793154,   272.525970,   -489.861450,   0.093800,   894.573730,   665.092407
-0.208808,   0.231607,   0.293335,   -380.310028,   639.640930,   0.536220,   11.880316,   24.379717,   -18.495491,   277.826416,   -487.978821,   0.096826,   892.769897,   670.416809
-0.205291,   0.229011,   0.289454,   -373.142365,   642.839661,   0.536220,   11.880316,   23.676821,   -16.883566,   286.580872,   -484.801208,   0.100994,   890.139709,   677.322998
-0.200438,   0.225028,   0.283792,   -363.257080,   646.772461,   0.536220,   11.880316,   22.973923,   -16.313707,   299.829102,   -479.638763,   0.106650,   886.123596,   685.792664
-0.193670,   0.218994,   0.275515,   -350.629028,   650.773438,   0.536220,   11.880316,   22.271025,   -16.951086,   317.095490,   -472.022186,   0.113674,   880.128845,   694.674133
-0.184706,   0.210493,   0.264136,   -335.611755,   654.068054,   0.536220,   11.880316,   21.568127,   -18.599651,   337.055939,   -461.783295,   0.121769,   871.752930,   702.622620
-0.173553,   0.199522,   0.249657,   -316.696442,   657.430115,   0.536220,   11.880316,   20.865231,   -20.723167,   361.456848,   -448.012543,   0.131968,   860.649048,   710.588196
-0.160660,   0.186683,   0.232851,   -286.403015,   666.091675,   0.536220,   11.880316,   20.162333,   -20.728310,   400.416931,   -427.165894,   0.149522,   846.448730,   724.752380
-0.146833,   0.173271,   0.215397,   -233.127228,   687.443115,   0.536219,   11.880316,   19.459436,   -13.942402,   468.258270,   -392.088074,   0.182683,   828.968018,   749.727051
-0.133088,   0.161063,   0.199672,   -160.532394,   718.337280,   0.536220,   11.880316,   18.756538,   4.315882,   553.489014,   -343.081909,   0.229375,   810.614319,   773.628418
-0.120302,   0.151714,   0.187734,   -99.306023,   741.857727,   0.536220,   11.880316,   18.053640,   25.304512,   617.247192,   -298.814453,   0.269018,   796.169250,   782.053711
-0.109547,   0.146574,   0.180810,   -62.695583,   754.504700,   0.536220,   11.880316,   17.350744,   39.710445,   652.098694,   -270.553589,   0.292745,   787.726013,   782.083130
-0.101245,   0.145800,   0.178325,   -38.640163,   763.819092,   0.536220,   11.880316,   16.647846,   49.734447,   675.444458,   -251.210968,   0.308382,   783.853760,   781.706604
-0.096034,   0.150084,   0.180543,   -19.694248,   774.416199,   0.536220,   11.880316,   15.944948,   59.133041,   695.588928,   -237.452805,   0.320702,   784.448792,   783.892273
-0.094529,   0.160060,   0.188010,   -5.514443,   786.825623,   0.536220,   11.880316,   15.242051,   66.908279,   714.402893,   -228.338287,   0.329835,   789.597290,   789.553955
-0.096583,   0.175344,   0.200714,   0.000000,   801.553650,   0.536220,   11.880316,   14.539153,   74.030357,   732.923889,   -223.449615,   0.336708,   798.867004,   798.825928
-0.101591,   0.194964,   0.218273,   0.000000,   818.388428,   0.536220,   11.880316,   13.836256,   80.945000,   751.734985,   -221.705093,   0.342102,   811.337036,   811.053772
-0.108751,   0.217257,   0.239805,   0.000000,   835.930908,   0.536220,   11.880316,   13.133358,   86.653465,   769.996704,   -222.267868,   0.345800,   825.766235,   825.181091
-0.117157,   0.240227,   0.263576,   0.000000,   853.238708,   0.536220,   11.880316,   12.430461,   91.696770,   787.334839,   -224.028091,   0.348557,   840.639099,   839.748169
-0.127220,   0.264054,   0.289137,   0.000000,   869.891174,   0.536220,   11.880316,   11.727564,   95.992088,   803.263977,   -227.074249,   0.350347,   855.586731,   854.451843
-0.138924,   0.289325,   0.316623,   0.000000,   885.720032,   0.536220,   11.880316,   11.024666,   99.614075,   816.870483,   -232.643585,   0.350843,   870.745422,   869.521423
-0.152605,   0.314830,   0.344565,   0.000000,   899.398315,   0.536220,   11.880316,   10.321769,   101.591782,   826.575684,   -241.036026,   0.349448,   885.364380,   884.311768
-0.167275,   0.340154,   0.372350,   0.000000,   911.610962,   0.536220,   11.880316,   9.618871,   102.792290,   834.438232,   -249.837479,   0.347480,   899.075073,   898.253235
-0.183480,   0.365550,   0.400385,   0.000000,   921.906982,   0.536220,   11.880316,   8.915974,   102.684258,   838.587891,   -261.260254,   0.343889,   912.378601,   911.916077
-0.152854,   0.073880,   0.166227,   -756.713135,   40.483475,   0.535738,   12.840565,   49.385132,   -168.695312,   -547.534363,   -350.714783,   -0.306968,   777.745483,   -775.369629
-0.110092,   0.050974,   0.121581,   -642.327637,   185.882919,   0.535738,   12.840565,   48.692539,   -252.616486,   -203.828217,   -413.386139,   -0.202141,   752.685181,   -698.185486
-0.090292,   0.045263,   0.110744,   -482.817719,   353.812134,   0.535738,   12.840565,   47.999950,   -249.448257,   120.442665,   -375.210022,   -0.059117,   727.408264,   -466.186493
-0.102665,   0.065359,   0.129001,   -482.016022,   378.722076,   0.535738,   12.840565,   47.307358,   -251.954529,   148.660583,   -380.912598,   -0.046080,   747.208130,   -441.324402
-0.128155,   0.096912,   0.158738,   -465.842438,   430.615356,   0.535738,   12.840565,   46.614769,   -237.907700,   202.680618,   -390.358337,   -0.015121,   776.554993,   -316.960327
-0.154174,   0.128910,   0.191861,   -452.581726,   477.638641,   0.535738,   12.840565,   45.922176,   -219.989426,   245.046326,   -402.818726,   0.010367,   805.691895,   290.005219
-0.177031,   0.157543,   0.223599,   -442.202057,   516.333740,   0.535738,   12.840565,   45.229588,   -200.867599,   274.999298,   -416.035339,   0.029738,   830.943481,   424.647003
-0.196607,   0.182309,   0.251972,   -433.549500,   547.817871,   0.535738,   12.840565,   44.536995,   -181.741852,   296.010193,   -428.612549,   0.044716,   851.807312,   498.152527
-0.212460,   0.203268,   0.275795,   -426.824341,   572.415588,   0.535738,   12.840565,   43.844406,   -163.738876,   309.330109,   -440.081299,   0.055883,   868.423584,   546.429138
-0.225189,   0.219811,   0.294959,   -422.377167,   590.693542,   0.535738,   12.840565,   43.151814,   -147.880035,   316.196442,   -450.262512,   0.063657,   881.372131,   578.639587
-0.234927,   0.233113,   0.310116,   -419.390991,   604.446533,   0.535739,   12.840565,   42.459225,   -133.691193,   318.746735,   -459.223022,   0.069194,   891.484009,   601.329407
-0.241611,   0.243039,   0.321053,   -417.256226,   614.338074,   0.535737,   12.840565,   41.766632,   -121.674591,   318.756439,   -466.424500,   0.073090,   898.804993,   617.093201
-0.246831,   0.250525,   0.329497,   -416.397064,   621.345886,   0.535738,   12.840565,   41.074043,   -111.448334,   316.397156,   -472.720490,   0.075526,   904.535156,   627.620422
-0.250018,   0.255696,   0.335041,   -415.977570,   626.017944,   0.535738,   12.840565,   40.381451,   -102.958817,   312.999176,   -477.685455,   0.077066,   908.485107,   634.464417
-0.251842,   0.259159,   0.338588,   -415.719910,   629.205627,   0.535738,   12.840565,   39.688862,   -95.803131,   309.288849,   -481.604065,   0.078096,   911.205872,   639.083740
-0.252684,   0.261360,   0.340653,   -415.526306,   631.349854,   0.535738,   12.840565,   38.996269,   -89.686913,   305.510437,   -484.708344,   0.078795,   913.020935,   642.187866
-0.252738,   0.262572,   0.341545,   -415.224731,   632.800964,   0.535738,   12.840565,   38.303680,   -84.395164,   301.971405,   -487.103363,   0.079340,   914.113342,   644.378418
-0.252255,   0.263087,   0.341628,   -414.833008,   633.780945,   0.535738,   12.840565,   37.611088,   -79.728012,   298.675964,   -488.978973,   0.079789,   914.701050,   645.959473
-0.251369,   0.263092,   0.341108,   -414.349274,   634.427246,   0.535738,   12.840565,   36.918499,   -75.550583,   295.628540,   -490.448303,   0.080182,   914.908569,   647.125122
-0.250205,   0.262741,   0.340171,   -413.737274,   634.898621,   0.535738,   12.840565,   36.225906,   -71.648300,   292.809631,   -491.631866,   0.080582,   914.852966,   648.116577
-0.248835,   0.262074,   0.338885,   -413.089630,   635.142334,   0.535738,   12.840565,   35.533318,   -68.177666,   290.230347,   -492.527649,   0.080932,   914.559753,   648.809998
-0.247336,   0.261241,   0.337409,   -412.330658,   635.331360,   0.535738,   12.840565,   34.840725,   -64.917221,   287.917908,   -493.229919,   0.081316,   914.127502,   649.485901
-0.245749,   0.260283,   0.335793,   -411.483582,   635.482239,   0.535738,   12.840565,   34.148136,   -61.817772,   285.816437,   -493.783325,   0.081728,   913.590088,   650.153809
-0.244098,   0.259226,   0.334069,   -410.553284,   635.611633,   0.535738,   12.840565,   33.455544,   -58.858921,   283.917267,   -494.207825,   0.082171,   912.966919,   650.833130
-0.242402,   0.258159,   0.332316,   -409.512054,   635.795593,   0.535738,   12.840565,   32.762955,   -55.939476,   282.223022,   -494.548828,   0.082678,   912.305908,   651.641663
-0.240727,   0.257029,   0.330527,   -408.442017,   635.953186,   0.535738,   12.840565,   32.070362,   -53.184288,   280.695435,   -494.794312,   0.083191,   911.598206,   652.423645
-0.239063,   0.255918,   0.328760,   -407.298981,   636.164429,   0.535738,   12.840565,   31.377773,   -50.476971,   279.342438,   -494.983612,   0.083752,   910.882446,   653.310852
-0.237416,   0.254831,   0.327023,   -406.064819,   636.447571,   0.535738,   12.840565,   30.685183,   -47.822186,   278.204956,   -495.110687,   0.084374,   910.161011,   654.335815
-0.235792,   0.253772,   0.325323,   -404.720398,   636.822632,   0.535739,   12.840565,   29.992590,   -45.212547,   277.314758,   -495.173706,   0.085072,   909.437622,   655.532776
-0.234183,   0.252740,   0.323652,   -403.252747,   637.295349,   0.535738,   12.840565,   29.299999,   -42.651382,   276.693970,   -495.166351,   0.085852,   908.707458,   656.913025
-0.232582,   0.251727,   0.322003,   -401.639130,   637.878662,   0.535737,   12.840565,   28.607409,   -40.138744,   276.378265,   -495.079346,   0.086729,   907.964844,   658.501160
-0.230969,   0.250721,   0.320354,   -399.851166,   638.581421,   0.535738,   12.840565,   27.914818,   -37.688839,   276.419067,   -494.893524,   0.087717,   907.196045,   660.317627
-0.229322,   0.249703,   0.318680,   -397.864380,   639.404480,   0.535738,   12.840565,   27.222227,   -35.320980,   276.861084,   -494.587982,   0.088829,   906.383179,   662.368958
-0.227605,   0.248630,   0.316927,   -395.632385,   640.349854,   0.535738,   12.840565,   26.529636,   -33.067902,   277.785370,   -494.122833,   0.090086,   905.492188,   664.671570
-0.225755,   0.247429,   0.315006,   -393.072296,   641.421387,   0.535738,   12.840565,   25.837046,   -30.991873,   279.341003,   -493.424438,   0.091527,   904.462402,   667.257690
-0.223653,   0.246088,   0.312844,   -389.966980,   642.747253,   0.535738,   12.840565,   25.144455,   -29.014973,   281.795258,   -492.416412,   0.093286,   903.243347,   670.375916
-0.221211,   0.244377,   0.310216,   -386.171173,   644.266357,   0.535738,   12.840565,   24.451864,   -27.459841,   285.555023,   -490.872498,   0.095414,   901.667542,   673.978333
-0.218154,   0.242059,   0.306788,   -381.095276,   646.198792,   0.535738,   12.840565,   23.759274,   -26.487648,   291.591187,   -488.405304,   0.098243,   899.483093,   678.542969
-0.214082,   0.238697,   0.302014,   -374.019287,   648.691406,   0.535738,   12.840565,   23.066683,   -26.399899,   301.072021,   -484.432495,   0.102153,   896.277954,   684.425232
-0.208460,   0.233688,   0.295134,   -364.588776,   651.435669,   0.535738,   12.840565,   22.374092,   -27.512711,   314.359589,   -478.390259,   0.107251,   891.515259,   691.166260
-0.200843,   0.226531,   0.285512,   -352.988586,   653.776794,   0.535739,   12.840565,   21.681501,   -29.708591,   330.496765,   -470.060791,   0.113322,   884.760254,   697.665100
-0.190969,   0.216816,   0.272673,   -339.551300,   654.946167,   0.535738,   12.840565,   20.988911,   -33.108780,   348.503662,   -459.183289,   0.120071,   875.578308,   702.712891
-0.178995,   0.204707,   0.256826,   -322.714966,   655.925720,   0.535738,   12.840565,   20.296320,   -36.951057,   370.161835,   -444.970978,   0.128591,   863.747986,   707.667419
-0.165318,   0.190743,   0.238659,   -296.151794,   661.144348,   0.535737,   12.840565,   19.603729,   -39.102360,   404.094910,   -424.261719,   0.143321,   848.891479,   718.046143
-0.150605,   0.176005,   0.219570,   -249.238846,   677.490723,   0.535738,   12.840565,   18.911140,   -35.512226,   463.764069,   -390.368683,   0.171855,   830.644714,   739.224426
-0.135832,   0.162170,   0.201799,   -180.632126,   705.290222,   0.535738,   12.840565,   18.218550,   -20.263517,   544.921631,   -341.110016,   0.215685,   810.839294,   763.576477
-0.122048,   0.151053,   0.187658,   -115.623245,   730.131653,   0.535738,   12.840565,   17.525959,   1.834946,   612.673462,   -292.479767,   0.257889,   794.280273,   775.007141
-0.110056,   0.143816,   0.178210,   -74.748230,   743.303223,   0.535738,   12.840565,   16.833368,   17.737253,   650.817749,   -259.045013,   0.284483,   783.356628,   775.272278
-0.100668,   0.141229,   0.173621,   -49.095684,   751.885254,   0.535738,   12.840565,   16.140778,   28.569700,   674.219849,   -237.015991,   0.301266,   777.596375,   774.097717
-0.094559,   0.143984,   0.173998,   -29.329670,   761.458618,   0.535738,   12.840565,   15.448186,   37.813267,   694.315674,   -220.426117,   0.314270,   776.539001,   775.291260
-0.092537,   0.152826,   0.179991,   -14.345708,   773.275391,   0.535738,   12.840565,   14.755594,   45.614719,   713.314941,   -208.879974,   0.324102,   780.547119,   780.250366
-0.094194,   0.167314,   0.191386,   -2.843027,   787.595825,   0.535738,   12.840565,   14.063004,   52.586372,   732.166443,   -201.844330,   0.331530,   789.021240,   789.009705
-0.099386,   0.186536,   0.208160,   0.000000,   804.225830,   0.535738,   12.840565,   13.370413,   58.722397,   751.464661,   -198.327026,   0.337046,   801.261780,   801.211914
-0.107054,   0.209082,   0.229846,   0.000000,   822.676086,   0.535738,   12.840565,   12.677823,   64.566025,   771.099243,   -197.739548,   0.341258,   816.259033,   816.026489
-0.116262,   0.233006,   0.254618,   0.000000,   841.379639,   0.535738,   12.840565,   11.985232,   69.779793,   790.354553,   -198.421143,   0.344539,   832.160828,   831.685059
-0.127441,   0.257817,   0.281145,   0.000000,   859.237427,   0.535738,   12.840565,   11.292642,   74.293854,   807.868652,   -200.802414,   0.346759,   848.007324,   847.309692
-0.140826,   0.284189,   0.309734,   0.000000,   876.021545,   0.535738,   12.840565,   10.600051,   77.870102,   822.610413,   -206.470795,   0.347387,   864.051758,   863.272278
-0.155415,   0.311631,   0.339568,   0.000000,   891.744080,   0.535738,   12.840565,   9.907460,   80.807251,   835.545044,   -213.480377,   0.347222,   879.698181,   878.923157
-0.172308,   0.339043,   0.369556,   0.000000,   905.341187,   0.535738,   12.840565,   9.214869,   82.620346,   844.497131,   -223.735703,   0.345430,   894.651794,   894.055298
-0.084951,   0.042527,   0.091727,   -493.764801,   90.762611,   0.535148,   13.813208,   49.127861,   -112.520775,   -290.481415,   -278.389252,   -0.246554,   544.845764,   -527.433960
-0.062315,   0.030332,   0.068666,   -516.727173,   250.338181,   0.535147,   13.813208,   48.444141,   -206.460510,   -59.928501,   -376.469666,   -0.131061,   677.519531,   -558.244934
-0.062293,   0.036172,   0.078953,   -431.955994,   356.355682,   0.535148,   13.813208,   47.760422,   -218.571960,   142.971649,   -350.257599,   -0.036856,   683.743591,   -375.153778
-0.086587,   0.063242,   0.108287,   -440.134033,   393.017090,   0.535148,   13.813208,   47.076702,   -232.056839,   184.939896,   -360.643372,   -0.021756,   721.914551,   -332.563354
-0.116579,   0.096339,   0.145380,   -440.096893,   441.202515,   0.535148,   13.813208,   46.392986,   -224.078873,   225.184494,   -379.094666,   0.000483,   763.227905,   98.854538
-0.144169,   0.127695,   0.182373,   -433.273590,   487.365936,   0.535148,   13.813208,   45.709267,   -208.235077,   262.327423,   -395.647583,   0.022602,   797.755798,   372.192047
-0.168128,   0.156175,   0.216181,   -426.058136,   525.440735,   0.535148,   13.813208,   45.025547,   -190.363968,   289.746552,   -410.744446,   0.040129,   825.519104,   465.855072
-0.189551,   0.182131,   0.247102,   -420.629395,   556.295471,   0.535147,   13.813208,   44.341827,   -171.986603,   307.652679,   -425.537415,   0.053280,   848.756714,   525.780945
-0.206845,   0.203351,   0.272444,   -415.741669,   580.282898,   0.535148,   13.813208,   43.658108,   -155.135056,   319.676300,   -437.783966,   0.063297,   866.497070,   567.827209
-0.221827,   0.222310,   0.294810,   -412.717896,   599.431335,   0.535148,   13.813208,   42.974388,   -139.132751,   325.846191,   -449.511017,   0.070604,   881.504395,   598.490601
-0.232912,   0.236497,   0.311547,   -410.443237,   613.334473,   0.535150,   13.813208,   42.290668,   -125.687027,   328.578278,   -458.738434,   0.075785,   892.402283,   619.882385
-0.241814,   0.247910,   0.325016,   -409.514191,   623.601135,   0.535148,   13.813208,   41.606945,   -113.945526,   328.032471,   -466.900085,   0.079196,   901.084778,   634.825623
-0.248188,   0.256468,   0.334936,   -409.236145,   630.833008,   0.535147,   13.813208,   40.923229,   -104.049683,   325.646515,   -473.578125,   0.081393,   907.515320,   644.982910
-0.252625,   0.262622,   0.341986,   -409.293884,   635.844421,   0.535148,   13.813208,   40.239510,   -95.808540,   322.359039,   -478.918030,   0.082787,   912.176941,   651.824280
-0.255513,   0.266901,   0.346766,   -409.505585,   639.236023,   0.535148,   13.813208,   39.555790,   -88.944572,   318.675049,   -483.142120,   0.083647,   915.471619,   656.339966
-0.257197,   0.269721,   0.349784,   -409.753326,   641.453796,   0.535148,   13.813208,   38.872070,   -83.240356,   314.940826,   -486.438110,   0.084159,   917.713806,   659.227173
-0.258000,   0.271464,   0.351509,   -409.903015,   642.917419,   0.535148,   13.813208,   38.188351,   -78.394173,   311.408569,   -489.000183,   0.084501,   919.182861,   661.136597
-0.258138,   0.272385,   0.352249,   -409.924255,   643.852661,   0.535147,   13.813208,   37.504631,   -74.223579,   308.152008,   -490.977264,   0.084751,   920.062500,   662.393616
-0.257811,   0.272719,   0.352294,   -409.833862,   644.425232,   0.535148,   13.813208,   36.820915,   -70.588753,   305.180084,   -492.508881,   0.084949,   920.518860,   663.215149
-0.257102,   0.272694,   0.351859,   -409.568665,   644.833862,   0.535148,   13.813208,   36.137192,   -67.230064,   302.495239,   -493.727631,   0.085178,   920.685059,   663.903076
-0.256173,   0.272261,   0.350994,   -409.271515,   644.978943,   0.535148,   13.813208,   35.453476,   -64.296806,   300.004211,   -494.653595,   0.085347,   920.582642,   664.249939
-0.255044,   0.271616,   0.349862,   -408.876007,   645.025146,   0.535148,   13.813208,   34.769756,   -61.572163,   297.721283,   -495.382629,   0.085532,   920.310974,   664.512268
-0.253775,   0.270818,   0.348539,   -408.372864,   645.024170,   0.535148,   13.813208,   34.086037,   -59.024792,   295.676117,   -495.941681,   0.085752,   919.910278,   664.764465
-0.252421,   0.269917,   0.347095,   -407.782745,   645.001587,   0.535147,   13.813208,   33.402317,   -56.616577,   293.835449,   -496.371399,   0.086003,   919.420654,   665.029907
-0.251041,   0.268950,   0.345591,   -407.131439,   644.968323,   0.535148,   13.813208,   32.718597,   -54.365025,   292.201935,   -496.690369,   0.086279,   918.872681,   665.310303
-0.249621,   0.267971,   0.344057,   -406.383209,   644.978638,   0.535148,   13.813208,   32.034878,   -52.182880,   290.778351,   -496.925385,   0.086609,   918.288269,   665.695435
-0.248181,   0.266953,   0.342485,   -405.568359,   645.006165,   0.535148,   13.813208,   31.351158,   -50.061089,   289.498871,   -497.093018,   0.086973,   917.666992,   666.134155
-0.246734,   0.265922,   0.340899,   -404.683563,   645.067139,   0.535147,   13.813208,   30.667439,   -47.997158,   288.380707,   -497.198761,   0.087378,   917.021484,   666.649170
-0.245286,   0.264897,   0.339318,   -403.710693,   645.186035,   0.535149,   13.813208,   29.983719,   -45.985775,   287.461121,   -497.241760,   0.087839,   916.360107,   667.280701
-0.243838,   0.263880,   0.337745,   -402.626495,   645.382812,   0.535147,   13.813208,   29.299999,   -44.024837,   286.781158,   -497.214966,   0.088370,   915.682922,   668.065247
-0.242384,   0.262871,   0.336176,   -401.419647,   645.663269,   0.535148,   13.813208,   28.616280,   -42.120132,   286.363739,   -497.111908,   0.088979,   914.986755,   669.013367
-0.240908,   0.261854,   0.334592,   -400.064697,   646.035400,   0.535148,   13.813208,   27.932560,   -40.279762,   286.250458,   -496.916351,   0.089679,   914.258972,   670.144958
-0.239386,   0.260810,   0.332964,   -398.535187,   646.502075,   0.535147,   13.813208,   27.248842,   -38.515881,   286.482788,   -496.608185,   0.090484,   913.481812,   671.472351
-0.237774,   0.259704,   0.331240,   -396.801514,   647.054626,   0.535148,   13.813208,   26.565123,   -36.849483,   287.102600,   -496.157928,   0.091404,   912.624451,   672.992737
-0.236022,   0.258484,   0.329355,   -394.814148,   647.692017,   0.535148,   13.813208,   25.881403,   -35.296242,   288.174103,   -495.526489,   0.092462,   911.647461,   674.720581
-0.234091,   0.257067,   0.327222,   -392.498444,   648.401733,   0.535147,   13.813208,   25.197683,   -34.025612,   289.928894,   -494.602539,   0.093688,   910.481445,   676.664490
-0.231880,   0.255431,   0.324769,   -389.651947,   649.292542,   0.535148,   13.813208,   24.513964,   -33.037189,   292.677765,   -493.283752,   0.095204,   909.069641,   679.039795
-0.229194,   0.253322,   0.321695,   -385.994049,   650.375916,   0.535147,   13.813208,   23.830246,   -32.538315,   296.920197,   -491.304352,   0.097142,   907.205322,   681.952393
-0.225741,   0.250405,   0.317584,   -381.020477,   651.744324,   0.535148,   13.813208,   23.146526,   -32.801193,   303.525055,   -488.233521,   0.099760,   904.585693,   685.674133
-0.221061,   0.246153,   0.311780,   -374.205688,   653.334412,   0.535148,   13.813208,   22.462807,   -34.113033,   313.241791,   -483.524384,   0.103295,   900.753723,   690.228821
-0.214612,   0.240128,   0.303653,   -365.320892,   654.856506,   0.535148,   13.813208,   21.779087,   -36.459538,   325.995148,   -476.809326,   0.107801,   895.281616,   695.185242
-0.206111,   0.231731,   0.292562,   -354.874847,   655.363953,   0.535148,   13.813208,   21.095367,   -40.232933,   340.722046,   -467.828949,   0.112834,   887.699402,   699.057678
-0.195420,   0.220862,   0.278348,   -342.938385,   654.528137,   0.535148,   13.813208,   20.411648,   -45.069096,   356.658844,   -456.495911,   0.118327,   877.767944,   701.346436
-0.182652,   0.207628,   0.261150,   -328.165619,   653.111694,   0.535147,   13.813208,   19.727928,   -50.470509,   375.416565,   -442.019623,   0.125191,   865.203064,   703.192871
-0.168199,   0.192533,   0.241611,   -305.470825,   654.708374,   0.535148,   13.813208,   19.044209,   -54.608837,   403.846375,   -421.830200,   0.137008,   849.676270,   709.330994
-0.152646,   0.176493,   0.220910,   -265.441803,   665.557800,   0.535147,   13.813208,   18.360491,   -54.179226,   454.295197,   -389.940369,   0.160550,   830.718567,   725.677979
-0.136843,   0.160977,   0.200998,   -202.167542,   689.129944,   0.535148,   13.813208,   17.676771,   -42.696804,   529.659241,   -341.621063,   0.200550,   809.377258,   749.344727
-0.121844,   0.147825,   0.184284,   -133.525574,   714.858582,   0.535148,   13.813208,   16.993052,   -20.460850,   601.793884,   -288.337799,   0.245248,   790.128967,   764.124939
-0.108527,   0.138414,   0.172154,   -85.759346,   729.944580,   0.535147,   13.813208,   16.309332,   -1.147157,   645.332397,   -248.715240,   0.276575,   776.384766,   765.619873
-0.097970,   0.133808,   0.165263,   -57.663948,   737.877930,   0.535149,   13.813208,   15.625613,   10.737338,   669.476624,   -223.018723,   0.295103,   768.334473,   763.443359
-0.090758,   0.134674,   0.163355,   -36.545597,   746.251892,   0.535148,   13.813208,   14.941894,   20.475235,   689.231079,   -203.431534,   0.309168,   765.179565,   763.212219
-0.088043,   0.142096,   0.167725,   -20.725592,   757.410400,   0.535148,   13.813208,   14.258174,   28.628059,   708.056763,   -189.652496,   0.319749,   767.982971,   767.353455
-0.089217,   0.155537,   0.177509,   -8.049828,   771.408508,   0.535148,   13.813208,   13.574455,   35.670853,   727.687805,   -179.351471,   0.328130,   775.464783,   775.370728
-0.094520,   0.174689,   0.193937,   0.000000,   788.831848,   0.535148,   13.813208,   12.890736,   42.015495,   748.285950,   -174.012497,   0.334265,   788.098083,   788.095032
-0.102671,   0.197224,   0.215712,   0.000000,   808.311829,   0.535148,   13.813208,   12.207016,   47.747047,   769.485474,   -171.842819,   0.338866,   803.888611,   803.777161
-0.112774,   0.221665,   0.241088,   0.000000,   828.270630,   0.535148,   13.813208,   11.523296,   52.816540,   790.448608,   -171.257767,   0.342425,   820.876038,   820.567871
-0.124948,   0.247588,   0.268740,   0.000000,   847.588257,   0.535148,   13.813208,   10.839578,   57.317722,   809.815125,   -172.774445,   0.344927,   837.987000,   837.473938
-0.139521,   0.274438,   0.297698,   0.000000,   864.887878,   0.535148,   13.813208,   10.155858,   60.089840,   825.625793,   -177.758377,   0.345444,   854.664307,   854.092957
-0.155963,   0.302578,   0.328194,   0.000000,   881.149780,   0.535148,   13.813208,   9.472138,   62.446594,   839.196777,   -185.329529,   0.345027,   871.083740,   870.541138
-0.037425,   0.019539,   0.041104,   -163.615143,   181.946152,   0.534530,   14.796378,   48.912712,   -47.418880,   65.749893,   -163.252441,   0.020408,   299.405182,   135.026154
-0.029181,   0.015209,   0.032572,   -403.318817,   274.738312,   0.534527,   14.796378,   48.236412,   -181.388672,   52.808147,   -318.164001,   -0.072555,   590.723572,   -404.613678
-0.044139,   0.030757,   0.056025,   -401.743835,   336.693359,   0.534530,   14.796378,   47.560112,   -215.192383,   150.141907,   -320.866150,   -0.033863,   640.331970,   -341.626801
-0.073912,   0.060430,   0.092475,   -408.756561,   398.941010,   0.534529,   14.796378,   46.883808,   -220.153641,   210.338089,   -341.706116,   -0.004677,   699.503845,   -193.131332
-0.104538,   0.092571,   0.132551,   -413.730743,   451.183289,   0.534529,   14.796378,   46.207512,   -210.870453,   248.322983,   -366.475677,   0.016662,   749.271606,   315.861267
-0.132019,   0.123046,   0.170299,   -412.371826,   495.322174,   0.534530,   14.796378,   45.531208,   -195.996613,   278.946960,   -386.761230,   0.035126,   787.179443,   425.091217
-0.157242,   0.151569,   0.205684,   -409.290771,   532.289001,   0.534529,   14.796378,   44.854908,   -179.188370,   302.186584,   -404.614197,   0.050137,   817.747803,   496.570007
-0.179689,   0.177697,   0.237753,   -406.372345,   562.394714,   0.534527,   14.796378,   44.178608,   -162.081451,   318.103790,   -420.693390,   0.061723,   842.595947,   547.656433
-0.198874,   0.200373,   0.265429,   -404.192474,   586.035339,   0.534530,   14.796378,   43.502308,   -146.153793,   327.996674,   -434.664368,   0.070288,   862.368835,   584.650391
-0.215408,   0.220209,   0.289590,   -402.558716,   605.279541,   0.534529,   14.796378,   42.826008,   -130.821854,   333.542694,   -447.242554,   0.076904,   878.679382,   613.232727
-0.228615,   0.236377,   0.309079,   -401.529205,   619.881653,   0.534529,   14.796378,   42.149708,   -117.517853,   335.870300,   -457.635040,   0.081663,   891.279724,   634.113342
-0.239123,   0.249305,   0.324685,   -401.218414,   630.843201,   0.534530,   14.796378,   41.473408,   -105.896271,   335.521057,   -466.449860,   0.084939,   901.135559,   649.225708
-0.247145,   0.259284,   0.336658,   -401.476074,   638.735046,   0.534527,   14.796378,   40.797108,   -96.066864,   333.325806,   -473.724884,   0.087039,   908.626648,   659.730896
-0.252993,   0.266697,   0.345483,   -402.092957,   644.202820,   0.534530,   14.796378,   40.120808,   -87.961212,   330.071075,   -479.578949,   0.088280,   914.169250,   666.746643
-0.257056,   0.271985,   0.351711,   -402.819641,   647.886597,   0.534529,   14.796378,   39.444504,   -81.353729,   326.420685,   -484.175476,   0.088971,   918.151489,   671.308655
-0.259742,   0.275635,   0.355932,   -403.499573,   650.332703,   0.534529,   14.796378,   38.768208,   -75.912468,   322.745575,   -487.758698,   0.089340,   920.952454,   674.239929
-0.261394,   0.278059,   0.358657,   -404.079224,   651.914917,   0.534530,   14.796378,   38.091904,   -71.430893,   319.266571,   -490.530090,   0.089516,   922.875000,   676.069092
-0.262232,   0.279530,   0.360208,   -404.484039,   652.905884,   0.534527,   14.796378,   37.415604,   -67.690079,   316.111908,   -492.638153,   0.089607,   924.112183,   677.194824
-0.262520,   0.280323,   0.360942,   -404.775421,   653.479736,   0.534529,   14.796378,   36.739307,   -64.499825,   313.204132,   -494.278168,   0.089635,   924.873718,   677.820068
-0.262407,   0.280642,   0.361102,   -404.934418,   653.795715,   0.534530,   14.796378,   36.063004,   -61.740528,   310.601837,   -495.547852,   0.089651,   925.291931,   678.164978
-0.261926,   0.280608,   0.360792,   -404.918518,   653.961853,   0.534529,   14.796378,   35.386703,   -59.260452,   308.303802,   -496.518921,   0.089703,   925.433105,   678.392822
-0.261200,   0.280259,   0.360108,   -404.810730,   653.974792,   0.534530,   14.796378,   34.710403,   -56.989182,   306.153229,   -497.281189,   0.089754,   925.359802,   678.460266
-0.260278,   0.279664,   0.359131,   -404.617737,   653.872375,   0.534529,   14.796378,   34.034103,   -54.917755,   304.172363,   -497.859314,   0.089811,   925.112427,   678.414429
-0.259233,   0.278932,   0.357982,   -404.342377,   653.722168,   0.534527,   14.796378,   33.357803,   -52.985268,   302.365082,   -498.303802,   0.089890,   924.755615,   678.343567
-0.258099,   0.278060,   0.356678,   -404.001862,   653.516296,   0.534530,   14.796378,   32.681503,   -51.223541,   300.737946,   -498.615021,   0.089984,   924.295837,   678.228943
-0.256888,   0.277165,   0.355318,   -403.531555,   653.375305,   0.534529,   14.796378,   32.005203,   -49.464718,   299.308472,   -498.851013,   0.090151,   923.793579,   678.260498
-0.255661,   0.276237,   0.353928,   -403.002289,   653.246094,   0.534530,   14.796378,   31.328901,   -47.813744,   298.057526,   -499.007446,   0.090348,   923.255615,   678.334106
-0.254420,   0.275294,   0.352518,   -402.403961,   653.145996,   0.534528,   14.796378,   30.652601,   -46.237743,   296.979767,   -499.096039,   0.090584,   922.690186,   678.477173
-0.253167,   0.274341,   0.351097,   -401.728424,   653.088135,   0.534530,   14.796378,   29.976301,   -44.717674,   296.077393,   -499.123413,   0.090865,   922.103027,   678.710327
-0.251898,   0.273380,   0.349661,   -400.962646,   653.080688,   0.534529,   14.796378,   29.300001,   -43.253006,   295.371063,   -499.084442,   0.091199,   921.491394,   679.049255
-0.250608,   0.272406,   0.348206,   -400.087738,   653.135620,   0.534530,   14.796378,   28.623699,   -41.841427,   294.889313,   -498.971893,   0.091599,   920.851685,   679.517395
-0.249284,   0.271413,   0.346719,   -399.088104,   653.256958,   0.534529,   14.796378,   27.947399,   -40.494247,   294.663116,   -498.773407,   0.092073,   920.175537,   680.125427
-0.247913,   0.270389,   0.345184,   -397.941193,   653.451355,   0.534529,   14.796378,   27.271099,   -39.226082,   294.736267,   -498.471527,   0.092631,   919.451538,   680.890137
-0.246470,   0.269310,   0.343572,   -396.618286,   653.721558,   0.534530,   14.796378,   26.594799,   -38.063026,   295.166260,   -498.039154,   0.093289,   918.659790,   681.824951
-0.244943,   0.268181,   0.341875,   -395.095123,   654.078186,   0.534530,   14.796378,   25.918497,   -37.031296,   296.014374,   -497.454834,   0.094060,   917.791687,   682.950684
-0.243248,   0.266830,   0.339914,   -393.357086,   654.412842,   0.534528,   14.796378,   25.242197,   -36.333138,   297.388885,   -496.601318,   0.094922,   916.735474,   684.127808
-0.241284,   0.265265,   0.337644,   -391.235809,   654.840759,   0.534530,   14.796378,   24.565897,   -35.819420,   299.424347,   -495.451263,   0.095982,   915.466553,   685.571289
-0.238920,   0.263304,   0.334853,   -388.577209,   655.335144,   0.534529,   14.796378,   23.889597,   -35.692753,   302.450684,   -493.814758,   0.097303,   913.840637,   687.298096
-0.235894,   0.260692,   0.331197,   -385.022278,   655.943176,   0.534530,   14.796378,   23.213297,   -36.143372,   307.064240,   -491.380096,   0.099062,   911.622925,   689.491516
-0.231872,   0.257045,   0.326208,   -380.141907,   656.675476,   0.534529,   14.796378,   22.536997,   -37.369331,   313.902893,   -487.749451,   0.101462,   908.493469,   692.287048
-0.226437,   0.251805,   0.319215,   -373.648224,   657.260071,   0.534529,   14.796378,   21.860695,   -39.832855,   323.444702,   -482.390228,   0.104578,   903.984436,   695.370789
-0.219206,   0.244609,   0.309722,   -365.550507,   657.301453,   0.534530,   14.796378,   21.184395,   -43.544666,   335.295624,   -475.054260,   0.108327,   897.746765,   698.150269
-0.209851,   0.235058,   0.297242,   -356.158813,   656.138184,   0.534530,   14.796378,   20.508095,   -48.465626,   348.445007,   -465.619781,   0.112426,   889.413147,   699.627930
-0.198303,   0.222980,   0.281580,   -345.582153,   653.341187,   0.534528,   14.796378,   19.831795,   -54.598598,   362.357666,   -453.870941,   0.116752,   878.672180,   699.210083
-0.184778,   0.208645,   0.263063,   -332.709198,   649.641296,   0.534530,   14.796378,   19.155495,   -61.283344,   378.215485,   -439.275909,   0.122079,   865.373230,   698.017944
-0.169552,   0.192425,   0.242159,   -313.657532,   647.712219,   0.534529,   14.796378,   18.479193,   -67.053032,   401.107697,   -419.838440,   0.131131,   849.159546,   699.780273
-0.153132,   0.175086,   0.219842,   -280.581360,   652.798096,   0.534530,   14.796378,   17.802893,   -69.511200,   441.727905,   -390.458618,   0.149579,   829.478271,   710.298279
-0.136301,   0.157932,   0.197826,   -224.349991,   670.738647,   0.534529,   14.796378,   17.126593,   -62.555916,   508.944580,   -344.445526,   0.184459,   806.661987,   731.378967
-0.120006,   0.142645,   0.178366,   -153.466003,   696.297363,   0.534529,   14.796378,   16.450293,   -41.495403,   584.326782,   -287.421478,   0.230686,   784.372253,   749.469421
-0.105369,   0.131094,   0.163562,   -96.636246,   714.523926,   0.534530,   14.796378,   15.773993,   -17.801506,   635.689209,   -240.276276,   0.268383,   767.419006,   753.547913
-0.093281,   0.124241,   0.153955,   -63.560238,   722.619812,   0.534529,   14.796378,   15.097692,   -3.090953,   662.150513,   -209.483200,   0.290435,   756.405457,   750.362000
-0.085172,   0.123424,   0.150210,   -40.834934,   730.139832,   0.534529,   14.796378,   14.421391,   7.645272,   681.659607,   -187.154175,   0.305791,   751.389954,   748.887268
-0.081292,   0.129032,   0.152172,   -23.283224,   740.170654,   0.534530,   14.796378,   13.745091,   16.423882,   700.463562,   -169.522537,   0.317734,   752.082642,   751.271118
-0.082221,   0.141325,   0.160599,   -10.344042,   753.699646,   0.534529,   14.796378,   13.068790,   23.341312,   720.014282,   -156.851456,   0.326495,   758.924500,   758.765869
-0.087692,   0.160170,   0.176513,   -0.640283,   771.735046,   0.534529,   14.796378,   12.392490,   29.415146,   741.679626,   -149.367813,   0.332919,   772.055420,   772.054810
-0.096272,   0.182728,   0.198609,   0.000000,   792.853882,   0.534529,   14.796378,   11.716190,   35.193089,   765.154358,   -144.868347,   0.338070,   789.133789,   789.053650
-0.106987,   0.207255,   0.224181,   0.000000,   814.361450,   0.534530,   14.796378,   11.039889,   40.528748,   788.256897,   -142.128693,   0.342228,   807.246033,   806.955994
-0.120643,   0.233669,   0.252350,   0.000000,   834.237854,   0.534529,   14.796378,   10.363589,   43.662807,   808.202026,   -143.468674,   0.343952,   825.565491,   825.141968
-0.136120,   0.261397,   0.282141,   0.000000,   852.669983,   0.534529,   14.796378,   9.687288,   45.761566,   825.832764,   -147.157059,   0.344490,   843.367065,   842.889038
-0.008005,   0.004003,   0.012742,   -147.589142,   388.317566,   0.533953,   15.788191,   48.740093,   -143.627411,   384.355835,   -45.906658,   0.167360,   479.462769,   423.646454
-0.011085,   0.006861,   0.014159,   -287.022308,   291.699097,   0.533950,   15.788191,   48.069744,   -195.821152,   200.497940,   -210.861115,   0.003110,   501.192902,   120.784721
-0.034809,   0.028485,   0.043426,   -360.273407,   343.113831,   0.533951,   15.788191,   47.399399,   -203.521973,   186.362396,   -292.721619,   -0.009389,   609.211609,   -212.164566
-0.064130,   0.057336,   0.081413,   -375.511780,   413.475769,   0.533950,   15.788191,   46.729050,   -197.054916,   235.018906,   -330.080902,   0.018513,   683.546875,   298.435822
-0.093126,   0.087397,   0.120372,   -383.990265,   464.685822,   0.533950,   15.788191,   46.058701,   -189.988144,   270.683685,   -356.382019,   0.036543,   736.081726,   402.732300
-0.120265,   0.116622,   0.157740,   -388.328949,   505.244263,   0.533951,   15.788191,   45.388355,   -179.003723,   295.919037,   -378.457886,   0.050217,   776.061951,   471.504456
-0.146201,   0.145293,   0.194001,   -390.426422,   539.711365,   0.533950,   15.788191,   44.718006,   -165.262589,   314.547516,   -398.415161,   0.061512,   808.973877,   525.217834
-0.168843,   0.171078,   0.226165,   -390.269104,   568.088867,   0.533950,   15.788191,   44.047657,   -150.843231,   328.663025,   -414.886658,   0.071011,   834.710999,   567.772766
-0.189803,   0.195318,   0.256241,   -390.686920,   591.747314,   0.533951,   15.788191,   43.377312,   -136.137192,   337.197601,   -430.444885,   0.078228,   856.731628,   601.201538
-0.207582,   0.216017,   0.281872,   -390.953857,   610.540222,   0.533950,   15.788191,   42.706963,   -122.261765,   341.848114,   -443.731995,   0.083725,   874.240967,   626.964294
-0.222632,   0.233720,   0.303706,   -391.578674,   625.357178,   0.533950,   15.788191,   42.036613,   -109.601303,   343.379822,   -455.238037,   0.087714,   888.415466,   646.639465
-0.234828,   0.248223,   0.321500,   -392.396240,   636.722656,   0.533951,   15.788191,   41.366264,   -98.338615,   342.665009,   -464.919739,   0.090534,   899.576599,   661.365967
-0.244433,   0.259704,   0.335557,   -393.458252,   645.139648,   0.533950,   15.788191,   40.695919,   -88.650848,   340.332214,   -472.932098,   0.092372,   908.212524,   671.972961
-0.251752,   0.268488,   0.346285,   -394.719177,   651.120972,   0.533953,   15.788191,   40.025570,   -80.547195,   336.948975,   -479.447205,   0.093432,   914.752197,   679.252625
-0.257036,   0.274894,   0.354068,   -395.980194,   655.179321,   0.533950,   15.788191,   39.355221,   -74.015190,   333.214325,   -484.535980,   0.093963,   919.509766,   684.005737
-0.260784,   0.279505,   0.359629,   -397.142914,   657.915100,   0.533950,   15.788191,   38.684872,   -68.668198,   329.440369,   -488.532745,   0.094179,   922.963196,   687.072937
-0.263325,   0.282694,   0.363441,   -398.142731,   659.693848,   0.533951,   15.788191,   38.014526,   -64.349579,   325.900665,   -491.610352,   0.094212,   925.400391,   688.962280
-0.264858,   0.284760,   0.365842,   -398.896667,   660.808655,   0.533950,   15.788191,   37.344177,   -60.835960,   322.747986,   -493.922760,   0.094176,   927.028076,   690.091736
-0.265707,   0.286049,   0.367272,   -399.482178,   661.473267,   0.533950,   15.788191,   36.673828,   -57.883266,   319.874359,   -495.713043,   0.094095,   928.105408,   690.706665
-0.266054,   0.286677,   0.367918,   -399.955811,   661.751648,   0.533951,   15.788191,   36.003483,   -55.456257,   317.252075,   -497.069214,   0.093961,   928.736389,   690.865845
-0.265988,   0.286944,   0.368066,   -400.214844,   661.906433,   0.533950,   15.788191,   35.333134,   -53.253918,   314.945496,   -498.129181,   0.093889,   929.083801,   690.955994
-0.265694,   0.286916,   0.367869,   -400.387054,   661.908752,   0.533951,   15.788191,   34.662785,   -51.373558,   312.895233,   -498.944031,   0.093814,   929.221558,   690.884644
-0.265195,   0.286652,   0.367376,   -400.454559,   661.810059,   0.533950,   15.788191,   33.992435,   -49.724987,   311.080505,   -499.556183,   0.093758,   929.183105,   690.726746
-0.264543,   0.286208,   0.366664,   -400.429230,   661.648865,   0.533950,   15.788191,   33.322090,   -48.233707,   309.453308,   -500.017456,   0.093727,   929.013611,   690.527100
-0.263751,   0.285612,   0.365761,   -400.332062,   661.423401,   0.533951,   15.788191,   32.651741,   -46.900043,   307.991394,   -500.344055,   0.093709,   928.727966,   690.274841
-0.262881,   0.284928,   0.364747,   -400.138489,   661.209106,   0.533951,   15.788191,   31.981392,   -45.591793,   306.662384,   -500.593567,   0.093737,   928.376831,   690.078857
-0.261926,   0.284167,   0.363629,   -399.858948,   660.994751,   0.533951,   15.788191,   31.311045,   -44.361652,   305.497467,   -500.751740,   0.093803,   927.957947,   689.920044
-0.260922,   0.283357,   0.362449,   -399.503113,   660.796387,   0.533950,   15.788191,   30.640696,   -43.195042,   304.488281,   -500.837128,   0.093907,   927.493835,   689.814697
-0.259883,   0.282516,   0.361228,   -399.074921,   660.621948,   0.533951,   15.788191,   29.970348,   -42.084652,   303.631653,   -500.858673,   0.094048,   926.994995,   689.771667
-0.258814,   0.281650,   0.359971,   -398.565765,   660.482178,   0.533951,   15.788191,   29.299999,   -41.027020,   302.943420,   -500.816040,   0.094235,   926.464783,   689.808105
-0.257713,   0.280760,   0.358680,   -397.964294,   660.384888,   0.533951,   15.788191,   28.629652,   -40.024498,   302.445068,   -500.703888,   0.094474,   925.901367,   689.938721
-0.256570,   0.279836,   0.357342,   -397.253815,   660.335815,   0.533950,   15.788191,   27.959303,   -39.083218,   302.165222,   -500.511078,   0.094774,   925.297241,   690.177124
-0.255371,   0.278866,   0.355939,   -396.417603,   660.336609,   0.533951,   15.788191,   27.288956,   -38.216217,   302.135223,   -500.222534,   0.095143,   924.640686,   690.531738
-0.254093,   0.277828,   0.354441,   -395.433105,   660.386047,   0.533951,   15.788191,   26.618608,   -37.441967,   302.394928,   -499.816223,   0.095591,   923.913208,   691.008850
-0.252702,   0.276681,   0.352796,   -394.272614,   660.474304,   0.533951,   15.788191,   25.948259,   -36.788036,   302.989716,   -499.259979,   0.096128,   923.083984,   691.605408
-0.251120,   0.275354,   0.350912,   -392.929108,   660.544006,   0.533951,   15.788191,   25.277912,   -36.370117,   303.984985,   -498.488708,   0.096742,   922.094666,   692.247681
-0.249310,   0.273799,   0.348726,   -391.315552,   660.630920,   0.533951,   15.788191,   24.607563,   -36.142101,   305.457458,   -497.468872,   0.097482,   920.910522,   693.014221
-0.247162,   0.271915,   0.346102,   -389.338989,   660.712646,   0.533951,   15.788191,   23.937216,   -36.241409,   307.615082,   -496.077423,   0.098384,   919.438599,   693.908508
-0.244506,   0.269510,   0.342801,   -386.783813,   660.796082,   0.533951,   15.788191,   23.266867,   -36.838692,   310.850922,   -494.099060,   0.099548,   917.517517,   695.015076
-0.241146,   0.266402,   0.338575,   -383.335510,   660.944946,   0.533950,   15.788191,   22.596519,   -38.117992,   315.727448,   -491.252258,   0.101137,   914.963440,   696.518188
-0.236642,   0.261957,   0.332683,   -378.692322,   660.887756,   0.533951,   15.788191,   21.926172,   -40.612080,   322.807495,   -486.994080,   0.103222,   911.292297,   698.151001
-0.230528,   0.255836,   0.324621,   -372.604095,   660.486694,   0.533951,   15.788191,   21.255823,   -44.107143,   331.989716,   -481.099701,   0.105895,   906.187866,   699.778381
-0.222485,   0.247532,   0.313808,   -365.272217,   659.125427,   0.533951,   15.788191,   20.585474,   -48.881752,   342.734985,   -473.293488,   0.108927,   899.238770,   700.503662
-0.212247,   0.236722,   0.299831,   -356.906830,   656.233337,   0.533950,   15.788191,   19.915127,   -54.973873,   354.300415,   -463.397125,   0.112097,   890.078003,   699.522034
-0.199872,   0.223488,   0.282780,   -347.548431,   651.610901,   0.533951,   15.788191,   19.244780,   -62.145309,   366.207764,   -451.340515,   0.115365,   878.551697,   696.569214
-0.185573,   0.208040,   0.262932,   -336.390198,   645.716370,   0.533951,   15.788191,   18.574430,   -69.911964,   379.238129,   -436.691406,   0.119273,   864.477112,   692.400879
-0.169528,   0.190655,   0.240610,   -320.574127,   640.422607,   0.533951,   15.788191,   17.904083,   -77.062515,   396.910980,   -417.990387,   0.125805,   847.473755,   689.796021
-0.152219,   0.172035,   0.216696,   -294.001129,   639.851990,   0.533951,   15.788191,   17.233734,   -81.907486,   427.758331,   -391.255157,   0.139396,   827.021423,   693.920471
-0.134292,   0.153241,   0.192573,   -246.243652,   650.790100,   0.533951,   15.788191,   16.563387,   -79.708138,   484.254578,   -348.789185,   0.167982,   802.755615,   710.019897
-0.116654,   0.135847,   0.170350,   -176.126099,   674.079468,   0.533951,   15.788191,   15.893039,   -61.887974,   559.841370,   -289.957825,   0.213552,   777.255798,   730.304932
-0.100724,   0.122057,   0.152803,   -109.672264,   695.709473,   0.533950,   15.788191,   15.222691,   -34.171158,   620.208374,   -234.748367,   0.258212,   756.531372,   738.328491
-0.086997,   0.112908,   0.140283,   -68.211716,   705.374268,   0.533950,   15.788191,   14.552342,   -14.485132,   651.647705,   -196.661102,   0.286300,   741.835938,   734.730713
-0.077747,   0.110486,   0.134695,   -42.375664,   712.526123,   0.533951,   15.788191,   13.881994,   -1.618835,   671.769287,   -170.605637,   0.304076,   734.631165,   731.873779
-0.072833,   0.114430,   0.134528,   -22.762650,   721.593872,   0.533950,   15.788191,   13.211646,   8.316794,   690.514404,   -148.890076,   0.317691,   733.240234,   732.444641
-0.073565,   0.125914,   0.141846,   -9.017562,   735.147278,   0.533951,   15.788191,   12.541299,   15.637773,   710.491943,   -133.190643,   0.327219,   739.697327,   739.573669
-0.079246,   0.144435,   0.157592,   0.000000,   754.490601,   0.533951,   15.788191,   11.870951,   21.720613,   733.962769,   -122.646629,   0.334124,   753.894958,   753.892761
-0.088280,   0.166952,   0.180092,   0.000000,   777.255676,   0.533951,   15.788191,   11.200602,   27.031597,   759.351074,   -115.898590,   0.339222,   772.732666,   772.611328
-0.100201,   0.191141,   0.205494,   0.000000,   799.161621,   0.533950,   15.788191,   10.530254,   30.789968,   782.886902,   -111.825882,   0.342455,   792.003784,   791.704407
-0.114720,   0.217133,   0.233206,   0.000000,   818.942200,   0.533951,   15.788191,   9.859906,   31.738228,   803.227417,   -111.223770,   0.343163,   811.049194,   810.692932
-0.008593,   0.015471,   0.014371,   0.000000,   501.468994,   0.533467,   16.786739,   48.610340,   7.749283,   501.261292,   10.126719,   0.340880,   497.741028,   497.612457
-0.009376,   0.011850,   0.013322,   -80.375870,   445.199341,   0.533467,   16.786739,   47.944466,   -67.273438,   432.096924,   -81.942902,   0.248001,   490.352966,   475.192535
-0.028878,   0.027639,   0.036967,   -251.519318,   416.443970,   0.533465,   16.786739,   47.278591,   -160.002029,   324.926666,   -229.684082,   0.094083,   584.321167,   434.840942
-0.055332,   0.053125,   0.071429,   -330.452148,   435.856720,   0.533467,   16.786739,   46.612720,   -173.940887,   279.345459,   -308.933960,   0.052776,   665.732300,   411.119995
-0.082538,   0.081117,   0.108285,   -351.663849,   478.559387,   0.533465,   16.786739,   45.946846,   -167.763519,   294.659058,   -344.759338,   0.058602,   721.788452,   461.267975
-0.108963,   0.109277,   0.144781,   -362.541382,   514.954895,   0.533467,   16.786739,   45.280972,   -161.137955,   313.551453,   -369.008698,   0.066520,   763.745544,   508.630859
-0.134257,   0.137065,   0.180226,   -368.913452,   546.529907,   0.533467,   16.786739,   44.615097,   -151.023254,   328.639740,   -389.858948,   0.074215,   797.755798,   550.418213
-0.157546,   0.162901,   0.213062,   -373.098114,   572.850952,   0.533465,   16.786739,   43.949223,   -139.582001,   339.334839,   -407.878143,   0.080681,   825.281799,   584.890503
-0.179125,   0.187263,   0.243787,   -376.197815,   595.463196,   0.533467,   16.786739,   43.283348,   -126.843109,   346.108490,   -424.394257,   0.086129,   848.594849,   614.086060
-0.198195,   0.209160,   0.271151,   -378.718811,   614.054565,   0.533465,   16.786739,   42.617477,   -114.191658,   349.527435,   -438.908752,   0.090397,   867.781616,   637.686035
-0.214624,   0.228140,   0.294830,   -380.851013,   629.107239,   0.533467,   16.786739,   41.951603,   -102.165504,   350.421753,   -451.436737,   0.093673,   883.413574,   656.515076
-0.228417,   0.244161,   0.314751,   -382.922882,   640.909912,   0.533465,   16.786739,   41.285728,   -91.210617,   349.197632,   -462.134766,   0.095977,   895.999207,   670.982544
-0.239624,   0.257212,   0.330955,   -385.013245,   649.833374,   0.533467,   16.786739,   40.619858,   -81.603943,   346.424103,   -471.089050,   0.097439,   905.932190,   681.649841
-0.248408,   0.267459,   0.343658,   -387.055054,   656.335815,   0.533468,   16.786739,   39.953979,   -73.449814,   342.730591,   -478.397949,   0.098251,   913.578918,   689.194763
-0.255006,   0.275144,   0.353172,   -389.021576,   660.786743,   0.533465,   16.786739,   39.288105,   -66.885040,   338.650177,   -484.158722,   0.098545,   919.259033,   694.128906
-0.259908,   0.280855,   0.360250,   -390.807190,   663.842041,   0.533467,   16.786739,   38.622231,   -61.462494,   334.497345,   -488.748596,   0.098551,   923.499146,   697.343506
-0.263243,   0.284798,   0.365097,   -392.246552,   665.797424,   0.533465,   16.786739,   37.956360,   -57.215530,   330.766418,   -492.170471,   0.098423,   926.445007,   699.283813
-0.265563,   0.287590,   0.368495,   -393.424194,   667.072754,   0.533467,   16.786739,   37.290485,   -53.817375,   327.465973,   -494.792084,   0.098235,   928.553284,   700.454468
-0.267084,   0.289466,   0.370760,   -394.327271,   667.876038,   0.533465,   16.786739,   36.624611,   -51.120102,   324.668854,   -496.754089,   0.098045,   930.007629,   701.127136
-0.268018,   0.290659,   0.372173,   -395.081909,   668.279541,   0.533467,   16.786739,   35.958740,   -49.032059,   322.229706,   -498.222412,   0.097818,   930.973877,   701.344604
-0.268542,   0.291381,   0.372999,   -395.654510,   668.489197,   0.533465,   16.786739,   35.292866,   -47.196423,   320.031128,   -499.386078,   0.097620,   931.617432,   701.384705
-0.268690,   0.291709,   0.373316,   -396.075500,   668.520142,   0.533467,   16.786739,   34.626991,   -45.653038,   318.097687,   -500.262268,   0.097443,   931.976135,   701.255249
-0.268584,   0.291757,   0.373280,   -396.373138,   668.439636,   0.533467,   16.786739,   33.961117,   -44.326275,   316.392761,   -500.926147,   0.097292,   932.134521,   701.031311
-0.268283,   0.291593,   0.372977,   -396.564575,   668.283936,   0.533465,   16.786739,   33.295242,   -43.164314,   314.883667,   -501.423981,   0.097167,   932.139832,   700.753235
-0.267832,   0.291268,   0.372469,   -396.659302,   668.081238,   0.533467,   16.786739,   32.629368,   -42.139996,   313.561920,   -501.783966,   0.097072,   932.025696,   700.453491
-0.267281,   0.290835,   0.371825,   -396.676514,   667.857300,   0.533467,   16.786739,   31.963495,   -41.195808,   312.376587,   -502.050476,   0.097006,   931.830933,   700.157654
-0.266639,   0.290309,   0.371060,   -396.603271,   667.631653,   0.533466,   16.786739,   31.297621,   -40.320599,   311.348938,   -502.226166,   0.096980,   931.563782,   699.896423
-0.265927,   0.289712,   0.370202,   -396.450989,   667.410400,   0.533466,   16.786739,   30.631748,   -39.505066,   310.464508,   -502.325195,   0.096989,   931.238770,   699.672913
-0.265157,   0.289060,   0.369271,   -396.220978,   667.203552,   0.533467,   16.786739,   29.965874,   -38.739532,   309.722107,   -502.356018,   0.097036,   930.866150,   699.499695
-0.264338,   0.288362,   0.368280,   -395.914276,   667.016663,   0.533466,   16.786739,   29.299999,   -38.021469,   309.123840,   -502.322662,   0.097122,   930.451843,   699.383118
-0.263470,   0.287619,   0.367228,   -395.524048,   666.854736,   0.533466,   16.786739,   28.634127,   -37.352863,   308.683533,   -502.221924,   0.097252,   929.995483,   699.332520
-0.262547,   0.286828,   0.366110,   -395.039825,   666.721497,   0.533466,   16.786739,   27.968252,   -36.740406,   308.422119,   -502.045807,   0.097430,   929.492126,   699.356445
-0.261557,   0.285975,   0.364908,   -394.446289,   666.618469,   0.533467,   16.786739,   27.302378,   -36.195644,   308.367828,   -501.780426,   0.097665,   928.931213,   699.462524
-0.260481,   0.285043,   0.363599,   -393.727509,   666.542786,   0.533466,   16.786739,   26.636505,   -35.737026,   308.552307,   -501.407501,   0.097963,   928.297852,   699.652832
-0.259284,   0.283994,   0.362134,   -392.861176,   666.482422,   0.533466,   16.786739,   25.970631,   -35.397114,   309.018341,   -500.895905,   0.098330,   927.563354,   699.919739
-0.257930,   0.282793,   0.360467,   -391.824829,   666.424194,   0.533467,   16.786739,   25.304758,   -35.222046,   309.821442,   -500.208954,   0.098773,   926.698120,   700.253845
-0.256361,   0.281374,   0.358514,   -390.591858,   666.337830,   0.533466,   16.786739,   24.638884,   -35.259148,   311.005096,   -499.299866,   0.099298,   925.653381,   700.625000
-0.254499,   0.279654,   0.356167,   -389.092163,   666.209717,   0.533466,   16.786739,   23.973009,   -35.576805,   312.694366,   -498.088654,   0.099931,   924.362000,   701.040649
-0.252211,   0.277488,   0.353242,   -387.216309,   666.005615,   0.533466,   16.786739,   23.307137,   -36.301884,   315.091217,   -496.437134,   0.100714,   922.706970,   701.495239
-0.249289,   0.274639,   0.349439,   -384.746094,   665.700195,   0.533466,   16.786739,   22.641262,   -37.609493,   318.563568,   -494.109833,   0.101740,   920.495422,   702.031494
-0.245401,   0.270756,   0.344309,   -381.439117,   665.175903,   0.533467,   16.786739,   21.975388,   -39.841965,   323.578766,   -490.746460,   0.103091,   917.430603,   702.576538
-0.240228,   0.265476,   0.337401,   -376.975555,   664.378418,   0.533467,   16.786739,   21.309513,   -43.032841,   330.435699,   -486.039948,   0.104905,   913.216064,   703.152771
-0.233347,   0.258300,   0.328074,   -371.379913,   662.817444,   0.533466,   16.786739,   20.643641,   -47.581631,   339.019135,   -479.610260,   0.107057,   907.417847,   703.102417
-0.224520,   0.248902,   0.315962,   -364.836945,   660.049316,   0.533466,   16.786739,   19.977766,   -53.340466,   348.552826,   -471.400482,   0.109366,   899.767456,   701.787109
-0.213379,   0.236824,   0.300484,   -357.438873,   655.463135,   0.533466,   16.786739,   19.311893,   -60.468029,   358.492249,   -461.097260,   0.111649,   889.765381,   698.415344
-0.200205,   0.222438,   0.282064,   -349.260284,   649.015930,   0.533466,   16.786739,   18.646019,   -68.637794,   368.393433,   -448.764709,   0.113877,   877.427979,   692.919556
-0.185063,   0.205838,   0.260820,   -339.552429,   641.024231,   0.533466,   16.786739,   17.980146,   -77.296310,   378.768097,   -434.032196,   0.116514,   862.478516,   685.897156
-0.168163,   0.187285,   0.237077,   -326.516785,   632.571716,   0.533467,   16.786739,   17.314272,   -85.626717,   391.681641,   -415.940948,   0.120793,   844.574097,   679.061523
-0.149905,   0.167377,   0.211550,   -305.622650,   626.661621,   0.533466,   16.786739,   16.648397,   -92.388985,   413.427979,   -391.568390,   0.129999,   823.184082,   676.626404
-0.130866,   0.147000,   0.185410,   -266.899658,   629.833923,   0.533466,   16.786739,   15.982523,   -94.451317,   457.385590,   -353.414459,   0.151694,   797.514038,   685.661926
-0.112011,   0.127812,   0.160782,   -200.916962,   648.619324,   0.533466,   16.786739,   15.316649,   -81.490662,   529.192993,   -295.286865,   0.194057,   769.020935,   706.259460
-0.094182,   0.111377,   0.139732,   -125.216240,   672.487244,   0.533466,   16.786739,   14.650777,   -51.355591,   598.626587,   -231.221756,   0.245506,   743.050842,   718.737061
-0.079379,   0.100229,   0.125005,   -73.731956,   685.083618,   0.533466,   16.786739,   13.984902,   -25.330713,   636.682373,   -185.431763,   0.281171,   724.767944,   716.257202
-0.068352,   0.095519,   0.116440,   -43.194237,   690.921570,   0.533466,   16.786739,   13.319029,   -9.683585,   657.410889,   -153.224457,   0.302606,   713.499939,   710.549316
-0.062949,   0.098512,   0.115078,   -21.195517,   699.883606,   0.533466,   16.786739,   12.653154,   2.057196,   676.630920,   -127.382721,   0.318311,   710.718506,   710.006836
-0.063703,   0.109543,   0.121500,   -6.247233,   713.910461,   0.533466,   16.786739,   11.987281,   10.108171,   697.555054,   -107.289192,   0.328968,   717.054443,   716.993225
-0.070085,   0.127877,   0.137887,   0.000000,   735.655518,   0.533466,   16.786739,   11.321407,   16.295254,   723.351196,   -94.080978,   0.336049,   733.668152,   733.643738
-0.079502,   0.150253,   0.160755,   0.000000,   761.372864,   0.533466,   16.786739,   10.655534,   22.765663,   751.964111,   -83.362762,   0.342142,   754.783020,   754.517029
-0.092617,   0.174375,   0.186270,   0.000000,   783.680481,   0.533466,   16.786739,   9.989659,   24.060316,   775.807678,   -77.332550,   0.343713,   775.713379,   775.333252
-0.020473,   0.036375,   0.036661,   0.000000,   577.393616,   0.533122,   17.790113,   48.523701,   2.892616,   577.190613,   10.799948,   0.335665,   576.053528,   576.039429
-0.017143,   0.027056,   0.027930,   -19.750109,   539.720276,   0.533123,   17.790113,   47.860813,   -17.268106,   537.238281,   -37.181259,   0.315213,   549.861450,   549.062561
-0.027088,   0.031334,   0.039388,   -95.269722,   529.886414,   0.533122,   17.790113,   47.197926,   -70.481110,   505.097809,   -121.992950,   0.248330,   583.385010,   565.485229
-0.048076,   0.049542,   0.064243,   -227.452209,   498.404327,   0.533121,   17.790113,   46.535042,   -141.035187,   411.987305,   -235.071167,   0.140453,   643.043152,   540.741882
-0.072526,   0.074094,   0.096507,   -307.675598,   495.776398,   0.533122,   17.790113,   45.872154,   -157.768799,   345.869598,   -313.002991,   0.089299,   702.137329,   513.968750
-0.097459,   0.100415,   0.130754,   -335.406403,   521.337097,   0.533123,   17.790113,   45.209270,   -150.678757,   336.609436,   -352.334930,   0.082883,   747.763062,   534.534180
-0.121840,   0.126852,   0.164800,   -348.026520,   549.235840,   0.533122,   17.790113,   44.546383,   -142.004593,   343.213898,   -377.373383,   0.085599,   783.537537,   565.894348
-0.145283,   0.152743,   0.197885,   -355.913849,   574.580200,   0.533121,   17.790113,   43.883495,   -131.781677,   350.448029,   -397.892487,   0.089630,   813.214661,   595.976990
-0.166986,   0.176966,   0.228689,   -361.416656,   596.495117,   0.533123,   17.790113,   43.220608,   -120.252579,   355.331024,   -415.756897,   0.093523,   837.861389,   622.348267
-0.186933,   0.199478,   0.257152,   -366.029938,   615.044312,   0.533121,   17.790113,   42.557724,   -108.297844,   357.312195,   -431.773651,   0.096662,   858.709534,   644.495972
-0.204518,   0.219528,   0.282366,   -369.921448,   630.285583,   0.533122,   17.790113,   41.894836,   -96.663437,   357.027588,   -445.695679,   0.099081,   875.932617,   662.537476
-0.219670,   0.236881,   0.304143,   -373.352325,   642.547180,   0.533121,   17.790113,   41.231953,   -85.783318,   354.978149,   -457.651917,   0.100819,   890.031067,   676.871826
-0.232350,   0.251446,   0.322379,   -376.523712,   652.064880,   0.533123,   17.790113,   40.569065,   -76.041786,   351.582916,   -467.742340,   0.101897,   901.374817,   687.778442
-0.242608,   0.263222,   0.337111,   -379.556122,   659.095825,   0.533121,   17.790113,   39.906178,   -67.676498,   347.216217,   -476.093994,   0.102363,   910.293396,   695.572205
-0.250621,   0.272274,   0.348512,   -382.437988,   663.969666,   0.533122,   17.790113,   39.243294,   -60.844795,   342.376465,   -482.799530,   0.102329,   917.083313,   700.688171
-0.256613,   0.279139,   0.357096,   -384.878021,   667.372253,   0.533123,   17.790113,   38.580406,   -55.243282,   337.737518,   -488.056549,   0.102114,   922.157166,   704.102905
-0.260965,   0.284132,   0.363324,   -386.874634,   669.634338,   0.533120,   17.790113,   37.917519,   -50.942070,   333.701752,   -492.001099,   0.101805,   925.822144,   706.234131
-0.264172,   0.287726,   0.367853,   -388.550049,   671.099304,   0.533123,   17.790113,   37.254635,   -47.634548,   330.183807,   -495.002533,   0.101436,   928.494019,   707.471375
-0.266376,   0.290235,   0.370985,   -389.855743,   672.014465,   0.533121,   17.790113,   36.591747,   -45.103180,   327.261932,   -497.220428,   0.101092,   930.365356,   708.145996
-0.267878,   0.291959,   0.373130,   -390.890656,   672.549438,   0.533123,   17.790113,   35.928864,   -43.188038,   324.846802,   -498.862488,   0.100772,   931.671326,   708.436890
-0.268911,   0.293152,   0.374608,   -391.741211,   672.836731,   0.533120,   17.790113,   35.265976,   -41.652760,   322.748260,   -500.134491,   0.100470,   932.602966,   708.480652
-0.269555,   0.293919,   0.375544,   -392.409973,   672.950134,   0.533123,   17.790113,   34.603092,   -40.420235,   320.960388,   -501.097839,   0.100204,   933.230835,   708.370422
-0.269906,   0.294369,   0.376074,   -392.934357,   672.941895,   0.533123,   17.790113,   33.940201,   -39.410316,   319.417847,   -501.830292,   0.099971,   933.632812,   708.159241
-0.270031,   0.294577,   0.376294,   -393.328400,   672.856934,   0.533120,   17.790113,   33.277317,   -38.565605,   318.094177,   -502.380585,   0.099775,   933.861572,   707.899414
-0.269982,   0.294597,   0.376274,   -393.605255,   672.725586,   0.533123,   17.790113,   32.614429,   -37.844307,   316.964630,   -502.785248,   0.099619,   933.955627,   707.624695
-0.269800,   0.294480,   0.376077,   -393.788513,   672.565491,   0.533122,   17.790113,   31.951544,   -37.210331,   315.987305,   -503.081085,   0.099497,   933.949829,   707.349243
-0.269513,   0.294254,   0.375740,   -393.882629,   672.393555,   0.533121,   17.790113,   31.288658,   -36.649837,   315.160797,   -503.282776,   0.099412,   933.863342,   707.092957
-0.269141,   0.293942,   0.375290,   -393.891937,   672.222229,   0.533122,   17.790113,   30.625772,   -36.141720,   314.472046,   -503.405762,   0.099363,   933.711121,   706.870239
-0.268696,   0.293557,   0.374745,   -393.820526,   672.058411,   0.533122,   17.790113,   29.962887,   -35.677731,   313.915619,   -503.458649,   0.099353,   933.502808,   706.688354
-0.268187,   0.293109,   0.374117,   -393.670471,   671.906860,   0.533122,   17.790113,   29.300001,   -35.253830,   313.490234,   -503.446289,   0.099380,   933.244446,   706.552856
-0.267616,   0.292602,   0.373410,   -393.440582,   671.770203,   0.533122,   17.790113,   28.637114,   -34.871365,   313.200989,   -503.368561,   0.099446,   932.937500,   706.467163
-0.266979,   0.292031,   0.372617,   -393.124878,   671.649048,   0.533122,   17.790113,   27.974228,   -34.536846,   313.061035,   -503.219452,   0.099554,   932.577942,   706.434509
-0.266265,   0.291387,   0.371727,   -392.713776,   671.542480,   0.533123,   17.790113,   27.311340,   -34.261185,   313.089905,   -502.988220,   0.099707,   932.157349,   706.457214
-0.265457,   0.290650,   0.370715,   -392.192841,   671.447449,   0.533122,   17.790113,   26.648455,   -34.060772,   313.315338,   -502.658051,   0.099913,   931.661804,   706.536194
-0.264528,   0.289794,   0.369543,   -391.545563,   671.353455,   0.533121,   17.790113,   25.985569,   -33.965847,   313.773743,   -502.203033,   0.100174,   931.068665,   706.664368
-0.263444,   0.288779,   0.368166,   -390.749725,   671.250000,   0.533122,   17.790113,   25.322683,   -34.002224,   314.502472,   -501.594421,   0.100500,   930.350769,   706.835510
-0.262149,   0.287550,   0.366507,   -389.787262,   671.104675,   0.533121,   17.790113,   24.659798,   -34.223351,   315.540771,   -500.788574,   0.100889,   929.464172,   707.014587
-0.260580,   0.286032,   0.364475,   -388.624084,   670.887146,   0.533122,   17.790113,   23.996910,   -34.698586,   316.961639,   -499.724701,   0.101349,   928.354004,   707.174255
-0.258637,   0.284120,   0.361931,   -387.199371,   670.557007,   0.533121,   17.790113,   23.334024,   -35.522842,   318.880463,   -498.308838,   0.101898,   926.935425,   707.284241
-0.256146,   0.281616,   0.358628,   -385.385284,   670.056702,   0.533122,   17.790113,   22.671139,   -36.859180,   321.530579,   -496.365417,   0.102578,   925.055542,   707.315918
-0.252899,   0.278293,   0.354279,   -382.997101,   669.338257,   0.533123,   17.790113,   22.008251,   -38.898727,   325.239868,   -493.663025,   0.103463,   922.526428,   707.270752
-0.248562,   0.273764,   0.348392,   -379.809143,   668.258301,   0.533122,   17.790113,   21.345366,   -41.862736,   330.311890,   -489.880432,   0.104620,   919.040100,   707.038757
-0.242704,   0.267505,   0.340334,   -375.649231,   666.523132,   0.533122,   17.790113,   20.682480,   -46.031948,   336.905823,   -484.634369,   0.106059,   914.190552,   706.296448
-0.235084,   0.259341,   0.329825,   -370.591278,   663.842468,   0.533122,   17.790113,   20.019594,   -51.349770,   344.600922,   -477.827423,   0.107682,   907.765869,   704.640076
-0.225306,   0.248695,   0.316196,   -364.750061,   659.590088,   0.533121,   17.790113,   19.356709,   -58.086811,   352.926819,   -469.132324,   0.109289,   899.270386,   701.245911
-0.213344,   0.235391,   0.299300,   -358.383911,   653.270203,   0.533122,   17.790113,   18.693821,   -66.262009,   361.148285,   -458.466034,   0.110638,   888.438171,   695.425354
-0.199262,   0.219790,   0.279416,   -351.228088,   645.018738,   0.533121,   17.790113,   18.030935,   -75.226974,   369.017639,   -445.857178,   0.111896,   875.190857,   687.441711
-0.183172,   0.201936,   0.256652,   -342.856262,   634.835205,   0.533123,   17.790113,   17.368050,   -84.750648,   376.729614,   -430.963043,   0.113276,   859.199280,   677.424438
-0.165311,   0.182135,   0.231380,   -332.155121,   623.313416,   0.533122,   17.790113,   16.705162,   -94.114616,   385.272919,   -413.251648,   0.115516,   840.168640,   666.402710
-0.146015,   0.160903,   0.204199,   -315.982605,   612.415039,   0.533122,   17.790113,   16.042276,   -102.372688,   398.805145,   -390.750244,   0.120860,   817.563293,   657.455322
-0.125776,   0.138969,   0.176047,   -286.039978,   607.461487,   0.533122,   17.790113,   15.379390,   -107.864906,   429.286438,   -357.006073,   0.135568,   790.307922,   657.722595
-0.105572,   0.117836,   0.148931,   -227.890396,   618.527893,   0.533122,   17.790113,   14.716504,   -101.136169,   491.773651,   -302.027252,   0.171649,   758.595642,   674.887817
-0.086231,   0.099303,   0.125055,   -145.362701,   643.561462,   0.533122,   17.790113,   14.053617,   -70.617233,   568.815979,   -231.044632,   0.228357,   727.221741,   693.395569
-0.069634,   0.085868,   0.107343,   -79.042130,   660.415833,   0.533122,   17.790113,   13.390732,   -35.970417,   617.344116,   -173.189346,   0.275555,   703.276184,   693.177246
-0.057366,   0.079430,   0.096618,   -41.811932,   666.048950,   0.533122,   17.790113,   12.727845,   -15.528163,   639.765198,   -133.844742,   0.302481,   687.908630,   685.040833
-0.051649,   0.081807,   0.094058,   -16.771429,   674.798767,   0.533122,   17.790113,   12.064960,   -1.292987,   659.320312,   -102.297836,   0.320986,   683.338867,   682.875488
-0.053405,   0.093258,   0.101024,   -2.301948,   690.455383,   0.533122,   17.790113,   11.402073,   6.764752,   681.388672,   -78.732574,   0.331668,   691.609253,   691.600647
-0.060057,   0.111423,   0.118520,   0.000000,   717.036011,   0.533122,   17.790113,   10.739187,   15.223444,   711.965393,   -59.654312,   0.340438,   712.013916,   711.850952
-0.071022,   0.132561,   0.140659,   0.000000,   741.902710,   0.533122,   17.790113,   10.076301,   17.475042,   738.859924,   -46.949867,   0.343106,   734.792969,   734.473999
-0.034581,   0.062728,   0.064996,   0.000000,   639.912598,   0.532940,   18.796381,   48.480339,   6.326513,   639.906128,   -2.020179,   0.338284,   636.776062,   636.705444
-0.028652,   0.049197,   0.051269,   -4.257267,   608.241577,   0.532942,   18.796381,   47.818947,   -2.394640,   606.378967,   -33.725182,   0.329840,   610.381348,   610.347961
-0.030291,   0.043482,   0.051079,   -31.745598,   594.060425,   0.532942,   18.796381,   47.157555,   -21.060829,   583.375671,   -81.070518,   0.306998,   610.552490,   608.691467
-0.043311,   0.051067,   0.064233,   -92.432556,   586.359924,   0.532939,   18.796381,   46.496166,   -60.189598,   554.116943,   -144.383759,   0.258214,   637.620911,   622.279724
-0.063425,   0.068572,   0.087623,   -197.391998,   559.784058,   0.532942,   18.796381,   45.834774,   -116.117104,   478.509155,   -234.379593,   0.177563,   680.307800,   610.720764
-0.086084,   0.091286,   0.117135,   -282.034149,   543.610596,   0.532942,   18.796381,   45.173382,   -139.244904,   400.821320,   -312.256989,   0.119952,   726.892334,   583.206421
-0.109217,   0.115916,   0.148933,   -319.459961,   554.931885,   0.532939,   18.796381,   44.511990,   -134.994019,   370.465942,   -356.746185,   0.102422,   766.343689,   585.684143
-0.132268,   0.141039,   0.181235,   -336.219269,   575.447449,   0.532942,   18.796381,   43.850601,   -126.025261,   365.253418,   -383.986145,   0.099861,   798.535950,   605.481018
-0.153986,   0.165082,   0.211962,   -345.908630,   595.648376,   0.532940,   18.796381,   43.189209,   -116.059166,   365.798920,   -404.457184,   0.100915,   824.918030,   627.540466
-0.174292,   0.187791,   0.240850,   -353.004913,   613.725281,   0.532942,   18.796381,   42.527821,   -105.068558,   365.788940,   -422.155334,   0.102569,   847.301147,   647.845337
-0.192732,   0.208577,   0.267178,   -358.892914,   629.003784,   0.532940,   18.796381,   41.866428,   -93.966751,   364.077637,   -437.645752,   0.103952,   866.137939,   665.015381
-0.209001,   0.227015,   0.290459,   -363.988464,   641.523499,   0.532940,   18.796381,   41.205036,   -83.297089,   360.832153,   -451.055298,   0.104914,   881.786377,   678.970642
-0.222976,   0.242863,   0.310450,   -368.536163,   651.453064,   0.532942,   18.796381,   40.543648,   -73.482811,   356.399689,   -462.487579,   0.105418,   894.591492,   689.855286
-0.234643,   0.256072,   0.327108,   -372.684235,   659.029968,   0.532940,   18.796381,   39.882256,   -64.791122,   351.136871,   -472.080017,   0.105481,   904.889038,   697.926453
-0.244044,   0.266696,   0.340507,   -376.511322,   664.499878,   0.532940,   18.796381,   39.220863,   -57.447762,   345.436310,   -479.944977,   0.105147,   912.969116,   703.466248
-0.251204,   0.274714,   0.350643,   -379.795044,   668.210205,   0.532942,   18.796381,   38.559475,   -51.601662,   340.016815,   -486.042694,   0.104614,   918.984253,   706.983215
-0.256672,   0.280766,   0.358325,   -382.607483,   670.703857,   0.532939,   18.796381,   37.898083,   -46.996746,   335.093109,   -490.783081,   0.103987,   923.497925,   709.130615
-0.260654,   0.285180,   0.363922,   -384.844116,   672.340576,   0.532942,   18.796381,   37.236691,   -43.520481,   331.016937,   -494.307892,   0.103405,   926.764893,   710.397034
-0.263568,   0.288362,   0.367980,   -386.576843,   673.419617,   0.532942,   18.796381,   36.575302,   -40.960243,   327.803040,   -496.891876,   0.102908,   929.120056,   711.135620
-0.265676,   0.290651,   0.370901,   -387.933960,   674.101685,   0.532940,   18.796381,   35.913910,   -39.099461,   325.267151,   -498.787689,   0.102479,   930.812927,   711.504822
-0.267219,   0.292321,   0.373034,   -389.036682,   674.511597,   0.532940,   18.796381,   35.252518,   -37.715881,   323.190826,   -500.220276,   0.102095,   932.054260,   711.619873
-0.268339,   0.293522,   0.374572,   -389.928986,   674.733215,   0.532942,   18.796381,   34.591129,   -36.694599,   321.498840,   -501.299072,   0.101757,   932.956360,   711.571533
-0.269140,   0.294381,   0.375670,   -390.653656,   674.829346,   0.532940,   18.796381,   33.929737,   -35.923149,   320.098846,   -502.121094,   0.101461,   933.610962,   711.424500
-0.269695,   0.294975,   0.376429,   -391.230835,   674.843872,   0.532940,   18.796381,   33.268345,   -35.334763,   318.947815,   -502.742279,   0.101210,   934.074768,   711.227295
-0.270057,   0.295367,   0.376926,   -391.677887,   674.809570,   0.532940,   18.796381,   32.606956,   -34.882854,   318.014526,   -503.204468,   0.101004,   934.391541,   711.015930
-0.270273,   0.295606,   0.377226,   -392.010895,   674.751282,   0.532942,   18.796381,   31.945564,   -34.523876,   317.264252,   -503.544098,   0.100842,   934.597046,   710.816406
-0.270370,   0.295723,   0.377366,   -392.245697,   674.678467,   0.532940,   18.796381,   31.284174,   -34.241383,   316.674133,   -503.782043,   0.100720,   934.712463,   710.635071
-0.270373,   0.295744,   0.377381,   -392.390137,   674.604431,   0.532941,   18.796381,   30.622782,   -34.012707,   316.226959,   -503.936890,   0.100637,   934.756226,   710.486206
-0.270294,   0.295683,   0.377289,   -392.450500,   674.535522,   0.532941,   18.796381,   29.961391,   -33.826061,   315.911102,   -504.019623,   0.100593,   934.739258,   710.375549
-0.270143,   0.295550,   0.377102,   -392.429474,   674.476318,   0.532940,   18.796381,   29.300001,   -33.674507,   315.721344,   -504.036346,   0.100587,   934.667664,   710.308105
-0.269922,   0.295349,   0.376824,   -392.327911,   674.428223,   0.532941,   18.796381,   28.638609,   -33.556961,   315.657257,   -503.988617,   0.100620,   934.543518,   710.285400
-0.269628,   0.295075,   0.376451,   -392.143677,   674.390198,   0.532941,   18.796381,   27.977219,   -33.477901,   315.724396,   -503.873047,   0.100691,   934.364258,   710.306702
-0.269253,   0.294720,   0.375972,   -391.870880,   674.359436,   0.532941,   18.796381,   27.315826,   -33.446724,   315.935242,   -503.681274,   0.100804,   934.122742,   710.370544
-0.268780,   0.294268,   0.375363,   -391.500763,   674.329773,   0.532940,   18.796381,   26.654436,   -33.479107,   316.308136,   -503.399353,   0.100959,   933.806274,   710.472351
-0.268184,   0.293689,   0.374590,   -391.017365,   674.292358,   0.532940,   18.796381,   25.993046,   -33.597523,   316.872528,   -503.004852,   0.101163,   933.394226,   710.606323
-0.267433,   0.292952,   0.373611,   -390.407104,   674.233337,   0.532942,   18.796381,   25.331656,   -33.828621,   317.654846,   -502.473541,   0.101418,   932.863220,   710.759399
-0.266482,   0.292004,   0.372359,   -389.649353,   674.128357,   0.532940,   18.796381,   24.670263,   -34.217239,   318.696228,   -501.765656,   0.101726,   932.174500,   710.907776
-0.265268,   0.290780,   0.370748,   -388.726501,   673.939453,   0.532941,   18.796381,   24.008873,   -34.824543,   320.037537,   -500.832275,   0.102086,   931.279175,   711.009033
-0.263714,   0.289187,   0.368665,   -387.600525,   673.626587,   0.532941,   18.796381,   23.347481,   -35.726967,   321.753021,   -499.602600,   0.102506,   930.110168,   711.025330
-0.261679,   0.287077,   0.365918,   -386.211731,   673.114746,   0.532940,   18.796381,   22.686090,   -37.071312,   323.974335,   -497.950470,   0.102993,   928.551453,   710.882385
-0.259002,   0.284258,   0.362267,   -384.438324,   672.348816,   0.532941,   18.796381,   22.024700,   -38.984341,   326.894836,   -495.714508,   0.103588,   926.456909,   710.552612
-0.255394,   0.280402,   0.357304,   -382.109283,   671.199158,   0.532940,   18.796381,   21.363308,   -41.706554,   330.796448,   -492.620605,   0.104337,   923.573120,   709.929810
-0.250505,   0.275128,   0.350538,   -379.091644,   669.441711,   0.532942,   18.796381,   20.701918,   -45.513149,   335.863190,   -488.358032,   0.105246,   919.588196,   708.773743
-0.244002,   0.267983,   0.341429,   -375.315125,   666.767639,   0.532940,   18.796381,   20.040525,   -50.508148,   341.960663,   -482.676056,   0.106273,   914.160034,   706.715332
-0.235613,   0.258707,   0.329633,   -370.896698,   662.793945,   0.532940,   18.796381,   19.379135,   -56.755379,   348.652618,   -475.436829,   0.107273,   907.021667,   703.233521
-0.224836,   0.246728,   0.314410,   -365.837219,   656.903442,   0.532941,   18.796381,   18.717745,   -64.566589,   355.632782,   -466.216400,   0.108091,   897.596069,   697.562439
-0.211928,   0.232242,   0.296059,   -360.311798,   648.942932,   0.532941,   18.796381,   18.056355,   -73.479286,   362.110413,   -455.207825,   0.108605,   885.874268,   689.462769
-0.196855,   0.215298,   0.274584,   -354.187439,   638.698364,   0.532941,   18.796381,   17.394962,   -83.298859,   367.809753,   -442.245178,   0.108814,   871.552185,   678.718750
-0.179699,   0.196070,   0.250160,   -347.088593,   626.136658,   0.532940,   18.796381,   16.733572,   -93.638847,   372.686920,   -427.114655,   0.108879,   854.308228,   665.412537
-0.160719,   0.174899,   0.223192,   -338.354584,   611.470520,   0.532941,   18.796381,   16.072182,   -103.904755,   377.020691,   -409.535858,   0.109181,   833.830872,   650.019287
-0.140262,   0.152265,   0.194260,   -325.907410,   595.838440,   0.532941,   18.796381,   15.410790,   -113.288345,   383.219391,   -388.296112,   0.111140,   809.584595,   634.585083
-0.118919,   0.128983,   0.164385,   -303.559479,   583.208618,   0.532941,   18.796381,   14.749399,   -120.976158,   400.625305,   -358.569946,   0.119418,   780.589050,   625.441711
-0.097023,   0.105822,   0.134533,   -255.022308,   583.995850,   0.532941,   18.796381,   14.088008,   -120.441277,   449.414825,   -307.902374,   0.147192,   744.996338,   635.025574
-0.076251,   0.085385,   0.108096,   -169.547562,   607.183533,   0.532940,   18.796381,   13.426618,   -92.347656,   529.983643,   -232.387054,   0.206228,   707.364624,   659.280884
-0.057687,   0.069546,   0.087181,   -85.949600,   628.395508,   0.532940,   18.796381,   12.765226,   -48.104115,   590.550049,   -160.007675,   0.267683,   675.484009,   663.014282
-0.044599,   0.061901,   0.074879,   -39.213291,   634.708740,   0.532941,   18.796381,   12.103836,   -20.360012,   615.855469,   -111.131432,   0.302960,   655.196106,   652.548096
-0.039649,   0.064694,   0.071782,   -11.461138,   643.395386,   0.532940,   18.796381,   11.442445,   -3.326787,   635.261047,   -72.530441,   0.324467,   649.201843,   648.974121
-0.042974,   0.077467,   0.081704,   0.000000,   666.431824,   0.532941,   18.796381,   10.781054,   7.263696,   663.668823,   -42.676411,   0.336716,   664.192871,   664.158630
-0.051282,   0.094667,   0.099512,   0.000000,   694.011963,   0.532941,   18.796381,   10.119662,   11.928916,   693.335022,   -21.487581,   0.341472,   688.454956,   688.248047
-0.051282,   0.094667,   0.099512,   0.000000,   694.011780,   0.532941,   19.803617,   48.480339,   11.928706,   693.334839,   -21.487816,   0.341472,   688.454834,   688.247986
-0.042974,   0.077467,   0.081704,   0.000000,   666.431702,   0.532943,   19.803617,   47.818947,   7.263562,   663.668701,   -42.676479,   0.336716,   664.192810,   664.158508
-0.039649,   0.064694,   0.071782,   -11.460974,   643.395508,   0.532943,   19.803617,   47.157555,   -3.326660,   635.261169,   -72.530273,   0.324467,   649.201843,   648.974121
-0.044599,   0.061901,   0.074879,   -39.213463,   634.708618,   0.532940,   19.803617,   46.496166,   -20.360111,   615.855286,   -111.131645,   0.302960,   655.196045,   652.547974
-0.057687,   0.069546,   0.087181,   -85.949501,   628.395569,   0.532943,   19.803617,   45.834774,   -48.104103,   590.550171,   -160.007492,   0.267683,   675.483948,   663.014221
-0.076251,   0.085385,   0.108096,   -169.547882,   607.183350,   0.532943,   19.803617,   45.173382,   -92.347809,   529.983276,   -232.387299,   0.206228,   707.364685,   659.280701
-0.097023,   0.105822,   0.134533,   -255.022324,   583.995850,   0.532940,   19.803617,   44.511990,   -120.441292,   449.414795,   -307.902374,   0.147192,   744.996277,   635.025452
-0.118919,   0.128983,   0.164385,   -303.559570,   583.208496,   0.532943,   19.803617,   43.850601,   -120.976234,   400.625183,   -358.569946,   0.119418,   780.588989,   625.441528
-0.140262,   0.152265,   0.194260,   -325.907410,   595.838379,   0.532941,   19.803617,   43.189209,   -113.288406,   383.219360,   -388.296051,   0.111140,   809.584534,   634.584961
-0.160719,   0.174899,   0.223192,   -338.354584,   611.470520,   0.532943,   19.803617,   42.527821,   -103.904724,   377.020691,   -409.535858,   0.109181,   833.830811,   650.019226
-0.179699,   0.196071,   0.250160,   -347.088470,   626.136780,   0.532941,   19.803617,   41.866428,   -93.638748,   372.687073,   -427.114624,   0.108879,   854.308228,   665.412720
-0.196855,   0.215298,   0.274584,   -354.187592,   638.698242,   0.532941,   19.803617,   41.205036,   -83.298927,   367.809540,   -442.245239,   0.108814,   871.552246,   678.718567
-0.211928,   0.232242,   0.296059,   -360.311829,   648.942871,   0.532943,   19.803617,   40.543648,   -73.479317,   362.110352,   -455.207825,   0.108605,   885.874268,   689.462708
-0.224836,   0.246728,   0.314410,   -365.837158,   656.903503,   0.532941,   19.803617,   39.882256,   -64.566521,   355.632874,   -466.216400,   0.108091,   897.596130,   697.562561
-0.235613,   0.258707,   0.329633,   -370.896759,   662.793945,   0.532941,   19.803617,   39.220863,   -56.755405,   348.652557,   -475.436859,   0.107273,   907.021667,   703.233459
-0.244002,   0.267983,   0.341429,   -375.315094,   666.767639,   0.532943,   19.803617,   38.559475,   -50.508129,   341.960663,   -482.676056,   0.106273,   914.159973,   706.715332
-0.250505,   0.275128,   0.350538,   -379.091644,   669.441711,   0.532940,   19.803617,   37.898083,   -45.513126,   335.863190,   -488.358032,   0.105246,   919.588196,   708.773743
-0.255394,   0.280402,   0.357304,   -382.109253,   671.199219,   0.532943,   19.803617,   37.236691,   -41.706520,   330.796478,   -492.620605,   0.104338,   923.573120,   709.929932
-0.259002,   0.284258,   0.362267,   -384.438354,   672.348816,   0.532943,   19.803617,   36.575302,   -38.984314,   326.894806,   -495.714539,   0.103588,   926.456970,   710.552612
-0.261679,   0.287077,   0.365918,   -386.211761,   673.114746,   0.532941,   19.803617,   35.913910,   -37.071316,   323.974304,   -497.950470,   0.102993,   928.551453,   710.882324
-0.263714,   0.289187,   0.368665,   -387.600555,   673.626587,   0.532941,   19.803617,   35.252518,   -35.726948,   321.753021,   -499.602631,   0.102506,   930.110229,   711.025391
-0.265268,   0.290780,   0.370748,   -388.726471,   673.939514,   0.532943,   19.803617,   34.591129,   -34.824524,   320.037537,   -500.832275,   0.102086,   931.279114,   711.008972
-0.266482,   0.292004,   0.372359,   -389.649353,   674.128357,   0.532941,   19.803617,   33.929737,   -34.217236,   318.696228,   -501.765656,   0.101726,   932.174500,   710.907776
-0.267433,   0.292952,   0.373611,   -390.407104,   674.233337,   0.532941,   19.803617,   33.268345,   -33.828598,   317.654846,   -502.473541,   0.101418,   932.863220,   710.759460
-0.268184,   0.293689,   0.374590,   -391.017365,   674.292358,   0.532941,   19.803617,   32.606956,   -33.597519,   316.872528,   -503.004852,   0.101163,   933.394226,   710.606262
-0.268780,   0.294268,   0.375363,   -391.500763,   674.329773,   0.532943,   19.803617,   31.945564,   -33.479095,   316.308136,   -503.399353,   0.100959,   933.806274,   710.472412
-0.269253,   0.294720,   0.375972,   -391.870880,   674.359436,   0.532941,   19.803617,   31.284174,   -33.446712,   315.935242,   -503.681274,   0.100804,   934.122742,   710.370544
-0.269628,   0.295075,   0.376451,   -392.143677,   674.390198,   0.532942,   19.803617,   30.622782,   -33.477894,   315.724396,   -503.873047,   0.100691,   934.364258,   710.306702
-0.269922,   0.295349,   0.376824,   -392.327911,   674.428223,   0.532942,   19.803617,   29.961391,   -33.556953,   315.657257,   -503.988617,   0.100620,   934.543518,   710.285339
-0.270143,   0.295550,   0.377102,   -392.429474,   674.476318,   0.532941,   19.803617,   29.300001,   -33.674503,   315.721344,   -504.036346,   0.100587,   934.667664,   710.308105
-0.270294,   0.295683,   0.377289,   -392.450500,   674.535522,   0.532942,   19.803617,   28.638609,   -33.826054,   315.911102,   -504.019623,   0.100593,   934.739197,   710.375610
-0.270373,   0.295744,   0.377381,   -392.390137,   674.604431,   0.532942,   19.803617,   27.977219,   -34.012703,   316.226959,   -503.936890,   0.100637,   934.756226,   710.486206
-0.270370,   0.295723,   0.377366,   -392.245697,   674.678467,   0.532942,   19.803617,   27.315826,   -34.241386,   316.674133,   -503.782043,   0.100720,   934.712463,   710.635071
-0.270273,   0.295606,   0.377226,   -392.010895,   674.751282,   0.532941,   19.803617,   26.654436,   -34.523876,   317.264252,   -503.544098,   0.100842,   934.597046,   710.816406
-0.270057,   0.295368,   0.376926,   -391.677887,   674.809570,   0.532941,   19.803617,   25.993046,   -34.882851,   318.014526,   -503.204468,   0.101004,   934.391479,   711.015991
-0.269695,   0.294975,   0.376429,   -391.230835,   674.843872,   0.532943,   19.803617,   25.331656,   -35.334766,   318.947815,   -502.742279,   0.101210,   934.074768,   711.227295
-0.269140,   0.294381,   0.375670,   -390.653656,   674.829346,   0.532941,   19.803617,   24.670263,   -35.923149,   320.098846,   -502.121094,   0.101461,   933.610962,   711.424500
-0.268339,   0.293522,   0.374572,   -389.928986,   674.733215,   0.532942,   19.803617,   24.008873,   -36.694599,   321.498840,   -501.299072,   0.101757,   932.956360,   711.571533
-0.267219,   0.292321,   0.373034,   -389.036682,   674.511597,   0.532942,   19.803617,   23.347481,   -37.715885,   323.190826,   -500.220276,   0.102095,   932.054260,   711.619873
-0.265676,   0.290651,   0.370901,   -387.933960,   674.101685,   0.532941,   19.803617,   22.686090,   -39.099464,   325.267151,   -498.787689,   0.102479,   930.812927,   711.504822
-0.263568,   0.288362,   0.367980,   -386.576813,   673.419678,   0.532942,   19.803617,   22.024700,   -40.960243,   327.803070,   -496.891876,   0.102908,   929.120056,   711.135559
-0.260654,   0.285180,   0.363922,   -384.844116,   672.340576,   0.532941,   19.803617,   21.363308,   -43.520485,   331.016937,   -494.307892,   0.103405,   926.764893,   710.397034
-0.256672,   0.280766,   0.358325,   -382.607483,   670.703857,   0.532943,   19.803617,   20.701918,   -46.996769,   335.093140,   -490.783081,   0.103987,   923.497986,   709.130615
-0.251204,   0.274714,   0.350643,   -379.795105,   668.210144,   0.532941,   19.803617,   20.040525,   -51.601685,   340.016754,   -486.042694,   0.104614,   918.984253,   706.983093
-0.244044,   0.266696,   0.340507,   -376.511353,   664.499817,   0.532941,   19.803617,   19.379135,   -57.447803,   345.436279,   -479.944977,   0.105147,   912.969116,   703.466187
-0.234643,   0.256072,   0.327108,   -372.684204,   659.030090,   0.532942,   19.803617,   18.717745,   -64.791084,   351.136963,   -472.080017,   0.105481,   904.889038,   697.926514
-0.222976,   0.242863,   0.310450,   -368.536194,   651.453003,   0.532942,   19.803617,   18.056355,   -73.482849,   356.399658,   -462.487579,   0.105418,   894.591492,   689.855286
-0.209001,   0.227015,   0.290459,   -363.988434,   641.523499,   0.532942,   19.803617,   17.394962,   -83.297127,   360.832214,   -451.055267,   0.104914,   881.786377,   678.970642
-0.192732,   0.208577,   0.267178,   -358.892731,   629.003967,   0.532941,   19.803617,   16.733572,   -93.966667,   364.077881,   -437.645691,   0.103952,   866.137878,   665.015686
-0.174292,   0.187791,   0.240850,   -353.005005,   613.725220,   0.532942,   19.803617,   16.072182,   -105.068611,   365.788849,   -422.155365,   0.102569,   847.301147,   647.845276
-0.153986,   0.165082,   0.211962,   -345.908752,   595.648254,   0.532942,   19.803617,   15.410790,   -116.059296,   365.798828,   -404.457153,   0.100915,   824.917969,   627.540222
-0.132268,   0.141039,   0.181235,   -336.219452,   575.447327,   0.532942,   19.803617,   14.749399,   -126.025352,   365.253235,   -383.986206,   0.099861,   798.535950,   605.480835
-0.109217,   0.115916,   0.148933,   -319.459839,   554.931946,   0.532942,   19.803617,   14.088008,   -134.994019,   370.466156,   -356.746063,   0.102422,   766.343628,   585.684143
-0.086084,   0.091286,   0.117135,   -282.033966,   543.610657,   0.532942,   19.803617,   13.426618,   -139.244904,   400.821594,   -312.256775,   0.119952,   726.892212,   583.206543
-0.063425,   0.068573,   0.087623,   -197.392059,   559.784058,   0.532942,   19.803617,   12.765226,   -116.117172,   478.509155,   -234.379593,   0.177563,   680.307800,   610.720825
-0.043311,   0.051067,   0.064233,   -92.432564,   586.359863,   0.532942,   19.803617,   12.103836,   -60.189575,   554.116882,   -144.383820,   0.258214,   637.620911,   622.279663
-0.030291,   0.043482,   0.051079,   -31.745378,   594.060608,   0.532942,   19.803617,   11.442445,   -21.060656,   583.375854,   -81.070343,   0.306998,   610.552551,   608.691528
-0.028652,   0.049197,   0.051269,   -4.257203,   608.241638,   0.532942,   19.803617,   10.781054,   -2.394578,   606.379028,   -33.725163,   0.329840,   610.381409,   610.348083
-0.034581,   0.062728,   0.064996,   0.000000,   639.912659,   0.532942,   19.803617,   10.119662,   6.326503,   639.906189,   -2.020327,   0.338284,   636.776123,   636.705627
-0.071022,   0.132561,   0.140659,   0.000000,   741.902832,   0.533120,   20.809887,   48.523701,   17.475286,   738.860046,   -46.949886,   0.343106,   734.792969,   734.473999
-0.060057,   0.111423,   0.118520,   0.000000,   717.036194,   0.533122,   20.809887,   47.860813,   15.223611,   711.965576,   -59.654114,   0.340438,   712.013916,   711.851013
-0.053405,   0.093258,   0.101024,   -2.301675,   690.455505,   0.533120,   20.809887,   47.197926,   6.764966,   681.388855,   -78.732307,   0.331668,   691.609253,   691.600647
-0.051649,   0.081807,   0.094058,   -16.771858,   674.798523,   0.533120,   20.809887,   46.535042,   -1.293297,   659.319946,   -102.298233,   0.320986,   683.338806,   682.875427
-0.057366,   0.079430,   0.096618,   -41.811676,   666.049072,   0.533120,   20.809887,   45.872154,   -15.527982,   639.765381,   -133.844543,   0.302481,   687.908569,   685.040833
-0.069634,   0.085868,   0.107343,   -79.042038,   660.415894,   0.533122,   20.809887,   45.209270,   -35.970276,   617.344116,   -173.189438,   0.275555,   703.276184,   693.177368
-0.086231,   0.099303,   0.125055,   -145.363007,   643.561218,   0.533120,   20.809887,   44.546383,   -70.617455,   568.815674,   -231.044769,   0.228357,   727.221741,   693.395386
-0.105572,   0.117836,   0.148931,   -227.890335,   618.527954,   0.533120,   20.809887,   43.883495,   -101.136055,   491.773682,   -302.027313,   0.171649,   758.595703,   674.887878
-0.125776,   0.138969,   0.176047,   -286.039978,   607.461548,   0.533122,   20.809887,   43.220608,   -107.864868,   429.286407,   -357.006104,   0.135568,   790.307922,   657.722595
-0.146015,   0.160903,   0.204199,   -315.982697,   612.415039,   0.533120,   20.809887,   42.557724,   -102.372635,   398.804962,   -390.750366,   0.120860,   817.563354,   657.455322
-0.165311,   0.182135,   0.231380,   -332.155060,   623.313416,   0.533120,   20.809887,   41.894836,   -94.114594,   385.272980,   -413.251617,   0.115516,   840.168640,   666.402771
-0.183172,   0.201936,   0.256652,   -342.856201,   634.835327,   0.533120,   20.809887,   41.231953,   -84.750549,   376.729675,   -430.963074,   0.113276,   859.199280,   677.424500
-0.199262,   0.219790,   0.279416,   -351.228180,   645.018677,   0.533122,   20.809887,   40.569065,   -75.226997,   369.017517,   -445.857208,   0.111896,   875.190857,   687.441589
-0.213344,   0.235391,   0.299300,   -358.383972,   653.270081,   0.533120,   20.809887,   39.906178,   -66.262123,   361.148254,   -458.466003,   0.110638,   888.438171,   695.425293
-0.225306,   0.248695,   0.316196,   -364.750031,   659.590149,   0.533120,   20.809887,   39.243294,   -58.086723,   352.926849,   -469.132355,   0.109289,   899.270447,   701.246033
-0.235084,   0.259341,   0.329825,   -370.591278,   663.842468,   0.533122,   20.809887,   38.580406,   -51.349758,   344.600922,   -477.827423,   0.107682,   907.765869,   704.640076
-0.242704,   0.267505,   0.340334,   -375.649231,   666.523132,   0.533119,   20.809887,   37.917519,   -46.031967,   336.905853,   -484.634338,   0.106059,   914.190491,   706.296387
-0.248562,   0.273764,   0.348392,   -379.809174,   668.258301,   0.533122,   20.809887,   37.254635,   -41.862732,   330.311829,   -489.880463,   0.104620,   919.040100,   707.038757
-0.252899,   0.278293,   0.354279,   -382.997070,   669.338257,   0.533120,   20.809887,   36.591747,   -38.898697,   325.239868,   -493.663025,   0.103463,   922.526428,   707.270752
-0.256146,   0.281616,   0.358628,   -385.385284,   670.056702,   0.533122,   20.809887,   35.928864,   -36.859180,   321.530579,   -496.365417,   0.102578,   925.055542,   707.315918
-0.258637,   0.284120,   0.361931,   -387.199371,   670.557007,   0.533119,   20.809887,   35.265976,   -35.522839,   318.880463,   -498.308838,   0.101898,   926.935425,   707.284180
-0.260580,   0.286032,   0.364475,   -388.624084,   670.887146,   0.533122,   20.809887,   34.603092,   -34.698589,   316.961639,   -499.724701,   0.101349,   928.354004,   707.174255
-0.262149,   0.287550,   0.366507,   -389.787262,   671.104675,   0.533122,   20.809887,   33.940201,   -34.223343,   315.540771,   -500.788574,   0.100889,   929.464172,   707.014526
-0.263444,   0.288779,   0.368166,   -390.749725,   671.249939,   0.533119,   20.809887,   33.277317,   -34.002224,   314.502441,   -501.594421,   0.100500,   930.350769,   706.835510
-0.264528,   0.289794,   0.369543,   -391.545593,   671.353455,   0.533122,   20.809887,   32.614429,   -33.965843,   313.773712,   -502.203033,   0.100174,   931.068665,   706.664307
-0.265457,   0.290650,   0.370715,   -392.192871,   671.447388,   0.533121,   20.809887,   31.951544,   -34.060764,   313.315308,   -502.658051,   0.099913,   931.661804,   706.536194
-0.266265,   0.291387,   0.371727,   -392.713776,   671.542480,   0.533120,   20.809887,   31.288658,   -34.261181,   313.089905,   -502.988220,   0.099707,   932.157349,   706.457214
-0.266979,   0.292031,   0.372617,   -393.124878,   671.649048,   0.533120,   20.809887,   30.625772,   -34.536842,   313.061035,   -503.219452,   0.099554,   932.577942,   706.434570
-0.267616,   0.292602,   0.373410,   -393.440582,   671.770203,   0.533121,   20.809887,   29.962887,   -34.871357,   313.200989,   -503.368561,   0.099446,   932.937500,   706.467163
-0.268187,   0.293109,   0.374117,   -393.670471,   671.906860,   0.533120,   20.809887,   29.300001,   -35.253822,   313.490234,   -503.446289,   0.099380,   933.244446,   706.552795
-0.268696,   0.293557,   0.374745,   -393.820526,   672.058411,   0.533121,   20.809887,   28.637114,   -35.677719,   313.915619,   -503.458649,   0.099353,   933.502808,   706.688354
-0.269141,   0.293942,   0.375290,   -393.891937,   672.222229,   0.533120,   20.809887,   27.974228,   -36.141712,   314.472046,   -503.405762,   0.099363,   933.711121,   706.870239
-0.269513,   0.294254,   0.375740,   -393.882629,   672.393555,   0.533122,   20.809887,   27.311340,   -36.649834,   315.160797,   -503.282776,   0.099412,   933.863342,   707.092957
-0.269800,   0.294480,   0.376077,   -393.788513,   672.565491,   0.533120,   20.809887,   26.648455,   -37.210335,   315.987305,   -503.081085,   0.099497,   933.949829,   707.349243
-0.269982,   0.294597,   0.376274,   -393.605255,   672.725586,   0.533120,   20.809887,   25.985569,   -37.844303,   316.964630,   -502.785248,   0.099619,   933.955627,   707.624695
-0.270031,   0.294577,   0.376294,   -393.328400,   672.856934,   0.533121,   20.809887,   25.322683,   -38.565601,   318.094177,   -502.380585,   0.099775,   933.861572,   707.899414
-0.269906,   0.294369,   0.376074,   -392.934357,   672.941895,   0.533120,   20.809887,   24.659798,   -39.410316,   319.417847,   -501.830292,   0.099971,   933.632812,   708.159241
-0.269555,   0.293919,   0.375544,   -392.409973,   672.950134,   0.533121,   20.809887,   23.996910,   -40.420231,   320.960388,   -501.097839,   0.100204,   933.230835,   708.370422
-0.268911,   0.293152,   0.374608,   -391.741211,   672.836731,   0.533120,   20.809887,   23.334024,   -41.652763,   322.748260,   -500.134491,   0.100470,   932.602966,   708.480652
-0.267878,   0.291959,   0.373130,   -390.890656,   672.549438,   0.533120,   20.809887,   22.671139,   -43.188042,   324.846802,   -498.862488,   0.100772,   931.671326,   708.436890
-0.266376,   0.290235,   0.370985,   -389.855743,   672.014465,   0.533122,   20.809887,   22.008251,   -45.103191,   327.261932,   -497.220428,   0.101092,   930.365356,   708.145935
-0.264172,   0.287726,   0.367853,   -388.550049,   671.099304,   0.533120,   20.809887,   21.345366,   -47.634552,   330.183807,   -495.002533,   0.101436,   928.494019,   707.471375
-0.260965,   0.284132,   0.363324,   -386.874634,   669.634338,   0.533121,   20.809887,   20.682480,   -50.942085,   333.701813,   -492.001099,   0.101805,   925.822144,   706.234192
-0.256613,   0.279139,   0.357096,   -384.878052,   667.372253,   0.533120,   20.809887,   20.019594,   -55.243298,   337.737518,   -488.056549,   0.102114,   922.157166,   704.102844
-0.250621,   0.272274,   0.348512,   -382.438019,   663.969604,   0.533120,   20.809887,   19.356709,   -60.844818,   342.376434,   -482.799530,   0.102329,   917.083252,   700.688171
-0.242608,   0.263221,   0.337111,   -379.556183,   659.095825,   0.533121,   20.809887,   18.693821,   -67.676559,   347.216187,   -476.093994,   0.102362,   910.293396,   695.572144
-0.232350,   0.251446,   0.322379,   -376.523712,   652.064880,   0.533120,   20.809887,   18.030935,   -76.041748,   351.582916,   -467.742340,   0.101897,   901.374817,   687.778503
-0.219670,   0.236881,   0.304143,   -373.352325,   642.547180,   0.533122,   20.809887,   17.368050,   -85.783333,   354.978180,   -457.651917,   0.100819,   890.031067,   676.871704
-0.204518,   0.219528,   0.282366,   -369.921417,   630.285522,   0.533120,   20.809887,   16.705162,   -96.663490,   357.027618,   -445.695618,   0.099081,   875.932556,   662.537354
-0.186933,   0.199478,   0.257152,   -366.029877,   615.044373,   0.533121,   20.809887,   16.042276,   -108.297775,   357.312286,   -431.773651,   0.096662,   858.709534,   644.496155
-0.166986,   0.176966,   0.228689,   -361.416504,   596.495178,   0.533121,   20.809887,   15.379390,   -120.252548,   355.331238,   -415.756805,   0.093523,   837.861328,   622.348450
-0.145283,   0.152743,   0.197885,   -355.913940,   574.580200,   0.533121,   20.809887,   14.716504,   -131.781677,   350.447937,   -397.892548,   0.089630,   813.214722,   595.976929
-0.121840,   0.126852,   0.164800,   -348.026581,   549.235718,   0.533121,   20.809887,   14.053617,   -142.004700,   343.213806,   -377.373352,   0.085599,   783.537476,   565.894104
-0.097459,   0.100415,   0.130754,   -335.406464,   521.337158,   0.533121,   20.809887,   13.390732,   -150.678772,   336.609436,   -352.334991,   0.082883,   747.763123,   534.534180
-0.072526,   0.074094,   0.096507,   -307.675598,   495.776550,   0.533121,   20.809887,   12.727845,   -157.768768,   345.869720,   -313.003052,   0.089299,   702.137451,   513.968933
-0.048076,   0.049542,   0.064243,   -227.452576,   498.404053,   0.533121,   20.809887,   12.064960,   -141.035431,   411.986908,   -235.071335,   0.140453,   643.043213,   540.741516
-0.027088,   0.031335,   0.039388,   -95.269196,   529.886841,   0.533121,   20.809887,   11.402073,   -70.480721,   505.098358,   -121.992599,   0.248331,   583.385132,   565.485474
-0.017143,   0.027056,   0.027930,   -19.750214,   539.720154,   0.533121,   20.809887,   10.739187,   -17.268223,   537.238159,   -37.181183,   0.315213,   549.861328,   549.062439
-0.020473,   0.036374,   0.036661,   0.000000,   577.393555,   0.533121,   20.809887,   10.076301,   2.892582,   577.190552,   10.800010,   0.335665,   576.053528,   576.039429
-0.092617,   0.174375,   0.186270,   0.000000,   783.680481,   0.533468,   21.813259,   48.610340,   24.060331,   775.807617,   -77.333031,   0.343713,   775.713440,   775.333252
-0.079502,   0.150253,   0.160755,   0.000000,   761.372986,   0.533468,   21.813259,   47.944466,   22.765871,   751.964294,   -83.362648,   0.342143,   754.783020,   754.517090
-0.070085,   0.127877,   0.137887,   0.000000,   735.655518,   0.533466,   21.813259,   47.278591,   16.295315,   723.351135,   -94.081215,   0.336049,   733.668152,   733.643738
-0.063703,   0.109543,   0.121500,   -6.246992,   713.910522,   0.533468,   21.813259,   46.612720,   10.108433,   697.555115,   -107.289246,   0.328968,   717.054443,   716.993164
-0.062949,   0.098512,   0.115078,   -21.195396,   699.883667,   0.533466,   21.813259,   45.946846,   2.057324,   676.630920,   -127.382729,   0.318311,   710.718384,   710.006714
-0.068352,   0.095519,   0.116440,   -43.194176,   690.921509,   0.533468,   21.813259,   45.280972,   -9.683492,   657.410828,   -153.224518,   0.302606,   713.499878,   710.549255
-0.079379,   0.100229,   0.125005,   -73.731712,   685.083740,   0.533468,   21.813259,   44.615097,   -25.330542,   636.682556,   -185.431610,   0.281171,   724.767822,   716.257202
-0.094182,   0.111377,   0.139732,   -125.216484,   672.487061,   0.533466,   21.813259,   43.949223,   -51.355793,   598.626343,   -231.221817,   0.245506,   743.050720,   718.736816
-0.112011,   0.127812,   0.160782,   -200.916977,   648.619263,   0.533468,   21.813259,   43.283348,   -81.490578,   529.192871,   -295.286957,   0.194057,   769.020935,   706.259521
-0.130866,   0.147000,   0.185410,   -266.899658,   629.833862,   0.533466,   21.813259,   42.617477,   -94.451317,   457.385498,   -353.414459,   0.151694,   797.513977,   685.661804
-0.149905,   0.167377,   0.211550,   -305.622681,   626.661560,   0.533468,   21.813259,   41.951603,   -92.389000,   413.427887,   -391.568390,   0.129999,   823.184021,   676.626282
-0.168163,   0.187285,   0.237076,   -326.516693,   632.571716,   0.533466,   21.813259,   41.285728,   -85.626724,   391.681763,   -415.940857,   0.120793,   844.574097,   679.061584
-0.185062,   0.205837,   0.260820,   -339.552368,   641.024231,   0.533468,   21.813259,   40.619858,   -77.296165,   378.768036,   -434.032227,   0.116514,   862.478516,   685.897217
-0.200205,   0.222438,   0.282064,   -349.260193,   649.015869,   0.533469,   21.813259,   39.953979,   -68.637817,   368.393524,   -448.764618,   0.113877,   877.427856,   692.919556
-0.213379,   0.236824,   0.300484,   -357.439026,   655.463013,   0.533466,   21.813259,   39.288105,   -60.468063,   358.492035,   -461.097321,   0.111649,   889.765381,   698.415100
-0.224520,   0.248902,   0.315962,   -364.837006,   660.049316,   0.533468,   21.813259,   38.622231,   -53.340416,   348.552765,   -471.400543,   0.109366,   899.767517,   701.787109
-0.233347,   0.258300,   0.328074,   -371.379913,   662.817444,   0.533466,   21.813259,   37.956360,   -47.581638,   339.019196,   -479.610260,   0.107057,   907.417847,   703.102539
-0.240228,   0.265476,   0.337401,   -376.975555,   664.378418,   0.533468,   21.813259,   37.290485,   -43.032776,   330.435638,   -486.039978,   0.104905,   913.216064,   703.152710
-0.245401,   0.270756,   0.344309,   -381.439117,   665.175903,   0.533466,   21.813259,   36.624611,   -39.841980,   323.578735,   -490.746460,   0.103091,   917.430603,   702.576538
-0.249289,   0.274639,   0.349439,   -384.746063,   665.700195,   0.533468,   21.813259,   35.958740,   -37.609463,   318.563568,   -494.109833,   0.101740,   920.495422,   702.031555
-0.252211,   0.277488,   0.353242,   -387.216278,   666.005615,   0.533466,   21.813259,   35.292866,   -36.301872,   315.091217,   -496.437134,   0.100714,   922.706970,   701.495239
-0.254499,   0.279654,   0.356167,   -389.092133,   666.209717,   0.533468,   21.813259,   34.626991,   -35.576778,   312.694366,   -498.088654,   0.099931,   924.362000,   701.040710
-0.256361,   0.281374,   0.358514,   -390.591888,   666.337830,   0.533468,   21.813259,   33.961117,   -35.259125,   311.005096,   -499.299896,   0.099298,   925.653442,   700.625061
-0.257930,   0.282793,   0.360467,   -391.824799,   666.424194,   0.533466,   21.813259,   33.295242,   -35.222034,   309.821442,   -500.208954,   0.098773,   926.698120,   700.253845
-0.259284,   0.283994,   0.362134,   -392.861176,   666.482422,   0.533468,   21.813259,   32.629368,   -35.397091,   309.018341,   -500.895905,   0.098330,   927.563354,   699.919678
-0.260481,   0.285043,   0.363599,   -393.727509,   666.542786,   0.533468,   21.813259,   31.963495,   -35.737019,   308.552277,   -501.407501,   0.097963,   928.297791,   699.652832
-0.261557,   0.285975,   0.364908,   -394.446259,   666.618469,   0.533467,   21.813259,   31.297621,   -36.195641,   308.367828,   -501.780426,   0.097665,   928.931213,   699.462524
-0.262547,   0.286828,   0.366110,   -395.039795,   666.721558,   0.533467,   21.813259,   30.631748,   -36.740391,   308.422119,   -502.045807,   0.097430,   929.492126,   699.356506
-0.263470,   0.287619,   0.367228,   -395.524048,   666.854736,   0.533468,   21.813259,   29.965874,   -37.352859,   308.683533,   -502.221924,   0.097252,   929.995483,   699.332397
-0.264338,   0.288362,   0.368280,   -395.914246,   667.016663,   0.533467,   21.813259,   29.299999,   -38.021461,   309.123840,   -502.322662,   0.097122,   930.451843,   699.383118
-0.265157,   0.289060,   0.369271,   -396.220978,   667.203552,   0.533467,   21.813259,   28.634127,   -38.739510,   309.722107,   -502.356018,   0.097036,   930.866150,   699.499634
-0.265927,   0.289712,   0.370202,   -396.450989,   667.410461,   0.533467,   21.813259,   27.968252,   -39.505054,   310.464508,   -502.325195,   0.096989,   931.238770,   699.672974
-0.266639,   0.290309,   0.371060,   -396.603271,   667.631653,   0.533468,   21.813259,   27.302378,   -40.320580,   311.348938,   -502.226166,   0.096980,   931.563782,   699.896423
-0.267281,   0.290835,   0.371824,   -396.676483,   667.857300,   0.533467,   21.813259,   26.636505,   -41.195789,   312.376587,   -502.050476,   0.097006,   931.830933,   700.157715
-0.267832,   0.291268,   0.372469,   -396.659332,   668.081299,   0.533467,   21.813259,   25.970631,   -42.139992,   313.561920,   -501.783997,   0.097072,   932.025696,   700.453552
-0.268283,   0.291593,   0.372977,   -396.564575,   668.283936,   0.533468,   21.813259,   25.304758,   -43.164299,   314.883667,   -501.423981,   0.097167,   932.139832,   700.753235
-0.268584,   0.291757,   0.373280,   -396.373138,   668.439636,   0.533467,   21.813259,   24.638884,   -44.326271,   316.392761,   -500.926147,   0.097292,   932.134521,   701.031311
-0.268690,   0.291709,   0.373316,   -396.075500,   668.520142,   0.533467,   21.813259,   23.973009,   -45.653030,   318.097656,   -500.262268,   0.097443,   931.976135,   701.255188
-0.268542,   0.291381,   0.372999,   -395.654510,   668.489258,   0.533467,   21.813259,   23.307137,   -47.196400,   320.031128,   -499.386078,   0.097620,   931.617432,   701.384766
-0.268018,   0.290659,   0.372173,   -395.081940,   668.279602,   0.533467,   21.813259,   22.641262,   -49.032051,   322.229706,   -498.222443,   0.097818,   930.973999,   701.344666
-0.267084,   0.289466,   0.370760,   -394.327240,   667.876038,   0.533468,   21.813259,   21.975388,   -51.120075,   324.668854,   -496.754089,   0.098045,   930.007568,   701.127197
-0.265563,   0.287590,   0.368495,   -393.424194,   667.072754,   0.533468,   21.813259,   21.309513,   -53.817379,   327.465942,   -494.792084,   0.098235,   928.553284,   700.454407
-0.263243,   0.284798,   0.365097,   -392.246521,   665.797485,   0.533467,   21.813259,   20.643641,   -57.215515,   330.766479,   -492.170471,   0.098423,   926.445007,   699.283875
-0.259908,   0.280855,   0.360250,   -390.807159,   663.842041,   0.533467,   21.813259,   19.977766,   -61.462482,   334.497345,   -488.748596,   0.098551,   923.499146,   697.343567
-0.255006,   0.275144,   0.353172,   -389.021576,   660.786743,   0.533467,   21.813259,   19.311893,   -66.885025,   338.650177,   -484.158722,   0.098545,   919.259033,   694.128967
-0.248408,   0.267459,   0.343658,   -387.055023,   656.335815,   0.533467,   21.813259,   18.646019,   -73.449821,   342.730621,   -478.397919,   0.098251,   913.578857,   689.194824
-0.239624,   0.257212,   0.330955,   -385.013397,   649.833313,   0.533467,   21.813259,   17.980146,   -81.603973,   346.423889,   -471.089142,   0.097439,   905.932190,   681.649597
-0.228417,   0.244161,   0.314751,   -382.922852,   640.909912,   0.533468,   21.813259,   17.314272,   -91.210617,   349.197693,   -462.134735,   0.095977,   895.999146,   670.982605
-0.214624,   0.228140,   0.294830,   -380.851013,   629.107300,   0.533467,   21.813259,   16.648397,   -102.165497,   350.421783,   -451.436737,   0.093673,   883.413635,   656.515076
-0.198195,   0.209160,   0.271151,   -378.718872,   614.054504,   0.533467,   21.813259,   15.982523,   -114.191711,   349.527344,   -438.908752,   0.090397,   867.781616,   637.685852
-0.179125,   0.187263,   0.243787,   -376.197784,   595.463257,   0.533467,   21.813259,   15.316649,   -126.843109,   346.108582,   -424.394226,   0.086129,   848.594849,   614.086121
-0.157546,   0.162901,   0.213062,   -373.098083,   572.850952,   0.533467,   21.813259,   14.650777,   -139.582001,   339.334869,   -407.878113,   0.080681,   825.281799,   584.890625
-0.134257,   0.137065,   0.180226,   -368.913361,   546.530029,   0.533467,   21.813259,   13.984902,   -151.023239,   328.639893,   -389.858917,   0.074215,   797.755859,   550.418335
-0.108963,   0.109277,   0.144781,   -362.541412,   514.954895,   0.533467,   21.813259,   13.319029,   -161.138031,   313.551483,   -369.008667,   0.066520,   763.745544,   508.630890
-0.082538,   0.081117,   0.108285,   -351.663910,   478.559357,   0.533467,   21.813259,   12.653154,   -167.763580,   294.659027,   -344.759338,   0.058602,   721.788513,   461.267914
-0.055332,   0.053125,   0.071429,   -330.451965,   435.856812,   0.533467,   21.813259,   11.987281,   -173.940857,   279.345703,   -308.933807,   0.052776,   665.732178,   411.120300
-0.028878,   0.027639,   0.036967,   -251.519119,   416.443909,   0.533467,   21.813259,   11.321407,   -160.002136,   324.926941,   -229.683701,   0.094083,   584.320984,   434.841034
-0.009376,   0.011850,   0.013322,   -80.375587,   445.199280,   0.533467,   21.813259,   10.655534,   -67.273270,   432.096954,   -81.942528,   0.248001,   490.352722,   475.192383
-0.008593,   0.015471,   0.014371,   0.000000,   501.468658,   0.533467,   21.813259,   9.989659,   7.748610,   501.260956,   10.126186,   0.340880,   497.741028,   497.612549
-0.114720,   0.217132,   0.233206,   0.000000,   818.941589,   0.533953,   22.811810,   48.740093,   31.737673,   803.226746,   -111.223953,   0.343162,   811.048828,   810.692627
-0.100201,   0.191141,   0.205494,   0.000000,   799.161255,   0.533950,   22.811810,   48.069744,   30.789640,   782.886597,   -111.825684,   0.342455,   792.003540,   791.704224
-0.088279,   0.166952,   0.180092,   0.000000,   777.255310,   0.533951,   22.811810,   47.399399,   27.031208,   759.350586,   -115.898811,   0.339221,   772.732422,   772.611145
-0.079246,   0.144435,   0.157591,   0.000000,   754.490417,   0.533950,   22.811810,   46.729050,   21.720470,   733.962585,   -122.646591,   0.334124,   753.894775,   753.892700
-0.073565,   0.125914,   0.141846,   -9.017742,   735.147095,   0.533950,   22.811810,   46.058701,   15.637598,   710.491760,   -133.190659,   0.327219,   739.697266,   739.573547
-0.072833,   0.114430,   0.134528,   -22.762989,   721.593628,   0.533951,   22.811810,   45.388355,   8.316497,   690.514160,   -148.890182,   0.317691,   733.240173,   732.444580
-0.077747,   0.110486,   0.134695,   -42.375736,   712.525940,   0.533950,   22.811810,   44.718006,   -1.618935,   671.769165,   -170.605576,   0.304076,   734.631042,   731.873657
-0.086997,   0.112908,   0.140283,   -68.211632,   705.374207,   0.533950,   22.811810,   44.047657,   -14.485114,   651.647705,   -196.660965,   0.286300,   741.835754,   734.730652
-0.100724,   0.122057,   0.152803,   -109.672508,   695.709290,   0.533951,   22.811810,   43.377312,   -34.171345,   620.208130,   -234.748459,   0.258212,   756.531372,   738.328491
-0.116654,   0.135847,   0.170350,   -176.126022,   674.079468,   0.533950,   22.811810,   42.706963,   -61.887993,   559.841431,   -289.957703,   0.213552,   777.255676,   730.304810
-0.134292,   0.153241,   0.192573,   -246.243561,   650.790100,   0.533950,   22.811810,   42.036613,   -79.708076,   484.254639,   -348.789154,   0.167982,   802.755615,   710.019836
-0.152219,   0.172035,   0.216696,   -294.000977,   639.851990,   0.533951,   22.811810,   41.366264,   -81.907570,   427.758575,   -391.254944,   0.139396,   827.021301,   693.920471
-0.169528,   0.190655,   0.240610,   -320.574249,   640.422485,   0.533950,   22.811810,   40.695919,   -77.062546,   396.910797,   -417.990448,   0.125805,   847.473755,   689.795837
-0.185573,   0.208040,   0.262932,   -336.390167,   645.716370,   0.533953,   22.811810,   40.025570,   -69.911964,   379.238190,   -436.691376,   0.119273,   864.477112,   692.401001
-0.199872,   0.223488,   0.282780,   -347.548431,   651.610901,   0.533950,   22.811810,   39.355221,   -62.145309,   366.207764,   -451.340515,   0.115365,   878.551697,   696.569214
-0.212247,   0.236722,   0.299831,   -356.906891,   656.233337,   0.533950,   22.811810,   38.684872,   -54.973911,   354.300354,   -463.397156,   0.112097,   890.078003,   699.522034
-0.222485,   0.247532,   0.313808,   -365.272217,   659.125488,   0.533951,   22.811810,   38.014526,   -48.881779,   342.735016,   -473.293488,   0.108927,   899.238770,   700.503662
-0.230528,   0.255836,   0.324621,   -372.604156,   660.486633,   0.533950,   22.811810,   37.344177,   -44.107159,   331.989624,   -481.099731,   0.105895,   906.187866,   699.778320
-0.236642,   0.261957,   0.332683,   -378.692291,   660.887756,   0.533950,   22.811810,   36.673828,   -40.612076,   322.807526,   -486.994049,   0.103222,   911.292236,   698.151001
-0.241146,   0.266402,   0.338575,   -383.335571,   660.944885,   0.533951,   22.811810,   36.003483,   -38.118034,   315.727386,   -491.252258,   0.101137,   914.963440,   696.518188
-0.244506,   0.269510,   0.342801,   -386.783844,   660.796021,   0.533950,   22.811810,   35.333134,   -36.838696,   310.850891,   -494.099060,   0.099548,   917.517517,   695.015015
-0.247162,   0.271915,   0.346102,   -389.339020,   660.712646,   0.533951,   22.811810,   34.662785,   -36.241425,   307.615082,   -496.077423,   0.098384,   919.438599,   693.908447
-0.249310,   0.273799,   0.348726,   -391.315552,   660.630920,   0.533950,   22.811810,   33.992435,   -36.142090,   305.457428,   -497.468872,   0.097482,   920.910522,   693.014160
-0.251120,   0.275354,   0.350912,   -392.929108,   660.544006,   0.533950,   22.811810,   33.322090,   -36.370129,   303.984985,   -498.488708,   0.096742,   922.094666,   692.247620
-0.252702,   0.276681,   0.352796,   -394.272614,   660.474304,   0.533951,   22.811810,   32.651741,   -36.788048,   302.989716,   -499.259979,   0.096128,   923.083984,   691.605408
-0.254093,   0.277828,   0.354441,   -395.433105,   660.386047,   0.533951,   22.811810,   31.981392,   -37.441952,   302.394928,   -499.816223,   0.095591,   923.913208,   691.008911
-0.255371,   0.278866,   0.355939,   -396.417603,   660.336609,   0.533951,   22.811810,   31.311045,   -38.216221,   302.135223,   -500.222534,   0.095143,   924.640686,   690.531738
-0.256570,   0.279836,   0.357342,   -397.253815,   660.335815,   0.533950,   22.811810,   30.640696,   -39.083218,   302.165192,   -500.511078,   0.094774,   925.297180,   690.177124
-0.257713,   0.280760,   0.358680,   -397.964294,   660.384827,   0.533951,   22.811810,   29.970348,   -40.024487,   302.445038,   -500.703888,   0.094474,   925.901367,   689.938660
-0.258814,   0.281650,   0.359971,   -398.565765,   660.482178,   0.533951,   22.811810,   29.299999,   -41.027023,   302.943420,   -500.816040,   0.094235,   926.464783,   689.808167
-0.259883,   0.282516,   0.361228,   -399.074921,   660.621948,   0.533951,   22.811810,   28.629652,   -42.084660,   303.631653,   -500.858673,   0.094048,   926.995056,   689.771606
-0.260922,   0.283357,   0.362449,   -399.503113,   660.796387,   0.533950,   22.811810,   27.959303,   -43.195034,   304.488281,   -500.837128,   0.093907,   927.493835,   689.814697
-0.261926,   0.284167,   0.363629,   -399.858948,   660.994751,   0.533951,   22.811810,   27.288956,   -44.361641,   305.497467,   -500.751740,   0.093803,   927.957947,   689.919922
-0.262881,   0.284928,   0.364747,   -400.138489,   661.209106,   0.533951,   22.811810,   26.618608,   -45.591808,   306.662384,   -500.593567,   0.093737,   928.376831,   690.078796
-0.263751,   0.285612,   0.365761,   -400.332031,   661.423401,   0.533951,   22.811810,   25.948259,   -46.900028,   307.991394,   -500.344055,   0.093709,   928.727966,   690.274902
-0.264543,   0.286208,   0.366664,   -400.429230,   661.648804,   0.533951,   22.811810,   25.277912,   -48.233688,   309.453278,   -500.017456,   0.093727,   929.013611,   690.527100
-0.265195,   0.286652,   0.367376,   -400.454559,   661.810059,   0.533951,   22.811810,   24.607563,   -49.724991,   311.080505,   -499.556183,   0.093758,   929.183105,   690.726624
-0.265694,   0.286916,   0.367869,   -400.387054,   661.908752,   0.533951,   22.811810,   23.937216,   -51.373539,   312.895233,   -498.944031,   0.093814,   929.221558,   690.884644
-0.265988,   0.286944,   0.368066,   -400.214844,   661.906372,   0.533951,   22.811810,   23.266867,   -53.253922,   314.945465,   -498.129181,   0.093889,   929.083801,   690.955994
-0.266054,   0.286677,   0.367918,   -399.955811,   661.751648,   0.533950,   22.811810,   22.596519,   -55.456226,   317.252075,   -497.069214,   0.093961,   928.736389,   690.865784
-0.265707,   0.286049,   0.367272,   -399.482178,   661.473267,   0.533951,   22.811810,   21.926172,   -57.883263,   319.874359,   -495.713043,   0.094095,   928.105408,   690.706665
-0.264858,   0.284760,   0.365842,   -398.896667,   660.808716,   0.533951,   22.811810,   21.255823,   -60.835957,   322.747986,   -493.922760,   0.094176,   927.028076,   690.091736
-0.263325,   0.282694,   0.363441,   -398.142731,   659.693848,   0.533951,   22.811810,   20.585474,   -64.349571,   325.900665,   -491.610352,   0.094212,   925.400391,   688.962280
-0.260784,   0.279505,   0.359629,   -397.142914,   657.915100,   0.533950,   22.811810,   19.915127,   -68.668190,   329.440369,   -488.532745,   0.094179,   922.963196,   687.072876
-0.257036,   0.274894,   0.354068,   -395.980194,   655.179382,   0.533951,   22.811810,   19.244780,   -74.015182,   333.214355,   -484.535980,   0.093963,   919.509827,   684.005859
-0.251752,   0.268488,   0.346285,   -394.719147,   651.120972,   0.533951,   22.811810,   18.574430,   -80.547180,   336.949036,   -479.447205,   0.093432,   914.752197,   679.252747
-0.244433,   0.259704,   0.335557,   -393.458282,   645.139587,   0.533951,   22.811810,   17.904083,   -88.650826,   340.332153,   -472.932129,   0.092372,   908.212585,   671.973022
-0.234828,   0.248223,   0.321500,   -392.396271,   636.722595,   0.533951,   22.811810,   17.233734,   -98.338654,   342.664978,   -464.919739,   0.090534,   899.576599,   661.365906
-0.222632,   0.233720,   0.303706,   -391.578705,   625.357178,   0.533951,   22.811810,   16.563387,   -109.601303,   343.379791,   -455.238068,   0.087714,   888.415466,   646.639404
-0.207582,   0.216017,   0.281872,   -390.953796,   610.540222,   0.533951,   22.811810,   15.893039,   -122.261719,   341.848175,   -443.731995,   0.083725,   874.240967,   626.964417
-0.189803,   0.195318,   0.256241,   -390.686920,   591.747314,   0.533950,   22.811810,   15.222691,   -136.137207,   337.197601,   -430.444885,   0.078228,   856.731628,   601.201477
-0.168843,   0.171079,   0.226165,   -390.269073,   568.088928,   0.533950,   22.811810,   14.552342,   -150.843216,   328.663055,   -414.886658,   0.071011,   834.710999,   567.772766
-0.146201,   0.145293,   0.194001,   -390.426483,   539.711304,   0.533951,   22.811810,   13.881994,   -165.262604,   314.547455,   -398.415192,   0.061512,   808.973877,   525.217651
-0.120265,   0.116622,   0.157740,   -388.329132,   505.244080,   0.533950,   22.811810,   13.211646,   -179.003830,   295.918793,   -378.457916,   0.050217,   776.061890,   471.503967
-0.093126,   0.087397,   0.120372,   -383.990265,   464.685852,   0.533951,   22.811810,   12.541299,   -189.988083,   270.683685,   -356.382050,   0.036543,   736.081726,   402.732483
-0.064130,   0.057336,   0.081413,   -375.511780,   413.475708,   0.533951,   22.811810,   11.870951,   -197.054855,   235.018799,   -330.080902,   0.018513,   683.546814,   298.435760
-0.034809,   0.028485,   0.043426,   -360.273651,   343.113373,   0.533951,   22.811810,   11.200602,   -203.522217,   186.361954,   -292.721558,   -0.009389,   609.211487,   -212.167389
-0.011085,   0.006861,   0.014159,   -287.021912,   291.699463,   0.533950,   22.811810,   10.530254,   -195.820892,   200.498444,   -210.860962,   0.003111,   501.192841,   120.791153
-0.008005,   0.004003,   0.012742,   -147.588715,   388.318451,   0.533951,   22.811810,   9.859906,   -143.626999,   384.356720,   -45.906651,   0.167361,   479.463287,   423.647369
-0.136120,   0.261397,   0.282141,   0.000000,   852.669922,   0.534530,   23.803621,   48.912712,   45.761547,   825.832825,   -147.156708,   0.344490,   843.367004,   842.889099
-0.120643,   0.233669,   0.252350,   0.000000,   834.237793,   0.534527,   23.803621,   48.236412,   43.662800,   808.202087,   -143.468399,   0.343952,   825.565430,   825.141846
-0.106987,   0.207255,   0.224181,   0.000000,   814.361389,   0.534530,   23.803621,   47.560112,   40.528683,   788.256897,   -142.128555,   0.342228,   807.245972,   806.955933
-0.096272,   0.182728,   0.198609,   0.000000,   792.853699,   0.534528,   23.803621,   46.883808,   35.192867,   765.154175,   -144.868393,   0.338070,   789.133728,   789.053711
-0.087692,   0.160170,   0.176513,   -0.640615,   771.734863,   0.534528,   23.803621,   46.207512,   29.414854,   741.679382,   -149.367920,   0.332918,   772.055420,   772.054810
-0.082221,   0.141325,   0.160599,   -10.344127,   753.699524,   0.534530,   23.803621,   45.531208,   23.341181,   720.014221,   -156.851349,   0.326495,   758.924438,   758.765808
-0.081292,   0.129032,   0.152172,   -23.283422,   740.170593,   0.534528,   23.803621,   44.854908,   16.423723,   700.463440,   -169.522629,   0.317734,   752.082642,   751.271057
-0.085172,   0.123424,   0.150210,   -40.834843,   730.139832,   0.534527,   23.803621,   44.178608,   7.645328,   681.659668,   -187.154099,   0.305791,   751.389954,   748.887329
-0.093281,   0.124241,   0.153955,   -63.560200,   722.619812,   0.534530,   23.803621,   43.502308,   -3.090942,   662.150574,   -209.483154,   0.290435,   756.405457,   750.362061
-0.105369,   0.131094,   0.163562,   -96.636406,   714.523926,   0.534528,   23.803621,   42.826008,   -17.801653,   635.689148,   -240.276306,   0.268383,   767.419067,   753.547852
-0.120006,   0.142645,   0.178366,   -153.466095,   696.297363,   0.534528,   23.803621,   42.149708,   -41.495449,   584.326721,   -287.421539,   0.230686,   784.372314,   749.469360
-0.136301,   0.157932,   0.197826,   -224.349991,   670.738708,   0.534530,   23.803621,   41.473408,   -62.555931,   508.944641,   -344.445526,   0.184459,   806.661987,   731.378967
-0.153132,   0.175086,   0.219843,   -280.581421,   652.798035,   0.534527,   23.803621,   40.797108,   -69.511253,   441.727875,   -390.458618,   0.149579,   829.478271,   710.298279
-0.169552,   0.192425,   0.242159,   -313.657562,   647.712158,   0.534530,   23.803621,   40.120808,   -67.053078,   401.107666,   -419.838440,   0.131131,   849.159546,   699.780273
-0.184778,   0.208645,   0.263063,   -332.709137,   649.641296,   0.534528,   23.803621,   39.444504,   -61.283386,   378.215576,   -439.275848,   0.122079,   865.373230,   698.017883
-0.198303,   0.222980,   0.281580,   -345.582153,   653.341187,   0.534528,   23.803621,   38.768208,   -54.598652,   362.357697,   -453.870941,   0.116752,   878.672241,   699.210083
-0.209851,   0.235058,   0.297242,   -356.158875,   656.138184,   0.534530,   23.803621,   38.091904,   -48.465664,   348.444946,   -465.619812,   0.112426,   889.413208,   699.627869
-0.219206,   0.244609,   0.309722,   -365.550507,   657.301514,   0.534527,   23.803621,   37.415604,   -43.544670,   335.295654,   -475.054260,   0.108327,   897.746765,   698.150208
-0.226437,   0.251805,   0.319215,   -373.648254,   657.260010,   0.534528,   23.803621,   36.739307,   -39.832932,   323.444702,   -482.390198,   0.104578,   903.984436,   695.370728
-0.231872,   0.257045,   0.326208,   -380.141907,   656.675476,   0.534530,   23.803621,   36.063004,   -37.369343,   313.902924,   -487.749451,   0.101462,   908.493530,   692.287109
-0.235894,   0.260692,   0.331197,   -385.022339,   655.943115,   0.534528,   23.803621,   35.386703,   -36.143425,   307.064240,   -491.380096,   0.099062,   911.622925,   689.491394
-0.238920,   0.263304,   0.334853,   -388.577240,   655.335144,   0.534530,   23.803621,   34.710403,   -35.692791,   302.450684,   -493.814758,   0.097303,   913.840637,   687.298035
-0.241284,   0.265265,   0.337644,   -391.235840,   654.840759,   0.534528,   23.803621,   34.034103,   -35.819466,   299.424347,   -495.451263,   0.095982,   915.466553,   685.571289
-0.243248,   0.266830,   0.339914,   -393.357117,   654.412842,   0.534527,   23.803621,   33.357803,   -36.333157,   297.388916,   -496.601318,   0.094922,   916.735474,   684.127808
-0.244943,   0.268181,   0.341875,   -395.095123,   654.078186,   0.534530,   23.803621,   32.681503,   -37.031311,   296.014374,   -497.454834,   0.094060,   917.791687,   682.950684
-0.246470,   0.269310,   0.343572,   -396.618317,   653.721497,   0.534528,   23.803621,   32.005203,   -38.063061,   295.166229,   -498.039154,   0.093289,   918.659790,   681.824951
-0.247913,   0.270388,   0.345184,   -397.941193,   653.451355,   0.534529,   23.803621,   31.328901,   -39.226112,   294.736267,   -498.471527,   0.092631,   919.451538,   680.890198
-0.249284,   0.271413,   0.346719,   -399.088104,   653.256958,   0.534528,   23.803621,   30.652601,   -40.494255,   294.663116,   -498.773407,   0.092073,   920.175537,   680.125427
-0.250608,   0.272406,   0.348206,   -400.087738,   653.135620,   0.534529,   23.803621,   29.976301,   -41.841438,   294.889313,   -498.971893,   0.091599,   920.851685,   679.517334
-0.251898,   0.273380,   0.349661,   -400.962646,   653.080688,   0.534528,   23.803621,   29.300001,   -43.253017,   295.371063,   -499.084442,   0.091199,   921.491394,   679.049255
-0.253167,   0.274341,   0.351097,   -401.728424,   653.088135,   0.534529,   23.803621,   28.623699,   -44.717686,   296.077393,   -499.123413,   0.090865,   922.103027,   678.710266
-0.254420,   0.275294,   0.352518,   -402.403961,   653.145996,   0.534528,   23.803621,   27.947399,   -46.237766,   296.979767,   -499.096039,   0.090584,   922.690186,   678.477173
-0.255661,   0.276237,   0.353928,   -403.002289,   653.246094,   0.534528,   23.803621,   27.271099,   -47.813740,   298.057526,   -499.007446,   0.090348,   923.255615,   678.334106
-0.256888,   0.277165,   0.355318,   -403.531525,   653.375305,   0.534529,   23.803621,   26.594799,   -49.464714,   299.308502,   -498.851013,   0.090151,   923.793579,   678.260559
-0.258099,   0.278060,   0.356678,   -404.001892,   653.516296,   0.534529,   23.803621,   25.918497,   -51.223560,   300.737946,   -498.615021,   0.089984,   924.295837,   678.229065
-0.259233,   0.278932,   0.357982,   -404.342377,   653.722168,   0.534528,   23.803621,   25.242197,   -52.985283,   302.365082,   -498.303802,   0.089890,   924.755676,   678.343628
-0.260278,   0.279664,   0.359131,   -404.617737,   653.872375,   0.534529,   23.803621,   24.565897,   -54.917747,   304.172363,   -497.859314,   0.089811,   925.112427,   678.414429
-0.261200,   0.280259,   0.360108,   -404.810730,   653.974792,   0.534528,   23.803621,   23.889597,   -56.989182,   306.153259,   -497.281189,   0.089754,   925.359802,   678.460266
-0.261926,   0.280608,   0.360792,   -404.918488,   653.961853,   0.534529,   23.803621,   23.213297,   -59.260441,   308.303802,   -496.518921,   0.089703,   925.433105,   678.392761
-0.262407,   0.280642,   0.361102,   -404.934448,   653.795715,   0.534528,   23.803621,   22.536997,   -61.740551,   310.601807,   -495.547852,   0.089651,   925.291931,   678.164917
-0.262520,   0.280323,   0.360942,   -404.775360,   653.479736,   0.534528,   23.803621,   21.860695,   -64.499786,   313.204163,   -494.278168,   0.089635,   924.873718,   677.820129
-0.262232,   0.279530,   0.360208,   -404.484039,   652.905884,   0.534529,   23.803621,   21.184395,   -67.690086,   316.111908,   -492.638153,   0.089607,   924.112183,   677.194763
-0.261394,   0.278059,   0.358657,   -404.079193,   651.914856,   0.534529,   23.803621,   20.508095,   -71.430908,   319.266571,   -490.530060,   0.089516,   922.875000,   676.069153
-0.259742,   0.275635,   0.355932,   -403.499603,   650.332703,   0.534528,   23.803621,   19.831795,   -75.912460,   322.745575,   -487.758728,   0.089340,   920.952515,   674.240051
-0.257056,   0.271985,   0.351711,   -402.819611,   647.886597,   0.534529,   23.803621,   19.155495,   -81.353722,   326.420685,   -484.175476,   0.088971,   918.151489,   671.308655
-0.252993,   0.266697,   0.345483,   -402.092957,   644.202820,   0.534528,   23.803621,   18.479193,   -87.961205,   330.071075,   -479.578949,   0.088280,   914.169250,   666.746643
-0.247145,   0.259284,   0.336658,   -401.476044,   638.735046,   0.534529,   23.803621,   17.802893,   -96.066826,   333.325867,   -473.724884,   0.087039,   908.626648,   659.730957
-0.239123,   0.249305,   0.324686,   -401.218353,   630.843201,   0.534528,   23.803621,   17.126593,   -105.896271,   335.521118,   -466.449829,   0.084939,   901.135498,   649.225708
-0.228615,   0.236377,   0.309079,   -401.529236,   619.881592,   0.534528,   23.803621,   16.450293,   -117.517868,   335.870239,   -457.635040,   0.081662,   891.279724,   634.113220
-0.215408,   0.220209,   0.289590,   -402.558777,   605.279541,   0.534529,   23.803621,   15.773993,   -130.821869,   333.542633,   -447.242584,   0.076904,   878.679443,   613.232666
-0.198874,   0.200373,   0.265429,   -404.192444,   586.035400,   0.534528,   23.803621,   15.097692,   -146.153748,   327.996674,   -434.664398,   0.070288,   862.368896,   584.650391
-0.179689,   0.177697,   0.237753,   -406.372223,   562.394775,   0.534528,   23.803621,   14.421391,   -162.081375,   318.103912,   -420.693359,   0.061723,   842.595947,   547.656677
-0.157242,   0.151569,   0.205684,   -409.290619,   532.289062,   0.534529,   23.803621,   13.745091,   -179.188309,   302.186768,   -404.614136,   0.050137,   817.747803,   496.570343
-0.132019,   0.123046,   0.170299,   -412.371796,   495.322266,   0.534528,   23.803621,   13.068790,   -195.996506,   278.946991,   -386.761292,   0.035126,   787.179504,   425.091492
-0.104538,   0.092571,   0.132551,   -413.731110,   451.182953,   0.534529,   23.803621,   12.392490,   -210.870667,   248.322495,   -366.475769,   0.016661,   749.271606,   315.859222
-0.073912,   0.060430,   0.092475,   -408.756927,   398.940643,   0.534528,   23.803621,   11.716190,   -220.153854,   210.337570,   -341.706207,   -0.004678,   699.503845,   -193.136047
-0.044139,   0.030757,   0.056026,   -401.743683,   336.693604,   0.534529,   23.803621,   11.039889,   -215.192154,   150.142075,   -320.866211,   -0.033863,   640.332031,   -341.626007
-0.029181,   0.015209,   0.032572,   -403.318390,   274.738983,   0.534528,   23.803621,   10.363589,   -181.388443,   52.809032,   -318.164001,   -0.072555,   590.723694,   -404.612579
-0.037425,   0.019539,   0.041104,   -163.615112,   181.945526,   0.534529,   23.803621,   9.687288,   -47.419243,   65.749657,   -163.252075,   0.020408,   299.404602,   135.024490
-0.155963,   0.302578,   0.328194,   0.000000,   881.149902,   0.535148,   24.786791,   49.127861,   62.446758,   839.197083,   -185.329163,   0.345028,   871.083801,   870.541199
-0.139521,   0.274438,   0.297698,   0.000000,   864.887817,   0.535147,   24.786791,   48.444141,   60.089836,   825.625732,   -177.758438,   0.345444,   854.664307,   854.093079
-0.124948,   0.247588,   0.268740,   0.000000,   847.588318,   0.535148,   24.786791,   47.760422,   57.317787,   809.815247,   -172.774292,   0.344927,   837.986877,   837.473877
-0.112774,   0.221665,   0.241088,   0.000000,   828.270630,   0.535148,   24.786791,   47.076702,   52.816612,   790.448669,   -171.257690,   0.342425,   820.876038,   820.567871
-0.102671,   0.197224,   0.215712,   0.000000,   808.311890,   0.535148,   24.786791,   46.392986,   47.747177,   769.485596,   -171.842682,   0.338867,   803.888550,   803.777222
-0.094520,   0.174689,   0.193937,   0.000000,   788.831909,   0.535148,   24.786791,   45.709267,   42.015564,   748.286133,   -174.012268,   0.334265,   788.098083,   788.095032
-0.089217,   0.155537,   0.177509,   -8.049913,   771.408447,   0.535148,   24.786791,   45.025547,   35.670803,   727.687744,   -179.351547,   0.328129,   775.464783,   775.370850
-0.088043,   0.142096,   0.167725,   -20.725811,   757.410278,   0.535147,   24.786791,   44.341827,   28.627916,   708.056580,   -189.652649,   0.319749,   767.982971,   767.353271
-0.090758,   0.134674,   0.163355,   -36.545528,   746.251892,   0.535148,   24.786791,   43.658108,   20.475243,   689.231140,   -203.431427,   0.309168,   765.179504,   763.212280
-0.097970,   0.133808,   0.165263,   -57.663975,   737.877869,   0.535148,   24.786791,   42.974388,   10.737289,   669.476624,   -223.018692,   0.295103,   768.334534,   763.443298
-0.108527,   0.138414,   0.172154,   -85.759613,   729.944397,   0.535150,   24.786791,   42.290668,   -1.147370,   645.332153,   -248.715332,   0.276575,   776.384766,   765.619751
-0.121844,   0.147825,   0.184284,   -133.525909,   714.858398,   0.535148,   24.786791,   41.606945,   -20.461130,   601.793640,   -288.337891,   0.245248,   790.129028,   764.124695
-0.136843,   0.160977,   0.200998,   -202.167603,   689.129944,   0.535147,   24.786791,   40.923229,   -42.696918,   529.659241,   -341.621033,   0.200550,   809.377258,   749.344666
-0.152646,   0.176493,   0.220910,   -265.441895,   665.557800,   0.535148,   24.786791,   40.239510,   -54.179218,   454.295135,   -389.940460,   0.160550,   830.718689,   725.677979
-0.168199,   0.192533,   0.241611,   -305.470886,   654.708313,   0.535148,   24.786791,   39.555790,   -54.608910,   403.846375,   -421.830200,   0.137008,   849.676270,   709.330994
-0.182652,   0.207628,   0.261150,   -328.165680,   653.111694,   0.535148,   24.786791,   38.872070,   -50.470573,   375.416595,   -442.019623,   0.125191,   865.203125,   703.192810
-0.195420,   0.220862,   0.278348,   -342.938477,   654.528076,   0.535148,   24.786791,   38.188351,   -45.069145,   356.658752,   -456.495941,   0.118326,   877.768005,   701.346375
-0.206111,   0.231731,   0.292562,   -354.874908,   655.363892,   0.535147,   24.786791,   37.504631,   -40.233032,   340.722046,   -467.828949,   0.112834,   887.699402,   699.057617
-0.214612,   0.240128,   0.303653,   -365.320862,   654.856567,   0.535148,   24.786791,   36.820915,   -36.459538,   325.995239,   -476.809326,   0.107801,   895.281616,   695.185303
-0.221061,   0.246153,   0.311780,   -374.205719,   653.334412,   0.535148,   24.786791,   36.137192,   -34.113091,   313.241791,   -483.524384,   0.103294,   900.753723,   690.228699
-0.225741,   0.250405,   0.317585,   -381.020477,   651.744385,   0.535148,   24.786791,   35.453476,   -32.801224,   303.525116,   -488.233521,   0.099760,   904.585693,   685.674194
-0.229194,   0.253322,   0.321695,   -385.994080,   650.375916,   0.535148,   24.786791,   34.769756,   -32.538349,   296.920197,   -491.304352,   0.097141,   907.205322,   681.952332
-0.231880,   0.255431,   0.324769,   -389.651978,   649.292542,   0.535148,   24.786791,   34.086037,   -33.037235,   292.677795,   -493.283752,   0.095204,   909.069641,   679.039734
-0.234091,   0.257067,   0.327222,   -392.498474,   648.401733,   0.535147,   24.786791,   33.402317,   -34.025665,   289.928925,   -494.602539,   0.093688,   910.481506,   676.664429
-0.236022,   0.258484,   0.329355,   -394.814178,   647.692017,   0.535148,   24.786791,   32.718597,   -35.296272,   288.174103,   -495.526489,   0.092462,   911.647522,   674.720642
-0.237774,   0.259704,   0.331240,   -396.801544,   647.054626,   0.535148,   24.786791,   32.034878,   -36.849518,   287.102631,   -496.157928,   0.091404,   912.624451,   672.992737
-0.239386,   0.260810,   0.332964,   -398.535187,   646.502075,   0.535148,   24.786791,   31.351158,   -38.515907,   286.482788,   -496.608185,   0.090484,   913.481812,   671.472290
-0.240908,   0.261854,   0.334592,   -400.064728,   646.035400,   0.535147,   24.786791,   30.667439,   -40.279804,   286.250488,   -496.916351,   0.089679,   914.258972,   670.144958
-0.242384,   0.262871,   0.336176,   -401.419678,   645.663269,   0.535149,   24.786791,   29.983719,   -42.120174,   286.363739,   -497.111908,   0.088979,   914.986755,   669.013306
-0.243838,   0.263880,   0.337745,   -402.626495,   645.382812,   0.535147,   24.786791,   29.299999,   -44.024868,   286.781158,   -497.214966,   0.088370,   915.682983,   668.065125
-0.245286,   0.264897,   0.339318,   -403.710693,   645.186035,   0.535148,   24.786791,   28.616280,   -45.985786,   287.461151,   -497.241760,   0.087839,   916.360107,   667.280701
-0.246734,   0.265922,   0.340899,   -404.683563,   645.067139,   0.535148,   24.786791,   27.932560,   -47.997169,   288.380707,   -497.198761,   0.087378,   917.021484,   666.649109
-0.248181,   0.266953,   0.342485,   -405.568390,   645.006165,   0.535147,   24.786791,   27.248842,   -50.061127,   289.498871,   -497.093018,   0.086973,   917.666992,   666.134094
-0.249621,   0.267971,   0.344057,   -406.383209,   644.978638,   0.535148,   24.786791,   26.565123,   -52.182899,   290.778351,   -496.925385,   0.086609,   918.288269,   665.695435
-0.251041,   0.268950,   0.345591,   -407.131439,   644.968384,   0.535148,   24.786791,   25.881403,   -54.365044,   292.201965,   -496.690369,   0.086279,   918.872742,   665.310303
-0.252421,   0.269917,   0.347096,   -407.782745,   645.001648,   0.535147,   24.786791,   25.197683,   -56.616585,   293.835480,   -496.371399,   0.086003,   919.420654,   665.030029
-0.253775,   0.270818,   0.348539,   -408.372864,   645.024170,   0.535148,   24.786791,   24.513964,   -59.024811,   295.676147,   -495.941681,   0.085752,   919.910278,   664.764404
-0.255044,   0.271616,   0.349862,   -408.875977,   645.025085,   0.535147,   24.786791,   23.830246,   -61.572189,   297.721313,   -495.382599,   0.085532,   920.310913,   664.512268
-0.256173,   0.272261,   0.350994,   -409.271484,   644.978943,   0.535148,   24.786791,   23.146526,   -64.296806,   300.004242,   -494.653595,   0.085347,   920.582642,   664.249939
-0.257102,   0.272694,   0.351859,   -409.568695,   644.833862,   0.535148,   24.786791,   22.462807,   -67.230072,   302.495239,   -493.727631,   0.085178,   920.685059,   663.903076
-0.257811,   0.272719,   0.352294,   -409.833893,   644.425171,   0.535148,   24.786791,   21.779087,   -70.588783,   305.180084,   -492.508881,   0.084949,   920.518860,   663.215027
-0.258138,   0.272385,   0.352249,   -409.924225,   643.852722,   0.535148,   24.786791,   21.095367,   -74.223549,   308.152039,   -490.977264,   0.084751,   920.062500,   662.393677
-0.258000,   0.271464,   0.351509,   -409.903015,   642.917419,   0.535148,   24.786791,   20.411648,   -78.394188,   311.408600,   -489.000183,   0.084501,   919.182861,   661.136658
-0.257197,   0.269721,   0.349784,   -409.753326,   641.453796,   0.535147,   24.786791,   19.727928,   -83.240364,   314.940826,   -486.438110,   0.084159,   917.713806,   659.227173
-0.255513,   0.266901,   0.346766,   -409.505554,   639.236084,   0.535148,   24.786791,   19.044209,   -88.944565,   318.675079,   -483.142120,   0.083647,   915.471619,   656.339966
-0.252625,   0.262622,   0.341986,   -409.293915,   635.844360,   0.535147,   24.786791,   18.360491,   -95.808540,   322.359009,   -478.918030,   0.082787,   912.176941,   651.824341
-0.248188,   0.256468,   0.334936,   -409.236115,   630.833008,   0.535148,   24.786791,   17.676771,   -104.049644,   325.646545,   -473.578125,   0.081393,   907.515320,   644.982910
-0.241814,   0.247910,   0.325016,   -409.514221,   623.601135,   0.535148,   24.786791,   16.993052,   -113.945526,   328.032440,   -466.900085,   0.079196,   901.084778,   634.825500
-0.232912,   0.236497,   0.311547,   -410.443207,   613.334473,   0.535147,   24.786791,   16.309332,   -125.687012,   328.578308,   -458.738434,   0.075785,   892.402283,   619.882385
-0.221827,   0.222310,   0.294810,   -412.717926,   599.431274,   0.535149,   24.786791,   15.625613,   -139.132767,   325.846130,   -449.511017,   0.070604,   881.504395,   598.490479
-0.206845,   0.203351,   0.272444,   -415.741821,   580.282837,   0.535148,   24.786791,   14.941894,   -155.135086,   319.676117,   -437.784027,   0.063297,   866.497131,   567.826904
-0.189551,   0.182131,   0.247102,   -420.629456,   556.295410,   0.535148,   24.786791,   14.258174,   -171.986664,   307.652588,   -425.537415,   0.053280,   848.756714,   525.780701
-0.168128,   0.156175,   0.216181,   -426.058136,   525.440674,   0.535148,   24.786791,   13.574455,   -190.364044,   289.746552,   -410.744385,   0.040129,   825.519043,   465.854980
-0.144169,   0.127695,   0.182373,   -433.273560,   487.365997,   0.535148,   24.786791,   12.890736,   -208.235031,   262.327454,   -395.647614,   0.022602,   797.755859,   372.192108
-0.116579,   0.096339,   0.145380,   -440.096649,   441.202789,   0.535148,   24.786791,   12.207016,   -224.078690,   225.184830,   -379.094635,   0.000483,   763.227905,   98.870598
-0.086587,   0.063243,   0.108287,   -440.133789,   393.017334,   0.535148,   24.786791,   11.523296,   -232.056671,   184.940216,   -360.643311,   -0.021755,   721.914490,   -332.562042
-0.062293,   0.036172,   0.078953,   -431.955902,   356.355865,   0.535148,   24.786791,   10.839578,   -218.571884,   142.971848,   -350.257599,   -0.036856,   683.743652,   -375.153381
-0.062315,   0.030332,   0.068666,   -516.727417,   250.337784,   0.535148,   24.786791,   10.155858,   -206.460938,   -59.928715,   -376.469574,   -0.131061,   677.519470,   -558.245300
-0.084951,   0.042527,   0.091727,   -493.764587,   90.762688,   0.535148,   24.786791,   9.472138,   -112.520462,   -290.481445,   -278.389130,   -0.246554,   544.845581,   -527.433777
-0.172308,   0.339043,   0.369556,   0.000000,   905.341125,   0.535738,   25.759434,   49.385132,   82.620201,   844.497131,   -223.735611,   0.345430,   894.651794,   894.055176
-0.155415,   0.311631,   0.339568,   0.000000,   891.744019,   0.535738,   25.759434,   48.692539,   80.807167,   835.544983,   -213.480347,   0.347222,   879.698059,   878.923157
-0.140826,   0.284189,   0.309734,   0.000000,   876.021484,   0.535738,   25.759434,   47.999950,   77.870064,   822.610413,   -206.470657,   0.347387,   864.051697,   863.272217
-0.127441,   0.257817,   0.281145,   0.000000,   859.237427,   0.535738,   25.759434,   47.307358,   74.293785,   807.868652,   -200.802322,   0.346759,   848.007324,   847.309692
-0.116262,   0.233006,   0.254618,   0.000000,   841.379578,   0.535738,   25.759434,   46.614769,   69.779602,   790.354492,   -198.421097,   0.344538,   832.160828,   831.685059
-0.107054,   0.209082,   0.229846,   0.000000,   822.676025,   0.535738,   25.759434,   45.922176,   64.565872,   771.099243,   -197.739410,   0.341258,   816.258972,   816.026489
-0.099386,   0.186536,   0.208160,   0.000000,   804.225769,   0.535738,   25.759434,   45.229588,   58.722347,   751.464661,   -198.327011,   0.337046,   801.261780,   801.211914
-0.094194,   0.167314,   0.191386,   -2.843097,   787.595825,   0.535738,   25.759434,   44.536995,   52.586327,   732.166382,   -201.844376,   0.331530,   789.021179,   789.009644
-0.092537,   0.152826,   0.179991,   -14.345726,   773.275330,   0.535738,   25.759434,   43.844406,   45.614674,   713.314941,   -208.879929,   0.324102,   780.547058,   780.250305
-0.094559,   0.143984,   0.173998,   -29.329716,   761.458557,   0.535738,   25.759434,   43.151814,   37.813198,   694.315674,   -220.426086,   0.314270,   776.538940,   775.291260
-0.100668,   0.141229,   0.173621,   -49.095509,   751.885376,   0.535739,   25.759434,   42.459225,   28.569780,   674.220093,   -237.015854,   0.301266,   777.596375,   774.097778
-0.110056,   0.143816,   0.178210,   -74.748138,   743.303345,   0.535737,   25.759434,   41.766632,   17.737318,   650.817871,   -259.044983,   0.284483,   783.356628,   775.272339
-0.122048,   0.151053,   0.187658,   -115.623360,   730.131653,   0.535738,   25.759434,   41.074043,   1.834876,   612.673401,   -292.479828,   0.257889,   794.280334,   775.007019
-0.135832,   0.162170,   0.201799,   -180.632263,   705.290161,   0.535738,   25.759434,   40.381451,   -20.263611,   544.921509,   -341.110077,   0.215685,   810.839294,   763.576416
-0.150605,   0.176005,   0.219570,   -249.238876,   677.490723,   0.535738,   25.759434,   39.688862,   -35.512264,   463.764099,   -390.368683,   0.171855,   830.644775,   739.224426
-0.165318,   0.190743,   0.238659,   -296.151703,   661.144348,   0.535738,   25.759434,   38.996269,   -39.102345,   404.095001,   -424.261688,   0.143321,   848.891479,   718.046204
-0.178995,   0.204707,   0.256826,   -322.714996,   655.925720,   0.535738,   25.759434,   38.303680,   -36.951050,   370.161774,   -444.971008,   0.128591,   863.747986,   707.667358
-0.190969,   0.216816,   0.272673,   -339.551361,   654.946167,   0.535738,   25.759434,   37.611088,   -33.108868,   348.503693,   -459.183289,   0.120071,   875.578369,   702.712891
-0.200843,   0.226531,   0.285512,   -352.988678,   653.776672,   0.535738,   25.759434,   36.918499,   -29.708651,   330.496643,   -470.060791,   0.113322,   884.760254,   697.664917
-0.208460,   0.233688,   0.295134,   -364.588715,   651.435669,   0.535738,   25.759434,   36.225906,   -27.512695,   314.359650,   -478.390228,   0.107251,   891.515259,   691.166260
-0.214082,   0.238697,   0.302014,   -374.019348,   648.691345,   0.535738,   25.759434,   35.533318,   -26.399923,   301.071960,   -484.432495,   0.102153,   896.277954,   684.425171
-0.218154,   0.242059,   0.306788,   -381.095276,   646.198792,   0.535738,   25.759434,   34.840725,   -26.487659,   291.591217,   -488.405304,   0.098243,   899.483093,   678.542969
-0.221211,   0.244377,   0.310216,   -386.171173,   644.266357,   0.535738,   25.759434,   34.148136,   -27.459862,   285.555054,   -490.872498,   0.095414,   901.667603,   673.978333
-0.223653,   0.246088,   0.312844,   -389.966980,   642.747253,   0.535738,   25.759434,   33.455544,   -29.014994,   281.795288,   -492.416412,   0.093286,   903.243347,   670.375977
-0.225756,   0.247429,   0.315006,   -393.072296,   641.421387,   0.535738,   25.759434,   32.762955,   -30.991896,   279.340973,   -493.424438,   0.091527,   904.462402,   667.257690
-0.227605,   0.248630,   0.316927,   -395.632416,   640.349854,   0.535738,   25.759434,   32.070362,   -33.067932,   277.785400,   -494.122833,   0.090086,   905.492188,   664.671570
-0.229322,   0.249703,   0.318680,   -397.864410,   639.404480,   0.535738,   25.759434,   31.377773,   -35.321003,   276.861084,   -494.587982,   0.088829,   906.383179,   662.368958
-0.230969,   0.250721,   0.320354,   -399.851196,   638.581360,   0.535738,   25.759434,   30.685183,   -37.688866,   276.419067,   -494.893524,   0.087717,   907.196045,   660.317627
-0.232582,   0.251727,   0.322003,   -401.639160,   637.878662,   0.535739,   25.759434,   29.992590,   -40.138779,   276.378265,   -495.079346,   0.086729,   907.964905,   658.501099
-0.234183,   0.252740,   0.323652,   -403.252777,   637.295349,   0.535738,   25.759434,   29.299999,   -42.651421,   276.693970,   -495.166351,   0.085852,   908.707458,   656.912964
-0.235792,   0.253772,   0.325323,   -404.720428,   636.822632,   0.535737,   25.759434,   28.607409,   -45.212574,   277.314758,   -495.173706,   0.085072,   909.437622,   655.532776
-0.237416,   0.254831,   0.327023,   -406.064819,   636.447571,   0.535738,   25.759434,   27.914818,   -47.822205,   278.204956,   -495.110687,   0.084374,   910.161011,   654.335754
-0.239063,   0.255918,   0.328760,   -407.299011,   636.164429,   0.535738,   25.759434,   27.222227,   -50.476997,   279.342438,   -494.983612,   0.083752,   910.882446,   653.310852
-0.240727,   0.257029,   0.330527,   -408.442078,   635.953186,   0.535738,   25.759434,   26.529636,   -53.184311,   280.695404,   -494.794342,   0.083191,   911.598206,   652.423584
-0.242402,   0.258159,   0.332316,   -409.512054,   635.795593,   0.535738,   25.759434,   25.837046,   -55.939507,   282.223053,   -494.548828,   0.082678,   912.305908,   651.641663
-0.244098,   0.259226,   0.334069,   -410.553284,   635.611633,   0.535738,   25.759434,   25.144455,   -58.858940,   283.917267,   -494.207825,   0.082171,   912.966919,   650.833130
-0.245749,   0.260283,   0.335793,   -411.483582,   635.482239,   0.535738,   25.759434,   24.451864,   -61.817795,   285.816467,   -493.783325,   0.081728,   913.590149,   650.153870
-0.247336,   0.261242,   0.337409,   -412.330658,   635.331299,   0.535738,   25.759434,   23.759274,   -64.917252,   287.917908,   -493.229919,   0.081316,   914.127502,   649.485901
-0.248835,   0.262074,   0.338885,   -413.089661,   635.142334,   0.535738,   25.759434,   23.066683,   -68.177696,   290.230347,   -492.527649,   0.080932,   914.559753,   648.809937
-0.250205,   0.262742,   0.340171,   -413.737274,   634.898560,   0.535738,   25.759434,   22.374092,   -71.648323,   292.809631,   -491.631866,   0.080582,   914.852966,   648.116577
-0.251369,   0.263092,   0.341108,   -414.349274,   634.427185,   0.535739,   25.759434,   21.681501,   -75.550591,   295.628540,   -490.448303,   0.080182,   914.908569,   647.125122
-0.252255,   0.263087,   0.341628,   -414.833038,   633.780945,   0.535738,   25.759434,   20.988911,   -79.728027,   298.675964,   -488.978973,   0.079789,   914.701050,   645.959534
-0.252738,   0.262572,   0.341545,   -415.224762,   632.800964,   0.535738,   25.759434,   20.296320,   -84.395203,   301.971436,   -487.103363,   0.079340,   914.113403,   644.378418
-0.252684,   0.261360,   0.340653,   -415.526306,   631.349854,   0.535737,   25.759434,   19.603729,   -89.686920,   305.510437,   -484.708344,   0.078795,   913.020935,   642.187866
-0.251842,   0.259159,   0.338588,   -415.719940,   629.205627,   0.535738,   25.759434,   18.911140,   -95.803162,   309.288849,   -481.604065,   0.078096,   911.205872,   639.083618
-0.250018,   0.255696,   0.335041,   -415.977631,   626.017944,   0.535738,   25.759434,   18.218550,   -102.958855,   312.999176,   -477.685486,   0.077066,   908.485168,   634.464478
-0.246832,   0.250525,   0.329497,   -416.397034,   621.345886,   0.535738,   25.759434,   17.525959,   -111.448357,   316.397186,   -472.720459,   0.075526,   904.535095,   627.620422
-0.241611,   0.243039,   0.321053,   -417.256195,   614.338074,   0.535738,   25.759434,   16.833368,   -121.674614,   318.756500,   -466.424469,   0.073090,   898.804932,   617.093140
-0.234927,   0.233114,   0.310116,   -419.390900,   604.446594,   0.535738,   25.759434,   16.140778,   -133.691177,   318.746857,   -459.222992,   0.069194,   891.484009,   601.329590
-0.225189,   0.219811,   0.294959,   -422.377106,   590.693604,   0.535738,   25.759434,   15.448186,   -147.880035,   316.196503,   -450.262482,   0.063657,   881.372070,   578.639648
-0.212460,   0.203268,   0.275795,   -426.824341,   572.415588,   0.535738,   25.759434,   14.755594,   -163.738846,   309.330109,   -440.081299,   0.055883,   868.423584,   546.429199
-0.196607,   0.182309,   0.251972,   -433.549408,   547.817932,   0.535738,   25.759434,   14.063004,   -181.741791,   296.010345,   -428.612518,   0.044716,   851.807312,   498.152832
-0.177031,   0.157543,   0.223599,   -442.201935,   516.333862,   0.535738,   25.759434,   13.370413,   -200.867538,   274.999451,   -416.035278,   0.029738,   830.943420,   424.647522
-0.154174,   0.128910,   0.191861,   -452.581818,   477.638641,   0.535738,   25.759434,   12.677823,   -219.989441,   245.046249,   -402.818787,   0.010367,   805.691956,   290.004822
-0.128155,   0.096913,   0.158738,   -465.842529,   430.615265,   0.535738,   25.759434,   11.985232,   -237.907761,   202.680511,   -390.358337,   -0.015121,   776.554993,   -316.960754
-0.102665,   0.065359,   0.129001,   -482.015961,   378.722137,   0.535738,   25.759434,   11.292642,   -251.954453,   148.660645,   -380.912598,   -0.046080,   747.208130,   -441.324219
-0.090292,   0.045263,   0.110744,   -482.817719,   353.812103,   0.535738,   25.759434,   10.600051,   -249.448303,   120.442680,   -375.209991,   -0.059117,   727.408264,   -466.186493
-0.110092,   0.050974,   0.121581,   -642.327698,   185.882858,   0.535738,   25.759434,   9.907460,   -252.616440,   -203.828369,   -413.386139,   -0.202141,   752.685181,   -698.185547
-0.152854,   0.073880,   0.166227,   -756.713196,   40.483433,   0.535738,   25.759434,   9.214869,   -168.695312,   -547.534424,   -350.714752,   -0.306968,   777.745544,   -775.369629
-0.183480,   0.365550,   0.400386,   0.000000,   921.907227,   0.536220,   26.719685,   49.684025,   102.684402,   838.588196,   -261.260162,   0.343890,   912.378723,   911.916199
-0.167275,   0.340154,   0.372350,   0.000000,   911.611267,   0.536219,   26.719685,   48.981129,   102.792580,   834.438599,   -249.837326,   0.347480,   899.075073,   898.253235
-0.152605,   0.314830,   0.344565,   0.000000,   899.398560,   0.536220,   26.719685,   48.278233,   101.592010,   826.575928,   -241.036011,   0.349449,   885.364502,   884.311890
-0.138924,   0.289325,   0.316624,   0.000000,   885.720154,   0.536220,   26.719685,   47.575333,   99.614288,   816.870605,   -232.643631,   0.350843,   870.745544,   869.521423
-0.127220,   0.264054,   0.289137,   0.000000,   869.891418,   0.536220,   26.719685,   46.872437,   95.992310,   803.264282,   -227.074142,   0.350347,   855.586853,   854.451904
-0.117157,   0.240227,   0.263576,   0.000000,   853.239014,   0.536219,   26.719685,   46.169540,   91.697113,   787.335205,   -224.027924,   0.348557,   840.639221,   839.748169
-0.108751,   0.217257,   0.239805,   0.000000,   835.930969,   0.536220,   26.719685,   45.466640,   86.653679,   769.996765,   -222.267899,   0.345800,   825.766235,   825.181091
-0.101591,   0.194964,   0.218273,   0.000000,   818.388550,   0.536220,   26.719685,   44.763744,   80.945145,   751.735046,   -221.705154,   0.342102,   811.337097,   811.053894
-0.096583,   0.175344,   0.200714,   0.000000,   801.553650,   0.536220,   26.719685,   44.060844,   74.030457,   732.923889,   -223.449677,   0.336708,   798.867065,   798.825928
-0.094529,   0.160060,   0.188010,   -5.514204,   786.825745,   0.536219,   26.719685,   43.357948,   66.908447,   714.403076,   -228.338165,   0.329835,   789.597290,   789.553955
-0.096034,   0.150084,   0.180543,   -19.694315,   774.416077,   0.536220,   26.719685,   42.655052,   59.132980,   695.588806,   -237.452805,   0.320702,   784.448730,   783.892212
-0.101245,   0.145800,   0.178325,   -38.640465,   763.818848,   0.536219,   26.719685,   41.952156,   49.734283,   675.444092,   -251.211151,   0.308382,   783.853699,   781.706543
-0.109547,   0.146574,   0.180810,   -62.695568,   754.504700,   0.536220,   26.719685,   41.249256,   39.710464,   652.098694,   -270.553589,   0.292745,   787.725952,   782.083130
-0.120302,   0.151714,   0.187734,   -99.305847,   741.857788,   0.536219,   26.719685,   40.546360,   25.304617,   617.247314,   -298.814362,   0.269018,   796.169189,   782.053711
-0.133088,   0.161063,   0.199672,   -160.532303,   718.337341,   0.536220,   26.719685,   39.843464,   4.315913,   553.489136,   -343.081848,   0.229375,   810.614319,   773.628418
-0.146833,   0.173271,   0.215397,   -233.127258,   687.443115,   0.536220,   26.719685,   39.140564,   -13.942395,   468.258240,   -392.088104,   0.182683,   828.968079,   749.727112
-0.160660,   0.186683,   0.232851,   -286.403015,   666.091736,   0.536219,   26.719685,   38.437668,   -20.728273,   400.416992,   -427.165924,   0.149522,   846.448792,   724.752502
-0.173553,   0.199522,   0.249657,   -316.696320,   657.430176,   0.536220,   26.719685,   37.734772,   -20.723166,   361.457001,   -448.012482,   0.131968,   860.648987,   710.588318
-0.184706,   0.210493,   0.264136,   -335.611816,   654.067993,   0.536220,   26.719685,   37.031872,   -18.599705,   337.055908,   -461.783295,   0.121769,   871.752930,   702.622620
-0.193670,   0.218994,   0.275515,   -350.629120,   650.773376,   0.536220,   26.719685,   36.328976,   -16.951214,   317.095428,   -472.022186,   0.113674,   880.128906,   694.674011
-0.200438,   0.225028,   0.283792,   -363.257050,   646.772522,   0.536219,   26.719685,   35.626076,   -16.313730,   299.829163,   -479.638763,   0.106650,   886.123596,   685.792603
-0.205291,   0.229011,   0.289454,   -373.142395,   642.839661,   0.536220,   26.719685,   34.923180,   -16.883629,   286.580872,   -484.801208,   0.100994,   890.139771,   677.322937
-0.208808,   0.231607,   0.293335,   -380.310028,   639.640930,   0.536220,   26.719685,   34.220284,   -18.495535,   277.826447,   -487.978821,   0.096826,   892.769897,   670.416809
-0.211527,   0.233417,   0.296186,   -385.478180,   637.210999,   0.536220,   26.719685,   33.517384,   -20.793205,   272.526001,   -489.861450,   0.093800,   894.573730,   665.092468
-0.213784,   0.234774,   0.298443,   -389.521332,   635.207581,   0.536219,   26.719685,   32.814487,   -23.546078,   269.232300,   -491.006653,   0.091411,   895.903137,   660.677429
-0.215792,   0.235939,   0.300422,   -392.880157,   633.528137,   0.536220,   26.719685,   32.111591,   -26.438457,   267.086456,   -491.771576,   0.089427,   897.002441,   656.908386
-0.217645,   0.236983,   0.302226,   -395.775818,   632.069458,   0.536220,   26.719685,   31.408693,   -29.488461,   265.782135,   -492.260406,   0.087716,   897.946594,   653.583008
-0.219413,   0.237967,   0.303940,   -398.348633,   630.780457,   0.536220,   26.719685,   30.705795,   -32.662201,   265.094055,   -492.556580,   0.086201,   898.797058,   650.588623
-0.221143,   0.238934,   0.305624,   -400.671906,   629.647156,   0.536220,   26.719685,   30.002897,   -35.900944,   264.876190,   -492.719604,   0.084844,   899.597351,   647.885437
-0.222865,   0.239914,   0.307314,   -402.795227,   628.654907,   0.536220,   26.719685,   29.299999,   -39.191631,   265.051300,   -492.779266,   0.083617,   900.372253,   645.440063
-0.224598,   0.240917,   0.309030,   -404.746643,   627.795166,   0.536220,   26.719685,   28.597103,   -42.519958,   265.568451,   -492.753510,   0.082506,   901.135193,   643.235291
-0.226353,   0.241952,   0.310785,   -406.553650,   627.054932,   0.536220,   26.719685,   27.894205,   -45.880054,   266.381317,   -492.655945,   0.081496,   901.895325,   641.246033
-0.228140,   0.243023,   0.312586,   -408.234222,   626.423279,   0.536220,   26.719685,   27.191309,   -49.275177,   267.464203,   -492.491699,   0.080573,   902.656494,   639.453735
-0.229965,   0.244130,   0.314438,   -409.810577,   625.884583,   0.536220,   26.719685,   26.488411,   -52.714046,   268.788055,   -492.265381,   0.079724,   903.421448,   637.829407
-0.231833,   0.245279,   0.316347,   -411.301910,   625.427063,   0.536220,   26.719685,   25.785513,   -56.199959,   270.325104,   -491.982819,   0.078938,   904.194458,   636.349548
-0.233717,   0.246400,   0.318246,   -412.761688,   624.955872,   0.536220,   26.719685,   25.082615,   -59.848831,   272.042999,   -491.605927,   0.078162,   904.930847,   634.854187
-0.235606,   0.247513,   0.320143,   -414.121887,   624.543884,   0.536220,   26.719685,   24.379717,   -63.527153,   273.949127,   -491.155853,   0.077448,   905.643005,   633.485596
-0.237467,   0.248559,   0.321979,   -415.416504,   624.115723,   0.536220,   26.719685,   23.676821,   -67.351707,   276.050934,   -490.586853,   0.076760,   906.288696,   632.120667
-0.239277,   0.249506,   0.323714,   -416.637726,   623.653320,   0.536220,   26.719685,   22.973923,   -71.340034,   278.355652,   -489.877136,   0.076094,   906.845093,   630.739502
-0.240981,   0.250274,   0.325261,   -417.763916,   623.118042,   0.536220,   26.719685,   22.271025,   -75.536308,   280.890442,   -488.977295,   0.075449,   907.259033,   629.301636
-0.242499,   0.250784,   0.326519,   -418.803925,   622.427612,   0.536220,   26.719685,   21.568127,   -80.070534,   283.694183,   -487.811005,   0.074796,   907.462402,   627.685364
-0.243795,   0.250961,   0.327412,   -419.735199,   621.557190,   0.536220,   26.719685,   20.865231,   -84.932823,   286.754822,   -486.348175,   0.074138,   907.414124,   625.868835
-0.244773,   0.250681,   0.327794,   -420.637268,   620.341675,   0.536220,   26.719685,   20.162333,   -90.273224,   289.977631,   -484.522034,   0.073392,   907.027222,   623.564575
-0.245329,   0.249810,   0.327512,   -421.450989,   618.725952,   0.536219,   26.719685,   19.459436,   -96.159851,   293.434784,   -482.230255,   0.072565,   906.203796,   620.726013
-0.245159,   0.248018,   0.326163,   -422.190094,   616.424072,   0.536220,   26.719685,   18.756538,   -102.881660,   297.115601,   -479.249817,   0.071565,   904.694031,   616.924011
-0.244036,   0.245004,   0.323386,   -422.843231,   613.230652,   0.536220,   26.719685,   18.053640,   -110.391663,   300.779083,   -475.496521,   0.070334,   902.301880,   611.852295
-0.241906,   0.240565,   0.319006,   -424.027435,   608.435791,   0.536220,   26.719685,   17.350744,   -119.380569,   303.788940,   -470.878937,   0.068384,   898.880920,   604.013611
-0.237982,   0.233750,   0.311975,   -425.265625,   601.730652,   0.536220,   26.719685,   16.647846,   -129.894150,   306.359192,   -464.866760,   0.065813,   893.770691,   593.162842
-0.232495,   0.225144,   0.302711,   -427.723328,   592.364990,   0.536220,   26.719685,   15.944948,   -141.872620,   306.514252,   -458.129181,   0.061855,   887.249573,   577.080383
-0.223837,   0.212608,   0.288933,   -431.120667,   578.887207,   0.536220,   26.719685,   15.242051,   -155.901428,   303.667969,   -449.697632,   0.056112,   877.807312,   553.071594
-0.213105,   0.197013,   0.272033,   -437.089417,   560.603760,   0.536220,   26.719685,   14.539153,   -171.504944,   295.019318,   -440.949768,   0.047529,   866.231873,   516.862000
-0.198638,   0.176896,   0.250158,   -445.587677,   535.537903,   0.536220,   26.719685,   13.836256,   -189.689423,   279.639648,   -430.795074,   0.035239,   850.869141,   459.973328
-0.180803,   0.152453,   0.224508,   -456.883179,   503.580658,   0.536220,   26.719685,   13.133358,   -208.818542,   255.516037,   -420.382019,   0.018706,   832.113708,   364.556488
-0.159442,   0.124030,   0.196468,   -470.881073,   464.600677,   0.536220,   26.719685,   12.430461,   -228.492935,   222.212540,   -409.875183,   -0.002584,   810.157043,   -183.542633
-0.136485,   0.093345,   0.169541,   -487.684723,   420.760559,   0.536220,   26.719685,   11.727564,   -246.166489,   179.242310,   -401.341553,   -0.028330,   787.447998,   -395.995605
-0.119817,   0.066298,   0.150585,   -519.483154,   367.232330,   0.536220,   26.719685,   11.024666,   -262.363251,   110.112457,   -402.345062,   -0.065766,   771.682129,   -512.018066
-0.125089,   0.056257,   0.148212,   -560.573425,   318.849670,   0.536220,   26.719685,   10.321769,   -280.650360,   38.926579,   -409.650940,   -0.104489,   771.133179,   -593.019348
-0.166823,   0.073871,   0.185175,   -764.465027,   88.845634,   0.536220,   26.719685,   9.618871,   -283.896423,   -391.722992,   -423.235321,   -0.277164,   812.539062,   -801.501770
-0.232128,   0.108341,   0.255084,   -874.090210,   0.000000,   0.536220,   26.719685,   8.915974,   -248.280930,   -669.175476,   -358.102722,   -0.358423,   853.234070,   -850.749146
-0.188200,   0.380481,   0.418755,   0.000000,   931.685059,   0.536501,   27.665697,   50.023975,   123.505386,   823.047424,   -296.308472,   0.341343,   924.340820,   924.071716
-0.173180,   0.357510,   0.393115,   0.000000,   923.891602,   0.536499,   27.665697,   49.309357,   124.919907,   822.285889,   -284.921204,   0.346027,   912.457947,   911.787415
-0.159110,   0.334306,   0.367388,   0.000000,   914.693115,   0.536501,   27.665697,   48.594734,   125.620644,   819.007324,   -274.778168,   0.349824,   900.099182,   898.978088
-0.146165,   0.310756,   0.341387,   0.000000,   903.872375,   0.536501,   27.665697,   47.880116,   125.246208,   813.308777,   -265.546936,   0.352692,   887.039734,   885.512268
-0.133997,   0.287298,   0.315532,   0.000000,   891.537781,   0.536499,   27.665697,   47.165497,   123.641251,   805.487183,   -257.056305,   0.354623,   873.349365,   871.526428
-0.123578,   0.264212,   0.290307,   0.000000,   877.544250,   0.536499,   27.665697,   46.450878,   121.076248,   793.959900,   -251.453583,   0.354908,   859.411865,   857.568970
-0.114785,   0.241822,   0.266215,   0.000000,   862.317993,   0.536501,   27.665697,   45.736256,   117.417976,   779.937134,   -247.720657,   0.353842,   845.344238,   843.708191
-0.107244,   0.219930,   0.243550,   0.000000,   846.166138,   0.536501,   27.665697,   45.021637,   112.796280,   763.967651,   -245.523712,   0.351568,   831.289673,   830.021301
-0.100761,   0.198101,   0.222293,   0.000000,   828.882385,   0.536501,   27.665697,   44.307014,   106.348473,   746.538818,   -243.918076,   0.347914,   817.144470,   816.350647
-0.095828,   0.178428,   0.204188,   0.000000,   812.255920,   0.536499,   27.665697,   43.592396,   99.354340,   729.026428,   -243.586609,   0.343307,   804.314758,   803.950928
-0.093652,   0.162792,   0.190652,   0.000000,   797.198547,   0.536501,   27.665697,   42.877777,   91.862282,   710.904907,   -246.710449,   0.336832,   794.428894,   794.384888
-0.094887,   0.152013,   0.182007,   -8.468989,   783.947449,   0.536499,   27.665697,   42.163158,   83.126350,   692.352112,   -253.361298,   0.327947,   788.216064,   788.113647
-0.099600,   0.146860,   0.178668,   -26.492119,   773.095276,   0.536501,   27.665697,   41.448536,   74.299492,   672.303650,   -265.391693,   0.316354,   786.675964,   785.671265
-0.106976,   0.146044,   0.179255,   -50.055954,   762.547119,   0.536499,   27.665697,   40.733917,   63.447845,   649.043335,   -281.692078,   0.301099,   788.767273,   785.181763
-0.116679,   0.149629,   0.184327,   -84.036858,   750.186096,   0.536501,   27.665697,   40.019299,   50.215645,   615.933594,   -306.549805,   0.279118,   795.540466,   785.461304
-0.128364,   0.157168,   0.194056,   -142.873688,   727.052063,   0.536501,   27.665697,   39.304676,   29.526731,   554.651611,   -346.776093,   0.240992,   808.018677,   778.835754
-0.141205,   0.167953,   0.208014,   -218.571167,   693.947083,   0.536499,   27.665697,   38.590057,   9.329822,   466.046082,   -394.999939,   0.192016,   825.234985,   755.889832
-0.154224,   0.180199,   0.224046,   -277.254761,   668.494324,   0.536501,   27.665697,   37.875439,   -0.132800,   391.372406,   -430.454712,   0.154870,   842.079651,   728.232300
-0.166269,   0.191923,   0.239496,   -310.710022,   656.830139,   0.536499,   27.665697,   37.160820,   -2.378003,   348.498108,   -450.838074,   0.134845,   855.599304,   710.939331
-0.176537,   0.201737,   0.252576,   -331.579956,   651.164124,   0.536501,   27.665697,   36.446198,   -2.165152,   321.749298,   -463.914154,   0.123018,   865.952087,   700.102722
-0.184567,   0.209028,   0.262498,   -348.101074,   645.804993,   0.536499,   27.665697,   35.731579,   -2.345406,   300.049316,   -473.393768,   0.113603,   873.523804,   689.327393
-0.190412,   0.213898,   0.269372,   -361.543640,   640.225159,   0.536501,   27.665697,   35.016960,   -3.610291,   282.291840,   -480.052277,   0.105720,   878.675964,   678.185303
-0.194537,   0.216949,   0.273924,   -371.572968,   635.392761,   0.536501,   27.665697,   34.302338,   -5.969291,   269.789093,   -484.235809,   0.099708,   881.978027,   668.428162
-0.197585,   0.218912,   0.277068,   -378.683807,   631.694458,   0.536501,   27.665697,   33.587719,   -9.187740,   262.198395,   -486.624542,   0.095392,   884.110718,   660.806458
-0.200042,   0.220323,   0.279476,   -383.991302,   628.814758,   0.536498,   27.665697,   32.873100,   -12.889744,   257.713165,   -487.993378,   0.092148,   885.616577,   654.751282
-0.202203,   0.221467,   0.281523,   -388.314301,   626.418274,   0.536502,   27.665697,   32.158482,   -16.769464,   254.873444,   -488.848724,   0.089498,   886.811707,   649.609680
-0.204173,   0.222465,   0.283359,   -392.051239,   624.301880,   0.536500,   27.665697,   31.443859,   -20.826223,   253.076843,   -489.374786,   0.087199,   887.814880,   644.996216
-0.206034,   0.223387,   0.285079,   -395.326385,   622.445557,   0.536500,   27.665697,   30.729240,   -24.945547,   252.064713,   -489.674652,   0.085188,   888.701660,   640.863953
-0.207842,   0.224281,   0.286752,   -398.306946,   620.763245,   0.536501,   27.665697,   30.014620,   -29.136885,   251.593170,   -489.820038,   0.083362,   889.522156,   637.039856
-0.209637,   0.225181,   0.288425,   -401.037598,   619.255249,   0.536499,   27.665697,   29.299999,   -33.354332,   251.571976,   -489.850616,   0.081701,   890.310547,   633.519043
-0.211442,   0.226105,   0.290123,   -403.573730,   617.894714,   0.536501,   27.665697,   28.585381,   -37.603531,   251.924484,   -489.788544,   0.080172,   891.084534,   630.249451
-0.213273,   0.227062,   0.291863,   -405.944183,   616.669617,   0.536500,   27.665697,   27.870760,   -41.871849,   252.597244,   -489.649597,   0.078759,   891.855042,   627.209900
-0.215134,   0.228050,   0.293644,   -408.175140,   615.559326,   0.536501,   27.665697,   27.156141,   -46.168781,   253.552994,   -489.438232,   0.077444,   892.623230,   624.366150
-0.217036,   0.229071,   0.295475,   -410.277802,   614.559631,   0.536499,   27.665697,   26.441521,   -50.490398,   254.772232,   -489.159088,   0.076219,   893.393311,   621.713379
-0.218982,   0.230116,   0.297349,   -412.303986,   613.622498,   0.536501,   27.665697,   25.726900,   -54.866364,   256.184875,   -488.818024,   0.075049,   894.162292,   619.158997
-0.220950,   0.231167,   0.299242,   -414.254669,   612.727783,   0.536500,   27.665697,   25.012281,   -59.333401,   257.806519,   -488.394104,   0.073926,   894.912048,   616.677429
-0.222949,   0.232205,   0.301147,   -416.158020,   611.847046,   0.536500,   27.665697,   24.297661,   -63.894798,   259.583801,   -487.892395,   0.072830,   895.639099,   614.213074
-0.224939,   0.233187,   0.303007,   -417.987762,   610.963135,   0.536500,   27.665697,   23.583042,   -68.584862,   261.560211,   -487.274078,   0.071767,   896.306152,   611.759949
-0.226887,   0.234067,   0.304772,   -419.768402,   610.019165,   0.536501,   27.665697,   22.868422,   -73.458290,   263.709045,   -486.513245,   0.070708,   896.881042,   609.220703
-0.228754,   0.234786,   0.306378,   -421.500580,   608.969788,   0.536499,   27.665697,   22.153801,   -78.561493,   266.030701,   -485.573212,   0.069640,   897.322754,   606.528442
-0.230478,   0.235261,   0.307730,   -423.144592,   607.781616,   0.536501,   27.665697,   21.439182,   -83.953949,   268.590942,   -484.386444,   0.068569,   897.568542,   603.659302
-0.231949,   0.235377,   0.308687,   -424.700531,   606.357483,   0.536500,   27.665697,   20.724562,   -89.720657,   271.377625,   -482.879059,   0.067466,   897.530151,   600.468323
-0.233106,   0.235031,   0.309135,   -426.105194,   604.690552,   0.536501,   27.665697,   20.009941,   -95.768341,   274.353699,   -481.027435,   0.066353,   897.149963,   596.986145
-0.233859,   0.234095,   0.308936,   -427.610016,   602.443359,   0.536499,   27.665697,   19.295322,   -102.499588,   277.332947,   -478.731995,   0.065019,   896.325439,   592.517700
-0.234101,   0.232319,   0.307851,   -429.125854,   599.507446,   0.536501,   27.665697,   18.580702,   -110.093941,   280.475525,   -475.799835,   0.063465,   894.886780,   586.935120
-0.233444,   0.229519,   0.305550,   -430.389954,   595.905579,   0.536500,   27.665697,   17.866083,   -118.344749,   283.860382,   -472.099976,   0.061807,   892.642578,   580.443359
-0.231766,   0.225147,   0.301575,   -432.090881,   590.688843,   0.536500,   27.665697,   17.151463,   -127.957451,   286.555420,   -467.508667,   0.059447,   889.295837,   570.975586
-0.228227,   0.218762,   0.295083,   -433.885742,   583.585999,   0.536500,   27.665697,   16.436844,   -138.713577,   288.413849,   -461.738800,   0.056427,   884.329712,   558.201965
-0.223286,   0.209996,   0.286272,   -437.124451,   573.450134,   0.536500,   27.665697,   15.722223,   -151.226089,   287.551788,   -455.174408,   0.051766,   877.833618,   538.678101
-0.215760,   0.198105,   0.273912,   -441.656677,   559.425171,   0.536501,   27.665697,   15.007604,   -165.472153,   283.240662,   -447.443207,   0.045176,   868.959717,   509.899078
-0.206017,   0.182992,   0.258390,   -448.895142,   540.306885,   0.536500,   27.665697,   14.292984,   -181.370377,   272.782135,   -439.393372,   0.035518,   857.892456,   464.983429
-0.192766,   0.163030,   0.238538,   -459.278290,   514.092773,   0.536501,   27.665697,   13.578364,   -200.083862,   254.898315,   -430.244812,   0.021664,   843.409485,   387.986908
-0.175679,   0.138728,   0.215441,   -472.465393,   481.049255,   0.536500,   27.665697,   12.863744,   -220.473419,   229.057266,   -420.449860,   0.003465,   825.779053,   206.298004
-0.156164,   0.110864,   0.192013,   -491.514069,   439.844482,   0.536500,   27.665697,   12.149125,   -242.070221,   190.400620,   -412.431122,   -0.021342,   806.993835,   -369.394928
-0.138276,   0.082642,   0.172735,   -516.573425,   393.662628,   0.536500,   27.665697,   11.434505,   -263.806213,   140.895447,   -407.659851,   -0.051817,   790.679443,   -485.351685
-0.133105,   0.063527,   0.165230,   -553.792908,   345.264313,   0.536500,   27.665697,   10.719885,   -282.353790,   73.825172,   -412.747040,   -0.088484,   785.556458,   -573.363037
-0.157983,   0.066125,   0.181493,   -671.480652,   218.398361,   0.536500,   27.665697,   10.005265,   -331.405060,   -121.677254,   -432.405762,   -0.188017,   803.264832,   -731.868164
-0.218131,   0.093009,   0.242275,   -856.604492,   0.000000,   0.536500,   27.665697,   9.290645,   -314.832825,   -555.801025,   -403.691437,   -0.341555,   849.676636,   -849.416016
-0.301036,   0.137324,   0.332594,   -931.569214,   0.000000,   0.536500,   27.665697,   8.576026,   -266.143036,   -744.922546,   -352.419586,   -0.376782,   894.474426,   -886.474365
-0.185360,   0.380711,   0.420932,   0.000000,   933.904663,   0.536478,   28.595657,   50.404324,   144.766357,   798.380615,   -327.027893,   0.338294,   929.317993,   929.214600
-0.172072,   0.361288,   0.399001,   0.000000,   928.241882,   0.536478,   28.595657,   49.676586,   147.008469,   799.752258,   -316.828644,   0.343357,   919.122375,   918.702454
-0.159306,   0.341032,   0.376289,   0.000000,   921.626831,   0.536478,   28.595657,   48.948853,   149.132050,   800.020874,   -306.496307,   0.348373,   908.176758,   907.237488
-0.147243,   0.320243,   0.353135,   0.000000,   913.508789,   0.536478,   28.595657,   48.221115,   150.292328,   798.004517,   -296.908661,   0.352545,   896.621033,   895.100647
-0.135790,   0.298666,   0.329122,   0.000000,   903.836243,   0.536477,   28.595657,   47.493382,   150.314255,   794.576172,   -286.931854,   0.356284,   884.024414,   881.875854
-0.125447,   0.276994,   0.305138,   0.000000,   892.264221,   0.536478,   28.595657,   46.765648,   149.238052,   787.228577,   -279.363983,   0.358386,   871.004639,   868.475708
-0.116298,   0.255902,   0.281965,   0.000000,   879.370239,   0.536478,   28.595657,   46.037910,   147.086792,   777.124939,   -273.628479,   0.359128,   857.828979,   855.186035
-0.108806,   0.235405,   0.259854,   0.000000,   865.275208,   0.536478,   28.595657,   45.310177,   143.934937,   764.236511,   -269.969055,   0.358404,   844.644470,   842.188416
-0.102352,   0.215059,   0.238756,   0.000000,   850.217957,   0.536478,   28.595657,   44.582439,   139.429031,   750.177368,   -266.660339,   0.356746,   831.223938,   829.120361
-0.096366,   0.194388,   0.218364,   0.000000,   833.838257,   0.536478,   28.595657,   43.854706,   132.979935,   735.057068,   -263.118988,   0.354037,   817.275696,   815.663452
-0.091946,   0.175520,   0.200777,   0.000000,   817.732971,   0.536478,   28.595657,   43.126968,   125.799744,   719.027161,   -261.338501,   0.350030,   804.528198,   803.500732
-0.090130,   0.160258,   0.187098,   0.000000,   802.548218,   0.536477,   28.595657,   42.399235,   117.278656,   702.291077,   -262.112854,   0.343992,   794.174194,   793.763672
-0.091425,   0.149643,   0.178408,   0.000000,   789.584351,   0.536478,   28.595657,   41.671501,   109.041298,   684.051575,   -267.991760,   0.335558,   787.835938,   787.818359
-0.095469,   0.143479,   0.173669,   -14.228131,   777.685669,   0.536478,   28.595657,   40.943764,   99.299515,   664.158020,   -277.516815,   0.324229,   784.896484,   784.606201
-0.102307,   0.141931,   0.173337,   -37.521458,   766.657043,   0.536478,   28.595657,   40.216030,   87.895668,   641.239929,   -291.767548,   0.309183,   786.089661,   784.071045
-0.111351,   0.144404,   0.177102,   -70.943939,   753.792175,   0.536478,   28.595657,   39.488293,   73.913116,   608.935120,   -313.823639,   0.287520,   791.651855,   784.452148
-0.122116,   0.150718,   0.185334,   -128.720627,   730.845947,   0.536478,   28.595657,   38.760559,   53.692463,   548.432861,   -351.456482,   0.249954,   802.981750,   779.261658
-0.133942,   0.160236,   0.197712,   -207.215881,   695.844482,   0.536478,   28.595657,   38.032822,   32.685360,   455.943237,   -398.864258,   0.198788,   819.346069,   756.950500
-0.146009,   0.171248,   0.212248,   -270.183746,   666.881470,   0.536477,   28.595657,   37.305088,   20.760624,   375.937103,   -433.572632,   0.158285,   835.410522,   726.895813
-0.157227,   0.181931,   0.226433,   -305.754639,   653.014832,   0.536478,   28.595657,   36.577354,   16.549799,   330.710419,   -452.918884,   0.136457,   848.278625,   707.326111
-0.166583,   0.190612,   0.238137,   -328.250275,   645.314087,   0.536478,   28.595657,   35.849617,   14.836329,   302.227509,   -465.089752,   0.123193,   857.906189,   693.894348
-0.173622,   0.196687,   0.246584,   -345.960358,   638.082886,   0.536478,   28.595657,   35.121883,   12.691504,   279.431000,   -473.600861,   0.112619,   864.632690,   680.493774
-0.178557,   0.200460,   0.252127,   -359.722992,   631.316772,   0.536478,   28.595657,   34.394146,   9.422556,   262.171204,   -479.134094,   0.104186,   868.942261,   667.633911
-0.182042,   0.202730,   0.255743,   -369.484375,   626.005554,   0.536478,   28.595657,   33.666412,   5.242651,   251.278549,   -482.303467,   0.098103,   871.608215,   657.220581
-0.184734,   0.204226,   0.258346,   -376.448334,   622.018188,   0.536477,   28.595657,   32.938675,   0.453949,   245.115891,   -484.013397,   0.093725,   873.371460,   649.165222
-0.187020,   0.205368,   0.260464,   -381.973969,   618.744995,   0.536479,   28.595657,   32.210941,   -4.593795,   241.364822,   -485.011047,   0.090230,   874.696533,   642.389648
-0.189093,   0.206327,   0.262331,   -386.633820,   615.939331,   0.536478,   28.595657,   31.483206,   -9.666611,   238.972122,   -485.626312,   0.087276,   875.791016,   636.437622
-0.191017,   0.207175,   0.264036,   -390.766266,   613.392273,   0.536479,   28.595657,   30.755470,   -14.907502,   237.533539,   -485.954712,   0.084643,   876.721985,   630.935425
-0.192873,   0.207980,   0.265673,   -394.474884,   611.106323,   0.536478,   28.595657,   30.027735,   -20.138020,   236.769440,   -486.104950,   0.082285,   877.569031,   625.875061
-0.194701,   0.208775,   0.267289,   -397.908112,   608.993958,   0.536478,   28.595657,   29.299999,   -25.400940,   236.486771,   -486.124115,   0.080105,   878.366760,   621.088318
-0.196527,   0.209582,   0.268914,   -401.090454,   607.061218,   0.536478,   28.595657,   28.572264,   -30.660849,   236.631592,   -486.036133,   0.078096,   879.137817,   616.590698
-0.198372,   0.210412,   0.270569,   -404.101868,   605.255981,   0.536478,   28.595657,   27.844528,   -35.941319,   237.095444,   -485.863708,   0.076204,   879.896667,   612.280396
-0.200242,   0.211262,   0.272255,   -406.953186,   603.572021,   0.536478,   28.595657,   27.116795,   -41.235180,   237.853989,   -485.610535,   0.074422,   880.644958,   608.154236
-0.202132,   0.212127,   0.273966,   -409.670898,   601.981689,   0.536478,   28.595657,   26.389059,   -46.562920,   238.873734,   -485.274902,   0.072731,   881.377686,   604.167358
-0.204061,   0.213006,   0.275709,   -412.271881,   600.481750,   0.536478,   28.595657,   25.661324,   -51.883823,   240.093689,   -484.876038,   0.071122,   882.104431,   600.312805
-0.206005,   0.213872,   0.277453,   -414.819031,   598.989502,   0.536478,   28.595657,   24.933588,   -57.304688,   241.475143,   -484.390930,   0.069540,   882.799805,   596.434814
-0.207955,   0.214700,   0.279175,   -417.310913,   597.492371,   0.536478,   28.595657,   24.205853,   -62.813076,   242.994537,   -483.814911,   0.067984,   883.450989,   592.517029
-0.209891,   0.215454,   0.280838,   -419.765503,   595.945862,   0.536478,   28.595657,   23.478117,   -68.460747,   244.641098,   -483.124420,   0.066431,   884.031677,   588.480530
-0.211776,   0.216084,   0.282384,   -422.163849,   594.322388,   0.536478,   28.595657,   22.750381,   -74.288994,   246.447510,   -482.279053,   0.064880,   884.501465,   584.295471
-0.213579,   0.216538,   0.283762,   -424.546173,   592.546753,   0.536478,   28.595657,   22.022648,   -80.373985,   248.374573,   -481.248993,   0.063290,   884.824585,   579.813965
-0.215252,   0.216741,   0.284889,   -426.914917,   590.555237,   0.536478,   28.595657,   21.294912,   -86.782990,   250.423325,   -479.983704,   0.061639,   884.945557,   574.926147
-0.216770,   0.216610,   0.285699,   -429.283936,   588.271667,   0.536478,   28.595657,   20.567177,   -93.660522,   252.648239,   -478.406097,   0.059895,   884.807190,   569.487488
-0.217917,   0.216100,   0.286046,   -431.330200,   585.907715,   0.536478,   28.595657,   19.839441,   -100.642174,   255.219696,   -476.480682,   0.058265,   884.337830,   564.082703
-0.218644,   0.214861,   0.285639,   -433.588684,   582.742981,   0.536478,   28.595657,   19.111706,   -108.496147,   257.650421,   -474.042908,   0.056285,   883.322876,   557.108154
-0.218824,   0.212758,   0.284319,   -435.982574,   578.745972,   0.536478,   28.595657,   18.383970,   -117.068436,   259.831818,   -471.067993,   0.053974,   881.675049,   548.492798
-0.218009,   0.209503,   0.281654,   -438.229767,   573.841614,   0.536478,   28.595657,   17.656237,   -126.375870,   261.987732,   -467.296021,   0.051421,   879.098450,   538.271973
-0.215998,   0.204612,   0.277163,   -440.569458,   567.430847,   0.536478,   28.595657,   16.928501,   -136.810379,   263.671753,   -462.514496,   0.048314,   875.255310,   525.064636
-0.212748,   0.198033,   0.270897,   -443.584412,   558.962158,   0.536479,   28.595657,   16.200766,   -148.635666,   264.013397,   -456.842529,   0.044199,   870.145264,   506.930023
-0.207831,   0.189128,   0.262144,   -447.623688,   547.575378,   0.536478,   28.595657,   15.473030,   -161.782959,   261.734619,   -450.292694,   0.038592,   863.315430,   480.941071
-0.200761,   0.177181,   0.250432,   -453.385590,   532.134827,   0.536478,   28.595657,   14.745295,   -176.425186,   255.174408,   -442.993286,   0.030723,   854.393433,   441.374542
-0.191430,   0.161873,   0.235929,   -462.014923,   511.278290,   0.536478,   28.595657,   14.017559,   -193.434540,   242.697891,   -435.054077,   0.019473,   843.256470,   374.409454
-0.178180,   0.141824,   0.217445,   -473.694458,   483.172119,   0.536478,   28.595657,   13.289824,   -213.325989,   222.803650,   -425.847565,   0.003812,   828.684326,   213.722519
-0.161899,   0.117617,   0.197385,   -489.952789,   447.468536,   0.536478,   28.595657,   12.562089,   -235.684647,   193.200378,   -416.778229,   -0.017438,   812.108521,   -347.576447
-0.145005,   0.091546,   0.179164,   -512.000000,   405.431519,   0.536478,   28.595657,   11.834353,   -259.078613,   152.510117,   -409.961975,   -0.044610,   796.303711,   -465.327850
-0.134490,   0.068613,   0.168133,   -551.887146,   349.097595,   0.536478,   28.595657,   11.106618,   -287.670685,   84.881142,   -410.176361,   -0.085909,   786.836060,   -568.932129
-0.143241,   0.059587,   0.172111,   -599.315613,   296.610077,   0.536478,   28.595657,   10.378882,   -317.491180,   14.785673,   -416.015289,   -0.127640,   790.518677,   -646.235840
-0.185648,   0.074080,   0.208677,   -787.291992,   72.448845,   0.536478,   28.595657,   9.651148,   -364.763855,   -350.079285,   -429.807709,   -0.288510,   825.903076,   -818.708130
-0.256712,   0.106510,   0.285101,   -911.875977,   0.000000,   0.536478,   28.595657,   8.923412,   -318.512787,   -681.780640,   -369.499786,   -0.382797,   871.039429,   -860.856384
-0.347409,   0.156160,   0.385233,   -962.257446,   0.000000,   0.536478,   28.595657,   8.195677,   -266.576538,   -792.240479,   -343.915039,   -0.384551,   917.795166,   -906.261780
-0.173660,   0.362565,   0.402470,   0.000000,   927.139160,   0.536039,   29.507784,   50.824341,   167.533844,   763.088989,   -353.006226,   0.335214,   925.402283,   925.387512
-0.162675,   0.347279,   0.385004,   0.000000,   922.831970,   0.536039,   29.507784,   50.082123,   169.269485,   765.513733,   -344.309601,   0.339829,   916.914673,   916.739502
-0.151846,   0.330892,   0.366435,   0.000000,   917.861877,   0.536040,   29.507784,   49.339905,   171.037109,   767.767273,   -334.804993,   0.344804,   907.571899,   907.028015
-0.141402,   0.313566,   0.346945,   0.000000,   911.855347,   0.536039,   29.507784,   48.597683,   172.584808,   768.793579,   -325.209686,   0.349646,   897.458069,   896.364441
-0.131457,   0.295474,   0.326648,   0.000000,   904.570007,   0.536039,   29.507784,   47.855469,   173.168503,   768.763611,   -315.165009,   0.354185,   886.479614,   884.705505
-0.121868,   0.276452,   0.305391,   0.000000,   895.561035,   0.536040,   29.507784,   47.113247,   173.126633,   765.964294,   -305.982239,   0.357909,   874.608887,   872.166626
-0.113248,   0.257284,   0.284059,   0.000000,   885.035339,   0.536039,   29.507784,   46.371029,   172.247192,   760.380981,   -298.080750,   0.360551,   862.224609,   859.261780
-0.105761,   0.238905,   0.263786,   0.000000,   873.531128,   0.536039,   29.507784,   45.628811,   170.633728,   752.172119,   -292.066681,   0.361899,   849.965698,   846.743164
-0.099585,   0.221361,   0.244799,   0.000000,   861.420288,   0.536040,   29.507784,   44.886593,   168.185165,   742.444763,   -287.189850,   0.362267,   837.899963,   834.639465
-0.094547,   0.203217,   0.225973,   0.000000,   847.357361,   0.536039,   29.507784,   44.144371,   163.189789,   730.329529,   -282.960480,   0.360911,   825.245239,   822.332947
-0.089398,   0.184229,   0.207113,   0.000000,   831.901489,   0.536039,   29.507784,   43.402153,   156.654236,   717.422485,   -278.031677,   0.358977,   811.636108,   809.165100
-0.085668,   0.166684,   0.190467,   0.000000,   816.145020,   0.536040,   29.507784,   42.659935,   148.662811,   703.192322,   -274.579529,   0.355433,   798.888794,   797.090149
-0.084337,   0.152665,   0.177971,   0.000000,   801.882507,   0.536039,   29.507784,   41.917717,   140.753143,   687.393494,   -275.121918,   0.349837,   789.078369,   788.094055
-0.085762,   0.142504,   0.169277,   0.000000,   788.916382,   0.536039,   29.507784,   41.175499,   131.998688,   670.328918,   -279.109619,   0.341868,   782.296936,   782.038208
-0.089624,   0.136352,   0.164350,   -3.865494,   776.908936,   0.536040,   29.507784,   40.433281,   121.418289,   651.625183,   -286.569977,   0.330849,   778.848938,   778.827332
-0.095942,   0.134371,   0.163348,   -27.012922,   765.482788,   0.536039,   29.507784,   39.691059,   109.475555,   628.994324,   -299.228058,   0.315853,   779.340454,   778.286133
-0.104420,   0.136274,   0.166407,   -60.563454,   752.319031,   0.536039,   29.507784,   38.948841,   95.063950,   596.691650,   -319.823242,   0.293980,   784.356384,   779.069702
-0.114501,   0.141908,   0.173803,   -119.551285,   728.713684,   0.536040,   29.507784,   38.206623,   74.276772,   534.885620,   -356.157593,   0.255331,   795.257690,   774.653076
-0.125665,   0.150579,   0.185213,   -201.698334,   691.436462,   0.536039,   29.507784,   37.464405,   52.202789,   437.535339,   -402.867401,   0.201212,   811.312622,   751.734619
-0.136963,   0.160797,   0.198772,   -267.028503,   660.425964,   0.536039,   29.507784,   36.722187,   38.987186,   354.410278,   -436.084869,   0.158577,   826.933594,   719.890442
-0.147260,   0.170457,   0.211690,   -303.204498,   645.359436,   0.536040,   29.507784,   35.979969,   33.481796,   308.673126,   -453.884125,   0.135921,   839.105225,   698.867310
-0.155515,   0.177865,   0.221821,   -326.707916,   635.901306,   0.536039,   29.507784,   35.237751,   30.080618,   279.112793,   -464.919220,   0.121559,   847.857605,   683.006958
-0.161400,   0.182604,   0.228621,   -344.887970,   627.150696,   0.536039,   29.507784,   34.495529,   26.048157,   256.214569,   -472.197693,   0.110230,   853.558716,   667.362305
-0.165416,   0.185325,   0.232870,   -358.185333,   619.791809,   0.536039,   29.507784,   33.753311,   20.862772,   240.743713,   -476.469238,   0.101754,   856.994141,   653.627991
-0.168352,   0.186961,   0.235716,   -367.302582,   614.417847,   0.536040,   29.507784,   33.011093,   15.043650,   232.071594,   -478.715424,   0.095879,   859.126099,   643.161133
-0.170778,   0.188128,   0.237935,   -374.144897,   610.255371,   0.536039,   29.507784,   32.268875,   8.913078,   227.197403,   -479.946838,   0.091446,   860.650879,   634.758850
-0.172916,   0.189079,   0.239838,   -379.898285,   606.658325,   0.536040,   29.507784,   31.526657,   2.711337,   224.048737,   -480.703583,   0.087700,   861.873230,   627.290527
-0.174880,   0.189846,   0.241509,   -384.889313,   603.445007,   0.536040,   29.507784,   30.784437,   -3.559765,   222.115433,   -481.112091,   0.084430,   862.870300,   620.467102
-0.176756,   0.190560,   0.243095,   -389.418915,   600.490295,   0.536039,   29.507784,   30.042219,   -9.911484,   220.982849,   -481.302399,   0.081455,   863.757996,   614.032043
-0.178581,   0.191244,   0.244631,   -393.569855,   597.768188,   0.536040,   29.507784,   29.299999,   -16.212013,   220.410324,   -481.342133,   0.078728,   864.573669,   607.946472
-0.180382,   0.191912,   0.246144,   -397.461517,   595.198853,   0.536040,   29.507784,   28.557781,   -22.538071,   220.275375,   -481.252594,   0.076170,   865.335754,   602.061951
-0.182184,   0.192583,   0.247661,   -401.119263,   592.786072,   0.536039,   29.507784,   27.815563,   -28.844412,   220.511215,   -481.058624,   0.073769,   866.065735,   596.390076
-0.184001,   0.193260,   0.249192,   -404.642639,   590.454712,   0.536040,   29.507784,   27.073343,   -35.184444,   220.996536,   -480.778046,   0.071457,   866.773132,   590.777527
-0.185844,   0.193937,   0.250741,   -408.023895,   588.212402,   0.536040,   29.507784,   26.331125,   -41.559444,   221.747955,   -480.405029,   0.069240,   867.457214,   585.249329
-0.187671,   0.194626,   0.252290,   -411.224213,   586.090759,   0.536039,   29.507784,   25.588907,   -47.857071,   222.723618,   -479.953979,   0.067144,   868.114319,   579.890442
-0.189504,   0.195248,   0.253796,   -414.390442,   583.919922,   0.536040,   29.507784,   24.846687,   -54.284489,   223.813950,   -479.396698,   0.065050,   868.707520,   574.352234
-0.191344,   0.195830,   0.255278,   -417.534241,   581.705627,   0.536040,   29.507784,   24.104469,   -60.827820,   224.999176,   -478.743988,   0.062955,   869.251587,   568.628052
-0.193159,   0.196325,   0.256686,   -420.633057,   579.429321,   0.536039,   29.507784,   23.362249,   -67.489006,   226.285263,   -477.970032,   0.060862,   869.711243,   562.699036
-0.194904,   0.196665,   0.257946,   -423.716553,   577.005127,   0.536040,   29.507784,   22.620031,   -74.358871,   227.647446,   -477.031464,   0.058729,   870.032898,   556.397400
-0.196538,   0.196799,   0.259001,   -426.768494,   574.404236,   0.536039,   29.507784,   21.877813,   -81.453003,   229.088776,   -475.896698,   0.056554,   870.177673,   549.672241
-0.197972,   0.196604,   0.259711,   -429.841766,   571.469421,   0.536040,   29.507784,   21.135595,   -88.904610,   230.532257,   -474.495575,   0.054261,   870.047546,   542.197388
-0.199107,   0.195931,   0.259920,   -432.976959,   568.054871,   0.536040,   29.507784,   20.393375,   -96.730621,   231.808548,   -472.791382,   0.051781,   869.545898,   533.643311
-0.199835,   0.194787,   0.259574,   -436.004486,   564.253357,   0.536039,   29.507784,   19.651157,   -104.943520,   233.192413,   -470.685638,   0.049216,   868.618896,   524.258362
-0.200045,   0.192824,   0.258377,   -438.746552,   559.998596,   0.536040,   29.507784,   18.908939,   -113.538101,   234.790161,   -468.016907,   0.046614,   867.060791,   514.059082
-0.199671,   0.190186,   0.256377,   -441.880402,   554.667419,   0.536040,   29.507784,   18.166719,   -123.124603,   235.911636,   -464.811951,   0.043469,   864.876282,   501.106293
-0.199000,   0.186484,   0.253555,   -445.743988,   547.823242,   0.536039,   29.507784,   17.424501,   -134.434616,   236.513855,   -460.861420,   0.039475,   861.966858,   483.791473
-0.196138,   0.180934,   0.248189,   -448.090240,   540.361572,   0.536040,   29.507784,   16.682283,   -145.373520,   237.644836,   -455.613281,   0.035878,   857.266724,   466.197357
-0.193259,   0.174166,   0.242144,   -453.416107,   529.315857,   0.536040,   29.507784,   15.940063,   -159.165497,   235.065247,   -450.095612,   0.029698,   851.916504,   435.169464
-0.187753,   0.164394,   0.232850,   -458.406342,   515.842346,   0.536039,   29.507784,   15.197845,   -173.054108,   230.490143,   -443.371338,   0.022678,   844.212708,   394.308746
-0.181046,   0.152443,   0.221998,   -466.230133,   497.979980,   0.536039,   29.507784,   14.455626,   -188.953018,   220.702866,   -436.429596,   0.012672,   835.181335,   321.411682
-0.170795,   0.135956,   0.207252,   -476.177490,   473.756531,   0.536039,   29.507784,   13.713408,   -208.099411,   205.678452,   -427.540222,   -0.000981,   822.667908,   -134.950348
-0.157461,   0.116196,   0.190625,   -488.121704,   444.589508,   0.536040,   29.507784,   12.971189,   -228.377151,   184.844940,   -418.090210,   -0.017958,   808.044800,   -349.234741
-0.142604,   0.093399,   0.174282,   -508.121216,   405.681488,   0.536040,   29.507784,   12.228970,   -252.393051,   149.953323,   -410.229431,   -0.043058,   793.032166,   -458.043060
-0.129986,   0.070414,   0.161638,   -537.305542,   358.179199,   0.536039,   29.507784,   11.486752,   -280.317932,   101.191620,   -405.075104,   -0.076484,   780.667175,   -543.873291
-0.129025,   0.055763,   0.158826,   -579.670837,   305.216736,   0.536040,   29.507784,   10.744533,   -306.637146,   32.183018,   -408.725739,   -0.117510,   778.524719,   -620.741089
-0.153090,   0.058626,   0.176019,   -685.939880,   185.312332,   0.536039,   29.507784,   10.002314,   -362.681213,   -137.946365,   -420.884399,   -0.209916,   794.963745,   -744.002441
-0.206778,   0.080034,   0.230221,   -868.093750,   0.000000,   0.536039,   29.507784,   9.260096,   -348.416107,   -582.430237,   -385.295929,   -0.370053,   838.480469,   -833.172729
-0.279731,   0.114079,   0.311007,   -941.103088,   0.000000,   0.536039,   29.507784,   8.517877,   -313.781769,   -763.225403,   -334.045624,   -0.407472,   881.047852,   -856.988831
-0.367842,   0.163918,   0.409202,   -971.572998,   0.000000,   0.536039,   29.507784,   7.775658,   -261.051086,   -804.790894,   -344.241699,   -0.382831,   928.036377,   -917.171753
-0.155442,   0.330729,   0.368307,   0.000000,   914.028442,   0.535065,   30.400322,   51.283226,   194.600647,   720.233826,   -373.391510,   0.333774,   913.625671,   913.624878
-0.146828,   0.319113,   0.354869,   0.000000,   910.268311,   0.535064,   30.400322,   50.525185,   194.375702,   723.460876,   -365.696716,   0.337499,   906.507935,   906.436829
-0.138387,   0.306783,   0.340757,   0.000000,   906.191406,   0.535065,   30.400322,   49.767139,   194.364395,   726.771179,   -357.373993,   0.341612,   898.812500,   898.532898
-0.129995,   0.293652,   0.325832,   0.000000,   901.762329,   0.535064,   30.400322,   49.009098,   194.593826,   730.358704,   -348.154083,   0.346271,   890.393799,   889.713928
-0.121948,   0.279624,   0.309967,   0.000000,   896.353271,   0.535064,   30.400322,   48.251057,   194.422256,   733.108337,   -338.506561,   0.350868,   881.178345,   879.936157
-0.114017,   0.264606,   0.293048,   0.000000,   889.871155,   0.535065,   30.400322,   47.493015,   194.333801,   734.439514,   -328.798615,   0.355414,   871.071838,   869.114136
-0.106395,   0.248743,   0.275233,   0.000000,   881.818848,   0.535064,   30.400322,   46.734970,   193.623047,   733.399780,   -319.595642,   0.359266,   860.108215,   857.429504
-0.099505,   0.232588,   0.257164,   0.000000,   872.328918,   0.535064,   30.400322,   45.976933,   192.343994,   729.588440,   -311.546722,   0.362132,   848.615112,   845.344116
-0.093728,   0.216928,   0.239797,   0.000000,   861.820923,   0.535066,   30.400322,   45.218887,   190.323654,   723.252747,   -305.037933,   0.363767,   837.143921,   833.532898
-0.089311,   0.202105,   0.223747,   0.000000,   850.662781,   0.535064,   30.400322,   44.460846,   187.185455,   715.057556,   -299.951660,   0.364065,   826.081299,   822.446533
-0.085115,   0.186378,   0.207389,   0.000000,   838.011108,   0.535064,   30.400322,   43.702801,   182.208603,   705.923889,   -294.318085,   0.363642,   814.108398,   810.626160
-0.080833,   0.169262,   0.190366,   0.000000,   823.193054,   0.535065,   30.400322,   42.944759,   175.111267,   694.801331,   -288.458588,   0.362076,   800.856018,   797.781372
-0.077941,   0.153766,   0.175671,   0.000000,   808.587158,   0.535064,   30.400322,   42.186718,   167.332245,   682.491577,   -284.357880,   0.359131,   788.777649,   786.346924
-0.077252,   0.141508,   0.164739,   0.000000,   795.544495,   0.535064,   30.400322,   41.428677,   159.742661,   668.799622,   -283.874268,   0.354273,   779.569519,   777.995911
-0.078999,   0.132337,   0.156798,   0.000000,   782.733154,   0.535065,   30.400322,   40.670635,   149.365967,   653.635254,   -285.948181,   0.346361,   772.798462,   772.200073
-0.083250,   0.127121,   0.152704,   0.000000,   771.629578,   0.535065,   30.400322,   39.912590,   139.045578,   636.207275,   -292.687500,   0.335684,   769.824341,   769.805115
-0.089282,   0.125340,   0.151807,   -19.419056,   760.377563,   0.535064,   30.400322,   39.154549,   126.517120,   614.441406,   -304.143341,   0.320649,   770.270752,   769.719727
-0.097238,   0.126837,   0.154340,   -54.832249,   746.054871,   0.535065,   30.400322,   38.396507,   110.283783,   580.938843,   -324.000000,   0.297328,   774.927307,   770.544617
-0.106599,   0.131930,   0.161069,   -117.292862,   720.555725,   0.535064,   30.400322,   37.638466,   88.658928,   514.603943,   -360.749603,   0.255903,   785.795288,   765.728455
-0.116934,   0.139922,   0.171656,   -203.080246,   680.699097,   0.535064,   30.400322,   36.880424,   66.671135,   410.947693,   -406.982666,   0.198569,   801.766418,   740.510925
-0.127407,   0.149400,   0.184291,   -268.567657,   648.764893,   0.535065,   30.400322,   36.122379,   52.950321,   327.246887,   -437.681488,   0.155146,   816.860901,   706.776245
-0.136738,   0.158026,   0.195920,   -303.818604,   633.455261,   0.535064,   30.400322,   35.364338,   46.814743,   282.821930,   -453.536926,   0.132661,   828.267395,   684.915588
-0.143729,   0.164012,   0.204282,   -327.476929,   622.594543,   0.535064,   30.400322,   34.606297,   41.866055,   253.251526,   -463.128479,   0.117683,   835.912964,   666.796021
-0.148425,   0.167420,   0.209428,   -345.041534,   613.058044,   0.535065,   30.400322,   33.848255,   36.046547,   231.969940,   -468.926636,   0.106294,   840.490479,   649.801758
-0.151636,   0.169264,   0.212583,   -357.064423,   605.851013,   0.535065,   30.400322,   33.090210,   29.170542,   219.616089,   -471.947205,   0.098358,   843.135986,   636.269165
-0.154168,   0.170455,   0.214882,   -365.500061,   600.618774,   0.535064,   30.400322,   32.332169,   21.987368,   213.131348,   -473.510712,   0.092760,   844.902039,   625.956970
-0.156394,   0.171411,   0.216845,   -372.316864,   596.319885,   0.535064,   30.400322,   31.574127,   14.810714,   209.192307,   -474.466278,   0.088228,   846.307983,   617.134705
-0.158430,   0.172193,   0.218575,   -378.328491,   592.391968,   0.535064,   30.400322,   30.816084,   7.402876,   206.660583,   -475.024872,   0.084199,   847.454651,   608.849792
-0.160323,   0.172858,   0.220141,   -383.580200,   588.906372,   0.535064,   30.400322,   30.058043,   0.128058,   205.198120,   -475.309479,   0.080669,   848.432251,   601.269592
-0.162128,   0.173452,   0.221606,   -388.494019,   585.559509,   0.535065,   30.400322,   29.300001,   -7.203286,   204.268753,   -475.410309,   0.077345,   849.290222,   593.812988
-0.163870,   0.173988,   0.222994,   -393.037048,   582.410583,   0.535064,   30.400322,   28.541958,   -14.457564,   203.831100,   -475.354645,   0.074260,   850.052429,   586.613953
-0.165571,   0.174484,   0.224329,   -397.349609,   579.360291,   0.535064,   30.400322,   27.783916,   -21.742004,   203.752670,   -475.161652,   0.071315,   850.737122,   579.473816
-0.167245,   0.174940,   0.225620,   -401.461548,   576.397278,   0.535065,   30.400322,   27.025873,   -28.995569,   203.931305,   -474.856018,   0.068493,   851.355713,   572.372559
-0.168894,   0.175343,   0.226859,   -405.471680,   573.428345,   0.535064,   30.400322,   26.267830,   -36.311363,   204.268021,   -474.438293,   0.065718,   851.901550,   565.111938
-0.170536,   0.175741,   0.228092,   -409.285248,   570.575623,   0.535064,   30.400322,   25.509789,   -43.594288,   204.884644,   -473.916016,   0.063072,   852.407837,   557.947571
-0.172200,   0.176094,   0.229308,   -413.106873,   567.643127,   0.535064,   30.400322,   24.751747,   -51.067909,   205.604172,   -473.283752,   0.060399,   852.861816,   550.427307
-0.173839,   0.176377,   0.230460,   -416.864685,   564.664795,   0.535065,   30.400322,   23.993704,   -58.599045,   206.399170,   -472.539978,   0.057741,   853.235840,   542.641296
-0.175431,   0.176547,   0.231510,   -420.649963,   561.522034,   0.535064,   30.400322,   23.235661,   -66.326233,   207.198288,   -471.658295,   0.055018,   853.497253,   534.301270
-0.176889,   0.176524,   0.232348,   -424.363617,   558.222595,   0.535064,   30.400322,   22.477619,   -74.158241,   208.017212,   -470.598724,   0.052274,   853.572632,   525.470398
-0.178219,   0.176240,   0.232932,   -428.142181,   554.607910,   0.535064,   30.400322,   21.719578,   -82.222473,   208.688187,   -469.352936,   0.049395,   853.432312,   515.707947
-0.179295,   0.175606,   0.233133,   -431.775574,   550.742493,   0.535065,   30.400322,   20.961535,   -90.574623,   209.541519,   -467.779877,   0.046492,   852.962219,   505.262726
-0.180124,   0.174623,   0.232956,   -435.608093,   546.297058,   0.535064,   30.400322,   20.203493,   -99.565094,   210.254074,   -465.872803,   0.043298,   852.153931,   493.091370
-0.180869,   0.173094,   0.232383,   -439.915894,   540.964844,   0.535064,   30.400322,   19.445450,   -109.560036,   210.608963,   -463.578156,   0.039582,   850.968811,   478.044250
-0.180737,   0.170967,   0.230912,   -443.429962,   535.577332,   0.535064,   30.400322,   18.687408,   -119.280609,   211.427948,   -460.729614,   0.036175,   849.096130,   463.013000
-0.179791,   0.167472,   0.228047,   -447.202179,   528.687439,   0.535065,   30.400322,   17.929365,   -129.983276,   211.468536,   -457.102600,   0.032101,   846.126648,   443.505219
-0.178549,   0.163062,   0.224433,   -452.450439,   519.570251,   0.535064,   30.400322,   17.171324,   -142.594437,   209.714233,   -452.963257,   0.026557,   842.463318,   414.675201
-0.174534,   0.156379,   0.217720,   -455.544403,   509.698364,   0.535065,   30.400322,   16.413282,   -154.800156,   208.954117,   -447.039276,   0.021583,   836.363220,   384.268463
-0.171297,   0.148956,   0.211212,   -462.073883,   496.478546,   0.535064,   30.400322,   15.655239,   -169.025513,   203.430191,   -441.616211,   0.013812,   830.308960,   328.836273
-0.165380,   0.138753,   0.201860,   -468.476166,   480.443268,   0.535064,   30.400322,   14.897197,   -184.118210,   196.085312,   -434.710632,   0.004854,   821.810120,   229.719528
-0.157835,   0.125961,   0.190663,   -476.879883,   460.012360,   0.535064,   30.400322,   14.139154,   -201.433945,   184.566422,   -426.840363,   -0.006929,   811.416321,   -255.381165
-0.146831,   0.109263,   0.176572,   -487.167969,   433.621338,   0.535064,   30.400322,   13.381112,   -221.621857,   168.075211,   -417.129822,   -0.022370,   797.876282,   -370.977356
-0.134340,   0.089839,   0.162611,   -504.838593,   398.200104,   0.535064,   30.400322,   12.623070,   -245.535995,   138.897522,   -408.561432,   -0.045347,   783.869995,   -460.541290
-0.121862,   0.069293,   0.150148,   -525.633362,   359.077148,   0.535064,   30.400322,   11.865027,   -269.628326,   103.072083,   -401.187958,   -0.072037,   770.694336,   -526.664490
-0.115771,   0.052745,   0.143414,   -565.358521,   303.767761,   0.535064,   30.400322,   11.106986,   -297.649933,   36.059200,   -401.253876,   -0.114137,   763.965149,   -603.738770
-0.126287,   0.048040,   0.148958,   -613.299927,   249.147156,   0.535065,   30.400322,   10.348944,   -331.140594,   -33.012192,   -404.640106,   -0.157893,   768.773743,   -668.452637
-0.163020,   0.060246,   0.182114,   -801.712524,   1.219834,   0.535064,   30.400322,   9.590901,   -378.858826,   -421.633881,   -400.896088,   -0.332573,   802.323120,   -802.321045
-0.219826,   0.083632,   0.244447,   -907.580078,   0.000000,   0.535064,   30.400322,   8.832859,   -328.656250,   -733.911194,   -317.082123,   -0.421218,   840.868164,   -807.789429
-0.287280,   0.116477,   0.319925,   -949.377197,   0.000000,   0.535064,   30.400322,   8.074817,   -304.356476,   -795.888611,   -314.647949,   -0.415035,   883.655823,   -853.956482
-0.364614,   0.161689,   0.406726,   -964.767883,   0.000000,   0.535064,   30.400322,   7.316774,   -256.041901,   -786.561890,   -355.386017,   -0.374377,   928.300537,   -920.916016
-0.134362,   0.291886,   0.325762,   0.000000,   895.884460,   0.533428,   31.271563,   51.780094,   224.098572,   672.291016,   -387.565369,   0.333615,   895.632019,   895.631653
-0.127861,   0.283701,   0.316169,   0.000000,   893.228943,   0.533425,   31.271563,   51.004917,   221.915436,   678.165771,   -379.966827,   0.337176,   889.822571,   889.763184
-0.121601,   0.274983,   0.306089,   0.000000,   890.043091,   0.533425,   31.271563,   50.229740,   219.841827,   683.124146,   -372.394073,   0.340619,   883.652527,   883.439941
-0.115400,   0.265499,   0.295207,   0.000000,   886.364868,   0.533425,   31.271563,   49.454567,   217.638611,   688.118591,   -364.105072,   0.344330,   876.829590,   876.346863
-0.109247,   0.255116,   0.283376,   0.000000,   881.971802,   0.533425,   31.271563,   48.679390,   215.567642,   692.384277,   -355.446106,   0.348165,   869.273010,   868.398804
-0.103102,   0.243814,   0.270545,   0.000000,   876.903564,   0.533425,   31.271563,   47.904217,   213.849045,   696.064941,   -346.274231,   0.352322,   860.873108,   859.447388
-0.097038,   0.231565,   0.256681,   0.000000,   870.733948,   0.533425,   31.271563,   47.129040,   212.103806,   698.345154,   -336.957611,   0.356380,   851.571289,   849.483826
-0.091268,   0.218718,   0.242170,   0.000000,   863.446594,   0.533426,   31.271563,   46.353867,   210.189331,   698.922180,   -327.836517,   0.360097,   841.543884,   838.749512
-0.086105,   0.205773,   0.227615,   0.000000,   855.105347,   0.533426,   31.271563,   45.578690,   208.169235,   697.017700,   -319.800903,   0.363005,   831.196899,   827.792114
-0.081811,   0.193282,   0.213707,   0.000000,   846.110229,   0.533425,   31.271563,   44.803513,   205.750809,   693.227600,   -312.889526,   0.365014,   820.953918,   817.110718
-0.078807,   0.181095,   0.200534,   0.000000,   836.046753,   0.533425,   31.271563,   44.028336,   201.827667,   687.068054,   -307.384308,   0.365388,   810.914856,   807.026550
-0.075493,   0.167545,   0.186508,   0.000000,   824.324402,   0.533425,   31.271563,   43.253162,   196.348755,   679.903870,   -301.152100,   0.365276,   799.625916,   795.819092
-0.072232,   0.152826,   0.171858,   0.000000,   810.684631,   0.533425,   31.271563,   42.477985,   188.674362,   671.564636,   -294.166718,   0.364317,   787.078308,   783.556946
-0.070352,   0.139959,   0.159957,   0.000000,   797.965637,   0.533426,   31.271563,   41.702808,   181.357346,   661.559021,   -290.016296,   0.361860,   776.466736,   773.531128
-0.070748,   0.129456,   0.150555,   0.000000,   785.217651,   0.533425,   31.271563,   40.927635,   171.436951,   649.916443,   -288.175751,   0.356589,   767.787842,   765.871033
-0.072694,   0.121809,   0.144121,   0.000000,   774.125977,   0.533426,   31.271563,   40.152458,   162.722412,   636.257935,   -290.332581,   0.349509,   762.002808,   761.090027
-0.076851,   0.117177,   0.140435,   0.000000,   763.134888,   0.533425,   31.271563,   39.377281,   151.249741,   620.127075,   -295.811340,   0.338748,   759.047485,   758.946716
-0.083034,   0.115873,   0.139965,   -15.815392,   751.789429,   0.533425,   31.271563,   38.602108,   137.304352,   598.669678,   -306.740601,   0.322872,   759.820557,   759.450195
-0.090654,   0.117564,   0.142651,   -53.559776,   736.764893,   0.533425,   31.271563,   37.826931,   120.382362,   562.822754,   -327.436859,   0.297711,   764.952332,   760.716553
-0.099325,   0.122242,   0.148886,   -122.438629,   707.659302,   0.533425,   31.271563,   37.051758,   97.252724,   487.967926,   -366.198090,   0.251333,   776.155701,   753.968201
-0.108845,   0.129670,   0.158802,   -211.990265,   664.509033,   0.533426,   31.271563,   36.276581,   75.494270,   377.024475,   -411.500458,   0.190436,   792.074158,   724.011169
-0.118381,   0.138361,   0.170433,   -274.754211,   633.081238,   0.533425,   31.271563,   35.501404,   62.256386,   296.070648,   -438.604645,   0.148125,   806.364380,   688.579773
-0.126401,   0.145555,   0.180275,   -307.719818,   617.894226,   0.533425,   31.271563,   34.726231,   55.584312,   254.590073,   -451.983978,   0.126632,   816.469849,   665.868591
-0.131923,   0.149891,   0.186581,   -330.409760,   606.055542,   0.533426,   31.271563,   33.951054,   49.142700,   226.503052,   -459.758240,   0.111693,   822.630310,   645.796021
-0.135461,   0.152052,   0.190155,   -345.982849,   596.748596,   0.533425,   31.271563,   33.175877,   41.809414,   208.956345,   -463.897766,   0.101197,   826.001099,   628.911682
-0.138049,   0.153268,   0.192505,   -356.291718,   590.253540,   0.533425,   31.271563,   32.400703,   33.694992,   200.266846,   -465.886719,   0.094183,   828.037109,   616.416199
-0.140278,   0.154140,   0.194408,   -364.391632,   585.002991,   0.533426,   31.271563,   31.625526,   25.384724,   195.226669,   -467.039581,   0.088645,   829.566162,   605.833801
-0.142248,   0.154834,   0.196040,   -371.216187,   580.474304,   0.533425,   31.271563,   30.850351,   17.376591,   191.881516,   -467.777405,   0.083958,   830.802795,   596.342346
-0.144057,   0.155381,   0.197476,   -377.308441,   576.286499,   0.533425,   31.271563,   30.075176,   9.140724,   189.837372,   -468.159180,   0.079737,   831.808594,   587.299866
-0.145774,   0.155850,   0.198805,   -382.813263,   572.429199,   0.533426,   31.271563,   29.300001,   1.045691,   188.570267,   -468.327545,   0.075906,   832.679260,   578.695007
-0.147421,   0.156253,   0.200045,   -388.070770,   568.632751,   0.533425,   31.271563,   28.524824,   -7.146166,   187.708130,   -468.325043,   0.072216,   833.433777,   569.994202
-0.149015,   0.156601,   0.201218,   -392.956909,   565.030090,   0.533425,   31.271563,   27.749649,   -15.270398,   187.343582,   -468.157745,   0.068767,   834.090332,   561.489685
-0.150572,   0.156903,   0.202336,   -397.688141,   561.439026,   0.533426,   31.271563,   26.974474,   -23.462149,   187.213074,   -467.851715,   0.065397,   834.653992,   552.789673
-0.152087,   0.157153,   0.203392,   -402.221619,   557.916199,   0.533425,   31.271563,   26.199297,   -31.610762,   187.305344,   -467.423889,   0.062143,   835.139893,   544.010742
-0.153583,   0.157296,   0.204361,   -406.773529,   554.228027,   0.533425,   31.271563,   25.424122,   -40.023605,   187.478104,   -466.842316,   0.058828,   835.511047,   534.614014
-0.155007,   0.157375,   0.205242,   -411.102386,   550.605896,   0.533426,   31.271563,   24.648947,   -48.341446,   187.844971,   -466.127350,   0.055638,   835.779541,   525.132935
-0.156379,   0.157335,   0.206013,   -415.483551,   546.771790,   0.533426,   31.271563,   23.873770,   -56.891026,   188.179260,   -465.262268,   0.052353,   835.919067,   514.856995
-0.157693,   0.157174,   0.206665,   -419.818268,   542.809753,   0.533425,   31.271563,   23.098595,   -65.553108,   188.544632,   -464.243225,   0.049044,   835.925415,   503.947662
-0.159002,   0.156876,   0.207231,   -424.421326,   538.443848,   0.533425,   31.271563,   22.323420,   -74.684151,   188.706680,   -463.069824,   0.045474,   835.812378,   491.509918
-0.160027,   0.156354,   0.207482,   -428.609131,   534.142761,   0.533426,   31.271563,   21.548244,   -83.475410,   189.009033,   -461.693451,   0.042107,   835.435669,   478.994598
-0.160754,   0.155323,   0.207210,   -433.167328,   528.939575,   0.533426,   31.271563,   20.773067,   -93.090706,   188.862915,   -459.932556,   0.038251,   834.583923,   463.575043
-0.161084,   0.153717,   0.206319,   -437.381561,   523.441223,   0.533425,   31.271563,   19.997892,   -102.709229,   188.768860,   -457.772034,   0.034429,   833.208801,   446.975586
-0.160929,   0.151394,   0.204656,   -442.216858,   516.532043,   0.533426,   31.271563,   19.222717,   -113.543045,   187.858215,   -455.070526,   0.029805,   831.131958,   425.059631
-0.160443,   0.148547,   0.202493,   -447.225586,   508.847992,   0.533425,   31.271563,   18.447540,   -125.078400,   186.700806,   -451.904419,   0.024791,   828.557068,   398.618774
-0.158950,   0.144733,   0.199166,   -451.110260,   501.031830,   0.533426,   31.271563,   17.672365,   -136.385773,   186.307343,   -447.896118,   0.020171,   824.956970,   370.598755
-0.156655,   0.139736,   0.194574,   -456.466614,   490.419220,   0.533425,   31.271563,   16.897190,   -149.456070,   183.408691,   -443.225067,   0.013798,   820.202881,   324.728027
-0.152860,   0.132579,   0.187878,   -462.171539,   477.162506,   0.533426,   31.271563,   16.122015,   -163.738144,   178.729111,   -437.339874,   0.006142,   813.521667,   245.962952
-0.148941,   0.124688,   0.181087,   -469.463531,   461.976379,   0.533425,   31.271563,   15.346839,   -178.401337,   170.914185,   -431.728790,   -0.003094,   806.659302,   -194.055405
-0.142583,   0.113925,   0.171521,   -476.753540,   443.342255,   0.533426,   31.271563,   14.571663,   -194.469223,   161.057922,   -424.316132,   -0.013974,   797.001404,   -316.871185
-0.133697,   0.099994,   0.159797,   -486.056366,   419.074921,   0.533425,   31.271563,   13.796487,   -214.302673,   147.321213,   -414.876740,   -0.028457,   784.581848,   -395.144012
-0.123085,   0.083971,   0.147794,   -499.111511,   389.307190,   0.533426,   31.271563,   13.021312,   -235.739532,   125.935234,   -405.733643,   -0.047451,   771.349487,   -459.998566
-0.111978,   0.066364,   0.136623,   -515.551453,   355.567139,   0.533425,   31.271563,   12.246136,   -256.661102,   96.676765,   -398.120575,   -0.070294,   758.639893,   -514.341187
-0.103891,   0.049951,   0.128449,   -547.777588,   305.992035,   0.533426,   31.271563,   11.470961,   -283.342651,   41.557076,   -394.766632,   -0.107574,   749.204285,   -581.378540
-0.106171,   0.041358,   0.127653,   -577.302429,   267.354218,   0.533425,   31.271563,   10.695785,   -305.756592,   -4.191643,   -394.494446,   -0.138173,   747.730286,   -625.775330
-0.129460,   0.046654,   0.145684,   -718.939331,   89.144470,   0.533425,   31.271563,   9.920609,   -375.033844,   -254.761002,   -399.541565,   -0.273561,   767.404663,   -755.624207
-0.172716,   0.062841,   0.191714,   -866.364746,   0.000000,   0.533425,   31.271563,   9.145433,   -330.745300,   -679.693237,   -316.203888,   -0.418886,   804.067627,   -774.224548
-0.225577,   0.085562,   0.251131,   -918.998352,   0.000000,   0.533425,   31.271563,   8.370258,   -319.015228,   -785.363281,   -283.158569,   -0.437329,   841.759888,   -793.858337
-0.282755,   0.114918,   0.315342,   -942.328308,   0.000000,   0.533425,   31.271563,   7.595082,   -290.824799,   -789.337158,   -315.712311,   -0.408442,   881.530640,   -856.783203
-0.343072,   0.151544,   0.383518,   -947.811401,   0.000000,   0.533425,   31.271563,   6.819907,   -256.544617,   -749.153015,   -370.575134,   -0.364290,   920.234741,   -916.125061
-0.113834,   0.252572,   0.282152,   0.000000,   873.870300,   0.530986,   32.119831,   52.313992,   251.908936,   622.300232,   -395.558929,   0.333527,   873.700928,   873.700806
-0.109256,   0.247641,   0.276287,   0.000000,   873.251526,   0.530986,   32.119831,   51.520405,   248.061630,   632.935059,   -387.612488,   0.337778,   869.404846,   869.327271
-0.104753,   0.242083,   0.269798,   0.000000,   871.613037,   0.530985,   32.119831,   50.726818,   244.385101,   641.083008,   -380.256348,   0.341312,   864.768799,   864.518982
-0.100459,   0.235807,   0.262535,   0.000000,   868.975769,   0.530985,   32.119831,   49.933235,   240.129761,   647.905090,   -372.853058,   0.344358,   859.604675,   859.129089
-0.096013,   0.228674,   0.254352,   0.000000,   865.649719,   0.530986,   32.119831,   49.139648,   236.220230,   653.721802,   -365.231018,   0.347459,   853.762817,   852.984741
-0.091558,   0.220670,   0.245202,   0.000000,   861.664307,   0.530985,   32.119831,   48.346062,   232.584274,   658.929871,   -357.122101,   0.350796,   847.133911,   845.949402
-0.087062,   0.211779,   0.235063,   0.000000,   856.926147,   0.530986,   32.119831,   47.552475,   229.196716,   663.433594,   -348.512543,   0.354369,   839.643677,   837.933105
-0.082573,   0.202043,   0.223975,   0.000000,   851.271240,   0.530986,   32.119831,   46.758888,   225.874252,   666.999878,   -339.474243,   0.358044,   831.250977,   828.903748
-0.078264,   0.191667,   0.212203,   0.000000,   844.454407,   0.530986,   32.119831,   45.965305,   222.853561,   668.128174,   -331.065765,   0.361228,   822.178711,   819.208801
-0.074468,   0.181096,   0.200249,   0.000000,   836.621460,   0.530985,   32.119831,   45.171719,   219.643768,   667.117676,   -323.388397,   0.363705,   812.712280,   809.221375
-0.071674,   0.171136,   0.189123,   0.000000,   828.349915,   0.530985,   32.119831,   44.378132,   216.014282,   664.319214,   -316.925598,   0.365153,   803.620056,   799.824158
-0.069450,   0.161370,   0.178628,   0.000000,   820.057922,   0.530986,   32.119831,   43.584549,   212.345459,   661.180115,   -310.728180,   0.366408,   794.674255,   790.612122
-0.067028,   0.149726,   0.166610,   0.000000,   808.970093,   0.530985,   32.119831,   42.790962,   205.347733,   656.362183,   -303.508728,   0.366405,   783.931885,   779.925415
-0.064708,   0.137280,   0.154452,   0.000000,   796.585144,   0.530987,   32.119831,   41.997375,   197.613235,   649.533752,   -296.782166,   0.365522,   772.546204,   768.810303
-0.063665,   0.126238,   0.144234,   0.000000,   784.397156,   0.530985,   32.119831,   41.203789,   188.853119,   641.321289,   -291.904083,   0.362899,   762.539795,   759.439026
-0.064413,   0.117709,   0.136959,   0.000000,   773.875366,   0.530986,   32.119831,   40.410202,   180.830994,   631.630615,   -290.443542,   0.358550,   755.321777,   753.099487
-0.067236,   0.111416,   0.131745,   0.000000,   763.047241,   0.530985,   32.119831,   39.616615,   170.007706,   619.356995,   -291.914337,   0.350719,   750.234741,   749.195129
-0.071480,   0.107730,   0.128946,   0.000000,   752.874207,   0.530985,   32.119831,   38.823032,   158.572876,   604.252563,   -297.196960,   0.339964,   747.948242,   747.799255
-0.077137,   0.106642,   0.128525,   -14.488382,   741.455688,   0.530986,   32.119831,   38.029446,   144.705948,   582.261353,   -308.219360,   0.323612,   748.804993,   748.489502
-0.084140,   0.108137,   0.130869,   -57.320751,   723.776367,   0.530985,   32.119831,   37.235859,   125.566490,   540.889099,   -330.764191,   0.294603,   754.072449,   749.147339
-0.092234,   0.112596,   0.136869,   -135.503769,   689.321350,   0.530987,   32.119831,   36.442272,   101.052032,   452.765564,   -373.039581,   0.240964,   766.114136,   738.428040
-0.101118,   0.119752,   0.146475,   -227.450912,   643.162048,   0.530985,   32.119831,   35.648685,   79.899498,   335.811615,   -416.075684,   0.177177,   782.099182,   701.697937
-0.109809,   0.127631,   0.157124,   -284.514496,   613.994019,   0.530986,   32.119831,   34.855103,   67.483559,   261.995972,   -438.600769,   0.138081,   795.378784,   665.522278
-0.116341,   0.133204,   0.164933,   -313.873901,   599.512207,   0.530985,   32.119831,   34.061516,   60.381767,   225.256546,   -449.191071,   0.118453,   803.805298,   642.457336
-0.120328,   0.135864,   0.169131,   -334.202148,   587.513733,   0.530985,   32.119831,   33.267929,   52.240303,   201.071289,   -454.810272,   0.104474,   808.215210,   621.508728
-0.122943,   0.137092,   0.171503,   -346.866119,   579.409241,   0.530986,   32.119831,   32.474346,   43.669960,   188.873154,   -457.411743,   0.095631,   810.560669,   606.309937
-0.125107,   0.137907,   0.173329,   -355.918427,   573.495605,   0.530985,   32.119831,   31.680758,   34.732174,   182.844971,   -458.768188,   0.089294,   812.214722,   594.534668
-0.127034,   0.138531,   0.174887,   -363.918427,   568.067139,   0.530985,   32.119831,   30.887173,   25.680311,   178.468384,   -459.688171,   0.083645,   813.552063,   583.264160
-0.128759,   0.138980,   0.176207,   -370.670319,   563.351440,   0.530985,   32.119831,   30.093586,   16.867785,   175.813309,   -460.199127,   0.078845,   814.603577,   573.080627
-0.130374,   0.139331,   0.177395,   -376.896484,   558.853760,   0.530986,   32.119831,   29.299999,   7.831197,   174.126099,   -460.427673,   0.074377,   815.474426,   563.038147
-0.131901,   0.139597,   0.178471,   -382.691498,   554.542908,   0.530985,   32.119831,   28.506414,   -1.043848,   172.895233,   -460.476257,   0.070183,   816.204285,   553.085388
-0.133346,   0.139780,   0.179441,   -388.223785,   550.272339,   0.530985,   32.119831,   27.712828,   -10.054529,   172.103088,   -460.324219,   0.066132,   816.790161,   542.925842
-0.134738,   0.139898,   0.180335,   -393.434906,   546.135742,   0.530986,   32.119831,   26.919241,   -18.976786,   171.677658,   -460.011932,   0.062281,   817.266296,   532.752502
-0.136079,   0.139946,   0.181149,   -398.589142,   541.897095,   0.530985,   32.119831,   26.125656,   -28.032852,   171.340775,   -459.555359,   0.058424,   817.630737,   521.997742
-0.137352,   0.139883,   0.181846,   -403.565247,   537.626953,   0.530985,   32.119831,   25.332071,   -37.155697,   171.217392,   -458.918121,   0.054640,   817.847900,   510.831818
-0.138540,   0.139706,   0.182413,   -408.510895,   533.184387,   0.530986,   32.119831,   24.538485,   -46.423363,   171.096848,   -458.114319,   0.050810,   817.910950,   498.846497
-0.139632,   0.139387,   0.182824,   -413.331451,   528.629639,   0.530985,   32.119831,   23.744898,   -55.673679,   170.971878,   -457.143982,   0.046995,   817.796692,   486.152405
-0.140558,   0.138828,   0.182971,   -418.238129,   523.666138,   0.530985,   32.119831,   22.951313,   -65.280441,   170.708466,   -455.931152,   0.042992,   817.414490,   471.888184
-0.141345,   0.138019,   0.182864,   -423.173584,   518.365356,   0.530985,   32.119831,   22.157726,   -74.956268,   170.148071,   -454.538086,   0.038848,   816.784607,   456.014221
-0.141912,   0.136978,   0.182475,   -428.147614,   512.646606,   0.530986,   32.119831,   21.364141,   -85.075798,   169.574768,   -452.837402,   0.034524,   815.846436,   438.061035
-0.142513,   0.135718,   0.181988,   -433.416412,   506.440369,   0.530985,   32.119831,   20.570555,   -95.706375,   168.730331,   -450.944550,   0.029876,   814.758362,   417.013306
-0.142575,   0.133997,   0.180893,   -438.434967,   499.783203,   0.530985,   32.119831,   19.776970,   -106.401932,   167.750168,   -448.635132,   0.025150,   813.099548,   393.053772
-0.141939,   0.131441,   0.178833,   -443.219788,   492.278259,   0.530986,   32.119831,   18.983383,   -117.433571,   166.492050,   -445.685669,   0.020175,   810.536316,   364.144073
-0.140774,   0.127681,   0.175664,   -449.313721,   482.129944,   0.530985,   32.119831,   18.189796,   -130.730515,   163.546738,   -441.867676,   0.013558,   806.820740,   317.564270
-0.138569,   0.123350,   0.171554,   -454.022491,   472.273621,   0.530985,   32.119831,   17.396212,   -142.682724,   160.933853,   -437.561829,   0.007583,   802.247864,   260.200256
-0.135303,   0.117436,   0.165890,   -459.143829,   460.026794,   0.530985,   32.119831,   16.602625,   -156.189163,   157.072144,   -432.071167,   0.000370,   796.025208,   94.326302
-0.132246,   0.110687,   0.160223,   -467.518646,   444.235657,   0.530985,   32.119831,   15.809039,   -171.419968,   148.136993,   -426.959961,   -0.009828,   789.688171,   -279.236298
-0.127349,   0.102125,   0.152798,   -474.457825,   427.492065,   0.530986,   32.119831,   15.015453,   -185.948212,   138.982452,   -420.693970,   -0.020033,   781.464417,   -350.258881
-0.120189,   0.090624,   0.143035,   -483.228363,   404.825012,   0.530985,   32.119831,   14.221868,   -205.241364,   126.838013,   -411.813690,   -0.033938,   770.075256,   -411.146301
-0.111222,   0.077293,   0.132669,   -492.352509,   379.944733,   0.530985,   32.119831,   13.428282,   -224.255310,   111.847527,   -402.472778,   -0.049463,   757.519470,   -457.957611
-0.101802,   0.062409,   0.123126,   -506.504700,   349.887634,   0.530986,   32.119831,   12.634696,   -242.862381,   86.245308,   -395.315063,   -0.070001,   745.780212,   -504.940399
-0.093592,   0.047533,   0.115055,   -529.501770,   309.972412,   0.530985,   32.119831,   11.841109,   -266.193848,   46.664520,   -389.498566,   -0.099527,   735.245483,   -556.906555
-0.091457,   0.037260,   0.111181,   -558.656799,   267.585541,   0.530985,   32.119831,   11.047523,   -287.672119,   -3.399121,   -387.899872,   -0.132873,   730.197144,   -604.104614
-0.104663,   0.037477,   0.119110,   -638.005676,   171.272308,   0.530986,   32.119831,   10.253938,   -338.985687,   -127.747665,   -390.611481,   -0.210614,   738.686768,   -691.864075
-0.136716,   0.048554,   0.151277,   -818.946960,   0.000000,   0.530985,   32.119831,   9.460352,   -330.685577,   -593.604736,   -331.701508,   -0.399251,   771.686890,   -755.256042
-0.179357,   0.065147,   0.199276,   -884.238098,   0.000000,   0.530985,   32.119831,   8.666766,   -310.826874,   -770.058655,   -255.874496,   -0.448042,   804.154236,   -747.128662
-0.224222,   0.085725,   0.249835,   -911.830811,   0.000000,   0.530986,   32.119831,   7.873180,   -295.578644,   -782.433411,   -282.385254,   -0.427201,   841.143555,   -802.953796
-0.268078,   0.109509,   0.299309,   -924.269348,   0.000000,   0.530986,   32.119831,   7.079594,   -274.305695,   -760.067871,   -326.687927,   -0.394303,   874.431702,   -858.628662
-0.307972,   0.135343,   0.344737,   -922.863159,   0.000000,   0.530985,   32.119831,   6.286008,   -260.474121,   -701.025879,   -383.330902,   -0.354471,   904.164062,   -902.303894
-0.094773,   0.214653,   0.239644,   0.000000,   848.355225,   0.527611,   32.943504,   52.883896,   277.515656,   570.862549,   -397.999756,   0.333347,   848.343750,   848.343750
-0.091858,   0.212817,   0.237405,   0.000000,   850.562561,   0.527612,   32.943504,   52.070660,   271.943970,   587.815735,   -389.910522,   0.338754,   846.001526,   845.888977
-0.088930,   0.210099,   0.234196,   0.000000,   851.044617,   0.527612,   32.943504,   51.257420,   266.751373,   600.395569,   -382.691162,   0.342837,   843.108765,   842.762695
-0.086143,   0.206565,   0.230073,   0.000000,   849.978516,   0.527611,   32.943504,   50.444183,   260.847260,   610.202209,   -375.845337,   0.345802,   839.641357,   839.046143
-0.083192,   0.202218,   0.225052,   0.000000,   848.006042,   0.527613,   32.943504,   49.630943,   255.393372,   618.149231,   -369.074585,   0.348498,   835.530457,   834.651733
-0.080133,   0.197000,   0.219054,   0.000000,   845.117249,   0.527611,   32.943504,   48.817707,   250.079147,   624.738403,   -362.124054,   0.351051,   830.665466,   829.469482
-0.077000,   0.190891,   0.212042,   0.000000,   841.443420,   0.527612,   32.943504,   48.004471,   244.947540,   630.571411,   -354.660797,   0.353773,   824.933655,   823.348022
-0.073771,   0.183847,   0.203961,   0.000000,   836.911987,   0.527612,   32.943504,   47.191231,   239.956207,   635.709229,   -346.567688,   0.356734,   818.223877,   816.155273
-0.070447,   0.175993,   0.194980,   0.000000,   831.464355,   0.527612,   32.943504,   46.377995,   235.617661,   639.198730,   -338.468353,   0.359714,   810.658203,   808.043945
-0.067344,   0.167756,   0.185575,   0.000000,   825.252563,   0.527612,   32.943504,   45.564754,   231.575119,   641.204895,   -330.552490,   0.362505,   802.545044,   799.369507
-0.064723,   0.159558,   0.176249,   0.000000,   818.412292,   0.527611,   32.943504,   44.751518,   227.560486,   641.522827,   -323.288483,   0.364721,   794.289856,   790.641235
-0.062960,   0.151734,   0.167499,   0.000000,   811.225647,   0.527612,   32.943504,   43.938282,   223.587296,   640.000488,   -317.204163,   0.366073,   786.353210,   782.416443
-0.061621,   0.143369,   0.158558,   0.000000,   802.896423,   0.527612,   32.943504,   43.125042,   217.724304,   637.808838,   -310.812866,   0.366592,   777.914795,   773.893005
-0.059781,   0.133326,   0.148306,   0.000000,   792.553406,   0.527612,   32.943504,   42.311806,   210.139114,   634.612183,   -303.293945,   0.366748,   767.786377,   763.778992
-0.058041,   0.122763,   0.138189,   0.000000,   781.426697,   0.527612,   32.943504,   41.498566,   202.432587,   629.699036,   -296.394012,   0.366248,   757.348328,   753.515259
-0.057882,   0.113653,   0.130034,   0.000000,   770.557007,   0.527612,   32.943504,   40.685329,   193.819412,   622.621277,   -292.096008,   0.363507,   748.670410,   745.497131
-0.059109,   0.106421,   0.123899,   0.000000,   760.413574,   0.527611,   32.943504,   39.872089,   184.760742,   613.841003,   -290.473602,   0.358733,   742.056824,   739.841125
-0.061729,   0.101110,   0.119588,   0.000000,   750.749878,   0.527612,   32.943504,   39.058853,   174.926346,   603.030701,   -291.650757,   0.351608,   737.522705,   736.392395
-0.066173,   0.098324,   0.117571,   0.000000,   740.929199,   0.527612,   32.943504,   38.245617,   162.632660,   588.463379,   -296.935089,   0.340217,   735.898438,   735.740356
-0.072015,   0.097910,   0.117819,   -17.178839,   728.879089,   0.527612,   32.943504,   37.432377,   146.890839,   564.809387,   -309.009094,   0.321621,   737.618530,   737.168274
-0.078768,   0.099748,   0.120512,   -68.122696,   707.695435,   0.527612,   32.943504,   36.619141,   125.717995,   513.854736,   -335.873352,   0.286509,   744.099243,   737.034485
-0.086275,   0.104106,   0.126442,   -157.845917,   665.883301,   0.527611,   32.943504,   35.805901,   100.178482,   407.858917,   -382.054504,   0.223634,   757.246887,   718.821106
-0.094413,   0.110902,   0.135624,   -248.560272,   617.859741,   0.527613,   32.943504,   34.992664,   80.061050,   289.238434,   -420.395203,   0.159306,   772.727844,   673.561462
-0.101718,   0.117413,   0.144543,   -296.097687,   592.888428,   0.527611,   32.943504,   34.179428,   69.746895,   227.043823,   -437.479706,   0.126178,   784.055725,   638.744141
-0.106331,   0.120855,   0.149680,   -320.467224,   579.388611,   0.527612,   32.943504,   33.366188,   62.020927,   196.900436,   -444.844910,   0.109253,   789.978088,   615.957703
-0.108956,   0.122079,   0.152048,   -337.058807,   568.434814,   0.527612,   32.943504,   32.552952,   52.224586,   179.151398,   -448.276764,   0.097298,   792.668091,   596.155823
-0.111017,   0.122810,   0.153752,   -347.236084,   561.683472,   0.527611,   32.943504,   31.739714,   42.657730,   171.789673,   -449.849915,   0.089981,   794.416809,   582.921265
-0.112876,   0.123373,   0.155229,   -355.916382,   555.784607,   0.527611,   32.943504,   30.926476,   33.238316,   166.629883,   -450.944946,   0.083712,   795.855408,   570.722839
-0.114498,   0.123722,   0.156418,   -363.737335,   550.168152,   0.527612,   32.943504,   30.113239,   23.416349,   163.014450,   -451.590393,   0.077978,   796.935669,   558.667419
-0.115983,   0.123953,   0.157447,   -370.363586,   545.290039,   0.527612,   32.943504,   29.299999,   13.905297,   161.021194,   -451.878998,   0.073088,   797.788208,   547.732605
-0.117373,   0.124092,   0.158356,   -376.859497,   540.299133,   0.527612,   32.943504,   28.486761,   4.146236,   159.293411,   -451.970490,   0.068230,   798.475464,   536.151978
-0.118658,   0.124121,   0.159126,   -382.834961,   535.525024,   0.527612,   32.943504,   27.673523,   -5.455948,   158.145996,   -451.834991,   0.063702,   798.978943,   524.667786
-0.119873,   0.124072,   0.159800,   -388.632172,   530.709717,   0.527611,   32.943504,   26.860287,   -15.246477,   157.324020,   -451.499969,   0.059248,   799.336365,   512.655945
-0.121005,   0.123913,   0.160347,   -394.205933,   525.879272,   0.527611,   32.943504,   26.047049,   -24.961393,   156.634766,   -450.993256,   0.054896,   799.532410,   500.156281
-0.122048,   0.123649,   0.160769,   -399.724640,   520.872803,   0.527612,   32.943504,   25.233810,   -34.889908,   156.038086,   -450.290527,   0.050506,   799.558655,   486.695709
-0.123009,   0.123262,   0.161057,   -405.018799,   515.843445,   0.527612,   32.943504,   24.420572,   -44.783463,   155.608124,   -449.396973,   0.046211,   799.412903,   472.599091
-0.123889,   0.122751,   0.161215,   -410.500916,   510.411499,   0.527612,   32.943504,   23.607334,   -55.009491,   154.920074,   -448.332825,   0.041676,   799.096558,   456.608612
-0.124630,   0.122049,   0.161164,   -415.756012,   504.880280,   0.527611,   32.943504,   22.794098,   -65.188164,   154.312454,   -447.043243,   0.037203,   798.538757,   439.498535
-0.125186,   0.121173,   0.160887,   -421.097504,   498.930695,   0.527612,   32.943504,   21.980860,   -75.643707,   153.476898,   -445.520935,   0.032523,   797.717590,   419.944000
-0.125478,   0.119734,   0.160071,   -426.780823,   491.977081,   0.527612,   32.943504,   21.167622,   -86.681923,   151.878174,   -443.622925,   0.027290,   796.335144,   395.528748
-0.125285,   0.117814,   0.158645,   -432.362213,   484.329010,   0.527611,   32.943504,   20.354383,   -98.016312,   149.983093,   -441.253632,   0.021808,   794.302979,   366.204010
-0.124623,   0.115399,   0.156619,   -437.695831,   476.153656,   0.527611,   32.943504,   19.541147,   -109.338501,   147.796326,   -438.463959,   0.016193,   791.650452,   330.572723
-0.123975,   0.112616,   0.154449,   -443.936310,   466.654572,   0.527612,   32.943504,   18.727909,   -122.357597,   145.075851,   -435.216919,   0.009602,   788.676636,   276.724823
-0.121994,   0.108884,   0.150856,   -448.280914,   457.343353,   0.527612,   32.943504,   17.914671,   -133.780350,   142.842773,   -431.171356,   0.003852,   784.306702,   202.968628
-0.120122,   0.104326,   0.146881,   -456.035767,   443.740662,   0.527612,   32.943504,   17.101433,   -149.178375,   136.883270,   -426.546112,   -0.005259,   779.253479,   -223.725021
-0.116543,   0.097997,   0.141022,   -461.917450,   429.682312,   0.527612,   32.943504,   16.288195,   -162.264084,   130.028946,   -421.163544,   -0.013913,   772.316223,   -306.610046
-0.113527,   0.091535,   0.135837,   -470.476807,   413.155975,   0.527612,   32.943504,   15.474957,   -177.491470,   120.170631,   -415.994049,   -0.024951,   765.784973,   -369.205841
-0.107246,   0.081908,   0.127299,   -477.256744,   393.435852,   0.527612,   32.943504,   14.661719,   -193.163773,   109.342896,   -408.226440,   -0.036997,   755.205688,   -414.886200
-0.099791,   0.070599,   0.118412,   -484.727905,   371.160828,   0.527612,   32.943504,   13.848482,   -211.031845,   97.464775,   -399.178955,   -0.050923,   743.393250,   -453.728821
-0.091970,   0.058164,   0.110403,   -497.731567,   343.572937,   0.527612,   32.943504,   13.035244,   -228.350555,   74.191925,   -392.511566,   -0.070137,   732.656921,   -496.364990
-0.084637,   0.045339,   0.103344,   -512.114014,   313.994812,   0.527612,   32.943504,   12.222006,   -248.059174,   49.939953,   -385.244202,   -0.091435,   722.256714,   -532.667847
-0.080927,   0.034925,   0.098846,   -543.754578,   267.989136,   0.527612,   32.943504,   11.408768,   -268.843109,   -6.922356,   -384.163177,   -0.128313,   716.385071,   -586.554504
-0.086952,   0.031604,   0.100296,   -572.012085,   233.131866,   0.527611,   32.943504,   10.595531,   -290.307098,   -48.573116,   -383.999176,   -0.157421,   717.567139,   -623.405579
-0.109981,   0.038628,   0.121299,   -765.425110,   0.000000,   0.527612,   32.943504,   9.782292,   -328.193512,   -483.333588,   -351.196991,   -0.363858,   743.446960,   -740.220642
-0.145041,   0.051247,   0.160611,   -848.671204,   0.000000,   0.527612,   32.943504,   8.969054,   -290.906219,   -747.609558,   -237.420837,   -0.448716,   771.471436,   -716.031433
-0.181812,   0.066648,   0.202190,   -880.375366,   0.000000,   0.527611,   32.943504,   8.155817,   -287.640259,   -769.708313,   -256.117615,   -0.436966,   806.583801,   -761.039673
-0.215726,   0.083131,   0.240544,   -895.595642,   0.000000,   0.527612,   32.943504,   7.342579,   -271.062500,   -759.176453,   -291.887451,   -0.410564,   836.441467,   -811.521790
-0.243967,   0.099771,   0.272582,   -900.002014,   0.000000,   0.527612,   32.943504,   6.529341,   -264.357147,   -719.711914,   -338.526917,   -0.380956,   861.051880,   -851.745483
-0.263769,   0.114972,   0.295280,   -891.392883,   0.000000,   0.527612,   32.943504,   5.716104,   -269.724823,   -644.548218,   -391.733887,   -0.346246,   880.175842,   -879.506348
-0.077685,   0.179305,   0.199676,   -0.534674,   819.675964,   0.523154,   33.740997,   53.488712,   300.030334,   519.110962,   -395.205383,   0.333007,   819.943420,   819.943054
-0.076238,   0.180265,   0.200771,   0.000000,   825.104980,   0.523154,   33.740997,   52.654621,   292.394226,   542.765320,   -387.821289,   0.339444,   820.123901,   819.985229
-0.074655,   0.180090,   0.200545,   0.000000,   828.218994,   0.523154,   33.740997,   51.820526,   285.811493,   560.498291,   -381.069153,   0.344312,   819.323364,   818.873779
-0.072955,   0.178909,   0.199159,   0.000000,   829.411682,   0.523154,   33.740997,   50.986435,   278.845947,   574.569397,   -374.576355,   0.347904,   817.674194,   816.880920
-0.071167,   0.176849,   0.196766,   0.000000,   829.150452,   0.523155,   33.740997,   50.152340,   272.192413,   585.444946,   -368.420593,   0.350651,   815.280334,   814.159424
-0.069280,   0.173933,   0.193395,   0.000000,   827.613770,   0.523154,   33.740997,   49.318245,   265.632263,   593.883545,   -362.425262,   0.352781,   812.132812,   810.721252
-0.067282,   0.170163,   0.189042,   0.000000,   825.087769,   0.523154,   33.740997,   48.484154,   259.134796,   600.972961,   -356.143829,   0.354765,   808.147034,   806.437134
-0.065138,   0.165475,   0.183629,   0.000000,   821.609009,   0.523155,   33.740997,   47.650059,   252.719070,   607.084351,   -349.343536,   0.356827,   803.193176,   801.146118
-0.062847,   0.159909,   0.177212,   0.000000,   817.298096,   0.523154,   33.740997,   46.815964,   246.941498,   612.052856,   -342.144684,   0.359141,   797.268188,   794.809387
-0.060535,   0.153688,   0.170046,   0.000000,   812.175842,   0.523155,   33.740997,   45.981869,   241.592316,   615.794006,   -334.742065,   0.361519,   790.540771,   787.624268
-0.058417,   0.147120,   0.162488,   0.000000,   806.370300,   0.523152,   33.740997,   45.147778,   236.617966,   618.156494,   -327.467957,   0.363754,   783.290771,   779.915100
-0.056735,   0.140768,   0.155226,   0.000000,   800.339661,   0.523154,   33.740997,   44.313686,   232.246414,   618.947205,   -321.010620,   0.365556,   776.163147,   772.401550
-0.055732,   0.134742,   0.148500,   0.000000,   794.188904,   0.523155,   33.740997,   43.479591,   227.246765,   619.326660,   -314.859955,   0.366799,   769.335449,   765.307434
-0.054983,   0.127536,   0.140862,   0.000000,   786.158813,   0.523154,   33.740997,   42.645496,   220.144501,   618.301331,   -308.236511,   0.367081,   761.363098,   757.307800
-0.053274,   0.118487,   0.131832,   0.000000,   776.381531,   0.523155,   33.740997,   41.811405,   213.143021,   615.548218,   -300.977600,   0.367526,   751.593201,   747.481201
-0.052384,   0.109407,   0.123276,   0.000000,   765.455444,   0.523154,   33.740997,   40.977310,   203.885910,   611.119507,   -294.398315,   0.366168,   741.922485,   738.185913
-0.052616,   0.102011,   0.116973,   0.000000,   756.345947,   0.523154,   33.740997,   40.143215,   196.193695,   605.811584,   -290.382812,   0.363928,   734.581360,   731.378540
-0.054407,   0.096180,   0.112196,   0.000000,   747.124390,   0.523154,   33.740997,   39.309124,   186.569473,   598.280579,   -288.851379,   0.358874,   728.994019,   726.792908
-0.057760,   0.092195,   0.109170,   0.000000,   738.052429,   0.523154,   33.740997,   38.475029,   175.371857,   588.156921,   -290.419189,   0.350733,   725.649780,   724.642517
-0.062069,   0.090032,   0.107643,   0.000000,   728.202515,   0.523155,   33.740997,   37.640938,   162.357605,   573.304688,   -296.054321,   0.338468,   724.501465,   724.415039
-0.067417,   0.089813,   0.107918,   -23.906359,   714.366394,   0.523154,   33.740997,   36.806843,   145.553146,   544.906860,   -310.468689,   0.316747,   726.614563,   725.728943
-0.073598,   0.091615,   0.110523,   -87.796242,   686.391418,   0.523154,   33.740997,   35.972748,   121.555748,   477.039429,   -343.874207,   0.271754,   734.237000,   722.285889
-0.080622,   0.096128,   0.116697,   -188.807770,   636.231812,   0.523155,   33.740997,   35.138653,   96.714249,   350.709808,   -392.484589,   0.199198,   748.708740,   692.039612
-0.088091,   0.102551,   0.125455,   -271.944794,   589.918518,   0.523154,   33.740997,   34.304562,   78.345512,   239.628204,   -423.319092,   0.138888,   763.140259,   639.637634
-0.093681,   0.107222,   0.132070,   -307.316162,   570.703491,   0.523154,   33.740997,   33.470467,   69.149818,   194.237503,   -434.531799,   0.113768,   771.707214,   609.252319
-0.096461,   0.108660,   0.134680,   -325.849976,   558.863281,   0.523154,   33.740997,   32.636375,   60.304806,   172.708466,   -438.771851,   0.100222,   774.991577,   588.291626
-0.098351,   0.109202,   0.136142,   -338.423065,   550.108032,   0.523154,   33.740997,   31.802280,   49.669685,   162.015305,   -440.700012,   0.090844,   776.735657,   571.671753
-0.100131,   0.109729,   0.137548,   -347.742249,   543.767273,   0.523154,   33.740997,   30.968187,   39.345253,   156.679779,   -441.877197,   0.083958,   778.266235,   558.631714
-0.101641,   0.109991,   0.138611,   -356.296661,   537.550232,   0.523154,   33.740997,   30.134094,   29.353279,   151.900299,   -442.703217,   0.077520,   779.381104,   545.329346
-0.102985,   0.110108,   0.139476,   -363.638824,   531.986755,   0.523154,   33.740997,   29.300001,   18.916471,   149.431473,   -443.032471,   0.071926,   780.188538,   532.886902
-0.104230,   0.110133,   0.140222,   -370.431641,   526.661011,   0.523154,   33.740997,   28.465906,   8.829620,   147.399719,   -443.162933,   0.066694,   780.822205,   520.444702
-0.105345,   0.110021,   0.140793,   -377.067108,   521.159546,   0.523154,   33.740997,   27.631813,   -1.580334,   145.672791,   -443.037140,   0.061482,   781.216370,   507.116028
-0.106363,   0.109806,   0.141236,   -383.126678,   515.916565,   0.523154,   33.740997,   26.797718,   -11.803899,   144.593811,   -442.667633,   0.056645,   781.420105,   493.865021
-0.107290,   0.109482,   0.141548,   -389.250916,   510.362152,   0.523154,   33.740997,   25.963625,   -22.310163,   143.421402,   -442.107666,   0.051662,   781.437622,   479.208344
-0.108098,   0.109013,   0.141688,   -395.046265,   504.810760,   0.523154,   33.740997,   25.129532,   -32.698753,   142.463226,   -441.322144,   0.046834,   781.229187,   463.889191
-0.108795,   0.108403,   0.141666,   -400.886047,   498.916779,   0.523154,   33.740997,   24.295439,   -43.448524,   141.479263,   -440.297302,   0.041851,   780.792175,   446.764618
-0.109370,   0.107632,   0.141462,   -406.524292,   492.903839,   0.523154,   33.740997,   23.461344,   -54.082199,   140.461746,   -439.068237,   0.036908,   780.124146,   428.236542
-0.109794,   0.106665,   0.141037,   -412.381958,   486.299530,   0.523153,   33.740997,   22.627251,   -65.259735,   139.177292,   -437.559692,   0.031623,   779.158020,   406.376343
-0.110194,   0.105575,   0.140529,   -418.221527,   479.512482,   0.523154,   33.740997,   21.793158,   -76.378883,   137.669846,   -435.921295,   0.026258,   778.064209,   381.539764
-0.110309,   0.104214,   0.139683,   -424.160309,   472.093903,   0.523154,   33.740997,   20.959064,   -87.916298,   135.849884,   -433.935577,   0.020575,   776.548828,   351.160492
-0.110081,   0.102479,   0.138391,   -429.947418,   464.205170,   0.523154,   33.740997,   20.124969,   -99.141190,   133.398941,   -431.692596,   0.014743,   774.548340,   313.488281
-0.109336,   0.099806,   0.136191,   -436.343903,   454.318787,   0.523154,   33.740997,   19.290876,   -112.389519,   130.364380,   -428.471283,   0.007767,   771.388855,   252.197922
-0.107942,   0.096439,   0.133150,   -442.818115,   443.168732,   0.523154,   33.740997,   18.456783,   -125.479820,   125.830444,   -424.798737,   0.000152,   767.287170,   67.652168
-0.105393,   0.092241,   0.128942,   -447.516937,   432.039246,   0.523154,   33.740997,   17.622690,   -137.858932,   122.381264,   -420.087524,   -0.006773,   761.757324,   -237.934067
-0.103281,   0.087449,   0.124816,   -455.549683,   417.353943,   0.523154,   33.740997,   16.788595,   -152.184174,   113.988434,   -415.665985,   -0.016837,   756.197876,   -319.891388
-0.099955,   0.081471,   0.119565,   -462.193115,   402.168579,   0.523154,   33.740997,   15.954503,   -165.763596,   105.739075,   -410.307037,   -0.026707,   749.160583,   -369.442139
-0.096065,   0.074306,   0.113752,   -470.822571,   383.559387,   0.523154,   33.740997,   15.120409,   -180.669693,   93.406509,   -404.614258,   -0.039244,   741.201843,   -415.203857
-0.089305,   0.064277,   0.105461,   -476.676270,   362.853821,   0.523154,   33.740997,   14.286316,   -197.550842,   83.728394,   -395.503723,   -0.052025,   729.278381,   -448.251465
-0.082889,   0.054139,   0.098836,   -487.969025,   338.539185,   0.523154,   33.740997,   13.452222,   -212.684540,   63.254673,   -389.542480,   -0.069213,   719.666016,   -485.476318
-0.076739,   0.043203,   0.093110,   -496.067078,   317.544495,   0.523154,   33.740997,   12.618128,   -229.060669,   50.538067,   -382.030212,   -0.083785,   710.239685,   -509.467896
-0.073271,   0.033755,   0.089558,   -527.798645,   273.730743,   0.523154,   33.740997,   11.784035,   -246.997879,   -7.070041,   -382.388550,   -0.120012,   705.673157,   -566.267761
-0.074776,   0.028149,   0.087609,   -526.095581,   271.731476,   0.523154,   33.740997,   10.949941,   -248.093262,   -6.270860,   -380.147980,   -0.120687,   702.546326,   -564.717163
-0.090876,   0.031789,   0.100099,   -705.516296,   27.562096,   0.523154,   33.740997,   10.115848,   -317.249390,   -360.704834,   -365.894653,   -0.314001,   719.693298,   -718.504395
-0.120038,   0.041640,   0.132363,   -814.248840,   0.000000,   0.523154,   33.740997,   9.281754,   -267.654663,   -714.712402,   -233.251038,   -0.439795,   744.563538,   -699.921875
-0.150938,   0.053489,   0.167433,   -850.789551,   0.000000,   0.523154,   33.740997,   8.447660,   -273.736328,   -754.695679,   -235.480972,   -0.441003,   777.343811,   -729.547241
-0.178095,   0.065624,   0.198247,   -867.224487,   0.000000,   0.523154,   33.740997,   7.613567,   -259.485016,   -752.839050,   -263.659943,   -0.419417,   804.548523,   -774.285767
-0.199029,   0.076903,   0.222027,   -874.857849,   0.000000,   0.523154,   33.740997,   6.779473,   -258.407318,   -726.037354,   -302.886902,   -0.397496,   825.537781,   -808.930725
-0.212059,   0.086381,   0.236873,   -870.851013,   0.000000,   0.523154,   33.740997,   5.945380,   -265.342712,   -669.556885,   -349.120697,   -0.370701,   840.658630,   -835.142700
-0.216505,   0.093255,   0.241929,   -855.161804,   0.000000,   0.523154,   33.740997,   5.111286,   -285.936127,   -581.256470,   -394.859436,   -0.340392,   849.210388,   -849.018555
-0.062450,   0.146315,   0.162146,   -1.626436,   787.149536,   0.517472,   34.510784,   54.127285,   318.349823,   467.173279,   -387.304504,   0.332301,   787.963989,   787.960266
-0.062305,   0.149865,   0.166344,   0.000000,   796.418396,   0.517472,   34.510784,   53.271168,   308.706146,   497.694763,   -381.695160,   0.339620,   791.474365,   791.332764
-0.061782,   0.152088,   0.168956,   0.000000,   802.852905,   0.517471,   34.510784,   52.415058,   300.911377,   521.278259,   -375.944183,   0.345446,   793.361328,   792.830872
-0.061142,   0.153147,   0.170190,   0.000000,   806.773560,   0.517472,   34.510784,   51.558945,   292.917938,   540.042358,   -370.217926,   0.349688,   794.004150,   793.031616
-0.060360,   0.153183,   0.170225,   0.000000,   808.720337,   0.517472,   34.510784,   50.702831,   285.298645,   554.571106,   -364.728973,   0.352766,   793.604248,   792.227112
-0.059439,   0.152354,   0.169253,   0.000000,   809.108704,   0.517472,   34.510784,   49.846718,   277.923645,   565.875122,   -359.446869,   0.354985,   792.333435,   790.622070
-0.058370,   0.150654,   0.167272,   0.000000,   808.199341,   0.517472,   34.510784,   48.990604,   270.682129,   574.883118,   -354.134827,   0.356698,   790.179260,   788.187805
-0.057146,   0.148043,   0.164231,   0.000000,   806.087463,   0.517472,   34.510784,   48.134491,   263.468018,   582.193176,   -348.553284,   0.358158,   787.047119,   784.804016
-0.055749,   0.144541,   0.160158,   0.000000,   803.043640,   0.517472,   34.510784,   47.278378,   256.723999,   588.306335,   -342.513062,   0.359789,   782.895142,   780.355957
-0.054163,   0.140138,   0.155048,   0.000000,   799.015198,   0.517472,   34.510784,   46.422264,   250.468750,   593.148315,   -336.046936,   0.361598,   777.674133,   774.788574
-0.052515,   0.135005,   0.149097,   0.000000,   794.009705,   0.517471,   34.510784,   45.566151,   244.562408,   596.589417,   -329.350952,   0.363418,   771.519592,   768.269104
-0.051024,   0.129530,   0.142764,   0.000000,   788.276428,   0.517472,   34.510784,   44.710037,   239.226334,   598.254578,   -323.003876,   0.364981,   764.862061,   761.288940
-0.050098,   0.124412,   0.136867,   0.000000,   782.581970,   0.517472,   34.510784,   43.853924,   233.782486,   599.617798,   -316.876373,   0.366273,   758.450745,   754.606079
-0.049641,   0.119474,   0.131391,   0.000000,   776.929688,   0.517472,   34.510784,   42.997814,   227.935165,   601.003479,   -310.777313,   0.367303,   752.274841,   748.213806
-0.048875,   0.113213,   0.124935,   0.000000,   769.809631,   0.517472,   34.510784,   42.141701,   221.761749,   600.776733,   -304.365082,   0.368102,   744.846313,   740.629761
-0.047877,   0.105168,   0.117041,   0.000000,   759.866577,   0.517472,   34.510784,   41.285587,   212.556564,   598.914062,   -296.801178,   0.367802,   735.423706,   731.333679
-0.047530,   0.097789,   0.110496,   0.000000,   750.766602,   0.517472,   34.510784,   40.429474,   204.374451,   595.827332,   -290.959808,   0.366740,   727.310181,   723.515808
-0.048712,   0.091862,   0.105640,   0.000000,   742.057983,   0.517471,   34.510784,   39.573360,   194.866257,   590.948120,   -287.551849,   0.363210,   721.176086,   718.180298
-0.050632,   0.087048,   0.101844,   0.000000,   733.557800,   0.517472,   34.510784,   38.717247,   185.019562,   584.217102,   -286.215118,   0.357925,   716.385071,   714.381897
-0.053871,   0.083743,   0.099294,   0.000000,   724.653687,   0.517472,   34.510784,   37.861134,   173.534805,   574.192078,   -287.962219,   0.349374,   713.396973,   712.556702
-0.058290,   0.082302,   0.098369,   0.000000,   714.309326,   0.517472,   34.510784,   37.005020,   159.182755,   557.656982,   -294.893005,   0.335106,   713.047485,   713.037354
-0.063562,   0.082544,   0.099081,   -37.878841,   696.729065,   0.517473,   34.510784,   36.148907,   139.252518,   519.597717,   -314.239685,   0.306548,   716.419922,   714.161621
-0.069426,   0.084703,   0.102138,   -119.879822,   658.938477,   0.517472,   34.510784,   35.292793,   113.507896,   425.550781,   -356.786774,   0.247387,   726.336365,   703.561096
-0.075997,   0.089405,   0.108627,   -227.595963,   600.989685,   0.517472,   34.510784,   34.436680,   90.486572,   282.907135,   -402.966644,   0.167863,   741.465637,   655.683411
-0.082251,   0.094766,   0.116066,   -293.278503,   562.564819,   0.517471,   34.510784,   33.580566,   75.820679,   193.465622,   -423.859467,   0.119157,   753.312378,   603.184937
-0.085573,   0.096941,   0.119545,   -315.317230,   549.449280,   0.517472,   34.510784,   32.724453,   65.797287,   168.334778,   -429.332977,   0.102960,   758.004150,   580.256226
-0.087175,   0.097190,   0.120611,   -329.296082,   539.297974,   0.517471,   34.510784,   31.868340,   55.578297,   154.423599,   -431.475739,   0.092165,   759.517578,   561.556152
-0.088835,   0.097635,   0.121889,   -339.280548,   532.448547,   0.517472,   34.510784,   31.012226,   45.126007,   148.041992,   -432.816345,   0.084601,   761.092773,   547.635498
-0.090234,   0.097831,   0.122840,   -348.660339,   525.532715,   0.517473,   34.510784,   30.156113,   34.238972,   142.633423,   -433.723450,   0.077350,   762.221130,   532.945129
-0.091416,   0.097826,   0.123523,   -356.427094,   519.514709,   0.517471,   34.510784,   29.299999,   23.797783,   139.289825,   -434.147339,   0.071252,   762.958008,   519.536438
-0.092519,   0.097756,   0.124119,   -363.683075,   513.686829,   0.517472,   34.510784,   28.443888,   12.911101,   137.092667,   -434.268616,   0.065488,   763.517395,   505.905182
-0.093473,   0.097531,   0.124516,   -370.630859,   507.778229,   0.517472,   34.510784,   27.587774,   2.323339,   134.824036,   -434.179138,   0.059852,   763.809021,   491.494415
-0.094319,   0.097191,   0.124772,   -377.172119,   501.915405,   0.517472,   34.510784,   26.731661,   -8.635362,   133.378632,   -433.770355,   0.054435,   763.862793,   476.526489
-0.095073,   0.096746,   0.124899,   -383.460846,   496.017670,   0.517471,   34.510784,   25.875547,   -19.369778,   131.926590,   -433.183533,   0.049126,   763.727112,   460.674927
-0.095691,   0.096142,   0.124834,   -389.798157,   489.707550,   0.517472,   34.510784,   25.019434,   -30.528412,   130.437805,   -432.325165,   0.043630,   763.310669,   442.796661
-0.096192,   0.095400,   0.124608,   -395.731232,   483.451447,   0.517472,   34.510784,   24.163321,   -41.481369,   129.201569,   -431.227753,   0.038340,   762.656738,   423.945404
-0.096532,   0.094472,   0.124158,   -401.902222,   476.560059,   0.517472,   34.510784,   23.307207,   -52.913441,   127.571266,   -429.860809,   0.032672,   761.685913,   401.582886
-0.096663,   0.093284,   0.123407,   -407.769592,   469.456238,   0.517471,   34.510784,   22.451094,   -64.147026,   125.833687,   -428.203369,   0.027044,   760.325684,   376.509552
-0.096549,   0.091774,   0.122295,   -413.989197,   461.374603,   0.517472,   34.510784,   21.594982,   -76.208519,   123.593933,   -426.128143,   0.020825,   758.457458,   344.358673
-0.096175,   0.089997,   0.120859,   -419.959656,   453.010101,   0.517472,   34.510784,   20.738867,   -87.730728,   120.781174,   -423.851105,   0.014569,   756.194580,   304.850128
-0.095747,   0.087963,   0.119257,   -426.631744,   443.485748,   0.517471,   34.510784,   19.882755,   -100.624184,   117.478172,   -421.169739,   0.007455,   753.590942,   243.032486
-0.094859,   0.085483,   0.117133,   -432.854797,   433.601532,   0.517472,   34.510784,   19.026642,   -112.580330,   113.327072,   -418.244080,   0.000332,   750.373291,   85.757271
-0.092789,   0.081941,   0.113576,   -437.950470,   422.483124,   0.517473,   34.510784,   18.170528,   -125.376846,   109.909515,   -413.819489,   -0.006919,   745.197449,   -234.420609
-0.090945,   0.077812,   0.109944,   -446.007568,   408.011322,   0.517472,   34.510784,   17.314415,   -139.599884,   101.603630,   -409.624573,   -0.017119,   739.846069,   -314.710205
-0.088762,   0.073139,   0.106132,   -453.905579,   392.993896,   0.517471,   34.510784,   16.458302,   -153.921783,   93.010109,   -405.050415,   -0.027659,   734.068481,   -366.231476
-0.085769,   0.067371,   0.101470,   -462.191772,   376.188202,   0.517472,   34.510784,   15.602188,   -166.092606,   80.089035,   -400.710480,   -0.039415,   727.330627,   -408.019470
-0.080792,   0.059473,   0.095124,   -467.349945,   358.364838,   0.517472,   34.510784,   14.746075,   -182.744049,   73.758934,   -392.431885,   -0.050656,   717.163269,   -436.964447
-0.075143,   0.050609,   0.089079,   -477.929382,   335.249420,   0.517472,   34.510784,   13.889962,   -196.471939,   53.791977,   -386.855194,   -0.067191,   707.837708,   -472.933258
-0.070167,   0.041389,   0.084618,   -481.821289,   320.854095,   0.517472,   34.510784,   13.033849,   -209.733688,   48.766502,   -379.955719,   -0.076675,   699.781006,   -487.912079
-0.067648,   0.033274,   0.082542,   -510.758240,   283.567230,   0.517472,   34.510784,   12.177735,   -224.557053,   -2.633960,   -381.347321,   -0.108617,   697.222107,   -542.656494
-0.067254,   0.026767,   0.080111,   -499.531738,   292.211975,   0.517472,   34.510784,   11.321622,   -217.944260,   10.624503,   -379.016632,   -0.099655,   693.461548,   -525.468933
-0.077997,   0.027343,   0.086272,   -640.839783,   108.753281,   0.517472,   34.510784,   10.465509,   -296.198212,   -235.888306,   -373.581482,   -0.252809,   701.567078,   -682.215515
-0.101940,   0.034943,   0.111895,   -781.268372,   0.000000,   0.517472,   34.510784,   9.609395,   -247.847397,   -666.924500,   -246.968491,   -0.421276,   723.810364,   -695.295898
-0.128390,   0.044349,   0.141993,   -823.294128,   0.000000,   0.517472,   34.510784,   8.753282,   -253.543503,   -739.771973,   -218.143997,   -0.439818,   752.823303,   -707.665161
-0.150461,   0.053402,   0.167148,   -841.179077,   0.000000,   0.517472,   34.510784,   7.897169,   -244.846603,   -745.101807,   -239.361618,   -0.424392,   777.542847,   -744.505127
-0.166092,   0.061078,   0.184987,   -850.604492,   0.000000,   0.517472,   34.510784,   7.041056,   -248.675079,   -727.280273,   -272.456390,   -0.409014,   795.372192,   -772.679382
-0.174628,   0.067199,   0.194702,   -848.736816,   0.000000,   0.517472,   34.510784,   6.184943,   -256.774963,   -682.356934,   -313.832031,   -0.387746,   807.343689,   -795.838867
-0.176225,   0.071202,   0.196447,   -836.862976,   0.000000,   0.517472,   34.510784,   5.328829,   -275.567566,   -610.153320,   -356.722687,   -0.362910,   813.535095,   -810.224304
-0.171786,   0.073000,   0.191127,   -815.812134,   0.000000,   0.517472,   34.510784,   4.472716,   -306.355286,   -515.549683,   -391.114746,   -0.337074,   812.782837,   -812.731445
-0.047466,   0.112368,   0.123439,   -3.139218,   745.851196,   0.522564,   35.259705,   54.819710,   332.817078,   409.894897,   -372.506927,   0.331231,   747.425720,   747.410889
-0.048822,   0.119149,   0.131435,   0.000000,   761.297180,   0.522564,   35.259705,   53.939720,   321.341095,   449.412537,   -370.426178,   0.339563,   756.613281,   756.480286
-0.049598,   0.123974,   0.137092,   0.000000,   771.960022,   0.522564,   35.259705,   53.059731,   311.588531,   479.510559,   -366.926941,   0.345804,   762.570618,   762.029907
-0.050130,   0.127588,   0.141299,   0.000000,   779.703857,   0.522564,   35.259705,   52.179741,   302.351440,   504.089874,   -362.718903,   0.350618,   766.684875,   765.634888
-0.050379,   0.130084,   0.144179,   0.000000,   785.029358,   0.522564,   35.259705,   51.299751,   293.953156,   523.600403,   -358.303711,   0.354249,   769.283081,   767.733887
-0.050394,   0.131464,   0.145750,   0.000000,   788.158691,   0.522565,   35.259705,   50.419762,   285.909637,   538.822021,   -353.877258,   0.356784,   770.523499,   768.566956
-0.050205,   0.131853,   0.146165,   0.000000,   789.501465,   0.522564,   35.259705,   49.539768,   278.232025,   550.539917,   -349.533600,   0.358488,   770.617004,   768.360901
-0.049797,   0.131285,   0.145470,   0.000000,   789.390625,   0.522564,   35.259705,   48.659779,   270.794525,   559.822205,   -345.041016,   0.359758,   769.606201,   767.116028
-0.049163,   0.129733,   0.143635,   0.000000,   787.968201,   0.522564,   35.259705,   47.779793,   263.683441,   567.131775,   -340.266357,   0.360859,   767.442322,   764.744324
-0.048273,   0.127164,   0.140625,   0.000000,   785.339722,   0.522564,   35.259705,   46.899803,   257.077728,   572.814575,   -335.065582,   0.362064,   764.038269,   761.107483
-0.047180,   0.123680,   0.136556,   0.000000,   781.650452,   0.522564,   35.259705,   46.019814,   250.881943,   577.277283,   -329.355164,   0.363484,   759.464844,   756.250854
-0.046029,   0.119551,   0.131741,   0.000000,   777.123047,   0.522565,   35.259705,   45.139820,   245.351044,   580.369263,   -323.462769,   0.365040,   753.999939,   750.464172
-0.045080,   0.115170,   0.126627,   0.000000,   772.032043,   0.522564,   35.259705,   44.259830,   239.771591,   582.770447,   -317.390106,   0.366524,   748.057129,   744.205933
-0.044525,   0.110828,   0.121618,   0.000000,   766.559753,   0.522564,   35.259705,   43.379841,   234.009445,   584.171448,   -311.658386,   0.367509,   742.096985,   738.041321
-0.044485,   0.106398,   0.116785,   0.000000,   760.780518,   0.522564,   35.259705,   42.499851,   228.017838,   584.659973,   -306.317566,   0.367958,   736.205017,   732.072571
-0.043806,   0.100507,   0.110822,   0.000000,   753.486084,   0.522564,   35.259705,   41.619862,   220.394928,   585.690857,   -299.082214,   0.368777,   728.611633,   724.321411
-0.043224,   0.093455,   0.104148,   0.000000,   744.115112,   0.522565,   35.259705,   40.739872,   211.056458,   584.272339,   -291.899902,   0.368271,   719.875793,   715.759949
-0.043406,   0.087240,   0.098887,   0.000000,   735.576294,   0.522564,   35.259705,   39.859882,   201.838455,   581.880310,   -286.414642,   0.366536,   712.725525,   709.053467
-0.044860,   0.082441,   0.095165,   0.000000,   727.724182,   0.522564,   35.259705,   38.979893,   191.908783,   577.977600,   -283.260498,   0.362682,   707.585754,   704.751282
-0.047543,   0.078939,   0.092651,   0.000000,   719.957703,   0.522564,   35.259705,   38.099903,   181.073685,   571.473450,   -282.870605,   0.356204,   704.228760,   702.529114
-0.051025,   0.076531,   0.090897,   0.000000,   711.180481,   0.522564,   35.259705,   37.219910,   168.400742,   561.184814,   -285.332428,   0.346354,   702.158875,   701.615784
-0.055259,   0.075514,   0.090248,   -6.734221,   699.033081,   0.522565,   35.259705,   36.339920,   152.164566,   540.134277,   -294.782532,   0.328528,   702.424377,   702.351685
-0.060108,   0.075956,   0.091086,   -61.956585,   674.262268,   0.522565,   35.259705,   35.459930,   128.994919,   483.310760,   -322.675720,   0.288573,   707.278748,   701.134460
-0.065547,   0.078384,   0.094557,   -165.565186,   622.283264,   0.522564,   35.259705,   34.579941,   102.004608,   354.713470,   -373.109711,   0.211591,   719.497559,   674.610474
-0.071637,   0.083142,   0.101189,   -268.136566,   562.118530,   0.522564,   35.259705,   33.699951,   82.182281,   211.799698,   -410.037445,   0.133526,   733.893066,   608.043396
-0.075893,   0.086451,   0.106042,   -306.757050,   538.823975,   0.522564,   35.259705,   32.819962,   72.154755,   159.912170,   -420.507416,   0.104333,   741.430542,   569.913269
-0.077366,   0.086622,   0.106979,   -318.821594,   530.201050,   0.522564,   35.259705,   31.939970,   60.557278,   150.822159,   -422.105347,   0.094853,   742.832336,   554.222473
-0.078855,   0.086925,   0.108046,   -331.613190,   520.947021,   0.522564,   35.259705,   31.059980,   49.346401,   139.987457,   -423.864105,   0.084783,   744.382996,   535.979553
-0.080248,   0.087200,   0.109055,   -340.419037,   514.747803,   0.522564,   35.259705,   30.179991,   39.066380,   135.262375,   -424.869568,   0.077925,   745.707947,   522.642151
-0.081247,   0.087061,   0.109533,   -349.320709,   507.584442,   0.522564,   35.259705,   29.299999,   27.790335,   130.473404,   -425.365326,   0.070687,   746.308716,   506.893555
-0.082219,   0.086930,   0.110009,   -356.337921,   501.907928,   0.522564,   35.259705,   28.420010,   17.243763,   128.326263,   -425.513397,   0.064973,   746.817993,   493.574219
-0.082989,   0.086579,   0.110209,   -363.849030,   495.296661,   0.522564,   35.259705,   27.540020,   6.079493,   125.368126,   -425.412018,   0.058661,   746.939148,   477.495483
-0.083621,   0.086095,   0.110235,   -370.341339,   489.222076,   0.522564,   35.259705,   26.660030,   -4.715973,   123.596695,   -424.966217,   0.053064,   746.773132,   461.989319
-0.084130,   0.085473,   0.110091,   -376.965485,   482.665771,   0.522564,   35.259705,   25.780041,   -15.981908,   121.682205,   -424.268341,   0.047209,   746.336121,   444.332092
-0.084479,   0.084670,   0.109727,   -383.279541,   475.972534,   0.522564,   35.259705,   24.900049,   -27.032749,   119.725761,   -423.313141,   0.041441,   745.575989,   425.232330
-0.084683,   0.083707,   0.109166,   -389.522156,   468.912537,   0.522564,   35.259705,   24.020060,   -38.640621,   118.030983,   -422.008331,   0.035546,   744.485229,   403.621155
-0.084823,   0.082630,   0.108496,   -395.780792,   461.568756,   0.522564,   35.259705,   23.140070,   -50.114117,   115.902092,   -420.561188,   0.029506,   743.214783,   378.829254
-0.084757,   0.081363,   0.107579,   -401.997986,   453.760681,   0.522564,   35.259705,   22.260080,   -61.851810,   113.614494,   -418.788269,   0.023267,   741.560547,   349.326691
-0.084523,   0.079914,   0.106447,   -407.938751,   445.777283,   0.522564,   35.259705,   21.380089,   -73.324036,   111.162567,   -416.772034,   0.017054,   739.581787,   314.200043
-0.084114,   0.078093,   0.104976,   -414.876404,   436.100891,   0.522564,   35.259705,   20.500099,   -86.295059,   107.519562,   -414.306122,   0.009599,   737.044373,   258.582153
-0.083142,   0.075615,   0.102747,   -421.439850,   425.496582,   0.522564,   35.259705,   19.620110,   -98.860374,   102.917091,   -411.274597,   0.001844,   733.471252,   148.482681
-0.081744,   0.072837,   0.100080,   -427.465088,   414.437805,   0.522564,   35.259705,   18.740120,   -111.846443,   98.819168,   -407.559967,   -0.005956,   729.138367,   -218.192429
-0.079668,   0.069152,   0.096517,   -433.718719,   401.619141,   0.522564,   35.259705,   17.860130,   -123.864456,   91.764854,   -403.513733,   -0.014787,   723.601807,   -293.157990
-0.078223,   0.065364,   0.093523,   -442.741638,   386.178528,   0.522564,   35.259705,   16.980139,   -139.832016,   83.268890,   -399.166199,   -0.026244,   718.422791,   -352.231995
-0.075983,   0.060799,   0.089895,   -450.484680,   371.252350,   0.522563,   35.259705,   16.100149,   -150.294968,   71.062614,   -395.680603,   -0.037055,   712.746948,   -391.763519
-0.072481,   0.054473,   0.085080,   -457.446014,   353.513275,   0.522564,   35.259705,   15.220160,   -167.308609,   63.375862,   -388.728577,   -0.049194,   704.231323,   -424.981384
-0.067961,   0.047144,   0.080141,   -465.733032,   334.332550,   0.522564,   35.259705,   14.340169,   -178.839615,   47.439125,   -383.700043,   -0.062933,   695.985107,   -455.231598
-0.064007,   0.039240,   0.076699,   -470.227936,   320.758423,   0.522564,   35.259705,   13.460179,   -192.639114,   43.169590,   -377.509491,   -0.072304,   689.078979,   -471.453491
-0.062611,   0.032404,   0.076125,   -493.598633,   292.737396,   0.522564,   35.259705,   12.580190,   -206.130783,   5.269557,   -378.693237,   -0.097267,   688.352783,   -517.648499
-0.062561,   0.026345,   0.075423,   -489.283539,   296.482788,   0.522564,   35.259705,   11.700199,   -202.992813,   10.192074,   -378.147095,   -0.093508,   687.287781,   -510.478760
-0.069737,   0.024638,   0.078038,   -581.058655,   180.865738,   0.522564,   35.259705,   10.820210,   -268.025116,   -132.167770,   -374.857147,   -0.193465,   689.518066,   -632.763794
-0.089170,   0.030271,   0.097525,   -745.533142,   0.000000,   0.522564,   35.259705,   9.940220,   -233.996399,   -596.615051,   -276.001923,   -0.391699,   706.844543,   -695.185242
-0.112425,   0.037933,   0.123977,   -800.983765,   0.000000,   0.522564,   35.259705,   9.060229,   -236.603271,   -727.173889,   -204.100113,   -0.438120,   733.267944,   -690.831482
-0.130632,   0.044929,   0.144786,   -820.842041,   0.000000,   0.522564,   35.259705,   8.180239,   -236.708237,   -738.375549,   -219.480011,   -0.430146,   755.621643,   -718.911438
-0.141776,   0.050197,   0.157567,   -828.914795,   0.000000,   0.522564,   35.259705,   7.300249,   -239.360260,   -725.677979,   -246.705780,   -0.417803,   769.931580,   -742.130920
-0.146242,   0.053712,   0.162712,   -826.692688,   0.000000,   0.522564,   35.259705,   6.420259,   -246.828384,   -688.002258,   -283.587067,   -0.400384,   778.278748,   -761.101379
-0.145135,   0.055663,   0.161388,   -815.723938,   0.000000,   0.522564,   35.259705,   5.540269,   -262.672302,   -626.575073,   -323.433289,   -0.379262,   781.560242,   -773.722290
-0.138955,   0.055808,   0.154146,   -796.030945,   0.000000,   0.522564,   35.259705,   4.660279,   -287.816437,   -544.115601,   -357.808685,   -0.356119,   778.701416,   -776.836121
-0.128356,   0.054170,   0.141654,   -767.866028,   0.000000,   0.522564,   35.259705,   3.780289,   -320.837646,   -447.107025,   -378.666565,   -0.333385,   767.826721,   -767.826660
-0.035514,   0.084704,   0.092013,   -2.672374,   704.979553,   0.537509,   36.001991,   55.549416,   336.776062,   365.531097,   -353.533722,   0.331440,   706.319519,   706.308228
-0.038301,   0.092960,   0.101656,   0.000000,   723.067017,   0.537508,   36.001991,   54.644264,   322.826202,   404.948883,   -356.824677,   0.336594,   720.724487,   720.689880
-0.039968,   0.099641,   0.109446,   0.000000,   738.025940,   0.537508,   36.001991,   53.739113,   312.022247,   440.114868,   -356.246002,   0.342938,   731.072510,   730.766052
-0.041234,   0.104942,   0.115603,   0.000000,   749.510193,   0.537509,   36.001991,   52.833961,   302.485168,   469.442413,   -353.832306,   0.348395,   738.556702,   737.790588
-0.042104,   0.109017,   0.120308,   0.000000,   757.954468,   0.537508,   36.001991,   51.928806,   293.918701,   493.047943,   -350.608215,   0.352644,   743.872864,   742.598267
-0.042752,   0.112159,   0.123911,   0.000000,   764.204346,   0.537509,   36.001991,   51.023655,   286.108978,   512.301819,   -347.035187,   0.355946,   747.688171,   745.924622
-0.043170,   0.114322,   0.126371,   0.000000,   768.376892,   0.537509,   36.001991,   50.118504,   278.983398,   527.335938,   -343.458710,   0.358304,   750.125732,   747.962219
-0.043324,   0.115469,   0.127655,   0.000000,   770.722961,   0.537508,   36.001991,   49.213352,   272.235016,   539.118896,   -339.782043,   0.360010,   751.232056,   748.753906
-0.043215,   0.115567,   0.127727,   0.000000,   771.329407,   0.537508,   36.001991,   48.308201,   265.727173,   548.022339,   -336.012756,   0.361176,   751.018494,   748.315857
-0.042835,   0.114620,   0.126596,   0.000000,   770.447205,   0.537509,   36.001991,   47.403046,   259.646057,   554.652954,   -332.005981,   0.362160,   749.484131,   746.589600
-0.042198,   0.112626,   0.124255,   0.000000,   768.213318,   0.537508,   36.001991,   46.497894,   253.902649,   559.652100,   -327.513733,   0.363238,   746.575928,   743.468689
-0.041382,   0.109722,   0.120856,   0.000000,   764.815125,   0.537509,   36.001991,   45.592743,   248.658142,   563.197510,   -322.593170,   0.364512,   742.413452,   739.049255
-0.040561,   0.106180,   0.116701,   0.000000,   760.459106,   0.537508,   36.001991,   44.687592,   243.414291,   565.864929,   -317.196930,   0.365894,   737.262329,   733.612427
-0.039926,   0.102465,   0.112341,   0.000000,   755.740173,   0.537509,   36.001991,   43.782436,   238.443970,   567.985046,   -311.648865,   0.367370,   731.713745,   727.747925
-0.039736,   0.099011,   0.108362,   0.000000,   751.301025,   0.537508,   36.001991,   42.877285,   233.593567,   570.203735,   -306.195038,   0.368811,   726.476807,   722.190918
-0.039749,   0.095000,   0.104097,   0.000000,   746.015625,   0.537508,   36.001991,   41.972134,   227.363220,   572.271423,   -300.187988,   0.369840,   720.703552,   716.195374
-0.039384,   0.089276,   0.098426,   0.000000,   737.924805,   0.537510,   36.001991,   41.066982,   218.293488,   572.727051,   -292.987946,   0.369880,   712.861511,   708.392273
-0.039179,   0.083237,   0.093036,   0.000000,   729.399658,   0.537508,   36.001991,   40.161827,   208.450775,   572.390381,   -285.996155,   0.369146,   705.087708,   700.847046
-0.040236,   0.078268,   0.089102,   0.000000,   721.377747,   0.537508,   36.001991,   39.256676,   197.564056,   570.386169,   -281.231995,   0.366080,   699.255615,   695.753357
-0.041898,   0.074329,   0.086172,   0.000000,   713.959473,   0.537509,   36.001991,   38.351524,   187.275299,   566.521118,   -278.663696,   0.361586,   694.897949,   692.321899
-0.044580,   0.071354,   0.083986,   0.000000,   705.706299,   0.537508,   36.001991,   37.446369,   174.863693,   559.618958,   -278.476929,   0.353916,   691.767212,   690.418579
-0.048109,   0.069611,   0.082743,   0.000000,   696.662842,   0.537508,   36.001991,   36.541222,   161.495316,   547.862976,   -282.192932,   0.342485,   690.402649,   690.139954
-0.052394,   0.069154,   0.082604,   -21.453217,   681.111938,   0.537511,   36.001991,   35.636066,   142.653320,   517.005432,   -297.261810,   0.317714,   692.088013,   691.339355
-0.057075,   0.069964,   0.083911,   -100.255051,   644.170105,   0.537508,   36.001991,   34.730915,   116.113983,   427.801086,   -338.016266,   0.259116,   699.705322,   683.265869
-0.062306,   0.072949,   0.088217,   -222.023590,   576.496826,   0.537508,   36.001991,   33.825764,   89.253410,   265.219849,   -389.445343,   0.165513,   713.890015,   628.875183
-0.067256,   0.076899,   0.093854,   -300.552521,   526.378845,   0.537509,   36.001991,   32.920609,   72.625870,   153.200455,   -411.498230,   0.103830,   724.990295,   556.438782
-0.069058,   0.077642,   0.095421,   -310.585571,   520.521729,   0.537509,   36.001991,   32.015457,   64.577118,   145.359055,   -413.586029,   0.096207,   727.373901,   545.114868
-0.070078,   0.077455,   0.095844,   -321.980927,   511.641144,   0.537509,   36.001991,   31.110304,   53.433090,   136.227127,   -414.750183,   0.086824,   728.139465,   528.267639
-0.071530,   0.077908,   0.097020,   -333.616455,   503.484009,   0.537508,   36.001991,   30.205153,   42.527866,   127.339706,   -416.396484,   0.077575,   729.908630,   510.828949
-0.072343,   0.077658,   0.097308,   -341.050995,   497.389740,   0.537509,   36.001991,   29.300001,   32.179279,   124.159477,   -416.690094,   0.071358,   730.306519,   497.539581
-0.073195,   0.077483,   0.097683,   -349.389496,   490.513336,   0.537509,   36.001991,   28.394848,   21.071276,   120.052574,   -417.025024,   0.064370,   730.791748,   481.521332
-0.073816,   0.077091,   0.097767,   -356.029968,   484.559998,   0.537508,   36.001991,   27.489697,   10.725857,   117.804153,   -416.871002,   0.058625,   730.803406,   467.087891
-0.074247,   0.076491,   0.097591,   -363.197876,   477.622437,   0.537509,   36.001991,   26.584543,   -0.315610,   114.740158,   -416.455566,   0.052219,   730.415894,   449.498108
-0.074565,   0.075774,   0.097267,   -369.206604,   471.371857,   0.537508,   36.001991,   25.679390,   -10.971384,   113.136620,   -415.682983,   0.046667,   729.752380,   432.812286
-0.074684,   0.074837,   0.096671,   -375.982422,   463.887146,   0.537509,   36.001991,   24.774239,   -22.251102,   110.155838,   -414.683411,   0.040212,   728.675171,   411.484192
-0.074619,   0.073689,   0.095821,   -381.765656,   456.772461,   0.537509,   36.001991,   23.869085,   -33.324230,   108.331024,   -413.243256,   0.034383,   727.163086,   389.915802
-0.074353,   0.072317,   0.094695,   -388.238281,   448.430115,   0.537508,   36.001991,   22.963934,   -45.184593,   105.376427,   -411.504974,   0.027667,   725.200867,   361.839264
-0.073863,   0.070739,   0.093299,   -393.989777,   440.203583,   0.537509,   36.001991,   22.058783,   -56.408852,   102.622673,   -409.447052,   0.021312,   722.802124,   330.701782
-0.073238,   0.068913,   0.091669,   -400.410675,   430.739594,   0.537509,   36.001991,   21.153629,   -68.730469,   99.059387,   -407.018829,   0.014042,   719.956970,   286.704620
-0.072554,   0.066941,   0.089931,   -407.148804,   420.613373,   0.537508,   36.001991,   20.248476,   -81.014778,   94.479340,   -404.472504,   0.006261,   716.894653,   218.129425
-0.071404,   0.064652,   0.087720,   -413.005219,   410.317169,   0.537509,   36.001991,   19.343325,   -93.081047,   90.392998,   -401.309418,   -0.001257,   713.019348,   -127.030678
-0.069767,   0.061511,   0.084690,   -419.830841,   397.310303,   0.537509,   36.001991,   18.438171,   -106.432999,   83.912483,   -397.331177,   -0.010607,   707.754578,   -256.702179
-0.067876,   0.057826,   0.081314,   -427.662598,   382.223145,   0.537508,   36.001991,   17.533020,   -120.751175,   75.311714,   -392.897644,   -0.021584,   701.749512,   -322.423828
-0.066873,   0.054514,   0.079111,   -437.516968,   367.131409,   0.537509,   36.001991,   16.627869,   -133.062958,   62.677402,   -390.238617,   -0.033626,   697.734009,   -371.386688
-0.064466,   0.049633,   0.075517,   -444.764282,   351.017792,   0.537508,   36.001991,   15.722715,   -148.857498,   55.111008,   -384.599121,   -0.045238,   690.759644,   -405.516510
-0.061123,   0.043483,   0.071627,   -453.676025,   332.353607,   0.537509,   36.001991,   14.817563,   -162.315643,   40.993217,   -379.640656,   -0.059174,   683.419189,   -438.133820
-0.058205,   0.036932,   0.069277,   -460.599396,   318.021149,   0.537509,   36.001991,   13.912411,   -177.313019,   34.734787,   -374.595001,   -0.070091,   678.063110,   -459.281342
-0.057100,   0.030741,   0.069001,   -476.522675,   299.032593,   0.537508,   36.001991,   13.007258,   -188.124557,   10.634459,   -374.826904,   -0.087328,   677.488098,   -492.423950
-0.058519,   0.025893,   0.071161,   -486.483246,   291.744263,   0.537509,   36.001991,   12.102106,   -195.938995,   1.200011,   -376.422058,   -0.095325,   680.962097,   -508.856659
-0.063486,   0.022751,   0.072418,   -522.901123,   247.093063,   0.537509,   36.001991,   11.196954,   -233.053925,   -42.754120,   -373.053955,   -0.135012,   680.944824,   -566.021423
-0.079050,   0.026436,   0.086288,   -707.966736,   0.000000,   0.537509,   36.001991,   10.291800,   -228.611725,   -504.726471,   -312.128540,   -0.351403,   695.628052,   -694.585876
-0.099804,   0.032747,   0.109763,   -783.358887,   0.000000,   0.537508,   36.001991,   9.386649,   -228.338989,   -717.015320,   -191.890640,   -0.439964,   716.235413,   -673.139893
-0.115051,   0.038374,   0.127203,   -804.396484,   0.000000,   0.537509,   36.001991,   8.481497,   -235.250549,   -731.990723,   -203.001053,   -0.437705,   736.600464,   -694.345703
-0.123286,   0.042350,   0.136660,   -810.104431,   0.000000,   0.537509,   36.001991,   7.576344,   -232.953461,   -721.993164,   -225.507172,   -0.425401,   748.272095,   -715.705383
-0.125553,   0.044756,   0.139278,   -806.862732,   0.000000,   0.537509,   36.001991,   6.671192,   -237.691650,   -688.807922,   -259.216888,   -0.409487,   754.194946,   -732.389160
-0.122927,   0.045613,   0.136279,   -795.476440,   0.000000,   0.537509,   36.001991,   5.766040,   -249.545364,   -633.896240,   -297.004486,   -0.389862,   755.345276,   -743.690674
-0.116655,   0.045310,   0.129008,   -776.790833,   0.000000,   0.537509,   36.001991,   4.860888,   -269.590729,   -560.157104,   -331.476471,   -0.367937,   751.712646,   -747.498474
-0.107578,   0.043774,   0.118405,   -752.134155,   0.000000,   0.537509,   36.001991,   3.955735,   -297.623383,   -475.075470,   -354.860779,   -0.347094,   742.065613,   -741.424011
-0.096179,   0.040297,   0.105030,   -724.561829,   0.397462,   0.537509,   36.001991,   3.050583,   -331.507904,   -392.656433,   -361.187897,   -0.333059,   724.760620,   -724.760376
-0.026981,   0.064300,   0.069072,   -2.884671,   668.455933,   0.552449,   36.744282,   56.279121,   325.667419,   339.903839,   -335.594818,   0.331178,   669.902893,   669.888916
-0.030303,   0.072228,   0.078196,   -2.646726,   685.546570,   0.552447,   36.744282,   55.348808,   311.375702,   371.524139,   -342.779877,   0.331405,   686.873779,   686.862305
-0.032806,   0.079538,   0.086640,   0.000000,   702.363037,   0.552447,   36.744282,   54.418495,   299.558380,   406.206085,   -345.388763,   0.335758,   700.668518,   700.649963
-0.034572,   0.085958,   0.094035,   0.000000,   717.021118,   0.552449,   36.744282,   53.488178,   290.509949,   437.805145,   -345.092377,   0.341239,   711.441406,   711.239685
-0.035960,   0.091334,   0.100209,   0.000000,   728.866272,   0.552447,   36.744282,   52.557865,   282.495026,   465.137451,   -343.104858,   0.346286,   719.666626,   719.115845
-0.037100,   0.095867,   0.105393,   0.000000,   738.431702,   0.552448,   36.744282,   51.627552,   275.790436,   488.034882,   -340.358490,   0.350667,   726.067993,   725.067871
-0.037910,   0.099471,   0.109505,   0.000000,   745.748352,   0.552448,   36.744282,   50.697235,   270.187134,   506.346466,   -337.417023,   0.354173,   730.842163,   729.381226
-0.038419,   0.102054,   0.112443,   0.000000,   750.888000,   0.552448,   36.744282,   49.766922,   265.058411,   520.727661,   -334.393066,   0.356821,   734.061401,   732.191528
-0.038608,   0.103571,   0.114165,   0.000000,   754.074768,   0.552447,   36.744282,   48.836605,   260.300781,   531.839844,   -331.260986,   0.358866,   735.780762,   733.560364
-0.038501,   0.104011,   0.114655,   0.000000,   755.434570,   0.552449,   36.744282,   47.906292,   255.871994,   539.992065,   -328.065552,   0.360420,   736.053040,   733.548584
-0.038122,   0.103350,   0.113881,   0.000000,   755.082214,   0.552447,   36.744282,   46.975975,   251.595276,   545.797424,   -324.610779,   0.361708,   734.841064,   732.092957
-0.037513,   0.101597,   0.111842,   0.000000,   753.169312,   0.552448,   36.744282,   46.045662,   247.646011,   549.639038,   -320.763611,   0.363008,   732.109009,   729.109497
-0.036747,   0.098877,   0.108670,   0.000000,   749.894958,   0.552447,   36.744282,   45.115349,   243.813660,   552.204041,   -316.303162,   0.364512,   727.930359,   724.631836
-0.035979,   0.095511,   0.104728,   0.000000,   745.723816,   0.552450,   36.744282,   44.185036,   240.325134,   553.976562,   -311.301788,   0.366378,   722.660461,   718.973206
-0.035464,   0.091958,   0.100555,   0.000000,   741.127014,   0.552447,   36.744282,   43.254719,   236.622101,   555.670227,   -305.882080,   0.368380,   716.914978,   712.789795
-0.035412,   0.088613,   0.096741,   0.000000,   736.642151,   0.552448,   36.744282,   42.324406,   232.109604,   557.908569,   -300.294678,   0.370141,   711.457336,   706.931580
-0.035409,   0.084522,   0.092481,   0.000000,   731.011902,   0.552448,   36.744282,   41.394089,   225.499557,   560.456299,   -293.628967,   0.371533,   705.147217,   700.306885
-0.035302,   0.079054,   0.087245,   0.000000,   722.855530,   0.552447,   36.744282,   40.463776,   216.022461,   561.369751,   -286.087952,   0.371679,   697.188782,   692.365295
-0.035587,   0.073863,   0.082844,   0.000000,   715.043152,   0.552448,   36.744282,   39.533463,   205.977402,   561.787903,   -279.315247,   0.370797,   690.193970,   685.641602
-0.037090,   0.069950,   0.079995,   0.000000,   708.198853,   0.552448,   36.744282,   38.603146,   195.647430,   560.281616,   -275.345612,   0.367537,   685.581055,   681.827759
-0.039351,   0.066859,   0.077848,   0.000000,   700.487610,   0.552448,   36.744282,   37.672832,   182.462402,   556.380615,   -273.223419,   0.361053,   682.119080,   679.686584
-0.042301,   0.064692,   0.076359,   0.000000,   691.742371,   0.552447,   36.744282,   36.742519,   167.466736,   548.578491,   -273.965942,   0.351046,   679.916809,   678.938477
-0.045877,   0.063567,   0.075626,   0.000000,   680.826782,   0.552450,   36.744282,   35.812202,   150.758774,   532.736633,   -280.174713,   0.335295,   679.496460,   679.484680
-0.049938,   0.063384,   0.075705,   -49.868805,   656.690186,   0.552447,   36.744282,   34.881889,   126.969864,   479.851532,   -306.063782,   0.296159,   682.991394,   678.877136
-0.054220,   0.064446,   0.077423,   -158.183502,   601.093079,   0.552448,   36.744282,   33.951572,   102.314232,   340.595367,   -360.459106,   0.212781,   693.842896,   651.393005
-0.058880,   0.067480,   0.081936,   -277.199585,   526.197205,   0.552448,   36.744282,   33.021259,   80.120277,   168.877350,   -399.239471,   0.117427,   706.813110,   563.442078
-0.061637,   0.069350,   0.084895,   -309.839325,   504.736481,   0.552448,   36.744282,   32.090942,   64.835602,   130.061554,   -405.980072,   0.091226,   712.142151,   524.827515
-0.062479,   0.069143,   0.085208,   -311.558502,   503.710175,   0.552448,   36.744282,   31.160629,   54.605324,   137.546341,   -405.519348,   0.089889,   712.550171,   522.680603
-0.064037,   0.069783,   0.086581,   -327.763672,   492.269745,   0.552448,   36.744282,   30.230314,   44.548237,   119.957840,   -408.279388,   0.076702,   714.917236,   498.521362
-0.064924,   0.069782,   0.087101,   -334.374939,   487.296173,   0.552448,   36.744282,   29.299999,   34.045204,   118.876045,   -408.640167,   0.071224,   715.684143,   487.282257
-0.065611,   0.069565,   0.087346,   -342.225403,   480.739471,   0.552448,   36.744282,   28.369686,   24.577213,   113.936859,   -409.049530,   0.064479,   716.065613,   472.077484
-0.066137,   0.069222,   0.087412,   -349.111450,   474.592804,   0.552448,   36.744282,   27.439371,   14.548021,   110.933334,   -409.022797,   0.058409,   716.102600,   457.141876
-0.066318,   0.068495,   0.086995,   -355.240509,   468.233276,   0.552448,   36.744282,   26.509056,   5.046121,   107.946648,   -408.509644,   0.052649,   715.383545,   441.432587
-0.066379,   0.067661,   0.086434,   -361.298553,   461.574127,   0.552448,   36.744282,   25.578741,   -4.976801,   105.252357,   -407.728149,   0.046788,   714.390198,   424.064484
-0.066144,   0.066500,   0.085464,   -366.896759,   454.550781,   0.552448,   36.744282,   24.648426,   -14.649336,   102.303375,   -406.539703,   0.040994,   712.743164,   405.052643
-0.065696,   0.065122,   0.084217,   -372.519379,   446.888794,   0.552448,   36.744282,   23.718113,   -24.925079,   99.294510,   -404.968903,   0.034886,   710.601868,   382.868805
-0.065021,   0.063496,   0.082660,   -377.618011,   439.040344,   0.552448,   36.744282,   22.787798,   -35.002815,   96.425171,   -403.006683,   0.028922,   707.913391,   358.450256
-0.064350,   0.061757,   0.081044,   -384.064301,   429.600311,   0.552448,   36.744282,   21.857483,   -46.727505,   92.263496,   -400.852722,   0.021529,   705.021973,   323.654999
-0.063292,   0.059697,   0.078980,   -389.065002,   420.580444,   0.552448,   36.744282,   20.927168,   -57.183010,   88.698456,   -398.197296,   0.014978,   701.350586,   285.362915
-0.062011,   0.057296,   0.076572,   -395.884796,   408.888336,   0.552448,   36.744282,   19.996855,   -69.432564,   82.436096,   -395.156830,   0.006219,   696.984314,   211.600220
-0.060349,   0.054381,   0.073610,   -401.692566,   396.769775,   0.552448,   36.744282,   19.066540,   -81.751350,   76.828545,   -391.278198,   -0.002373,   691.493042,   -152.273239
-0.058623,   0.051250,   0.070559,   -409.417328,   382.020569,   0.552448,   36.744282,   18.136225,   -96.533806,   69.137062,   -386.951904,   -0.013321,   685.542175,   -268.251678
-0.057493,   0.048120,   0.068160,   -418.937042,   366.551117,   0.552448,   36.744282,   17.205910,   -109.806389,   57.420479,   -383.740417,   -0.025651,   680.756775,   -331.240875
-0.056150,   0.044498,   0.065706,   -429.406586,   349.219513,   0.552448,   36.744282,   16.275597,   -125.744087,   45.557007,   -379.774445,   -0.039569,   675.500854,   -379.432251
-0.053293,   0.039195,   0.062063,   -435.336639,   333.558167,   0.552448,   36.744282,   15.345281,   -138.768234,   36.989742,   -374.268738,   -0.050801,   667.824158,   -407.285248
-0.051338,   0.033932,   0.060540,   -446.623993,   316.273987,   0.552448,   36.744282,   14.414967,   -155.140381,   24.790396,   -370.687958,   -0.065447,   663.895935,   -439.806641
-0.050106,   0.027785,   0.060039,   -453.661224,   306.040619,   0.552448,   36.744282,   13.484652,   -166.904480,   19.283857,   -368.266479,   -0.074325,   662.048401,   -457.003998
-0.053511,   0.024446,   0.065076,   -489.827423,   275.334900,   0.552448,   36.744282,   12.554337,   -190.214447,   -24.278090,   -373.476410,   -0.106510,   671.272522,   -519.303345
-0.057839,   0.021206,   0.067906,   -464.689606,   307.292999,   0.552448,   36.744282,   11.624022,   -197.747482,   40.350887,   -367.173767,   -0.077938,   673.172546,   -471.828430
-0.070092,   0.022715,   0.076702,   -662.535828,   50.553555,   0.552448,   36.744282,   10.693707,   -234.865005,   -377.117279,   -349.378296,   -0.295985,   689.204590,   -685.014526
-0.088802,   0.027744,   0.097517,   -769.256165,   0.000000,   0.552448,   36.744282,   9.763393,   -232.529724,   -704.083069,   -187.029709,   -0.445541,   700.730408,   -653.456238
-0.102257,   0.032478,   0.112900,   -792.916199,   0.000000,   0.552448,   36.744282,   8.833078,   -246.576767,   -727.315186,   -189.315643,   -0.451063,   719.701111,   -665.556335
-0.109131,   0.036013,   0.120712,   -797.368103,   0.000000,   0.552448,   36.744282,   7.902764,   -239.843552,   -718.917908,   -209.136139,   -0.437686,   730.173828,   -688.304260
-0.110535,   0.038229,   0.122256,   -792.793274,   0.000000,   0.552448,   36.744282,   6.972449,   -238.853088,   -688.614807,   -240.226242,   -0.420751,   734.771606,   -706.198425
-0.107745,   0.039158,   0.119032,   -780.153870,   0.000000,   0.552448,   36.744282,   6.042135,   -242.254959,   -638.543579,   -275.992767,   -0.399446,   735.017700,   -719.270142
-0.101941,   0.038898,   0.112355,   -761.782654,   0.000000,   0.552448,   36.744282,   5.111820,   -255.189865,   -572.009155,   -310.061096,   -0.377059,   731.272217,   -724.645508
-0.094082,   0.037665,   0.103271,   -738.690308,   0.000000,   0.552448,   36.744282,   4.181505,   -275.893280,   -495.497498,   -335.483093,   -0.355695,   722.895020,   -721.228088
-0.085143,   0.035307,   0.092880,   -713.973633,   0.000000,   0.552448,   36.744282,   3.251191,   -302.332550,   -420.688080,   -347.459900,   -0.339689,   709.493408,   -709.363586
-0.075748,   0.031707,   0.081949,   -691.371216,   0.178501,   0.552448,   36.744282,   2.320876,   -330.126984,   -361.065735,   -345.428650,   -0.333204,   691.460449,   -691.460388
-0.019374,   0.045522,   0.048132,   -7.794285,   625.290588,   0.567390,   37.486568,   57.008831,   295.901154,   321.595123,   -316.281616,   0.327121,   629.223938,   629.115295
-0.023030,   0.053408,   0.057080,   -12.562863,   643.625671,   0.567390,   37.486568,   56.053352,   284.570831,   346.492004,   -326.630219,   0.323623,   649.998169,   649.724915
-0.026439,   0.061280,   0.066056,   -11.968779,   662.098022,   0.567390,   37.486568,   55.097878,   272.286865,   377.842407,   -332.875397,   0.324337,   668.162842,   667.921570
-0.029185,   0.068777,   0.074585,   -7.038198,   679.640991,   0.567390,   37.486568,   54.142399,   263.560364,   409.042450,   -335.545563,   0.328169,   683.187317,   683.105774
-0.031494,   0.075855,   0.082622,   0.000000,   695.860474,   0.567390,   37.486568,   53.186924,   256.852600,   439.176666,   -335.687683,   0.333455,   695.776123,   695.776062
-0.033209,   0.081981,   0.089570,   0.000000,   709.581543,   0.567390,   37.486568,   52.231445,   252.360046,   465.187469,   -334.278687,   0.338962,   705.632324,   705.531189
-0.034398,   0.086986,   0.095251,   0.000000,   720.611633,   0.567390,   37.486568,   51.275970,   249.352722,   486.569153,   -332.106293,   0.344011,   713.079773,   712.709839
-0.035139,   0.090940,   0.099752,   0.000000,   729.230042,   0.567391,   37.486568,   50.320492,   247.085785,   503.853577,   -329.642151,   0.348324,   718.621277,   717.882996
-0.035446,   0.093742,   0.102963,   0.000000,   735.528381,   0.567389,   37.486568,   49.365013,   245.216324,   517.454651,   -326.992645,   0.351945,   722.339661,   721.191040
-0.035363,   0.095312,   0.104786,   0.000000,   739.496094,   0.567391,   37.486568,   48.409538,   243.515289,   527.462769,   -324.290680,   0.354831,   724.268433,   722.726562
-0.034992,   0.095695,   0.105259,   0.000000,   741.315735,   0.567390,   37.486568,   47.454060,   241.703430,   534.437866,   -321.494507,   0.357078,   724.530945,   722.644165
-0.034351,   0.094903,   0.104386,   0.000000,   741.212646,   0.567390,   37.486568,   46.498585,   240.012054,   538.834656,   -318.483887,   0.359016,   723.130493,   720.922241
-0.033556,   0.092998,   0.102215,   0.000000,   739.304626,   0.567390,   37.486568,   45.543106,   238.288574,   541.140991,   -315.092285,   0.360806,   720.081055,   717.559326
-0.032700,   0.090165,   0.098942,   0.000000,   735.980835,   0.567390,   37.486568,   44.587631,   236.757187,   542.062439,   -311.140900,   0.362820,   715.523926,   712.630127
-0.031962,   0.086779,   0.094975,   0.000000,   731.799438,   0.567390,   37.486568,   43.632153,   235.030365,   542.905762,   -306.327515,   0.365302,   709.856506,   706.471375
-0.031578,   0.083360,   0.090952,   0.000000,   727.462341,   0.567391,   37.486568,   42.676678,   232.686478,   544.608521,   -300.785034,   0.368105,   703.870239,   699.884888
-0.031529,   0.079989,   0.087165,   0.000000,   723.345581,   0.567389,   37.486568,   41.721199,   229.330856,   547.961548,   -294.350616,   0.371233,   697.937561,   693.223511
-0.031485,   0.075810,   0.082883,   0.000000,   718.020142,   0.567390,   37.486568,   40.765724,   224.089890,   551.601379,   -286.704163,   0.374192,   690.992004,   685.546021
-0.031627,   0.070745,   0.078184,   0.000000,   710.968628,   0.567390,   37.486568,   39.810246,   217.195847,   553.202209,   -279.107056,   0.375880,   683.195251,   677.343262
-0.032464,   0.066005,   0.074298,   0.000000,   703.967834,   0.567390,   37.486568,   38.854771,   210.037323,   552.477539,   -273.542847,   0.375662,   676.596802,   670.862244
-0.033995,   0.062036,   0.071178,   0.000000,   696.512756,   0.567391,   37.486568,   37.899292,   199.865707,   550.624023,   -269.175079,   0.372736,   671.154175,   666.244507
-0.036435,   0.059103,   0.069027,   0.000000,   688.102478,   0.567389,   37.486568,   36.943813,   185.196228,   546.449707,   -266.904572,   0.365423,   667.396912,   664.189758
-0.039719,   0.057479,   0.068020,   0.000000,   677.553894,   0.567391,   37.486568,   35.988338,   164.479782,   537.051758,   -268.492096,   0.351175,   665.888916,   664.916504
-0.043645,   0.057191,   0.068193,   -12.770755,   661.018188,   0.567389,   37.486568,   35.032864,   136.800232,   511.447174,   -280.013916,   0.323721,   667.495178,   667.220154
-0.047835,   0.057781,   0.069239,   -104.579948,   616.965576,   0.567391,   37.486568,   34.077385,   98.911697,   413.473907,   -324.683899,   0.252897,   675.355957,   656.767456
-0.052023,   0.059674,   0.072171,   -241.513458,   536.197144,   0.567390,   37.486568,   33.121906,   75.816238,   218.867416,   -382.220520,   0.142474,   689.445374,   582.174988
-0.055211,   0.061831,   0.075526,   -311.089142,   487.637268,   0.567390,   37.486568,   32.166431,   65.715744,   110.832397,   -398.725586,   0.084393,   697.327209,   501.359497
-0.056162,   0.061996,   0.076201,   -303.330566,   495.186401,   0.567390,   37.486568,   31.210953,   53.769230,   138.086594,   -397.026428,   0.091601,   698.157715,   515.189636
-0.057662,   0.062637,   0.077533,   -321.887939,   481.919647,   0.567390,   37.486568,   30.255476,   43.137180,   116.894539,   -400.208221,   0.076129,   700.701477,   487.433411
-0.058782,   0.063082,   0.078524,   -329.907990,   476.671112,   0.567390,   37.486568,   29.299999,   34.063457,   112.699638,   -401.368347,   0.069652,   702.361877,   474.774689
-0.059457,   0.063046,   0.078898,   -336.631683,   471.327026,   0.567390,   37.486568,   28.344522,   24.546238,   110.149109,   -401.705566,   0.063872,   702.946472,   462.005066
-0.060061,   0.062970,   0.079207,   -343.842896,   465.392120,   0.567391,   37.486568,   27.389046,   16.390440,   105.158783,   -402.175812,   0.057597,   703.448303,   447.014252
-0.060156,   0.062374,   0.078836,   -349.296234,   459.694489,   0.567390,   37.486568,   26.433569,   7.895257,   102.503006,   -401.719849,   0.052363,   702.777649,   432.879913
-0.060065,   0.061589,   0.078219,   -354.126953,   454.067963,   0.567390,   37.486568,   25.478092,   0.368869,   99.572128,   -401.041687,   0.047476,   701.698914,   418.533295
-0.059612,   0.060415,   0.077107,   -359.312561,   447.143341,   0.567390,   37.486568,   24.522615,   -7.657659,   95.488441,   -399.916229,   0.041837,   699.790588,   400.371002
-0.058888,   0.058936,   0.075617,   -362.914398,   440.864136,   0.567391,   37.486568,   23.567139,   -15.142123,   93.091843,   -398.229004,   0.037269,   697.182861,   383.938751
-0.057789,   0.057115,   0.073662,   -367.411041,   432.818756,   0.567390,   37.486568,   22.611660,   -22.446703,   87.854416,   -396.295776,   0.031425,   693.790527,   361.101624
-0.056258,   0.054732,   0.071050,   -370.302368,   424.779083,   0.567390,   37.486568,   21.656183,   -30.269398,   84.746117,   -393.359222,   0.026352,   689.099304,   338.314026
-0.054570,   0.052178,   0.068241,   -375.339050,   414.111115,   0.567390,   37.486568,   20.700708,   -38.976593,   77.748665,   -390.386597,   0.018896,   683.958679,   300.654816
-0.052912,   0.049517,   0.065404,   -378.624969,   404.713928,   0.567390,   37.486568,   19.745232,   -47.575104,   73.664070,   -386.949890,   0.012817,   678.516785,   262.110931
-0.050629,   0.046197,   0.061761,   -384.992523,   390.296387,   0.567391,   37.486568,   18.789755,   -57.415146,   62.719002,   -382.962372,   0.002633,   671.425171,   153.069855
-0.047944,   0.041917,   0.057356,   -389.818298,   374.902283,   0.567390,   37.486568,   17.834278,   -68.628380,   53.712372,   -377.435516,   -0.007507,   662.309448,   -214.090485
-0.046414,   0.038490,   0.054506,   -403.061157,   353.864777,   0.567390,   37.486568,   16.878801,   -84.680916,   35.484520,   -373.663330,   -0.024999,   655.978455,   -316.467865
-0.043995,   0.033903,   0.050962,   -404.696838,   341.745209,   0.567390,   37.486568,   15.923324,   -100.794739,   37.843098,   -366.727173,   -0.032422,   647.203613,   -340.358154
-0.042937,   0.029543,   0.049960,   -430.413269,   310.109283,   0.567390,   37.486568,   14.967846,   -126.593071,   6.289091,   -364.251282,   -0.062257,   644.126160,   -419.834259
-0.042597,   0.024605,   0.050517,   -424.365845,   315.642029,   0.567390,   37.486568,   14.012369,   -143.413559,   34.689739,   -359.127716,   -0.056348,   643.167114,   -405.790924
-0.046276,   0.021618,   0.055643,   -488.181885,   255.611404,   0.567390,   37.486568,   13.056892,   -175.830307,   -56.740173,   -367.098755,   -0.118437,   654.556030,   -523.145691
-0.050900,   0.019134,   0.061390,   -425.127777,   337.461639,   0.567390,   37.486568,   12.101416,   -168.253830,   80.587692,   -360.423553,   -0.044150,   661.874878,   -385.457001
-0.060609,   0.018547,   0.067179,   -586.800537,   151.287506,   0.567390,   37.486568,   11.145939,   -227.733948,   -207.779083,   -368.909119,   -0.214980,   675.276489,   -635.445923
-0.077128,   0.021998,   0.084759,   -750.976990,   0.000000,   0.567390,   37.486568,   10.190462,   -239.920441,   -673.585754,   -198.875046,   -0.444955,   684.343811,   -638.717407
-0.089652,   0.025915,   0.099134,   -782.038940,   0.000000,   0.567390,   37.486568,   9.234985,   -266.165924,   -723.477356,   -173.811249,   -0.470142,   701.662170,   -626.770264
-0.096585,   0.029579,   0.106847,   -788.923645,   0.000000,   0.567390,   37.486568,   8.279508,   -263.148926,   -716.520142,   -195.110016,   -0.458034,   712.952148,   -651.735229
-0.098764,   0.032492,   0.109050,   -785.326233,   0.000000,   0.567390,   37.486568,   7.324031,   -258.418793,   -688.318420,   -226.084335,   -0.439309,   718.352600,   -675.720093
-0.097112,   0.034418,   0.106943,   -772.193176,   0.000000,   0.567390,   37.486568,   6.368554,   -251.441925,   -641.739258,   -260.641602,   -0.413872,   719.370728,   -695.926392
-0.092228,   0.035005,   0.101275,   -752.141235,   0.000000,   0.567390,   37.486568,   5.413077,   -249.967560,   -580.686035,   -293.428528,   -0.386645,   716.120300,   -706.340088
-0.085045,   0.034200,   0.093061,   -727.738831,   0.000000,   0.567390,   37.486568,   4.457601,   -256.758148,   -511.293701,   -319.282776,   -0.361380,   708.443115,   -705.855530
-0.076758,   0.032165,   0.083580,   -702.408691,   0.000000,   0.567390,   37.486568,   3.502124,   -271.526367,   -442.906891,   -334.387115,   -0.341929,   696.474304,   -696.240723
-0.068032,   0.029053,   0.073562,   -678.398682,   4.012777,   0.567390,   37.486568,   2.546647,   -289.970764,   -384.415161,   -337.922211,   -0.330380,   680.413940,   -680.387390
-0.059580,   0.025445,   0.063892,   -657.810547,   8.357412,   0.567390,   37.486568,   1.591170,   -305.373840,   -344.079315,   -332.521301,   -0.327001,   662.028870,   -661.910156
-0.010946,   0.024432,   0.024738,   -21.556385,   554.444336,   0.582331,   38.228855,   57.738537,   227.488129,   305.399811,   -285.353546,   0.314093,   565.530701,   564.605225
-0.015937,   0.033773,   0.035255,   -37.240929,   581.275452,   0.582333,   38.228855,   56.757896,   216.668518,   327.365997,   -304.264923,   0.301858,   600.762207,   598.156921
-0.021196,   0.043854,   0.046632,   -45.025848,   607.085510,   0.582333,   38.228855,   55.777256,   207.343658,   354.716003,   -317.620300,   0.297007,   630.804810,   627.174072
-0.025875,   0.053942,   0.057981,   -43.148270,   632.551758,   0.582332,   38.228855,   54.796619,   203.785614,   385.617889,   -325.387299,   0.299863,   655.192383,   651.984253
-0.029520,   0.063282,   0.068447,   -35.793415,   655.650757,   0.582332,   38.228855,   53.815979,   203.464935,   416.392426,   -328.921326,   0.306438,   674.260376,   672.117859
-0.032007,   0.071416,   0.077555,   -25.722580,   675.598999,   0.582332,   38.228855,   52.835342,   205.563309,   444.313110,   -329.715973,   0.314487,   688.820618,   687.738708
-0.033530,   0.078202,   0.085180,   -14.484688,   692.444580,   0.582333,   38.228855,   51.854702,   209.039642,   468.920258,   -328.713806,   0.322931,   699.799377,   699.461975
-0.034291,   0.083501,   0.091177,   -3.968467,   705.767029,   0.582333,   38.228855,   50.874062,   212.669418,   489.129150,   -326.838837,   0.330526,   707.759644,   707.734558
-0.034437,   0.087345,   0.095579,   0.000000,   715.803772,   0.582331,   38.228855,   49.893421,   215.975601,   505.010895,   -324.592407,   0.336960,   713.226562,   713.184204
-0.034078,   0.089813,   0.098470,   0.000000,   722.997131,   0.582333,   38.228855,   48.912785,   218.899597,   517.118896,   -322.153259,   0.342378,   716.575195,   716.309021
-0.033379,   0.090961,   0.099886,   0.000000,   727.544678,   0.582333,   38.228855,   47.932144,   221.216034,   525.810486,   -319.599457,   0.346808,   718.002075,   717.406982
-0.032424,   0.090856,   0.099883,   0.000000,   729.681213,   0.582332,   38.228855,   46.951504,   222.991837,   531.415405,   -316.952972,   0.350412,   717.637756,   716.678467
-0.031367,   0.089580,   0.098521,   0.000000,   729.514832,   0.582332,   38.228855,   45.970867,   224.110764,   534.187134,   -314.196472,   0.353243,   715.557617,   714.253357
-0.030298,   0.087271,   0.095932,   0.000000,   727.369019,   0.582332,   38.228855,   44.990227,   224.741898,   534.753784,   -311.148895,   0.355644,   711.849609,   710.215759
-0.029395,   0.084204,   0.092393,   0.000000,   723.782532,   0.582333,   38.228855,   44.009590,   224.884659,   534.322388,   -307.443115,   0.358081,   706.736450,   704.734802
-0.028803,   0.080778,   0.088349,   0.000000,   719.656311,   0.582333,   38.228855,   43.028946,   224.812546,   534.516418,   -302.680237,   0.361243,   700.662842,   698.129089
-0.028481,   0.077489,   0.084470,   0.000000,   716.309570,   0.582331,   38.228855,   42.048309,   225.122803,   537.143616,   -296.654572,   0.365873,   694.472473,   691.038940
-0.028241,   0.074031,   0.080605,   0.000000,   713.216431,   0.582333,   38.228855,   41.067673,   225.509491,   541.312683,   -289.549042,   0.371532,   687.981689,   683.259399
-0.027887,   0.069534,   0.075945,   0.000000,   708.303284,   0.582332,   38.228855,   40.087032,   225.089127,   543.870544,   -281.879791,   0.376937,   680.007080,   673.880310
-0.027794,   0.064442,   0.071155,   0.000000,   702.366028,   0.582333,   38.228855,   39.106392,   224.454987,   544.519653,   -274.657135,   0.381695,   671.543884,   664.050964
-0.028717,   0.059524,   0.066817,   0.000000,   695.654480,   0.582332,   38.228855,   38.125751,   221.728912,   543.440552,   -268.585297,   0.384334,   663.633240,   655.367065
-0.030263,   0.055102,   0.062970,   0.000000,   688.148010,   0.582332,   38.228855,   37.145115,   216.406891,   540.613831,   -263.814178,   0.384415,   656.427002,   648.223450
-0.032538,   0.051435,   0.059839,   0.000000,   679.444519,   0.582333,   38.228855,   36.164474,   206.464371,   535.292603,   -261.114929,   0.380078,   650.530457,   643.764832
-0.035526,   0.049141,   0.057986,   0.000000,   667.786621,   0.582332,   38.228855,   35.183834,   187.983948,   522.361755,   -264.150024,   0.365654,   647.556824,   644.398926
-0.039305,   0.048451,   0.057814,   -20.123587,   639.991089,   0.582332,   38.228855,   34.203197,   147.539032,   472.328461,   -287.342651,   0.317741,   650.286438,   649.585327
-0.043527,   0.049480,   0.059753,   -174.001328,   559.247986,   0.582333,   38.228855,   33.222557,   90.735092,   294.511566,   -352.182373,   0.193518,   663.584717,   609.006531
-0.047613,   0.052174,   0.063895,   -310.833496,   465.536865,   0.582332,   38.228855,   32.241917,   52.619701,   102.083687,   -387.396515,   0.076195,   676.791321,   470.930328
-0.050066,   0.054335,   0.066944,   -306.915405,   474.748047,   0.582332,   38.228855,   31.261278,   39.880417,   127.952202,   -388.342987,   0.082015,   682.121887,   485.973663
-0.052207,   0.055961,   0.069394,   -318.454834,   469.551941,   0.582332,   38.228855,   30.280640,   29.355476,   121.741638,   -391.286163,   0.073355,   686.602905,   471.951019
-0.053977,   0.057315,   0.071439,   -335.009247,   459.032501,   0.582332,   38.228855,   29.300001,   20.050747,   103.972519,   -394.797241,   0.059876,   690.450684,   444.345886
-0.055101,   0.058083,   0.072677,   -335.970673,   460.322601,   0.582333,   38.228855,   28.319361,   13.951875,   110.400063,   -395.215363,   0.059865,   692.407471,   445.578522
-0.055920,   0.058499,   0.073473,   -345.915710,   452.940491,   0.582332,   38.228855,   27.338722,   7.732999,   99.291786,   -396.795990,   0.051412,   693.896240,   424.850067
-0.056176,   0.058392,   0.073557,   -347.388733,   451.634735,   0.582332,   38.228855,   26.358082,   3.345928,   100.900070,   -396.522919,   0.050075,   693.934937,   421.214142
-0.056043,   0.057847,   0.073087,   -353.088409,   445.553314,   0.582332,   38.228855,   25.377443,   -1.189746,   93.654640,   -396.494995,   0.044464,   693.187500,   404.633667
-0.055433,   0.056827,   0.071990,   -353.943054,   442.580841,   0.582332,   38.228855,   24.396805,   -4.604632,   93.242439,   -395.245575,   0.042744,   691.232178,   398.281738
-0.054353,   0.055261,   0.070215,   -358.188873,   435.213379,   0.582332,   38.228855,   23.416164,   -8.516902,   85.541389,   -393.903595,   0.037308,   688.184998,   379.115082
-0.052861,   0.053380,   0.067969,   -356.912506,   431.850586,   0.582333,   38.228855,   22.435526,   -10.508082,   85.446144,   -391.452423,   0.036513,   684.115723,   374.200256
-0.051063,   0.051026,   0.065203,   -361.552826,   421.882660,   0.582332,   38.228855,   21.454885,   -14.144073,   74.473915,   -389.203674,   0.029611,   679.145264,   346.578522
-0.048918,   0.048191,   0.061901,   -359.015961,   417.076477,   0.582332,   38.228855,   20.474247,   -17.559010,   75.619507,   -385.239288,   0.028768,   672.742432,   340.040009
-0.046117,   0.044642,   0.057693,   -366.022491,   401.072754,   0.582332,   38.228855,   19.493608,   -22.304983,   57.355225,   -381.473907,   0.017581,   664.555115,   285.198425
-0.043145,   0.040787,   0.053234,   -359.971619,   396.102356,   0.582333,   38.228855,   18.512968,   -24.594276,   60.725002,   -375.622314,   0.018386,   655.028442,   285.331146
-0.040569,   0.036746,   0.049006,   -376.895264,   368.943268,   0.582332,   38.228855,   17.532330,   -32.073940,   24.121925,   -371.859222,   -0.004104,   645.927368,   -170.727997
-0.037911,   0.032676,   0.044924,   -363.675201,   370.401154,   0.582333,   38.228855,   16.551691,   -37.973984,   44.699955,   -364.703003,   0.003527,   635.737671,   159.757797
-0.034769,   0.027128,   0.040463,   -392.519135,   327.918182,   0.582333,   38.228855,   15.571051,   -50.687622,   -13.913325,   -359.749084,   -0.034467,   624.752563,   -335.273010
-0.033104,   0.021829,   0.038875,   -367.119965,   347.830261,   0.582332,   38.228855,   14.590412,   -61.542942,   42.253227,   -353.687775,   -0.010384,   619.240173,   -223.013733
-0.033453,   0.016105,   0.039148,   -437.567780,   271.974792,   0.582332,   38.228855,   13.609773,   -98.211174,   -67.381828,   -354.436249,   -0.089023,   620.034851,   -453.424591
-0.036931,   0.013039,   0.044284,   -404.703400,   321.666382,   0.582332,   38.228855,   12.629134,   -116.670418,   33.633385,   -355.324432,   -0.043905,   630.423340,   -366.468170
-0.045203,   0.011977,   0.051228,   -471.592743,   259.272949,   0.582332,   38.228855,   11.648495,   -195.814362,   -16.505423,   -354.264374,   -0.110275,   641.789246,   -501.851837
-0.059992,   0.014064,   0.066171,   -716.268250,   0.000000,   0.582332,   38.228855,   10.667855,   -273.601562,   -602.873779,   -224.044556,   -0.448702,   651.118530,   -604.340210
-0.073276,   0.017387,   0.081548,   -764.104614,   0.000000,   0.582332,   38.228855,   9.687216,   -294.467010,   -717.484985,   -147.967361,   -0.499577,   675.205811,   -558.153503
-0.082052,   0.021440,   0.091224,   -778.550110,   0.000000,   0.582332,   38.228855,   8.706576,   -304.260834,   -713.133789,   -176.142715,   -0.490910,   690.821655,   -586.509399
-0.086937,   0.025582,   0.096209,   -780.659546,   0.000000,   0.582332,   38.228855,   7.725937,   -300.852966,   -687.008240,   -211.977615,   -0.470119,   700.434082,   -625.704163
-0.088612,   0.029494,   0.097540,   -772.245544,   0.000000,   0.582332,   38.228855,   6.745298,   -289.426575,   -643.034058,   -249.771439,   -0.440312,   705.908447,   -663.124023
-0.087120,   0.032584,   0.095454,   -754.264099,   0.000000,   0.582332,   38.228855,   5.764659,   -274.696045,   -585.894348,   -284.156189,   -0.405678,   707.121948,   -688.792297
-0.082372,   0.034084,   0.089929,   -728.196045,   0.000000,   0.582332,   38.228855,   4.784020,   -259.641815,   -521.630066,   -311.106689,   -0.370361,   703.162109,   -698.634033
-0.074437,   0.033299,   0.080990,   -696.741394,   0.000000,   0.582332,   38.228855,   3.803381,   -246.872360,   -457.899353,   -327.792053,   -0.339112,   692.761108,   -692.656372
-0.063931,   0.029940,   0.069195,   -663.437195,   22.713711,   0.582332,   38.228855,   2.822742,   -237.961197,   -402.762268,   -333.032898,   -0.316369,   675.080688,   -674.220154
-0.052151,   0.024618,   0.055914,   -632.112549,   35.253613,   0.582332,   38.228855,   1.842103,   -234.105789,   -362.753143,   -327.424591,   -0.305867,   650.456238,   -648.301514
-0.040429,   0.018629,   0.042680,   -603.679077,   31.707954,   0.582332,   38.228855,   0.861463,   -232.809677,   -339.161438,   -313.211578,   -0.307441,   620.141296,   -618.313477
