MinPrincipalStrain,MaxPrincipalStrain,EqPlasticStrain,MinPrincipalStress,MaxPrincipalStress,ElemVolume,IntegrationPoint_CoordX,IntegrationPoint_CoordY,Stress_xx,Stress_yy,Stress_xy,StressTriaxility,MisesStress,ThirdInvStress
-0.000031,   0.000083,   0.000000,   -1.430600,   16.913849,   0.582331,   0.371144,   57.738537,   9.574740,   5.908507,   -8.987179,   0.292038,   17.672630,   17.541645
-0.000053,   0.000086,   0.000000,   -6.263636,   16.146227,   0.582334,   0.371144,   56.757896,   3.890481,   5.992109,   -11.155549,   0.164490,   20.026678,   17.611843
-0.000119,   0.000120,   0.000000,   -19.260881,   19.405001,   0.582334,   0.371144,   55.777256,   -7.775128,   7.919247,   -17.668737,   0.001435,   33.485714,   6.235077
-0.000208,   0.000210,   0.000000,   -33.533504,   33.938217,   0.582333,   0.371144,   54.796619,   -11.966065,   12.370778,   -31.464865,   0.002309,   58.432571,   12.750128
-0.000289,   0.000362,   0.000000,   -41.548859,   63.480110,   0.582333,   0.371144,   53.815979,   1.966153,   19.965099,   -51.737614,   0.079794,   91.616364,   64.700607
-0.000347,   0.000583,   0.000000,   -39.639786,   110.594963,   0.582333,   0.371144,   52.835342,   39.770348,   31.184828,   -74.994614,   0.175383,   134.857407,   120.668137
-0.000377,   0.000868,   0.000000,   -26.983858,   174.247253,   0.582334,   0.371144,   51.854702,   101.156654,   46.106735,   -96.777405,   0.259466,   189.187988,   184.784088
-0.000380,   0.001199,   0.000000,   -4.782476,   250.305771,   0.582334,   0.371144,   50.874062,   180.901779,   64.621521,   -113.521935,   0.323827,   252.730957,   252.629105
-0.000358,   0.001544,   0.000000,   0.000000,   331.457550,   0.582331,   0.371144,   49.893421,   270.270569,   85.389526,   -122.703560,   0.370429,   320.043365,   317.974670
-0.000324,   0.001877,   0.000076,   0.000000,   395.828247,   0.582334,   0.371144,   48.912785,   345.200714,   106.400711,   -121.049583,   0.405644,   371.098450,   361.488464
-0.000278,   0.002202,   0.000409,   0.000000,   407.454559,   0.582334,   0.371144,   47.932144,   368.268982,   126.766983,   -104.875648,   0.444190,   371.489258,   347.101837
-0.000243,   0.002532,   0.000754,   0.000000,   416.446777,   0.582333,   0.371144,   46.951504,   384.610870,   143.609680,   -93.198776,   0.471633,   373.327545,   332.435669
-0.000216,   0.002885,   0.001125,   0.000000,   424.256256,   0.582333,   0.371144,   45.970867,   398.312897,   158.677856,   -83.005981,   0.493922,   375.896729,   316.327789
-0.000194,   0.003282,   0.001546,   0.000000,   431.503143,   0.582333,   0.371144,   44.990227,   410.821289,   172.554764,   -73.181511,   0.512931,   379.113068,   298.138824
-0.000175,   0.003744,   0.002040,   0.000000,   438.688843,   0.582334,   0.371144,   44.009590,   422.967041,   186.113693,   -63.015366,   0.530018,   383.056519,   276.240204
-0.000162,   0.004298,   0.002634,   0.000000,   446.075348,   0.582334,   0.371144,   43.028946,   435.016815,   199.349457,   -52.234367,   0.545168,   387.872070,   249.409790
-0.000156,   0.004966,   0.003354,   0.000000,   453.860413,   0.582331,   0.371144,   42.048309,   446.977203,   211.979828,   -40.803341,   0.557974,   393.660583,   216.222931
-0.000159,   0.005760,   0.004214,   0.000000,   462.178619,   0.582334,   0.371144,   41.067673,   458.688904,   223.767105,   -28.844147,   0.568139,   400.404419,   173.193985
-0.000178,   0.006682,   0.005214,   0.000000,   471.031158,   0.582333,   0.371144,   40.087032,   469.850128,   234.045395,   -16.729767,   0.575172,   407.933563,   109.792847
-0.000213,   0.007746,   0.006372,   0.000000,   480.599487,   0.582334,   0.371144,   39.106392,   480.506622,   243.055740,   -4.696645,   0.579471,   416.219879,   -111.441093
-0.000265,   0.008955,   0.007692,   0.000000,   490.839722,   0.582333,   0.371144,   38.125751,   490.611176,   250.977554,   7.404058,   0.581484,   425.113068,   -142.418335
-0.000336,   0.010287,   0.009149,   0.000000,   501.467590,   0.582333,   0.371144,   37.145115,   499.969299,   257.747742,   19.109196,   0.581537,   434.318695,   -146.132736
-0.000438,   0.011751,   0.010748,   0.000000,   512.401306,   0.582334,   0.371144,   36.164474,   508.619080,   263.437439,   30.686230,   0.579928,   443.766052,   -126.841248
-0.000557,   0.013330,   0.012479,   0.000000,   523.478516,   0.582333,   0.371144,   35.183834,   516.516968,   268.430176,   42.137005,   0.577151,   453.345764,   55.050426
-0.000710,   0.015010,   0.014316,   0.000000,   534.467407,   0.582333,   0.371144,   34.203197,   523.567566,   272.612579,   53.424469,   0.573334,   462.895264,   152.523926
-0.000890,   0.016797,   0.016271,   0.000000,   545.382080,   0.582334,   0.371144,   33.222557,   529.841003,   276.280243,   64.669411,   0.568733,   472.465942,   199.975464
-0.001097,   0.018650,   0.018300,   0.000000,   555.937012,   0.582333,   0.371144,   32.241917,   535.193481,   279.230988,   75.761810,   0.563402,   481.849518,   238.343185
-0.001345,   0.020583,   0.020409,   0.000000,   566.161316,   0.582333,   0.371144,   31.261278,   539.699402,   281.579712,   86.778839,   0.557434,   491.106812,   272.097351
-0.001622,   0.022591,   0.022601,   0.000000,   576.058838,   0.582333,   0.371144,   30.280640,   543.428345,   283.519409,   97.702080,   0.551010,   500.262146,   302.496277
-0.001942,   0.024654,   0.024846,   0.000000,   585.472290,   0.582333,   0.371144,   29.300001,   546.315796,   284.833954,   108.498619,   0.544075,   509.213043,   330.772003
-0.002302,   0.026774,   0.027149,   0.000000,   594.458435,   0.582333,   0.371144,   28.319361,   548.427917,   285.750610,   119.205612,   0.536776,   518.018250,   357.095154
-0.002701,   0.028925,   0.029481,   0.000000,   602.894714,   0.582333,   0.371144,   27.338722,   549.761780,   286.166077,   129.725525,   0.529150,   526.585205,   381.744690
-0.003149,   0.031104,   0.031835,   0.000000,   610.794739,   0.582333,   0.371144,   26.358082,   550.354858,   286.185730,   140.068985,   0.521280,   534.927124,   404.846771
-0.003644,   0.033289,   0.034188,   0.000000,   618.102600,   0.582333,   0.371144,   25.377443,   550.245605,   285.783203,   150.167221,   0.513222,   542.993469,   426.489807
-0.004191,   0.035471,   0.036528,   0.000000,   624.830566,   0.582333,   0.371144,   24.396805,   549.485413,   285.061188,   159.999924,   0.505071,   550.778625,   446.693207
-0.004788,   0.037632,   0.038836,   0.000000,   630.962097,   0.582333,   0.371144,   23.416164,   548.175781,   284.049408,   169.468643,   0.496935,   558.238831,   465.425903
-0.005440,   0.039761,   0.041098,   0.000000,   636.509338,   0.582333,   0.371144,   22.435526,   546.420837,   282.789246,   178.510849,   0.488906,   565.351135,   482.705505
-0.006146,   0.041843,   0.043298,   0.000000,   641.497131,   0.582333,   0.371144,   21.454885,   544.314331,   281.367157,   187.078705,   0.481089,   572.091553,   498.529266
-0.006905,   0.043853,   0.045410,   0.000000,   645.922363,   0.582333,   0.371144,   20.474247,   541.946655,   279.819763,   195.104553,   0.473580,   578.407532,   512.891357
-0.007712,   0.045765,   0.047406,   0.000000,   649.787964,   0.582333,   0.371144,   19.493608,   539.382324,   278.187256,   202.550797,   0.466447,   584.253906,   525.816528
-0.008568,   0.047555,   0.049261,   0.000000,   653.083984,   0.582334,   0.371144,   18.512968,   536.640381,   276.425507,   209.426498,   0.459669,   589.602600,   537.424194
-0.009467,   0.049206,   0.050959,   0.000000,   655.820068,   0.582333,   0.371144,   17.532330,   533.673645,   274.512451,   215.813278,   0.453171,   594.466736,   547.891541
-0.010404,   0.050689,   0.052472,   0.000000,   657.951843,   0.582333,   0.371144,   16.551691,   530.316040,   272.361511,   221.844818,   0.446787,   598.851929,   557.430420
-0.011370,   0.051974,   0.053768,   0.000000,   659.408081,   0.582333,   0.371144,   15.571051,   526.323608,   269.863922,   227.688965,   0.440292,   602.772034,   566.253967
-0.012356,   0.053025,   0.054815,   0.000000,   660.091064,   0.582333,   0.371144,   14.590412,   521.408875,   266.896942,   233.514526,   0.433441,   606.239075,   574.533813
-0.013347,   0.053805,   0.055577,   0.000000,   659.898376,   0.582333,   0.371144,   13.609773,   515.301270,   263.379578,   239.448273,   0.426029,   609.254272,   582.341553
-0.014324,   0.054270,   0.056011,   0.000000,   658.702698,   0.582333,   0.371144,   12.629134,   507.741089,   259.240936,   245.567474,   0.417888,   611.792236,   589.653381
-0.015263,   0.054372,   0.056071,   0.000000,   656.370056,   0.582333,   0.371144,   11.648495,   498.514862,   254.460373,   251.879990,   0.408917,   613.795959,   596.331482
-0.016134,   0.054062,   0.055709,   0.000000,   652.767700,   0.582333,   0.371144,   10.667855,   487.448181,   249.065308,   258.340637,   0.399074,   615.184937,   602.160156
-0.016896,   0.053279,   0.054864,   0.000000,   647.717834,   0.582333,   0.371144,   9.687216,   474.336243,   243.076340,   264.872375,   0.388314,   615.835388,   606.867615
-0.017507,   0.051951,   0.053464,   0.000000,   640.968933,   0.582333,   0.371144,   8.706576,   458.853180,   236.487839,   271.408112,   0.376520,   615.586426,   610.148987
-0.017913,   0.049985,   0.051410,   0.000000,   632.233459,   0.582333,   0.371144,   7.725937,   440.692078,   229.430298,   277.765167,   0.363703,   614.166199,   611.528381
-0.018023,   0.047386,   0.048704,   0.000000,   621.504089,   0.582333,   0.371144,   6.745298,   420.126465,   222.210663,   283.564362,   0.350227,   611.353821,   610.554382
-0.017786,   0.044081,   0.045270,   0.000000,   608.480591,   0.582333,   0.371144,   5.764659,   396.727753,   215.141998,   288.601044,   0.336122,   606.793091,   606.771790
-0.017032,   0.039976,   0.040989,   -12.846608,   593.168091,   0.582333,   0.371144,   4.784020,   371.065735,   209.255737,   292.006561,   0.322565,   599.694580,   599.384888
-0.015689,   0.035252,   0.036011,   -26.030514,   576.112793,   0.582333,   0.371144,   3.803381,   344.970795,   205.111465,   292.837799,   0.311013,   589.559204,   588.264099
-0.013627,   0.030068,   0.030475,   -32.230957,   558.951721,   0.582333,   0.371144,   2.822742,   320.843597,   205.877197,   289.948151,   0.304951,   575.744263,   573.709167
-0.011085,   0.024680,   0.024642,   -30.117027,   541.931702,   0.582333,   0.371144,   1.842103,   302.063782,   209.750885,   282.275604,   0.305963,   557.600525,   555.766174
-0.008530,   0.019568,   0.019061,   -21.011580,   525.289246,   0.582333,   0.371144,   0.861463,   289.558289,   214.719391,   270.575195,   0.313545,   536.103943,   535.176331
-0.000036,   0.000092,   0.000000,   -2.055464,   18.659609,   0.567391,   1.113431,   57.008831,   6.141799,   10.462346,   -10.129747,   0.279988,   19.767653,   19.525055
-0.000092,   0.000107,   0.000000,   -13.744796,   18.340288,   0.567391,   1.113431,   56.053352,   -9.734620,   14.330112,   -10.610623,   0.054941,   27.881340,   17.446165
-0.000188,   0.000195,   0.000000,   -29.958574,   32.011745,   0.567391,   1.113431,   55.097878,   -23.266554,   25.319725,   -19.233397,   0.012750,   53.677689,   20.699692
-0.000259,   0.000320,   0.000000,   -37.668045,   55.947311,   0.567391,   1.113431,   54.142399,   -20.993479,   39.272747,   -35.818352,   0.074682,   81.586815,   56.405388
-0.000285,   0.000482,   0.000000,   -32.386486,   91.419563,   0.567391,   1.113431,   53.186924,   5.813596,   53.219482,   -57.185268,   0.176945,   111.207817,   99.740883
-0.000280,   0.000696,   0.000000,   -16.342621,   141.309311,   0.567391,   1.113431,   52.231445,   59.118423,   65.848267,   -78.754112,   0.277428,   150.149155,   148.128372
-0.000268,   0.000977,   0.000000,   0.000000,   206.811844,   0.567391,   1.113431,   51.275970,   135.090454,   77.436203,   -96.327576,   0.347241,   204.014481,   203.834290
-0.000259,   0.001304,   0.000000,   0.000000,   283.006104,   0.567392,   1.113431,   50.320492,   224.560776,   89.048393,   -106.470276,   0.388592,   269.013275,   265.054596
-0.000244,   0.001669,   0.000000,   0.000000,   368.184265,   0.567390,   1.113431,   49.365013,   321.336823,   106.089333,   -110.808296,   0.416073,   342.428558,   330.602997
-0.000240,   0.002042,   0.000257,   0.000000,   403.391785,   0.567392,   1.113431,   48.409538,   369.467102,   119.748894,   -98.094315,   0.443055,   368.062408,   344.452667
-0.000225,   0.002393,   0.000617,   0.000000,   412.751312,   0.567391,   1.113431,   47.454060,   385.298584,   136.697723,   -87.054169,   0.469740,   370.414795,   331.154755
-0.000226,   0.002797,   0.001034,   0.000000,   421.166748,   0.567391,   1.113431,   46.498585,   398.827454,   151.282898,   -77.646744,   0.490601,   373.766144,   317.609039
-0.000240,   0.003263,   0.001519,   0.000000,   429.092468,   0.567391,   1.113431,   45.543106,   411.273560,   163.908646,   -68.740715,   0.507406,   377.857849,   303.798798
-0.000264,   0.003818,   0.002096,   0.000000,   437.144012,   0.567391,   1.113431,   44.587631,   423.622925,   175.833847,   -59.440720,   0.522081,   382.735260,   288.495422
-0.000300,   0.004474,   0.002783,   0.000000,   445.476746,   0.567391,   1.113431,   43.632153,   435.928223,   187.196136,   -49.660793,   0.534751,   388.420288,   271.630890
-0.000352,   0.005239,   0.003585,   0.000000,   454.069031,   0.567392,   1.113431,   42.676678,   447.982666,   197.563354,   -39.511879,   0.544986,   394.839661,   254.326096
-0.000418,   0.006121,   0.004514,   0.000000,   463.027985,   0.567390,   1.113431,   41.721199,   459.761688,   207.124176,   -28.911152,   0.553047,   401.946564,   237.046143
-0.000502,   0.007136,   0.005587,   0.000000,   472.469635,   0.567391,   1.113431,   40.765724,   471.176331,   215.797089,   -18.219711,   0.558859,   409.747375,   221.751968
-0.000613,   0.008296,   0.006816,   0.000000,   482.401459,   0.567391,   1.113431,   39.810246,   482.194550,   223.419937,   -7.320178,   0.562477,   418.158966,   211.139206
-0.000744,   0.009569,   0.008168,   0.000000,   492.514160,   0.567391,   1.113431,   38.854771,   492.467896,   229.904083,   3.486122,   0.564117,   426.844940,   207.591934
-0.000890,   0.010965,   0.009658,   0.000000,   502.920868,   0.567392,   1.113431,   37.899292,   502.142120,   236.028046,   14.416852,   0.564552,   435.843842,   209.699936
-0.001068,   0.012490,   0.011287,   0.000000,   513.461121,   0.567390,   1.113431,   36.943813,   511.169952,   241.101456,   24.980469,   0.563460,   445.031342,   219.837784
-0.001265,   0.014126,   0.013040,   0.000000,   524.058899,   0.567392,   1.113431,   35.988338,   519.463257,   245.776367,   35.761517,   0.561446,   454.326904,   234.371674
-0.001491,   0.015856,   0.014894,   0.000000,   534.484314,   0.567390,   1.113431,   35.032864,   526.971130,   249.723816,   46.254230,   0.558508,   463.553284,   252.370483
-0.001744,   0.017693,   0.016867,   0.000000,   544.818115,   0.567392,   1.113431,   34.077385,   533.786987,   253.125763,   56.724697,   0.554790,   472.799133,   272.424255
-0.002014,   0.019595,   0.018915,   0.000000,   554.836426,   0.567391,   1.113431,   33.121906,   539.734680,   256.037720,   67.174324,   0.550458,   481.885468,   293.260040
-0.002322,   0.021582,   0.021051,   0.000000,   564.556641,   0.567391,   1.113431,   32.166431,   544.943176,   258.296539,   77.503731,   0.545464,   490.860199,   314.746857
-0.002660,   0.023636,   0.023261,   0.000000,   573.930786,   0.567391,   1.113431,   31.210953,   549.385925,   260.047180,   87.773720,   0.539951,   499.695740,   336.212708
-0.003022,   0.025740,   0.025526,   0.000000,   582.899597,   0.567391,   1.113431,   30.255476,   553.042664,   261.348846,   97.982292,   0.534005,   508.354156,   357.319366
-0.003425,   0.027882,   0.027827,   0.000000,   591.378479,   0.567391,   1.113431,   29.299999,   555.872437,   262.073273,   108.131004,   0.527579,   516.792236,   378.118805
-0.003853,   0.030037,   0.030144,   0.000000,   599.362488,   0.567391,   1.113431,   28.344522,   557.890686,   262.455902,   118.203781,   0.520860,   524.995056,   398.162323
-0.004320,   0.032203,   0.032465,   0.000000,   606.798523,   0.567391,   1.113431,   27.389046,   559.146667,   262.333954,   128.118561,   0.513805,   532.939087,   417.552490
-0.004824,   0.034379,   0.034795,   0.000000,   613.774292,   0.567391,   1.113431,   26.433569,   559.688599,   261.963409,   137.941818,   0.506548,   540.686646,   436.122253
-0.005368,   0.036545,   0.037108,   0.000000,   620.222717,   0.567391,   1.113431,   25.478092,   559.544373,   261.286621,   147.579300,   0.499128,   548.177063,   453.818146
-0.005949,   0.038687,   0.039392,   0.000000,   626.184326,   0.567391,   1.113431,   24.522615,   558.717529,   260.490479,   157.073822,   0.491641,   555.424622,   470.565613
-0.006565,   0.040780,   0.041617,   0.000000,   631.612915,   0.567391,   1.113431,   23.567139,   557.301819,   259.578033,   166.271820,   0.484203,   562.353760,   486.221375
-0.007220,   0.042812,   0.043769,   0.000000,   636.521423,   0.567391,   1.113431,   22.611660,   555.362488,   258.585510,   175.136719,   0.476872,   568.949768,   500.788452
-0.007912,   0.044770,   0.045835,   0.000000,   640.959229,   0.567391,   1.113431,   21.656183,   552.980103,   257.659393,   183.636566,   0.469768,   575.206055,   514.211365
-0.008636,   0.046639,   0.047802,   0.000000,   644.952026,   0.567390,   1.113431,   20.700708,   550.275024,   256.854584,   191.686996,   0.462996,   581.092041,   526.451965
-0.009389,   0.048405,   0.049656,   0.000000,   648.540161,   0.567391,   1.113431,   19.745232,   547.345886,   256.249359,   199.242538,   0.456648,   586.589294,   537.506836
-0.010172,   0.050050,   0.051376,   0.000000,   651.707520,   0.567391,   1.113431,   18.789755,   544.262878,   255.773727,   206.254578,   0.450733,   591.656128,   547.428711
-0.010976,   0.051553,   0.052942,   0.000000,   654.453857,   0.567391,   1.113431,   17.834278,   541.030090,   255.420181,   212.743774,   0.445237,   596.274048,   556.292297
-0.011794,   0.052890,   0.054333,   0.000000,   656.750366,   0.567391,   1.113431,   16.878801,   537.566406,   255.109909,   218.790100,   0.440053,   600.439453,   564.243896
-0.012619,   0.054037,   0.055523,   0.000000,   658.541565,   0.567391,   1.113431,   15.923324,   533.695862,   254.737930,   224.528748,   0.435003,   604.160217,   571.463013
-0.013441,   0.054963,   0.056484,   0.000000,   659.748474,   0.567391,   1.113431,   14.967846,   529.172729,   254.184875,   230.123367,   0.429861,   607.450684,   578.129883
-0.014246,   0.055639,   0.057187,   0.000000,   660.291321,   0.567391,   1.113431,   14.012369,   523.716492,   253.387833,   235.738815,   0.424420,   610.327209,   584.377380
-0.015018,   0.056029,   0.057598,   0.000000,   660.073242,   0.567391,   1.113431,   13.056892,   517.039001,   252.301056,   241.506470,   0.418490,   612.790161,   590.273071
-0.015736,   0.056095,   0.057682,   0.000000,   659.009766,   0.567391,   1.113431,   12.101416,   508.896637,   250.960098,   247.494690,   0.411966,   614.820984,   595.785645
-0.016375,   0.055795,   0.057394,   0.000000,   657.003174,   0.567391,   1.113431,   11.145939,   499.045288,   249.447464,   253.725510,   0.404784,   616.372070,   600.810608
-0.016911,   0.055094,   0.056702,   0.000000,   653.967773,   0.567391,   1.113431,   10.190462,   487.303162,   247.870850,   260.157623,   0.396930,   617.383240,   605.192871
-0.017318,   0.053970,   0.055582,   0.000000,   649.854248,   0.567391,   1.113431,   9.234985,   473.498383,   246.438293,   266.729736,   0.388440,   617.801453,   608.762146
-0.017567,   0.052402,   0.054016,   0.000000,   644.572144,   0.567391,   1.113431,   8.279508,   457.309357,   245.361206,   273.417908,   0.379263,   617.575928,   611.382263
-0.017649,   0.050330,   0.051925,   0.000000,   637.857910,   0.567391,   1.113431,   7.324031,   438.547943,   244.642303,   279.949646,   0.369426,   616.443176,   612.676147
-0.017509,   0.047783,   0.049350,   0.000000,   629.826660,   0.567391,   1.113431,   6.368554,   416.901917,   245.021042,   286.242279,   0.359112,   614.407593,   612.517090
-0.017147,   0.044812,   0.046335,   0.000000,   620.559326,   0.567391,   1.113431,   5.413077,   392.272491,   247.101501,   291.985443,   0.348602,   611.369141,   610.717224
-0.016553,   0.041448,   0.042873,   0.000000,   610.029175,   0.567391,   1.113431,   4.457601,   365.945557,   250.614578,   296.187775,   0.338700,   606.790039,   606.710938
-0.015552,   0.037742,   0.039022,   -2.853416,   599.027039,   0.567391,   1.113431,   3.502124,   338.439026,   257.734589,   298.222595,   0.330954,   600.458801,   600.443604
-0.014289,   0.034123,   0.035167,   -7.452401,   588.614014,   0.567391,   1.113431,   2.546647,   315.391022,   265.770569,   296.998718,   0.327023,   592.375366,   592.269836
-0.012814,   0.030619,   0.031368,   -6.422536,   579.263489,   0.567391,   1.113431,   1.591170,   299.001862,   273.839111,   292.572632,   0.327805,   582.501343,   582.421692
-0.000046,   0.000063,   0.000000,   -6.218015,   11.460727,   0.552450,   1.855719,   56.279121,   -4.909212,   10.151924,   -4.628717,   0.112507,   15.533028,   12.221247
-0.000169,   0.000149,   0.000000,   -28.588083,   22.806356,   0.552448,   1.855719,   55.348808,   -28.135136,   22.353409,   -4.803527,   -0.043209,   44.602673,   -25.791533
-0.000263,   0.000272,   0.000000,   -41.844940,   44.524353,   0.552448,   1.855719,   54.418495,   -38.285229,   40.964642,   -17.169111,   0.011939,   74.809998,   28.224163
-0.000289,   0.000409,   0.000000,   -38.315445,   74.495346,   0.552450,   1.855719,   53.488178,   -23.446947,   59.626846,   -38.160908,   0.121379,   99.357697,   80.003639
-0.000259,   0.000577,   0.000000,   -19.886282,   115.298790,   0.552448,   1.855719,   52.557865,   20.657507,   74.755005,   -61.944462,   0.251574,   126.420494,   122.827492
-0.000218,   0.000808,   0.000000,   0.000000,   171.408524,   0.552449,   1.855719,   51.627552,   91.613480,   85.465439,   -82.812035,   0.350004,   168.644852,   168.430161
-0.000197,   0.001113,   0.000000,   0.000000,   243.266296,   0.552449,   1.855719,   50.697235,   181.671097,   93.114304,   -96.169853,   0.399737,   229.138397,   224.183395
-0.000185,   0.001463,   0.000000,   0.000000,   324.857849,   0.552449,   1.855719,   49.766922,   281.388123,   102.166794,   -98.388603,   0.426386,   299.849548,   286.492706
-0.000182,   0.001796,   0.000017,   0.000000,   398.576111,   0.552448,   1.855719,   48.836605,   366.643433,   114.274590,   -95.281212,   0.439858,   364.449707,   342.569916
-0.000188,   0.002205,   0.000435,   0.000000,   408.228424,   0.552450,   1.855719,   47.906292,   385.701843,   129.187820,   -79.283241,   0.468011,   366.721863,   329.013885
-0.000232,   0.002703,   0.000939,   0.000000,   417.823425,   0.552448,   1.855719,   46.975975,   399.188904,   143.306137,   -71.522720,   0.486732,   371.522156,   319.097229
-0.000294,   0.003266,   0.001512,   0.000000,   426.853729,   0.552449,   1.855719,   46.045662,   411.638916,   155.225845,   -64.286629,   0.501358,   376.885895,   309.690369
-0.000372,   0.003919,   0.002179,   0.000000,   435.770538,   0.552448,   1.855719,   45.115349,   424.086975,   165.587128,   -56.184586,   0.513510,   382.773590,   300.278625
-0.000465,   0.004663,   0.002940,   0.000000,   444.704193,   0.552450,   1.855719,   44.185036,   436.326080,   174.879410,   -47.546001,   0.523534,   389.153778,   291.138519
-0.000579,   0.005530,   0.003830,   0.000000,   454.006836,   0.552448,   1.855719,   43.254719,   448.516357,   183.462830,   -38.541073,   0.531664,   396.226837,   282.818085
-0.000714,   0.006525,   0.004856,   0.000000,   463.675781,   0.552449,   1.855719,   42.324406,   460.589691,   191.458405,   -28.984253,   0.538126,   403.900574,   275.646484
-0.000868,   0.007635,   0.006005,   0.000000,   473.556793,   0.552449,   1.855719,   41.394089,   472.203613,   198.871826,   -19.279421,   0.542958,   411.987061,   270.301453
-0.001045,   0.008866,   0.007285,   0.000000,   483.600281,   0.552448,   1.855719,   40.463776,   483.265137,   205.406845,   -9.655957,   0.546022,   420.417542,   268.131500
-0.001244,   0.010240,   0.008718,   0.000000,   494.004547,   0.552449,   1.855719,   39.533463,   494.004272,   211.805878,   0.279290,   0.548075,   429.265839,   268.156342
-0.001470,   0.011725,   0.010272,   0.000000,   504.378143,   0.552449,   1.855719,   38.603146,   504.003296,   217.295288,   10.373469,   0.548651,   438.225800,   272.090210
-0.001709,   0.013317,   0.011946,   0.000000,   514.756775,   0.552449,   1.855719,   37.672832,   513.348511,   222.416168,   20.290026,   0.548333,   447.273651,   278.648651
-0.001980,   0.015004,   0.013721,   0.000000,   524.929077,   0.552448,   1.855719,   36.742519,   521.895935,   226.684052,   30.076849,   0.546901,   456.255798,   288.472076
-0.002273,   0.016818,   0.015638,   0.000000,   535.173950,   0.552450,   1.855719,   35.812202,   529.921204,   230.760391,   39.987595,   0.544846,   465.380524,   300.157166
-0.002592,   0.018733,   0.017666,   0.000000,   545.213867,   0.552448,   1.855719,   34.881889,   537.261719,   234.119110,   49.738003,   0.541950,   474.447357,   314.003876
-0.002923,   0.020700,   0.019756,   0.000000,   554.901794,   0.552449,   1.855719,   33.951572,   543.743958,   237.164688,   59.542130,   0.538590,   483.304779,   328.671967
-0.003287,   0.022754,   0.021940,   0.000000,   564.313904,   0.552449,   1.855719,   33.021259,   549.569458,   239.601990,   69.193207,   0.534606,   492.057800,   344.450226
-0.003681,   0.024884,   0.024205,   0.000000,   573.424622,   0.552448,   1.855719,   32.090942,   554.707336,   241.589325,   78.810188,   0.530136,   500.686920,   360.808563
-0.004085,   0.027031,   0.026496,   0.000000,   582.050354,   0.552449,   1.855719,   31.160629,   558.998535,   243.093933,   88.394402,   0.525228,   509.043793,   377.392029
-0.004527,   0.029216,   0.028822,   0.000000,   590.219727,   0.552448,   1.855719,   30.230314,   562.528137,   244.039917,   97.909515,   0.519852,   517.177795,   394.176880
-0.004990,   0.031434,   0.031188,   0.000000,   598.016968,   0.552449,   1.855719,   29.299999,   565.347046,   244.668610,   107.442413,   0.514143,   525.156128,   410.857086
-0.005477,   0.033667,   0.033572,   0.000000,   605.373047,   0.552449,   1.855719,   28.369686,   567.429138,   244.924210,   116.948029,   0.508103,   532.932556,   427.339020
-0.006001,   0.035895,   0.035944,   0.000000,   612.220215,   0.552448,   1.855719,   27.439371,   568.755798,   244.780212,   126.374725,   0.501760,   540.455444,   443.487122
-0.006547,   0.038104,   0.038296,   0.000000,   618.585510,   0.552449,   1.855719,   26.509056,   569.346436,   244.358032,   135.744705,   0.495187,   547.742371,   459.170746
-0.007130,   0.040288,   0.040617,   0.000000,   624.476501,   0.552448,   1.855719,   25.578741,   569.244324,   243.713196,   145.018539,   0.488446,   554.791870,   474.292023
-0.007736,   0.042422,   0.042884,   0.000000,   629.899292,   0.552449,   1.855719,   24.648426,   568.401611,   242.986069,   154.253876,   0.481595,   561.597473,   488.775146
-0.008367,   0.044493,   0.045081,   0.000000,   634.838562,   0.552449,   1.855719,   23.718113,   566.959351,   242.161575,   163.262405,   0.474741,   568.113708,   502.472107
-0.009030,   0.046500,   0.047205,   0.000000,   639.335083,   0.552448,   1.855719,   22.787798,   564.967651,   241.317230,   172.045258,   0.467936,   574.355957,   515.376404
-0.009718,   0.048427,   0.049242,   0.000000,   643.434570,   0.552449,   1.855719,   21.857483,   562.483276,   240.606659,   180.580841,   0.461292,   580.318970,   527.412537
-0.010428,   0.050254,   0.051170,   0.000000,   647.135010,   0.552448,   1.855719,   20.927168,   559.596680,   240.069672,   188.769226,   0.454909,   585.953186,   538.502625
-0.011156,   0.051968,   0.052979,   0.000000,   650.483459,   0.552448,   1.855719,   19.996855,   556.408325,   239.810562,   196.555649,   0.448895,   591.243713,   548.605896
-0.011898,   0.053556,   0.054653,   0.000000,   653.492615,   0.552449,   1.855719,   19.066540,   553.029602,   239.833282,   203.856445,   0.443321,   596.153687,   557.704163
-0.012648,   0.055000,   0.056178,   0.000000,   656.184387,   0.552449,   1.855719,   18.136225,   549.515869,   240.176102,   210.653687,   0.438233,   600.663452,   565.817383
-0.013398,   0.056287,   0.057538,   0.000000,   658.563782,   0.552448,   1.855719,   17.205910,   545.871765,   240.826935,   216.969131,   0.433612,   604.764221,   573.016357
-0.014142,   0.057396,   0.058718,   0.000000,   660.604492,   0.552449,   1.855719,   16.275597,   542.015198,   241.713852,   222.880981,   0.429352,   608.458130,   579.427063
-0.014869,   0.058307,   0.059698,   0.000000,   662.252014,   0.552449,   1.855719,   15.345281,   537.771912,   242.729675,   228.521713,   0.425277,   611.759460,   585.212219
-0.015568,   0.058989,   0.060447,   0.000000,   663.421753,   0.552449,   1.855719,   14.414967,   532.852539,   243.786453,   234.075745,   0.421159,   614.683472,   590.537720
-0.016229,   0.059417,   0.060942,   0.000000,   664.037109,   0.552449,   1.855719,   13.484652,   526.986389,   244.811157,   239.698151,   0.416792,   617.252441,   595.535522
-0.016839,   0.059573,   0.061166,   0.000000,   664.049072,   0.552449,   1.855719,   12.554337,   519.904419,   245.824966,   245.529556,   0.412015,   619.499268,   600.293579
-0.017381,   0.059435,   0.061100,   0.000000,   663.406067,   0.552449,   1.855719,   11.624022,   511.362305,   246.893814,   251.650696,   0.406724,   621.433838,   604.826355
-0.017845,   0.058987,   0.060727,   0.000000,   662.051941,   0.552449,   1.855719,   10.693707,   501.156616,   248.082214,   258.080963,   0.400844,   623.050598,   609.099182
-0.018216,   0.058200,   0.060019,   0.000000,   659.931458,   0.552449,   1.855719,   9.763393,   489.011292,   249.589478,   264.831482,   0.394346,   624.325256,   613.025452
-0.018489,   0.057067,   0.058966,   0.000000,   657.002014,   0.552449,   1.855719,   8.833078,   474.711029,   251.604416,   271.846130,   0.387224,   625.233459,   616.500732
-0.018650,   0.055605,   0.057582,   0.000000,   653.240417,   0.552449,   1.855719,   7.902764,   458.215149,   254.242462,   278.952820,   0.379530,   625.736877,   619.385681
-0.018688,   0.053734,   0.055777,   0.000000,   648.402039,   0.552449,   1.855719,   6.972449,   438.844391,   257.801788,   286.100098,   0.371143,   625.676514,   621.471130
-0.018629,   0.051516,   0.053612,   0.000000,   642.544250,   0.552449,   1.855719,   6.042135,   416.393982,   262.703247,   293.088989,   0.362145,   625.069885,   622.658447
-0.018427,   0.048912,   0.051022,   0.000000,   635.237366,   0.552449,   1.855719,   5.111820,   390.972382,   268.387146,   299.347076,   0.352490,   623.526367,   622.475220
-0.018110,   0.045940,   0.048014,   0.000000,   626.613647,   0.552449,   1.855719,   4.181505,   362.575958,   275.791626,   304.352173,   0.342755,   620.820129,   620.569763
-0.017421,   0.042589,   0.044528,   0.000000,   617.079041,   0.552449,   1.855719,   3.251191,   334.479828,   284.661560,   306.497833,   0.335006,   616.050476,   616.042725
-0.016100,   0.038920,   0.040621,   -0.843058,   608.286011,   0.552449,   1.855719,   2.320876,   310.313385,   297.129578,   304.493195,   0.332641,   608.708008,   608.706665
-0.000138,   0.000062,   0.000000,   -27.486574,   4.784259,   0.537507,   2.598006,   55.549416,   -24.397114,   1.694798,   9.494983,   -0.250871,   30.164612,   -29.292736
-0.000275,   0.000190,   0.000000,   -50.341965,   24.857151,   0.537506,   2.598006,   54.644264,   -50.049118,   24.564306,   4.683585,   -0.128014,   66.359238,   -54.295086
-0.000321,   0.000322,   0.000000,   -51.827888,   52.152596,   0.537506,   2.598006,   53.739113,   -49.561729,   49.886436,   -15.182252,   0.001202,   90.049881,   15.807179
-0.000284,   0.000467,   0.000000,   -33.258053,   88.142082,   0.537507,   2.598006,   52.833961,   -16.226357,   71.110390,   -42.161255,   0.168369,   108.657990,   96.165688
-0.000215,   0.000662,   0.000000,   -3.675765,   137.913773,   0.537506,   2.598006,   51.928806,   48.758926,   85.479080,   -68.372559,   0.320099,   139.787903,   139.679108
-0.000170,   0.000946,   0.000000,   0.000000,   206.557007,   0.537507,   2.598006,   51.023655,   139.135254,   93.774147,   -87.201019,   0.398702,   194.722809,   190.649078
-0.000151,   0.001294,   0.000000,   0.000000,   288.278046,   0.537507,   2.598006,   50.118504,   243.166107,   99.952942,   -92.172188,   0.431359,   265.145844,   251.906891
-0.000163,   0.001688,   0.000000,   0.000000,   378.207306,   0.537506,   2.598006,   49.213352,   349.082245,   108.356148,   -88.653419,   0.441363,   345.474396,   324.072937
-0.000177,   0.002145,   0.000380,   0.000000,   406.046051,   0.537506,   2.598006,   48.308201,   387.512756,   124.442039,   -72.242996,   0.467782,   364.809875,   327.449310
-0.000245,   0.002652,   0.000888,   0.000000,   415.355682,   0.537507,   2.598006,   47.403046,   399.616119,   136.744766,   -66.220947,   0.483204,   370.003265,   320.729706
-0.000362,   0.003289,   0.001526,   0.000000,   424.408356,   0.537506,   2.598006,   46.497894,   411.604340,   144.994232,   -59.813229,   0.493233,   376.156952,   317.200287
-0.000503,   0.004038,   0.002277,   0.000000,   433.923340,   0.537507,   2.598006,   45.592743,   423.850769,   153.068985,   -53.187649,   0.502108,   382.998657,   313.904236
-0.000667,   0.004901,   0.003145,   0.000000,   443.741425,   0.537506,   2.598006,   44.687592,   436.389099,   160.907166,   -45.601410,   0.510096,   390.316406,   310.542908
-0.000848,   0.005880,   0.004133,   0.000000,   453.835449,   0.537507,   2.598006,   43.782436,   448.909943,   168.555298,   -37.485271,   0.517016,   398.095856,   307.498840
-0.001049,   0.006970,   0.005239,   0.000000,   464.034607,   0.537506,   2.598006,   42.877285,   461.093262,   175.748474,   -29.119555,   0.522596,   406.204315,   305.380890
-0.001277,   0.008190,   0.006482,   0.000000,   474.376801,   0.537506,   2.598006,   41.972134,   472.989746,   182.282455,   -20.128326,   0.526753,   414.661194,   304.826233
-0.001524,   0.009534,   0.007858,   0.000000,   484.911713,   0.537508,   2.598006,   41.066982,   484.495789,   188.815109,   -11.097274,   0.530069,   423.410736,   305.246460
-0.001797,   0.010978,   0.009341,   0.000000,   495.266663,   0.537506,   2.598006,   40.161827,   495.252747,   194.564407,   -2.045651,   0.532037,   432.185822,   307.749573
-0.002085,   0.012527,   0.010940,   0.000000,   505.552948,   0.537506,   2.598006,   39.256676,   505.394806,   199.897018,   6.952226,   0.533073,   441.022461,   311.929688
-0.002392,   0.014215,   0.012694,   0.000000,   516.057495,   0.537507,   2.598006,   38.351524,   515.174377,   205.408127,   16.563137,   0.533634,   450.110168,   317.171692
-0.002733,   0.015986,   0.014533,   0.000000,   526.135925,   0.537506,   2.598006,   37.446369,   524.086487,   209.721558,   25.465244,   0.532901,   459.002167,   325.015228
-0.003089,   0.017905,   0.016540,   0.000000,   536.408752,   0.537506,   2.598006,   36.541222,   532.661072,   214.177872,   34.750843,   0.531797,   468.122467,   333.852448
-0.003460,   0.019869,   0.018599,   0.000000,   546.174927,   0.537508,   2.598006,   35.636066,   540.313904,   217.870087,   43.865631,   0.529907,   476.928558,   344.168488
-0.003855,   0.021891,   0.020721,   0.000000,   555.534912,   0.537506,   2.598006,   34.730915,   547.169250,   220.945999,   52.906136,   0.527367,   485.503510,   355.658905
-0.004271,   0.024029,   0.022975,   0.000000,   564.854919,   0.537506,   2.598006,   33.825764,   553.591919,   223.910629,   61.968178,   0.524492,   494.130585,   367.798737
-0.004715,   0.026225,   0.025290,   0.000000,   573.748962,   0.537507,   2.598006,   32.920609,   559.275208,   226.153656,   70.929550,   0.520974,   502.538666,   380.915222
-0.005160,   0.028449,   0.027646,   0.000000,   582.273926,   0.537507,   2.598006,   32.015457,   564.238953,   228.195587,   79.911110,   0.517196,   510.724335,   394.168488
-0.005639,   0.030725,   0.030055,   0.000000,   590.426453,   0.537507,   2.598006,   31.110304,   568.528809,   229.715820,   88.874702,   0.512939,   518.739319,   407.928192
-0.006137,   0.033026,   0.032494,   0.000000,   598.161926,   0.537506,   2.598006,   30.205153,   572.137939,   230.797165,   97.776764,   0.508311,   526.537964,   421.872192
-0.006644,   0.035315,   0.034926,   0.000000,   605.421631,   0.537507,   2.598006,   29.300001,   574.953918,   231.508621,   106.734550,   0.503337,   534.077026,   435.850647
-0.007186,   0.037609,   0.037357,   0.000000,   612.224365,   0.537507,   2.598006,   28.394848,   577.050720,   231.770111,   115.680443,   0.497986,   541.394226,   449.869476
-0.007742,   0.039898,   0.039790,   0.000000,   618.650330,   0.537506,   2.598006,   27.489697,   578.488586,   231.817947,   124.642990,   0.492405,   548.536438,   463.694397
-0.008326,   0.042157,   0.042185,   0.000000,   624.583069,   0.537507,   2.598006,   26.584543,   579.185181,   231.493622,   133.586777,   0.486517,   555.430786,   477.329742
-0.008933,   0.044386,   0.044550,   0.000000,   630.117859,   0.537506,   2.598006,   25.679390,   579.208191,   231.019958,   142.541016,   0.480446,   562.136536,   490.625366
-0.009557,   0.046556,   0.046855,   0.000000,   635.227173,   0.537507,   2.598006,   24.774239,   578.497253,   230.474823,   151.530731,   0.474228,   568.624084,   503.497284
-0.010206,   0.048663,   0.049087,   0.000000,   639.878540,   0.537507,   2.598006,   23.869085,   577.176819,   229.757843,   160.359802,   0.467907,   574.853577,   515.852356
-0.010880,   0.050700,   0.051244,   0.000000,   644.132690,   0.537506,   2.598006,   22.963934,   575.270508,   229.035736,   169.069489,   0.461567,   580.852356,   527.632080
-0.011569,   0.052644,   0.053304,   0.000000,   648.003784,   0.537507,   2.598006,   22.058783,   572.794983,   228.427109,   177.639725,   0.455292,   586.599304,   538.751465
-0.012276,   0.054488,   0.055257,   0.000000,   651.518677,   0.537507,   2.598006,   21.153629,   569.853210,   227.989410,   185.977737,   0.449178,   592.076416,   549.140808
-0.012994,   0.056220,   0.057093,   0.000000,   654.715027,   0.537506,   2.598006,   20.248476,   566.532349,   227.824295,   194.021530,   0.443330,   597.265442,   558.737610
-0.013721,   0.057825,   0.058797,   0.000000,   657.618408,   0.537507,   2.598006,   19.343325,   562.947815,   227.989502,   201.676041,   0.437854,   602.132019,   567.481201
-0.014448,   0.059290,   0.060358,   0.000000,   660.261169,   0.537507,   2.598006,   18.438171,   559.182617,   228.554855,   208.892914,   0.432833,   606.652588,   575.349182
-0.015169,   0.060600,   0.061763,   0.000000,   662.675659,   0.537506,   2.598006,   17.533020,   555.297302,   229.584869,   215.649185,   0.428328,   610.811035,   582.345093
-0.015875,   0.061743,   0.062999,   0.000000,   664.855164,   0.537507,   2.598006,   16.627869,   551.308777,   231.029434,   221.944427,   0.424312,   614.593689,   588.529602
-0.016562,   0.062709,   0.064060,   0.000000,   666.784790,   0.537506,   2.598006,   15.722715,   547.137268,   232.821716,   227.865356,   0.420677,   618.019043,   594.030212
-0.017223,   0.063491,   0.064943,   0.000000,   668.448792,   0.537507,   2.598006,   14.817563,   542.606689,   234.914734,   233.574020,   0.417257,   621.136902,   599.020081
-0.017856,   0.064084,   0.065641,   0.000000,   669.792480,   0.537507,   2.598006,   13.912411,   537.496094,   237.199326,   239.228973,   0.413840,   623.989868,   603.671082
-0.018451,   0.064459,   0.066129,   0.000000,   670.736694,   0.537506,   2.598006,   13.007258,   531.458191,   239.637253,   245.036499,   0.410192,   626.614136,   608.137573
-0.018996,   0.064586,   0.066379,   0.000000,   671.199463,   0.537507,   2.598006,   12.102106,   524.192871,   242.220795,   251.122879,   0.406141,   629.020508,   612.492432
-0.019487,   0.064459,   0.066381,   0.000000,   671.138367,   0.537507,   2.598006,   11.196954,   515.496582,   244.981400,   257.541870,   0.401586,   631.228149,   616.763489
-0.019912,   0.064072,   0.066136,   0.000000,   670.559998,   0.537507,   2.598006,   10.291800,   505.126740,   248.116180,   264.360077,   0.396477,   633.279785,   620.961853
-0.020274,   0.063425,   0.065639,   0.000000,   669.426636,   0.537506,   2.598006,   9.386649,   492.863068,   251.742630,   271.565430,   0.390757,   635.182678,   625.055725
-0.020565,   0.062452,   0.064821,   0.000000,   667.567871,   0.537507,   2.598006,   8.481497,   478.327301,   255.971893,   279.088959,   0.384351,   636.829773,   628.891663
-0.020788,   0.061197,   0.063722,   0.000000,   665.015259,   0.537507,   2.598006,   7.576344,   461.455658,   260.990479,   286.780609,   0.377311,   638.240723,   632.388123
-0.020926,   0.059613,   0.062284,   0.000000,   661.594177,   0.537507,   2.598006,   6.671192,   441.706207,   267.064301,   294.537537,   0.369548,   639.312805,   635.378906
-0.021043,   0.057667,   0.060460,   0.000000,   656.882935,   0.537507,   2.598006,   5.766040,   418.738586,   273.714294,   302.075256,   0.360743,   639.839905,   637.609802
-0.021036,   0.055318,   0.058181,   0.000000,   650.898865,   0.537507,   2.598006,   4.860888,   392.532776,   281.775970,   308.818481,   0.351469,   639.515381,   638.550354
-0.020717,   0.052054,   0.054903,   0.000000,   642.165527,   0.537507,   2.598006,   3.955735,   361.363312,   291.016418,   314.011871,   0.341317,   637.119873,   636.935608
-0.019762,   0.047947,   0.050623,   0.000000,   631.864319,   0.537507,   2.598006,   3.050583,   328.871124,   303.409058,   315.467468,   0.333662,   631.656555,   631.656250
-0.000345,   0.000114,   0.000000,   -71.729202,   2.454224,   0.522564,   3.340294,   54.819710,   -54.568562,   -14.706414,   31.281742,   -0.316379,   72.987267,   -72.894341
-0.000391,   0.000219,   0.000000,   -75.108551,   23.351961,   0.522564,   3.340294,   53.939720,   -72.925079,   21.168489,   14.498902,   -0.193606,   89.109711,   -81.789948
-0.000342,   0.000341,   0.000000,   -55.368443,   55.055115,   0.522564,   3.340294,   53.059731,   -53.020947,   52.707619,   -15.928224,   -0.001092,   95.629738,   -16.258949
-0.000242,   0.000507,   0.000000,   -20.627628,   100.350807,   0.522564,   3.340294,   52.179741,   4.563466,   75.159714,   -49.122173,   0.237066,   112.097198,   107.702324
-0.000165,   0.000776,   0.000000,   0.000000,   167.568405,   0.522564,   3.340294,   51.299751,   94.834923,   88.345802,   -75.908730,   0.380833,   160.333344,   158.609695
-0.000138,   0.001138,   0.000000,   0.000000,   253.166428,   0.522565,   3.340294,   50.419762,   205.313873,   94.889481,   -87.028488,   0.429047,   233.232819,   222.182251
-0.000152,   0.001580,   0.000000,   0.000000,   354.087921,   0.522564,   3.340294,   49.539768,   326.473389,   101.879921,   -83.454216,   0.441490,   323.414795,   303.326843
-0.000185,   0.002080,   0.000319,   0.000000,   402.664337,   0.522564,   3.340294,   48.659779,   387.486969,   115.759903,   -65.988312,   0.462144,   362.979950,   329.371307
-0.000300,   0.002653,   0.000886,   0.000000,   411.957764,   0.522564,   3.340294,   47.779793,   399.161011,   124.703415,   -60.629353,   0.473280,   368.959991,   327.382294
-0.000475,   0.003404,   0.001629,   0.000000,   422.059631,   0.522564,   3.340294,   46.899803,   411.123901,   131.735687,   -56.346287,   0.480636,   376.486603,   328.439911
-0.000679,   0.004266,   0.002483,   0.000000,   432.479065,   0.522564,   3.340294,   46.019814,   423.779114,   138.853256,   -50.542389,   0.488010,   384.303864,   328.935028
-0.000911,   0.005242,   0.003453,   0.000000,   443.007935,   0.522565,   3.340294,   45.139820,   436.573486,   145.537567,   -43.749954,   0.494481,   392.405304,   329.662109
-0.001166,   0.006335,   0.004543,   0.000000,   453.757965,   0.522564,   3.340294,   44.259830,   449.407166,   152.457901,   -36.206348,   0.500574,   400.783295,   330.203766
-0.001447,   0.007524,   0.005731,   0.000000,   464.261261,   0.522564,   3.340294,   43.379841,   461.589752,   158.568710,   -28.577324,   0.505148,   409.225403,   331.796967
-0.001743,   0.008825,   0.007040,   0.000000,   474.872864,   0.522564,   3.340294,   42.499851,   473.504181,   164.858597,   -20.598770,   0.509247,   417.847168,   333.566956
-0.002062,   0.010260,   0.008492,   0.000000,   485.693542,   0.522564,   3.340294,   41.619862,   485.238495,   171.414215,   -11.958875,   0.512944,   426.721802,   335.560364
-0.002409,   0.011806,   0.010062,   0.000000,   496.294067,   0.522565,   3.340294,   40.739872,   496.250671,   177.119720,   -3.721645,   0.515235,   435.639648,   339.201996
-0.002762,   0.013484,   0.011780,   0.000000,   507.125092,   0.522564,   3.340294,   39.859882,   507.040405,   183.495865,   5.234950,   0.517546,   444.750610,   342.699219
-0.003137,   0.015197,   0.013536,   0.000000,   517.187378,   0.522564,   3.340294,   38.979893,   516.635071,   188.531769,   13.472920,   0.518395,   453.429688,   348.005280
-0.003545,   0.017085,   0.015481,   0.000000,   527.550049,   0.522564,   3.340294,   38.099903,   526.085632,   193.683777,   22.111572,   0.518819,   462.441345,   354.211487
-0.003965,   0.019058,   0.017523,   0.000000,   537.577637,   0.522564,   3.340294,   37.219910,   534.832397,   198.194763,   30.523457,   0.518447,   471.297058,   361.630127
-0.004382,   0.021071,   0.019616,   0.000000,   547.226379,   0.522565,   3.340294,   36.339920,   542.789001,   202.615891,   39.104671,   0.517774,   479.878021,   369.375427
-0.004836,   0.023201,   0.021835,   0.000000,   556.668457,   0.522565,   3.340294,   35.459930,   550.241760,   206.304535,   47.452000,   0.516310,   488.431427,   378.487183
-0.005307,   0.025442,   0.024180,   0.000000,   566.039246,   0.522564,   3.340294,   34.579941,   557.223511,   209.904007,   56.032005,   0.514501,   497.004059,   388.228638
-0.005784,   0.027688,   0.026535,   0.000000,   574.815247,   0.522564,   3.340294,   33.699951,   563.364441,   212.872910,   64.377975,   0.512189,   505.176117,   398.511749
-0.006279,   0.029965,   0.028926,   0.000000,   583.148682,   0.522564,   3.340294,   32.819962,   568.785889,   215.267471,   72.689781,   0.509361,   513.096252,   409.421509
-0.006788,   0.032316,   0.031403,   0.000000,   591.286011,   0.522564,   3.340294,   31.939970,   573.737427,   217.450363,   80.995651,   0.506254,   520.942200,   420.657654
-0.007320,   0.034699,   0.033916,   0.000000,   599.042114,   0.522564,   3.340294,   31.059980,   578.015381,   219.192886,   89.370010,   0.502723,   528.593811,   432.308472
-0.007844,   0.037065,   0.036420,   0.000000,   606.329834,   0.522565,   3.340294,   30.179991,   581.591858,   220.552521,   97.690018,   0.498885,   535.958008,   444.055115
-0.008401,   0.039453,   0.038947,   0.000000,   613.249512,   0.522565,   3.340294,   29.299999,   584.507874,   221.490158,   106.112183,   0.494634,   543.161133,   456.100800
-0.008976,   0.041838,   0.041471,   0.000000,   619.761475,   0.522564,   3.340294,   28.420010,   586.778687,   222.039734,   114.533752,   0.490050,   550.160522,   468.232880
-0.009559,   0.044201,   0.043977,   0.000000,   625.877625,   0.522564,   3.340294,   27.540020,   588.374634,   222.322571,   123.022446,   0.485190,   556.961975,   480.327118
-0.010170,   0.046536,   0.046451,   0.000000,   631.560791,   0.522565,   3.340294,   26.660030,   589.271362,   222.253571,   131.565125,   0.480001,   563.558228,   492.396729
-0.010793,   0.048819,   0.048872,   0.000000,   636.830078,   0.522564,   3.340294,   25.780041,   589.457092,   221.994247,   140.185623,   0.474576,   569.948303,   504.280060
-0.011431,   0.051057,   0.051249,   0.000000,   641.749451,   0.522565,   3.340294,   24.900049,   588.989319,   221.653793,   148.876846,   0.468978,   576.177124,   515.917297
-0.012097,   0.053230,   0.053552,   0.000000,   646.224487,   0.522564,   3.340294,   24.020060,   587.877869,   221.060516,   157.502014,   0.463167,   582.178833,   527.267090
-0.012778,   0.055324,   0.055772,   0.000000,   650.317505,   0.522564,   3.340294,   23.140070,   586.137634,   220.434647,   166.101898,   0.457261,   587.973877,   538.209351
-0.013477,   0.057335,   0.057907,   0.000000,   654.070679,   0.522565,   3.340294,   22.260080,   583.812134,   219.875565,   174.659409,   0.451325,   593.576904,   548.694092
-0.014190,   0.059253,   0.059944,   0.000000,   657.498413,   0.522564,   3.340294,   21.380089,   580.967834,   219.445618,   183.096771,   0.445440,   598.967773,   558.640808
-0.014915,   0.061065,   0.061872,   0.000000,   660.628296,   0.522564,   3.340294,   20.500099,   577.671082,   219.236359,   191.354797,   0.439700,   604.129089,   567.979492
-0.015647,   0.062758,   0.063679,   0.000000,   663.491333,   0.522565,   3.340294,   19.620110,   574.022705,   219.328857,   199.345428,   0.434213,   609.034729,   576.637695
-0.016381,   0.064322,   0.065355,   0.000000,   666.125122,   0.522564,   3.340294,   18.740120,   570.117981,   219.812592,   207.000458,   0.429080,   613.661560,   584.563965
-0.017106,   0.065741,   0.066888,   0.000000,   668.578918,   0.522565,   3.340294,   17.860130,   566.029541,   220.816528,   214.284302,   0.424410,   617.991882,   591.722046
-0.017819,   0.067007,   0.068270,   0.000000,   670.859680,   0.522565,   3.340294,   16.980139,   561.875122,   222.300095,   221.101944,   0.420249,   621.992188,   598.104309
-0.018521,   0.068123,   0.069505,   0.000000,   672.992249,   0.522564,   3.340294,   16.100149,   557.661255,   224.251480,   227.494415,   0.416565,   625.683289,   603.798523
-0.019206,   0.069088,   0.070595,   0.000000,   674.989746,   0.522565,   3.340294,   15.220160,   553.310974,   226.662277,   233.563538,   0.413273,   629.102478,   608.925171
-0.019874,   0.069898,   0.071540,   0.000000,   676.815796,   0.522565,   3.340294,   14.340169,   548.674622,   229.428772,   239.434158,   0.410206,   632.286194,   613.634766
-0.020513,   0.070543,   0.072332,   0.000000,   678.432678,   0.522564,   3.340294,   13.460179,   543.477234,   232.517014,   245.313553,   0.407157,   635.295349,   618.103821
-0.021130,   0.071024,   0.072975,   0.000000,   679.790894,   0.522565,   3.340294,   12.580190,   537.451416,   235.849030,   251.377090,   0.403900,   638.194885,   622.502136
-0.021727,   0.071328,   0.073456,   0.000000,   680.814026,   0.522565,   3.340294,   11.700199,   530.294861,   239.369385,   257.770966,   0.400227,   641.023865,   626.945740
-0.022292,   0.071421,   0.073742,   0.000000,   681.436523,   0.522565,   3.340294,   10.820210,   521.669373,   243.179016,   264.611359,   0.396010,   643.796143,   631.467590
-0.022828,   0.071315,   0.073845,   0.000000,   681.648499,   0.522564,   3.340294,   9.940220,   511.450378,   247.338806,   271.879944,   0.391206,   646.538879,   636.061829
-0.023334,   0.071010,   0.073772,   0.000000,   681.437561,   0.522565,   3.340294,   9.060229,   499.260254,   252.055496,   279.684967,   0.385691,   649.324646,   640.783447
-0.023823,   0.070466,   0.073466,   0.000000,   680.652832,   0.522564,   3.340294,   8.180239,   484.979736,   257.312225,   287.813049,   0.379482,   652.022034,   645.418213
-0.024303,   0.069664,   0.072914,   0.000000,   679.152832,   0.522565,   3.340294,   7.300249,   468.106934,   263.179474,   296.292877,   0.372358,   654.644775,   649.949768
-0.024734,   0.068615,   0.072112,   0.000000,   676.984619,   0.522564,   3.340294,   6.420259,   448.750793,   270.023315,   304.766052,   0.364626,   657.087280,   654.087463
-0.025101,   0.067004,   0.070727,   0.000000,   673.200867,   0.522565,   3.340294,   5.540269,   425.226837,   277.568878,   313.219482,   0.355539,   658.902100,   657.404175
-0.025337,   0.064891,   0.068806,   0.000000,   667.984436,   0.522564,   3.340294,   4.660279,   397.624420,   286.702667,   321.065979,   0.345638,   659.964905,   659.509460
-0.025442,   0.061950,   0.065944,   0.000000,   659.983032,   0.522565,   3.340294,   3.780289,   364.921783,   296.352966,   327.556335,   0.334312,   659.338135,   659.335266
-0.000614,   0.000188,   0.000000,   -128.594406,   0.906559,   0.517473,   4.089216,   54.127285,   -93.624138,   -34.063705,   57.495770,   -0.329815,   129.050079,   -129.042908
-0.000493,   0.000231,   0.000000,   -97.745346,   19.196457,   0.517473,   4.089216,   53.271168,   -93.066978,   14.518092,   22.917446,   -0.241044,   108.623291,   -104.704521
-0.000319,   0.000333,   0.000000,   -50.515484,   54.680420,   0.517472,   4.089216,   52.415058,   -46.810841,   50.975777,   -19.390434,   0.015235,   91.126122,   37.287285
-0.000179,   0.000564,   0.000000,   -2.191734,   117.720421,   0.517473,   4.089216,   51.558945,   41.448986,   74.079704,   -57.693504,   0.324069,   118.831451,   118.785965
-0.000137,   0.000952,   0.000000,   0.000000,   210.155701,   0.517473,   4.089216,   50.702831,   159.760239,   84.768257,   -79.491875,   0.417458,   195.251801,   188.263474
-0.000153,   0.001460,   0.000000,   0.000000,   326.244812,   0.517473,   4.089216,   49.846718,   298.850922,   93.206406,   -79.898842,   0.437333,   298.824310,   281.817871
-0.000214,   0.002025,   0.000267,   0.000000,   398.413086,   0.517473,   4.089216,   48.990604,   385.547119,   103.979218,   -61.548138,   0.451295,   361.571411,   334.247040
-0.000386,   0.002699,   0.000927,   0.000000,   408.133453,   0.517473,   4.089216,   48.134491,   397.598175,   109.948730,   -56.048725,   0.458959,   368.621765,   336.423615
-0.000637,   0.003601,   0.001812,   0.000000,   419.375061,   0.517473,   4.089216,   47.278378,   410.029053,   115.305305,   -53.308918,   0.463611,   377.711700,   341.799133
-0.000914,   0.004594,   0.002786,   0.000000,   430.608154,   0.517473,   4.089216,   46.422264,   423.183716,   121.134171,   -47.933975,   0.469431,   386.508636,   345.763428
-0.001218,   0.005690,   0.003865,   0.000000,   441.941803,   0.517472,   4.089216,   45.566151,   436.403503,   127.486252,   -41.731892,   0.475453,   395.335266,   349.099670
-0.001552,   0.006888,   0.005048,   0.000000,   453.101929,   0.517473,   4.089216,   44.710037,   449.261688,   133.589111,   -35.028587,   0.480708,   404.161652,   352.521820
-0.001911,   0.008206,   0.006355,   0.000000,   464.305878,   0.517473,   4.089216,   43.853924,   461.918884,   139.791550,   -27.831926,   0.485509,   413.112854,   355.972626
-0.002285,   0.009653,   0.007800,   0.000000,   475.783173,   0.517473,   4.089216,   42.997814,   474.583618,   146.921387,   -19.861677,   0.490661,   422.223267,   358.724823
-0.002689,   0.011167,   0.009313,   0.000000,   486.556152,   0.517473,   4.089216,   42.141701,   486.109406,   152.867935,   -12.209446,   0.494120,   431.054077,   362.527496
-0.003093,   0.012804,   0.010965,   0.000000,   497.531982,   0.517473,   4.089216,   41.285587,   497.483490,   159.586548,   -4.047935,   0.497761,   440.017273,   365.895813
-0.003521,   0.014515,   0.012696,   0.000000,   508.010284,   0.517473,   4.089216,   40.429474,   507.967957,   165.538239,   3.806957,   0.500267,   448.764648,   370.116913
-0.003979,   0.016372,   0.014583,   0.000000,   518.555908,   0.517472,   4.089216,   39.573360,   518.154419,   171.403809,   11.806204,   0.502217,   457.676514,   374.968689
-0.004442,   0.018361,   0.016621,   0.000000,   529.142822,   0.517473,   4.089216,   38.717247,   528.010010,   177.394745,   19.961338,   0.503843,   466.682556,   380.167633
-0.004913,   0.020367,   0.018680,   0.000000,   538.997131,   0.517473,   4.089216,   37.861134,   536.829712,   182.557846,   27.794825,   0.504606,   475.214386,   386.060211
-0.005401,   0.022447,   0.020824,   0.000000,   548.565430,   0.517473,   4.089216,   37.005020,   545.047668,   187.412384,   35.643440,   0.504873,   483.593872,   392.487671
-0.005902,   0.024646,   0.023102,   0.000000,   558.018921,   0.517474,   4.089216,   36.148907,   552.867004,   191.889252,   43.431217,   0.504589,   491.988831,   399.711823
-0.006426,   0.026914,   0.025454,   0.000000,   567.130920,   0.517473,   4.089216,   35.292793,   560.085510,   195.920792,   51.140198,   0.503808,   500.194275,   407.517700
-0.006941,   0.029229,   0.027871,   0.000000,   575.984375,   0.517473,   4.089216,   34.436680,   566.695251,   199.881790,   59.107231,   0.502768,   508.237305,   415.593353
-0.007478,   0.031615,   0.030365,   0.000000,   584.486450,   0.517472,   4.089216,   33.580566,   572.793640,   203.180527,   66.772209,   0.501168,   516.110413,   424.367462
-0.008024,   0.034068,   0.032940,   0.000000,   592.782715,   0.517473,   4.089216,   32.724453,   578.382324,   206.298447,   74.602470,   0.499264,   523.891541,   433.518311
-0.008580,   0.036501,   0.035493,   0.000000,   600.468018,   0.517472,   4.089216,   31.868340,   583.198120,   208.661545,   82.258469,   0.496817,   531.289001,   443.122589
-0.009126,   0.038949,   0.038077,   0.000000,   607.857544,   0.517473,   4.089216,   31.012226,   587.437378,   210.838120,   90.040001,   0.494118,   538.519043,   452.911438
-0.009697,   0.041426,   0.040690,   0.000000,   614.888550,   0.517473,   4.089216,   30.156113,   591.126160,   212.532074,   97.780060,   0.491018,   545.572693,   463.049683
-0.010286,   0.043915,   0.043319,   0.000000,   621.577637,   0.517472,   4.089216,   29.299999,   594.202271,   213.852509,   105.648605,   0.487541,   552.469421,   473.476562
-0.010869,   0.046368,   0.045917,   0.000000,   627.826904,   0.517473,   4.089216,   28.443888,   596.607666,   214.776382,   113.556686,   0.483725,   559.122253,   484.020996
-0.011483,   0.048807,   0.048497,   0.000000,   633.681824,   0.517473,   4.089216,   27.587774,   598.372925,   215.292313,   121.543739,   0.479536,   565.592163,   494.726654
-0.012108,   0.051230,   0.051066,   0.000000,   639.211426,   0.517473,   4.089216,   26.731661,   599.521606,   215.557709,   129.671692,   0.475046,   571.930115,   505.502991
-0.012743,   0.053601,   0.053582,   0.000000,   644.351196,   0.517472,   4.089216,   25.875547,   599.980469,   215.583786,   137.930130,   0.470269,   578.083923,   516.246216
-0.013393,   0.055927,   0.056053,   0.000000,   649.137573,   0.517473,   4.089216,   25.019434,   599.814148,   215.413727,   146.262589,   0.465249,   584.080566,   526.892700
-0.014074,   0.058204,   0.058468,   0.000000,   653.544556,   0.517473,   4.089216,   24.163321,   599.005188,   214.983582,   154.657211,   0.459943,   589.919861,   537.449524
-0.014772,   0.060412,   0.060812,   0.000000,   657.603088,   0.517473,   4.089216,   23.307207,   597.569519,   214.465347,   163.104736,   0.454465,   595.597351,   547.769653
-0.015488,   0.062542,   0.063077,   0.000000,   661.331238,   0.517472,   4.089216,   22.451094,   595.522156,   213.930695,   171.589706,   0.448860,   601.116943,   557.796448
-0.016220,   0.064587,   0.065252,   0.000000,   664.746399,   0.517473,   4.089216,   21.594982,   592.907715,   213.446106,   180.057800,   0.443194,   606.471252,   567.457764
-0.016967,   0.066535,   0.067330,   0.000000,   667.873291,   0.517473,   4.089216,   20.738867,   589.777954,   213.099091,   188.456223,   0.437547,   611.649719,   576.680359
-0.017725,   0.068377,   0.069300,   0.000000,   670.741943,   0.517472,   4.089216,   19.882755,   586.211975,   212.977325,   196.710052,   0.432017,   616.634827,   585.388977
-0.018491,   0.070105,   0.071156,   0.000000,   673.393127,   0.517473,   4.089216,   19.026642,   582.306641,   213.178696,   204.742035,   0.426711,   621.408691,   593.516479
-0.019251,   0.071701,   0.072885,   0.000000,   675.880798,   0.517473,   4.089216,   18.170528,   578.113464,   213.871201,   212.531052,   0.421746,   625.957336,   601.011292
-0.020008,   0.073162,   0.074481,   0.000000,   678.209045,   0.517473,   4.089216,   17.314415,   573.809692,   214.993149,   219.907806,   0.417202,   630.232300,   607.823181
-0.020767,   0.074497,   0.075953,   0.000000,   680.440247,   0.517472,   4.089216,   16.458302,   569.466309,   216.620392,   226.874237,   0.413131,   634.250732,   613.985535
-0.021522,   0.075704,   0.077307,   0.000000,   682.607910,   0.517473,   4.089216,   15.602188,   565.107605,   218.775040,   233.453445,   0.409534,   638.027588,   619.556091
-0.022272,   0.076792,   0.078552,   0.000000,   684.720276,   0.517473,   4.089216,   14.746075,   560.698425,   221.407486,   239.710022,   0.406334,   641.594727,   624.641357
-0.023016,   0.077765,   0.079697,   0.000000,   686.764954,   0.517473,   4.089216,   13.889962,   556.058899,   224.463043,   245.816330,   0.403360,   645.017456,   629.412964
-0.023764,   0.078632,   0.080754,   0.000000,   688.702881,   0.517473,   4.089216,   13.033849,   550.975220,   227.833176,   251.941452,   0.400397,   648.363098,   634.046997
-0.024519,   0.079393,   0.081725,   0.000000,   690.473389,   0.517473,   4.089216,   12.177735,   545.150391,   231.426926,   258.282837,   0.397205,   651.701599,   638.716370
-0.025279,   0.080042,   0.082608,   0.000000,   692.033875,   0.517473,   4.089216,   11.321622,   538.266052,   235.260025,   265.022858,   0.393592,   655.100342,   643.548706
-0.026060,   0.080559,   0.083381,   0.000000,   693.263306,   0.517473,   4.089216,   10.465509,   530.026794,   239.213898,   272.245178,   0.389349,   658.569824,   648.599792
-0.026860,   0.080934,   0.084041,   0.000000,   694.161987,   0.517473,   4.089216,   9.609395,   520.112610,   243.511368,   280.063324,   0.384405,   662.169128,   653.897034
-0.027684,   0.081205,   0.084626,   0.000000,   694.732849,   0.517473,   4.089216,   8.753282,   508.505035,   248.153961,   288.384155,   0.378746,   665.932800,   659.408203
-0.028578,   0.081354,   0.085113,   0.000000,   694.809631,   0.517473,   4.089216,   7.897169,   494.774048,   253.073898,   297.258942,   0.372137,   669.867126,   665.118469
-0.029509,   0.081263,   0.085391,   0.000000,   694.183838,   0.517473,   4.089216,   7.041056,   478.347321,   258.514069,   306.648712,   0.364498,   673.859375,   670.808594
-0.030443,   0.080964,   0.085496,   0.000000,   692.933472,   0.517473,   4.089216,   6.184943,   459.080688,   264.932800,   316.368713,   0.355993,   677.928040,   676.322327
-0.031451,   0.080430,   0.085369,   0.000000,   690.840942,   0.517473,   4.089216,   5.328829,   436.794006,   272.302277,   326.080475,   0.346629,   681.896545,   681.346436
-0.032491,   0.079370,   0.084709,   0.000000,   686.937561,   0.517473,   4.089216,   4.472716,   409.858246,   280.175323,   335.716278,   0.335589,   685.394836,   685.379150
-0.000899,   0.000267,   0.000000,   -189.014053,   0.000000,   0.523154,   4.859001,   53.488712,   -137.589844,   -51.980118,   83.945595,   -0.334805,   188.736725,   -188.734879
-0.000575,   0.000232,   0.000000,   -116.713081,   13.693830,   0.523154,   4.859001,   52.654621,   -109.533127,   6.513878,   29.744978,   -0.276648,   124.127808,   -122.411102
-0.000244,   0.000305,   0.000000,   -35.101982,   53.502819,   0.523154,   4.859001,   51.820526,   -27.734552,   46.135391,   -24.464476,   0.079365,   77.283607,   54.484489
-0.000126,   0.000677,   0.000000,   0.000000,   147.414520,   0.523154,   4.859001,   50.986435,   97.729507,   67.499115,   -63.012684,   0.395197,   139.364014,   136.767349
-0.000146,   0.001278,   0.000000,   0.000000,   284.871521,   0.523155,   4.859001,   50.152340,   256.941528,   82.625778,   -75.157959,   0.432277,   261.843719,   248.498260
-0.000265,   0.001953,   0.000198,   0.000000,   392.245605,   0.523154,   4.859001,   49.318245,   380.289795,   87.552361,   -60.356060,   0.432655,   360.442841,   341.917145
-0.000510,   0.002797,   0.001019,   0.000000,   403.597839,   0.523154,   4.859001,   48.484154,   394.732635,   92.156792,   -52.545139,   0.439745,   369.069641,   346.964905
-0.000858,   0.003895,   0.002087,   0.000000,   416.375000,   0.523155,   4.859001,   47.650059,   408.280975,   96.401413,   -50.890842,   0.442708,   379.996521,   355.794189
-0.001221,   0.005037,   0.003202,   0.000000,   428.486755,   0.523154,   4.859001,   46.815964,   422.079956,   101.320709,   -45.783096,   0.447586,   389.795105,   362.401825
-0.001607,   0.006281,   0.004418,   0.000000,   440.704071,   0.523155,   4.859001,   45.981869,   435.970886,   107.435066,   -39.716831,   0.453538,   399.382782,   367.872131
-0.002028,   0.007622,   0.005735,   0.000000,   452.502563,   0.523152,   4.859001,   45.147778,   449.196472,   113.144463,   -33.495468,   0.458525,   408.804230,   373.381714
-0.002469,   0.009091,   0.007184,   0.000000,   464.516235,   0.523154,   4.859001,   44.313686,   462.517395,   119.838776,   -26.248055,   0.464135,   418.238007,   378.096466
-0.002931,   0.010628,   0.008705,   0.000000,   476.020386,   0.523155,   4.859001,   43.479591,   474.995483,   126.449127,   -18.928194,   0.469135,   427.343170,   382.526428
-0.003423,   0.012281,   0.010348,   0.000000,   487.289856,   0.523154,   4.859001,   42.645496,   486.912048,   132.761017,   -11.573303,   0.473294,   436.426086,   387.234375
-0.003900,   0.014047,   0.012119,   0.000000,   498.873047,   0.523155,   4.859001,   41.811405,   498.840607,   140.670425,   -3.408987,   0.478470,   445.525391,   390.692932
-0.004418,   0.015847,   0.013924,   0.000000,   509.342010,   0.523154,   4.859001,   40.977310,   509.304230,   146.626022,   3.702378,   0.481432,   454.151825,   395.420776
-0.004934,   0.017812,   0.015914,   0.000000,   520.239197,   0.523154,   4.859001,   40.143215,   519.880188,   153.552658,   11.473866,   0.484775,   463.054840,   399.773102
-0.005458,   0.019814,   0.017947,   0.000000,   530.491089,   0.523154,   4.859001,   39.309124,   529.533813,   159.816635,   18.836950,   0.487268,   471.575623,   404.448761
-0.006007,   0.021888,   0.020058,   0.000000,   540.367615,   0.523154,   4.859001,   38.475029,   538.529480,   165.683899,   26.243324,   0.489137,   479.901672,   409.483673
-0.006551,   0.024078,   0.022304,   0.000000,   550.158813,   0.523155,   4.859001,   37.640938,   547.208191,   171.394440,   33.430267,   0.490609,   488.238831,   414.873657
-0.007105,   0.026386,   0.024684,   0.000000,   559.951721,   0.523154,   4.859001,   36.806843,   555.556946,   177.308838,   41.007614,   0.491912,   496.610199,   420.405182
-0.007686,   0.028691,   0.027059,   0.000000,   568.945007,   0.523154,   4.859001,   35.972748,   562.974121,   182.078796,   48.061749,   0.492275,   504.496490,   426.629059
-0.008248,   0.031064,   0.029520,   0.000000,   577.744995,   0.523155,   4.859001,   35.138653,   569.956482,   186.718414,   55.186268,   0.492359,   512.278625,   433.103241
-0.008824,   0.033524,   0.032083,   0.000000,   586.383911,   0.523154,   4.859001,   34.304562,   576.509216,   191.144974,   62.473000,   0.492076,   520.010620,   440.004700
-0.009408,   0.036011,   0.034677,   0.000000,   594.538147,   0.523154,   4.859001,   33.470467,   582.460693,   194.841492,   69.478943,   0.491220,   527.463867,   447.420349
-0.009973,   0.038527,   0.037318,   0.000000,   602.472412,   0.523154,   4.859001,   32.636375,   587.887207,   198.527161,   76.756958,   0.490181,   534.778198,   454.972412
-0.010552,   0.041046,   0.039962,   0.000000,   609.890503,   0.523154,   4.859001,   31.802280,   592.692627,   201.427216,   83.813492,   0.488569,   541.799927,   463.028137
-0.011137,   0.043612,   0.042664,   0.000000,   617.095886,   0.523154,   4.859001,   30.968187,   597.055664,   204.088699,   90.976669,   0.486665,   548.730896,   471.384827
-0.011739,   0.046188,   0.045378,   0.000000,   623.895569,   0.523154,   4.859001,   30.134094,   600.839600,   206.153107,   98.140022,   0.484278,   555.460876,   480.168579
-0.012328,   0.048750,   0.048089,   0.000000,   630.369812,   0.523154,   4.859001,   29.300001,   604.047058,   207.957626,   105.446968,   0.481604,   562.014465,   489.127472
-0.012939,   0.051317,   0.050805,   0.000000,   636.497314,   0.523154,   4.859001,   28.465906,   606.686340,   209.305054,   112.849525,   0.478516,   568.418335,   498.406799
-0.013569,   0.053876,   0.053513,   0.000000,   642.268616,   0.523154,   4.859001,   27.631813,   608.756104,   210.221130,   120.328751,   0.475046,   574.665588,   507.921234
-0.014202,   0.056397,   0.056187,   0.000000,   647.690552,   0.523154,   4.859001,   26.797718,   610.177063,   210.855270,   128.012527,   0.471243,   580.756897,   517.572937
-0.014845,   0.058876,   0.058822,   0.000000,   652.758728,   0.523154,   4.859001,   25.963625,   610.963196,   211.191681,   135.851151,   0.467109,   586.697693,   527.323547
-0.015515,   0.061325,   0.061421,   0.000000,   657.467285,   0.523154,   4.859001,   25.129532,   611.155945,   211.150223,   143.769104,   0.462618,   592.502258,   537.168945
-0.016216,   0.063745,   0.063991,   0.000000,   661.880981,   0.523154,   4.859001,   24.295439,   610.736572,   210.902817,   151.871689,   0.457824,   598.220825,   547.055420
-0.016937,   0.066109,   0.066503,   0.000000,   665.966248,   0.523154,   4.859001,   23.461344,   609.694824,   210.485413,   160.095444,   0.452777,   603.814270,   556.862244
-0.017678,   0.068407,   0.068946,   0.000000,   669.733459,   0.523153,   4.859001,   22.627251,   608.034607,   209.960022,   168.426529,   0.447516,   609.285522,   566.526978
-0.018442,   0.070631,   0.071315,   0.000000,   673.196655,   0.523154,   4.859001,   21.793158,   605.779175,   209.390244,   176.829437,   0.442090,   614.633545,   575.981628
-0.019227,   0.072774,   0.073601,   0.000000,   676.376526,   0.523154,   4.859001,   20.959064,   602.963013,   208.854446,   185.263123,   0.436563,   619.855103,   585.156189
-0.020031,   0.074828,   0.075798,   0.000000,   679.298401,   0.523154,   4.859001,   20.124969,   599.639587,   208.435074,   193.670853,   0.431013,   624.941650,   593.979309
-0.020853,   0.076786,   0.077899,   0.000000,   681.997192,   0.523154,   4.859001,   19.290876,   595.886902,   208.227219,   201.981354,   0.425538,   629.880371,   602.377258
-0.021678,   0.078628,   0.079893,   0.000000,   684.527710,   0.523154,   4.859001,   18.456783,   591.738037,   208.415146,   210.186386,   0.420250,   634.664124,   610.288940
-0.022525,   0.080371,   0.081785,   0.000000,   686.903870,   0.523154,   4.859001,   17.622690,   587.401489,   208.929810,   218.081512,   0.415240,   639.253601,   617.652649
-0.023383,   0.082022,   0.083594,   0.000000,   689.221741,   0.523154,   4.859001,   16.788595,   583.009827,   209.925385,   225.625732,   0.410637,   643.662537,   624.447571
-0.024253,   0.083568,   0.085305,   0.000000,   691.492249,   0.523154,   4.859001,   15.954503,   578.603333,   211.425751,   232.796478,   0.406476,   647.868530,   630.678650
-0.025133,   0.085001,   0.086914,   0.000000,   693.724792,   0.523154,   4.859001,   15.120409,   574.203857,   213.421173,   239.596161,   0.402754,   651.866882,   636.384155
-0.026029,   0.086338,   0.088439,   0.000000,   695.941284,   0.523154,   4.859001,   14.286316,   569.792114,   215.878830,   246.088333,   0.399407,   655.697388,   641.666321
-0.026946,   0.087605,   0.089913,   0.000000,   698.158081,   0.523154,   4.859001,   13.452222,   565.276978,   218.734329,   252.401184,   0.396304,   659.436401,   646.683594
-0.027896,   0.088811,   0.091348,   0.000000,   700.317200,   0.523154,   4.859001,   12.618128,   560.399048,   221.846451,   258.740692,   0.393191,   663.159607,   651.627869
-0.028886,   0.089966,   0.092758,   0.000000,   702.384155,   0.523154,   4.859001,   11.784035,   554.891357,   225.162354,   265.305054,   0.389861,   666.949890,   656.659546
-0.029940,   0.091084,   0.094159,   0.000000,   704.269287,   0.523154,   4.859001,   10.949941,   548.444946,   228.506134,   272.278320,   0.386031,   670.887695,   661.943237
-0.031041,   0.092144,   0.095540,   0.000000,   705.972473,   0.523154,   4.859001,   10.115848,   540.762756,   232.089020,   279.803772,   0.381643,   675.022278,   667.507202
-0.032218,   0.093084,   0.096836,   0.000000,   707.241089,   0.523154,   4.859001,   9.281754,   531.376953,   235.641281,   287.988678,   0.376361,   679.327881,   673.372620
-0.033458,   0.093898,   0.098043,   0.000000,   708.059082,   0.523154,   4.859001,   8.447660,   520.231323,   239.278076,   296.732330,   0.370246,   683.787170,   679.411743
-0.034759,   0.094604,   0.099193,   0.000000,   708.501587,   0.523154,   4.859001,   7.613567,   506.945190,   243.438156,   306.164215,   0.363285,   688.516724,   685.641968
-0.036135,   0.095185,   0.100270,   0.000000,   708.529724,   0.523154,   4.859001,   6.779473,   491.312164,   248.355301,   316.161316,   0.355531,   693.485352,   691.909912
-0.037689,   0.095572,   0.101199,   0.000000,   707.638916,   0.523154,   4.859001,   5.945380,   472.506439,   253.476181,   326.784943,   0.346375,   698.647705,   698.105530
-0.039249,   0.095636,   0.101868,   0.000000,   705.876953,   0.523154,   4.859001,   5.111286,   449.964874,   259.921967,   337.824310,   0.336178,   703.880554,   703.854858
-0.001192,   0.000349,   0.000000,   -250.825790,   0.000000,   0.527610,   5.656495,   52.883896,   -186.391876,   -66.387344,   109.014183,   -0.337235,   249.854813,   -249.837616
-0.000615,   0.000219,   0.000000,   -126.716408,   7.962543,   0.527611,   5.656495,   52.070660,   -117.794006,   -0.959860,   33.497025,   -0.302451,   130.879471,   -130.332840
-0.000115,   0.000291,   0.000000,   -6.333578,   59.286911,   0.527611,   5.656495,   51.257420,   12.558341,   40.394993,   -29.711823,   0.281543,   62.694103,   61.968208
-0.000123,   0.000969,   0.000000,   0.000000,   215.057205,   0.527610,   5.656495,   50.444183,   189.632187,   64.017258,   -61.969303,   0.425743,   198.593628,   189.880157
-0.000316,   0.001794,   0.000050,   0.000000,   382.169952,   0.527612,   5.656495,   49.630943,   369.682190,   64.649254,   -62.969215,   0.403343,   358.943085,   350.263794
-0.000674,   0.002935,   0.001151,   0.000000,   397.856232,   0.527610,   5.656495,   48.817707,   390.503326,   71.118286,   -49.015079,   0.415745,   370.116425,   357.443695
-0.001139,   0.004280,   0.002453,   0.000000,   413.247742,   0.527611,   5.656495,   48.004471,   406.146881,   76.580116,   -48.894085,   0.419842,   383.260925,   368.690430
-0.001608,   0.005640,   0.003775,   0.000000,   426.953735,   0.527611,   5.656495,   47.191231,   421.517883,   81.666733,   -43.323551,   0.425271,   394.402832,   377.290039
-0.002096,   0.007072,   0.005171,   0.000000,   440.094238,   0.527611,   5.656495,   46.377995,   436.075378,   87.394600,   -37.649078,   0.430949,   404.896637,   384.865112
-0.002617,   0.008587,   0.006653,   0.000000,   452.438965,   0.527611,   5.656495,   45.564754,   449.700714,   92.521858,   -31.393358,   0.435627,   414.898193,   392.137146
-0.003153,   0.010195,   0.008231,   0.000000,   464.726532,   0.527610,   5.656495,   44.751518,   463.084900,   98.807381,   -24.509323,   0.441150,   424.566193,   398.380798
-0.003724,   0.011894,   0.009904,   0.000000,   476.565979,   0.527611,   5.656495,   43.938282,   475.761810,   105.006104,   -17.285610,   0.446108,   433.951660,   404.340485
-0.004281,   0.013713,   0.011710,   0.000000,   488.813477,   0.527611,   5.656495,   43.125042,   488.574768,   113.072037,   -9.470579,   0.452399,   443.300720,   409.079193
-0.004870,   0.015541,   0.013525,   0.000000,   499.791229,   0.527611,   5.656495,   42.311806,   499.774994,   119.571671,   -2.484277,   0.456714,   452.031006,   414.161163
-0.005469,   0.017517,   0.015503,   0.000000,   511.004364,   0.527611,   5.656495,   41.498566,   510.940552,   126.769875,   4.951705,   0.461203,   460.904022,   418.953094
-0.006053,   0.019564,   0.017563,   0.000000,   521.983948,   0.527611,   5.656495,   40.685329,   521.605286,   134.366684,   12.114787,   0.465671,   469.553406,   423.231506
-0.006669,   0.021625,   0.019638,   0.000000,   532.076843,   0.527610,   5.656495,   39.872089,   531.143433,   140.860687,   19.109425,   0.468879,   477.737732,   427.859528
-0.007273,   0.023811,   0.021857,   0.000000,   542.246277,   0.527611,   5.656495,   39.058853,   540.535034,   147.718475,   25.983154,   0.472072,   485.980713,   432.343964
-0.007884,   0.026120,   0.024216,   0.000000,   552.431641,   0.527611,   5.656495,   38.245617,   549.657471,   154.816818,   33.212193,   0.475092,   494.271698,   436.818817
-0.008517,   0.028412,   0.026554,   0.000000,   561.724365,   0.527611,   5.656495,   37.432377,   557.783813,   160.778397,   39.748482,   0.477106,   502.028595,   441.645966
-0.009145,   0.030832,   0.029041,   0.000000,   571.117615,   0.527611,   5.656495,   36.619141,   565.744995,   167.066681,   46.591881,   0.479078,   509.876373,   446.479889
-0.009766,   0.033330,   0.031623,   0.000000,   580.213013,   0.527610,   5.656495,   35.805901,   573.265686,   172.843964,   53.198917,   0.480490,   517.603577,   451.709137
-0.010379,   0.035835,   0.034221,   0.000000,   588.869141,   0.527612,   5.656495,   34.992664,   580.147034,   178.303314,   59.841423,   0.481522,   525.036682,   457.037537
-0.010979,   0.038356,   0.036845,   0.000000,   597.106995,   0.527610,   5.656495,   34.179428,   586.455811,   183.286880,   66.390236,   0.482096,   532.219727,   462.630981
-0.011580,   0.040891,   0.039490,   0.000000,   604.903015,   0.527611,   5.656495,   33.366188,   592.212097,   187.631332,   72.770683,   0.482138,   539.156616,   468.611694
-0.012187,   0.043505,   0.042228,   0.000000,   612.561890,   0.527611,   5.656495,   32.552952,   597.609436,   191.739777,   79.324203,   0.481836,   546.070190,   474.977142
-0.012791,   0.046162,   0.045020,   0.000000,   619.927368,   0.527610,   5.656495,   31.739714,   602.579895,   195.366730,   85.819847,   0.481112,   552.848755,   481.734070
-0.013391,   0.048805,   0.047804,   0.000000,   626.884949,   0.527610,   5.656495,   30.926476,   606.969055,   198.514099,   92.365524,   0.479974,   559.393921,   488.789948
-0.013995,   0.051444,   0.050586,   0.000000,   633.452942,   0.527611,   5.656495,   30.113239,   610.809692,   201.107895,   98.942863,   0.478380,   565.741333,   496.218658
-0.014605,   0.054116,   0.053411,   0.000000,   639.793701,   0.527611,   5.656495,   29.299999,   614.232727,   203.370911,   105.619026,   0.476454,   572.005798,   503.960938
-0.015233,   0.056797,   0.056248,   0.000000,   645.821289,   0.527611,   5.656495,   28.486761,   617.124512,   205.173370,   112.450706,   0.474098,   578.149414,   512.078918
-0.015859,   0.059456,   0.059067,   0.000000,   651.495850,   0.527611,   5.656495,   27.673523,   619.468811,   206.533142,   119.376831,   0.471356,   584.131165,   520.454773
-0.016498,   0.062102,   0.061876,   0.000000,   656.885559,   0.527610,   5.656495,   26.860287,   621.236267,   207.598557,   126.557343,   0.468259,   590.012024,   529.079407
-0.017151,   0.064727,   0.064668,   0.000000,   661.947754,   0.527610,   5.656495,   26.047049,   622.429993,   208.246536,   133.900146,   0.464755,   595.780640,   537.959229
-0.017855,   0.067341,   0.067438,   0.000000,   666.654663,   0.527611,   5.656495,   25.233810,   623.062500,   208.386139,   141.339752,   0.460813,   601.435669,   547.081421
-0.018578,   0.069946,   0.070205,   0.000000,   671.132141,   0.527611,   5.656495,   24.420572,   623.122681,   208.341339,   149.058121,   0.456553,   607.059082,   556.354492
-0.019327,   0.072510,   0.072931,   0.000000,   675.300659,   0.527611,   5.656495,   23.607334,   622.576294,   208.041733,   156.958374,   0.451969,   612.591675,   565.690918
-0.020104,   0.075027,   0.075608,   0.000000,   679.166870,   0.527610,   5.656495,   22.794098,   621.419739,   207.539429,   165.030746,   0.447092,   618.038391,   575.029602
-0.020912,   0.077490,   0.078229,   0.000000,   682.739746,   0.527611,   5.656495,   21.980860,   619.659851,   206.888306,   173.253174,   0.441955,   623.402527,   584.307617
-0.021751,   0.079892,   0.080789,   0.000000,   686.033081,   0.527611,   5.656495,   21.167622,   617.313477,   206.153137,   181.596161,   0.436608,   628.685486,   593.458496
-0.022624,   0.082228,   0.083282,   0.000000,   689.064941,   0.527610,   5.656495,   20.354383,   614.412048,   205.406601,   190.017120,   0.431108,   633.884277,   602.411560
-0.023529,   0.084491,   0.085704,   0.000000,   691.862183,   0.527610,   5.656495,   19.541147,   611.008850,   204.733032,   198.459137,   0.425535,   638.992798,   611.093628
-0.024457,   0.086682,   0.088061,   0.000000,   694.496887,   0.527611,   5.656495,   18.727909,   607.155884,   204.304596,   206.915192,   0.419991,   644.030762,   619.455505
-0.025427,   0.088786,   0.090329,   0.000000,   696.947266,   0.527611,   5.656495,   17.914671,   602.948547,   204.111038,   215.234695,   0.414555,   648.935852,   627.399597
-0.026418,   0.090795,   0.092509,   0.000000,   699.259338,   0.527611,   5.656495,   17.101433,   598.554199,   204.221878,   223.277466,   0.409364,   653.677551,   634.843201
-0.027440,   0.092731,   0.094623,   0.000000,   701.523376,   0.527610,   5.656495,   16.288195,   594.083435,   204.761459,   231.024002,   0.404511,   658.280518,   641.795349
-0.028497,   0.094605,   0.096688,   0.000000,   703.800415,   0.527610,   5.656495,   15.474957,   589.657532,   205.789703,   238.420593,   0.400076,   662.746643,   648.260376
-0.029594,   0.096424,   0.098711,   0.000000,   706.116150,   0.527610,   5.656495,   14.661719,   585.353516,   207.295212,   245.436188,   0.396083,   667.072571,   654.266785
-0.030735,   0.098178,   0.100685,   0.000000,   708.447327,   0.527611,   5.656495,   13.848482,   581.102112,   209.217102,   252.139969,   0.392452,   671.266418,   659.893433
-0.031923,   0.099874,   0.102622,   0.000000,   710.773132,   0.527611,   5.656495,   13.035244,   576.798889,   211.464951,   258.639557,   0.389053,   675.370178,   665.258301
-0.033172,   0.101547,   0.104561,   0.000000,   713.086487,   0.527610,   5.656495,   12.222006,   572.283630,   213.938507,   265.106476,   0.385700,   679.477051,   670.536011
-0.034521,   0.103222,   0.106529,   0.000000,   715.299805,   0.527611,   5.656495,   11.408768,   567.234558,   216.428604,   271.782074,   0.382077,   683.686401,   675.932617
-0.035948,   0.104898,   0.108542,   0.000000,   717.396423,   0.527610,   5.656495,   10.595531,   561.354187,   218.983429,   278.878937,   0.378022,   688.088196,   681.566467
-0.037488,   0.106580,   0.110608,   0.000000,   719.289368,   0.527611,   5.656495,   9.782292,   554.324280,   221.512070,   286.558655,   0.373313,   692.748901,   687.527710
-0.039155,   0.108279,   0.112740,   0.000000,   720.888733,   0.527611,   5.656495,   8.969054,   545.978760,   223.876083,   294.843109,   0.367808,   697.695557,   693.813843
-0.040980,   0.109947,   0.114911,   0.000000,   722.154419,   0.527610,   5.656495,   8.155817,   535.744141,   226.400345,   303.996124,   0.361371,   703.012939,   700.447021
-0.042962,   0.111555,   0.117093,   0.000000,   722.988586,   0.527611,   5.656495,   7.342579,   523.371826,   229.153778,   313.970886,   0.353956,   708.681885,   707.295044
-0.045067,   0.113039,   0.119234,   0.000000,   723.209839,   0.527611,   5.656495,   6.529341,   508.473633,   232.146301,   324.729309,   0.345440,   714.663879,   714.186523
-0.047305,   0.114291,   0.121253,   0.000000,   722.839050,   0.527611,   5.656495,   5.716104,   490.324677,   236.260559,   336.357697,   0.335928,   720.973267,   720.951416
-0.001477,   0.000433,   0.000000,   -310.829041,   0.000000,   0.530988,   6.480167,   52.313992,   -236.608932,   -76.633430,   131.840912,   -0.337223,   309.629456,   -309.608276
-0.000582,   0.000210,   0.000000,   -119.788605,   8.160363,   0.530988,   6.480167,   51.520405,   -109.495781,   -2.132463,   34.799629,   -0.299906,   124.070221,   -123.464264
-0.000050,   0.000453,   0.000000,   0.000000,   101.138405,   0.530986,   6.480167,   50.726818,   83.915581,   37.034615,   -33.227222,   0.434299,   92.831841,   87.884445
-0.000360,   0.001609,   0.000000,   0.000000,   346.484467,   0.530986,   6.480167,   49.933235,   333.773926,   41.144871,   -62.297901,   0.375093,   333.178528,   330.432190
-0.000872,   0.003157,   0.001364,   0.000000,   393.424194,   0.530988,   6.480167,   49.139648,   387.216644,   53.041119,   -45.966751,   0.394259,   372.223724,   365.506958
-0.001468,   0.004734,   0.002887,   0.000000,   410.434479,   0.530986,   6.480167,   48.346062,   404.262268,   57.972939,   -46.641953,   0.397989,   387.142059,   379.227692
-0.002066,   0.006305,   0.004409,   0.000000,   424.653564,   0.530988,   6.480167,   47.552475,   420.000824,   61.032955,   -41.131889,   0.401405,   399.458771,   390.356628
-0.002678,   0.007969,   0.006029,   0.000000,   438.901337,   0.530988,   6.480167,   46.758888,   435.438690,   66.505676,   -35.909195,   0.407070,   411.022034,   399.927277
-0.003324,   0.009734,   0.007752,   0.000000,   452.386047,   0.530988,   6.480167,   45.965305,   450.102478,   71.811790,   -29.480042,   0.412313,   421.940399,   408.753326
-0.003980,   0.011580,   0.009562,   0.000000,   465.724884,   0.530986,   6.480167,   45.171719,   464.441406,   78.684563,   -22.287947,   0.418833,   432.253357,   416.231720
-0.004661,   0.013491,   0.011441,   0.000000,   478.234467,   0.530986,   6.480167,   44.378132,   477.661560,   85.198685,   -15.005738,   0.424442,   442.039337,   423.234619
-0.005315,   0.015456,   0.013385,   0.000000,   490.630737,   0.530988,   6.480167,   43.584549,   490.503754,   93.181839,   -7.104001,   0.431061,   451.355927,   428.969818
-0.006018,   0.017452,   0.015360,   0.000000,   501.744507,   0.530986,   6.480167,   42.790962,   501.744141,   99.393600,   -0.378842,   0.435446,   460.170105,   435.024323
-0.006675,   0.019591,   0.017500,   0.000000,   513.575256,   0.530989,   6.480167,   41.997375,   513.447937,   107.870247,   7.186734,   0.441518,   469.077759,   439.925873
-0.007392,   0.021689,   0.019591,   0.000000,   523.789673,   0.530986,   6.480167,   41.203789,   523.323120,   114.076721,   13.826147,   0.445202,   477.236938,   445.259979
-0.008081,   0.023919,   0.021833,   0.000000,   534.404175,   0.530988,   6.480167,   40.410202,   533.379211,   121.601654,   20.569595,   0.449715,   485.478973,   449.901459
-0.008762,   0.026268,   0.024211,   0.000000,   545.071655,   0.530986,   6.480167,   39.616615,   543.229370,   129.645798,   27.664846,   0.454275,   493.735565,   454.230316
-0.009472,   0.028579,   0.026548,   0.000000,   554.689026,   0.530986,   6.480167,   38.823032,   551.930603,   136.429474,   33.966873,   0.457625,   501.400085,   458.673737
-0.010168,   0.031021,   0.029035,   0.000000,   564.514160,   0.530988,   6.480167,   38.029446,   560.604431,   143.915787,   40.551567,   0.461232,   509.158661,   462.791046
-0.010852,   0.033550,   0.031627,   0.000000,   574.096985,   0.530986,   6.480167,   37.235859,   568.894226,   151.095642,   46.912434,   0.464361,   516.832092,   467.025787
-0.011513,   0.036042,   0.034191,   0.000000,   583.048523,   0.530989,   6.480167,   36.442272,   576.436523,   157.816071,   53.024868,   0.467020,   524.069580,   471.116882
-0.012169,   0.038552,   0.036780,   0.000000,   591.583374,   0.530986,   6.480167,   35.648685,   583.434143,   164.114456,   59.021576,   0.469214,   531.064636,   475.293121
-0.012808,   0.041119,   0.039442,   0.000000,   599.915283,   0.530988,   6.480167,   34.855103,   590.080994,   170.228836,   65.005028,   0.471106,   537.960632,   479.571106
-0.013448,   0.043747,   0.042177,   0.000000,   607.921936,   0.530986,   6.480167,   34.061516,   596.325317,   175.692932,   70.798302,   0.472410,   544.737488,   484.264191
-0.014075,   0.046432,   0.044984,   0.000000,   615.746521,   0.530986,   6.480167,   33.267929,   602.225830,   180.963089,   76.671799,   0.473426,   551.433289,   489.136963
-0.014689,   0.049097,   0.047776,   0.000000,   623.094727,   0.530988,   6.480167,   32.474346,   607.531982,   185.602295,   82.514122,   0.473913,   557.861755,   494.310669
-0.015301,   0.051779,   0.050594,   0.000000,   630.137695,   0.530987,   6.480167,   31.680758,   612.404419,   189.821335,   88.364334,   0.474015,   564.135315,   499.757477
-0.015913,   0.054516,   0.053477,   0.000000,   636.933777,   0.530987,   6.480167,   30.887173,   616.918274,   193.508087,   94.209351,   0.473656,   570.334167,   505.648224
-0.016525,   0.057289,   0.056407,   0.000000,   643.510437,   0.530987,   6.480167,   30.093586,   621.029297,   196.847778,   100.207207,   0.472933,   576.456970,   511.882904
-0.017145,   0.060051,   0.059327,   0.000000,   649.695312,   0.530988,   6.480167,   29.299999,   624.623352,   199.571655,   106.233147,   0.471728,   582.393799,   518.496704
-0.017762,   0.062824,   0.062266,   0.000000,   655.633667,   0.530987,   6.480167,   28.506414,   627.762634,   201.950089,   112.448288,   0.470166,   588.240540,   525.428406
-0.018397,   0.065603,   0.065212,   0.000000,   661.246887,   0.530987,   6.480167,   27.712828,   630.416199,   203.760803,   118.762863,   0.468135,   593.972046,   532.764038
-0.019039,   0.068402,   0.068188,   0.000000,   666.655701,   0.530988,   6.480167,   26.919241,   632.602295,   205.270355,   125.346527,   0.465742,   599.668518,   540.435547
-0.019731,   0.071232,   0.071191,   0.000000,   671.793274,   0.530986,   6.480167,   26.125656,   634.304932,   206.260239,   132.106247,   0.462878,   605.318359,   548.521729
-0.020461,   0.074074,   0.074203,   0.000000,   676.636902,   0.530987,   6.480167,   25.332071,   635.508972,   206.751785,   139.015869,   0.459572,   610.902283,   556.935181
-0.021209,   0.076893,   0.077198,   0.000000,   681.211975,   0.530988,   6.480167,   24.538485,   636.114380,   206.957870,   146.245453,   0.455889,   616.431152,   565.581604
-0.021992,   0.079698,   0.080177,   0.000000,   685.502014,   0.530987,   6.480167,   23.744898,   636.147095,   206.819733,   153.705368,   0.451820,   621.904968,   574.428345
-0.022814,   0.082482,   0.083136,   0.000000,   689.512573,   0.530987,   6.480167,   22.951313,   635.598511,   206.380814,   161.392654,   0.447386,   627.332397,   583.420654
-0.023680,   0.085241,   0.086069,   0.000000,   693.247925,   0.530987,   6.480167,   22.157726,   634.463867,   205.686600,   169.295105,   0.442614,   632.718811,   592.498169
-0.024593,   0.087971,   0.088970,   0.000000,   696.715149,   0.530988,   6.480167,   21.364141,   632.745361,   204.788803,   177.393372,   0.437536,   638.068359,   601.597168
-0.025555,   0.090665,   0.091836,   0.000000,   699.923523,   0.530986,   6.480167,   20.570555,   630.453430,   203.745453,   185.659775,   0.432195,   643.381958,   610.651062
-0.026568,   0.093316,   0.094659,   0.000000,   702.882751,   0.530987,   6.480167,   19.776970,   627.606628,   202.617615,   194.056732,   0.426639,   648.655396,   619.589355
-0.027638,   0.095937,   0.097456,   0.000000,   705.648254,   0.530988,   6.480167,   18.983383,   624.271179,   201.513275,   202.546341,   0.420947,   653.909973,   628.357666
-0.028756,   0.098500,   0.100201,   0.000000,   708.258118,   0.530987,   6.480167,   18.189796,   620.437500,   200.638992,   211.138443,   0.415232,   659.130554,   636.862610
-0.029925,   0.100988,   0.102871,   0.000000,   710.632263,   0.530987,   6.480167,   17.396212,   616.298950,   199.782028,   219.522614,   0.409546,   664.215576,   644.979553
-0.031151,   0.103427,   0.105498,   0.000000,   712.906311,   0.530987,   6.480167,   16.602625,   611.951843,   199.198715,   227.730270,   0.404031,   669.214783,   652.694397
-0.032438,   0.105824,   0.108094,   0.000000,   715.141968,   0.530987,   6.480167,   15.809039,   607.532715,   198.978180,   235.677750,   0.398798,   674.117615,   659.971130
-0.033790,   0.108191,   0.110672,   0.000000,   717.392029,   0.530987,   6.480167,   15.015453,   603.190369,   199.161530,   243.275146,   0.393941,   678.910889,   666.793579
-0.035214,   0.110545,   0.113255,   0.000000,   719.712097,   0.530987,   6.480167,   14.221868,   599.016968,   199.779800,   250.506058,   0.389500,   683.609314,   673.202087
-0.036716,   0.112906,   0.115868,   0.000000,   722.130676,   0.530987,   6.480167,   13.428282,   595.066467,   200.804291,   257.375092,   0.385467,   688.229919,   679.256897
-0.038317,   0.115268,   0.118505,   0.000000,   724.581360,   0.530987,   6.480167,   12.634696,   591.194946,   202.076492,   263.998199,   0.381677,   692.795044,   685.070984
-0.040004,   0.117603,   0.121147,   0.000000,   726.990356,   0.530987,   6.480167,   11.841109,   587.170227,   203.504684,   270.543579,   0.377952,   697.332520,   690.744446
-0.041805,   0.119945,   0.123832,   0.000000,   729.296936,   0.530987,   6.480167,   11.047523,   582.767395,   204.903000,   277.198853,   0.374048,   701.932983,   696.440735
-0.043736,   0.122354,   0.126634,   0.000000,   731.516052,   0.530987,   6.480167,   10.253938,   577.717896,   206.257996,   284.224792,   0.369757,   706.747925,   702.347473
-0.045913,   0.124832,   0.129547,   0.000000,   733.435486,   0.530987,   6.480167,   9.460352,   571.577332,   207.217087,   291.843658,   0.364686,   711.840698,   708.578247
-0.048196,   0.127333,   0.132571,   0.000000,   735.126465,   0.530987,   6.480167,   8.666766,   564.086182,   208.181030,   300.214722,   0.358888,   717.277588,   715.109375
-0.050674,   0.129838,   0.135685,   0.000000,   736.449158,   0.530987,   6.480167,   7.873180,   554.882935,   209.071503,   309.441406,   0.352172,   723.088989,   721.910522
-0.053382,   0.132333,   0.138898,   0.000000,   737.335083,   0.530987,   6.480167,   7.079594,   543.653259,   209.982010,   319.591461,   0.344446,   729.321594,   728.911621
-0.056243,   0.134862,   0.142289,   0.000000,   737.964844,   0.530987,   6.480167,   6.286008,   530.133240,   211.553452,   330.764130,   0.335858,   736.110962,   736.089783
-0.001718,   0.000511,   0.000000,   -361.031677,   0.000000,   0.533427,   7.328438,   51.780094,   -277.570892,   -84.449081,   151.933548,   -0.334703,   360.538574,   -360.535553
-0.000487,   0.000154,   0.000000,   -101.768875,   1.779443,   0.533425,   7.328438,   51.004917,   -87.234871,   -12.754562,   35.968521,   -0.324630,   102.670166,   -102.635460
-0.000280,   0.001174,   0.000000,   0.000000,   251.505234,   0.533425,   7.328438,   50.229740,   240.351517,   27.723488,   -49.959980,   0.366759,   243.643311,   242.370743
-0.001070,   0.003271,   0.001478,   0.000000,   386.169952,   0.533425,   7.328438,   49.454567,   380.749176,   32.178780,   -43.805374,   0.368511,   373.510498,   371.344910
-0.001828,   0.005149,   0.003287,   0.000000,   405.594666,   0.533425,   7.328438,   48.679390,   400.481873,   36.926949,   -43.415688,   0.373222,   390.660370,   387.729797
-0.002585,   0.007063,   0.005139,   0.000000,   422.767365,   0.533425,   7.328438,   47.904217,   418.807037,   41.967880,   -38.834171,   0.379142,   405.103027,   401.062225
-0.003361,   0.009043,   0.007066,   0.000000,   438.538330,   0.533425,   7.328438,   47.129040,   435.607361,   47.403336,   -33.858616,   0.385102,   418.079926,   412.708130
-0.004140,   0.011071,   0.009045,   0.000000,   453.022644,   0.533426,   7.328438,   46.353867,   451.172668,   52.940277,   -27.205469,   0.391002,   429.761139,   422.847931
-0.004941,   0.013176,   0.011105,   0.000000,   467.080811,   0.533426,   7.328438,   45.578690,   466.130402,   59.720589,   -19.676271,   0.397789,   440.644989,   431.695435
-0.005730,   0.015313,   0.013206,   0.000000,   480.315613,   0.533425,   7.328438,   44.803513,   479.960602,   66.869644,   -12.115335,   0.404382,   450.754120,   439.509338
-0.006529,   0.017459,   0.015321,   0.000000,   492.464722,   0.533425,   7.328438,   44.028336,   492.406403,   73.567688,   -4.943101,   0.410006,   460.135162,   446.637390
-0.007332,   0.019701,   0.017543,   0.000000,   504.343872,   0.533425,   7.328438,   43.253162,   504.331665,   80.563438,   2.275480,   0.415454,   469.282166,   453.335663
-0.008119,   0.021970,   0.019799,   0.000000,   515.688965,   0.533425,   7.328438,   42.477985,   515.493347,   87.796288,   9.149474,   0.420750,   477.947998,   459.362549
-0.008943,   0.024314,   0.022135,   0.000000,   526.691101,   0.533426,   7.328438,   41.702808,   526.083740,   95.119987,   16.190018,   0.425740,   486.371429,   465.032715
-0.009717,   0.026772,   0.024606,   0.000000,   537.899963,   0.533425,   7.328438,   40.927635,   536.643921,   103.497116,   23.358635,   0.431275,   494.766724,   470.109253
-0.010536,   0.029162,   0.027003,   0.000000,   547.805542,   0.533426,   7.328438,   40.152458,   545.788696,   110.397011,   29.701563,   0.435316,   502.459839,   475.080872
-0.011327,   0.031674,   0.029541,   0.000000,   558.046936,   0.533425,   7.328438,   39.377281,   555.046326,   118.492813,   36.316978,   0.440049,   510.200684,   479.448059
-0.012093,   0.034261,   0.032171,   0.000000,   568.039612,   0.533425,   7.328438,   38.602108,   563.915649,   126.489830,   42.672264,   0.444434,   517.816284,   483.654541
-0.012831,   0.036787,   0.034747,   0.000000,   577.339355,   0.533425,   7.328438,   37.826931,   571.998047,   134.119492,   48.655678,   0.448385,   524.934143,   487.456543
-0.013552,   0.039308,   0.037328,   0.000000,   586.250793,   0.533425,   7.328438,   37.051758,   579.561523,   141.660263,   54.534157,   0.452088,   531.770874,   490.964661
-0.014254,   0.041910,   0.040005,   0.000000,   594.921692,   0.533426,   7.328438,   36.276581,   586.858337,   148.771011,   59.978962,   0.455327,   538.535461,   494.579071
-0.014952,   0.044596,   0.042783,   0.000000,   603.511719,   0.533425,   7.328438,   35.501404,   593.902405,   155.916946,   65.582634,   0.458367,   545.283386,   498.173462
-0.015603,   0.047266,   0.045561,   0.000000,   611.714722,   0.533425,   7.328438,   34.726231,   600.487061,   162.795639,   70.995117,   0.461111,   551.771118,   501.633728
-0.016269,   0.049907,   0.048305,   0.000000,   619.270630,   0.533426,   7.328438,   33.951054,   606.433289,   168.652908,   76.057404,   0.463075,   557.927063,   505.390198
-0.016898,   0.052593,   0.051115,   0.000000,   626.695007,   0.533425,   7.328438,   33.175877,   612.101929,   174.426682,   81.240265,   0.464829,   564.027039,   509.214874
-0.017524,   0.055338,   0.053994,   0.000000,   633.879456,   0.533425,   7.328438,   32.400703,   617.453613,   179.699097,   86.372940,   0.466124,   570.057617,   513.365784
-0.018141,   0.058131,   0.056935,   0.000000,   640.853088,   0.533425,   7.328438,   31.625526,   622.477051,   184.590027,   91.565887,   0.467035,   576.021729,   517.803833
-0.018762,   0.060923,   0.059875,   0.000000,   647.434265,   0.533425,   7.328438,   30.850351,   627.043518,   188.824402,   96.702698,   0.467439,   581.800110,   522.577209
-0.019365,   0.063752,   0.062868,   0.000000,   653.855469,   0.533425,   7.328438,   30.075176,   631.268433,   192.824615,   102.045647,   0.467543,   587.534668,   527.618225
-0.019980,   0.066609,   0.065890,   0.000000,   659.942139,   0.533426,   7.328438,   29.300001,   635.087463,   196.103378,   107.371193,   0.467100,   593.157227,   533.138916
-0.020592,   0.069512,   0.068971,   0.000000,   665.873230,   0.533425,   7.328438,   28.524824,   638.562317,   199.084518,   112.908958,   0.466323,   598.760315,   539.003296
-0.021242,   0.072439,   0.072073,   0.000000,   671.497864,   0.533425,   7.328438,   27.749649,   641.587158,   201.445206,   118.573273,   0.465038,   604.275146,   545.332336
-0.021920,   0.075436,   0.075253,   0.000000,   676.958801,   0.533426,   7.328438,   26.974474,   644.256653,   203.364883,   124.448982,   0.463326,   609.809326,   552.126404
-0.022641,   0.078482,   0.078481,   0.000000,   682.186829,   0.533425,   7.328438,   26.199297,   646.498108,   204.769302,   130.531250,   0.461149,   615.323059,   559.371582
-0.023380,   0.081534,   0.081720,   0.000000,   687.140320,   0.533425,   7.328438,   25.424122,   648.252930,   205.702240,   136.827896,   0.458541,   620.776794,   566.970886
-0.024157,   0.084607,   0.084982,   0.000000,   691.857910,   0.533425,   7.328438,   24.648947,   649.483704,   206.237167,   143.449600,   0.455497,   626.217651,   574.940308
-0.024982,   0.087700,   0.088265,   0.000000,   696.324585,   0.533425,   7.328438,   23.873770,   650.199219,   206.343887,   150.334732,   0.452018,   631.643738,   583.238953
-0.025861,   0.090809,   0.091562,   0.000000,   700.535583,   0.533425,   7.328438,   23.098595,   650.376404,   206.048325,   157.489960,   0.448113,   637.060181,   591.820801
-0.026800,   0.093929,   0.094869,   0.000000,   704.488586,   0.533425,   7.328438,   22.323420,   649.997620,   205.383728,   164.914276,   0.443797,   642.472229,   600.631653
-0.027804,   0.097054,   0.098180,   0.000000,   708.182739,   0.533425,   7.328438,   21.548244,   649.051453,   204.389465,   172.597687,   0.439092,   647.883789,   609.609497
-0.028877,   0.100180,   0.101490,   0.000000,   711.619568,   0.533425,   7.328438,   20.773067,   647.533875,   203.110245,   180.521927,   0.434026,   653.297485,   618.688049
-0.030025,   0.103303,   0.104797,   0.000000,   714.805237,   0.533425,   7.328438,   19.997892,   645.452515,   201.600174,   188.658844,   0.428639,   658.714417,   627.795105
-0.031271,   0.106452,   0.108126,   0.000000,   717.768005,   0.533425,   7.328438,   19.222717,   642.888184,   199.869858,   196.926727,   0.422974,   664.153320,   636.880737
-0.032559,   0.109575,   0.111450,   0.000000,   720.610168,   0.533425,   7.328438,   18.447540,   639.705933,   198.357132,   205.554047,   0.417162,   669.653931,   645.867554
-0.033942,   0.112637,   0.114701,   0.000000,   723.097290,   0.533425,   7.328438,   17.672365,   636.090149,   196.547913,   214.041031,   0.411163,   675.026123,   654.580566
-0.035413,   0.115681,   0.117937,   0.000000,   725.417908,   0.533425,   7.328438,   16.897190,   632.124573,   194.806335,   222.491623,   0.405141,   680.365112,   663.005554
-0.036974,   0.118707,   0.121164,   0.000000,   727.621338,   0.533425,   7.328438,   16.122015,   627.931396,   193.230240,   230.810318,   0.399211,   685.653442,   671.072937
-0.038631,   0.121722,   0.124391,   0.000000,   729.760437,   0.533425,   7.328438,   15.346839,   623.665100,   191.892502,   238.883392,   0.393494,   690.869080,   678.728088
-0.040390,   0.124739,   0.127634,   0.000000,   731.904846,   0.533425,   7.328438,   14.571663,   619.477234,   190.880737,   246.629410,   0.388101,   696.002441,   685.948914
-0.042261,   0.127780,   0.130920,   0.000000,   734.115051,   0.533425,   7.328438,   13.796487,   615.510803,   190.230576,   253.982269,   0.383111,   701.051514,   692.747620
-0.044257,   0.130869,   0.134280,   0.000000,   736.427551,   0.533425,   7.328438,   13.021312,   611.831726,   189.912674,   260.947235,   0.378518,   706.038696,   699.192871
-0.046365,   0.134036,   0.137758,   0.000000,   738.899536,   0.533425,   7.328438,   12.246136,   608.448547,   189.962341,   267.599335,   0.374306,   711.014221,   705.378296
-0.048664,   0.137302,   0.141369,   0.000000,   741.390137,   0.533425,   7.328438,   11.470961,   605.170471,   190.007523,   274.060486,   0.370188,   716.013062,   711.446289
-0.051150,   0.140664,   0.145128,   0.000000,   743.842041,   0.533425,   7.328438,   10.695785,   601.674255,   189.982025,   280.608368,   0.365936,   721.124817,   717.545410
-0.053790,   0.144064,   0.148987,   0.000000,   746.137573,   0.533425,   7.328438,   9.920609,   597.601990,   189.823013,   287.458710,   0.361349,   726.374451,   723.727295
-0.056650,   0.147541,   0.152988,   0.000000,   748.179382,   0.533425,   7.328438,   9.145433,   592.672852,   189.328568,   294.796448,   0.356173,   731.854736,   730.093201
-0.059778,   0.151194,   0.157264,   0.000000,   749.994690,   0.533425,   7.328438,   8.370258,   586.597595,   188.513992,   302.893219,   0.350211,   737.756958,   736.794067
-0.063213,   0.155030,   0.161841,   0.000000,   751.531677,   0.533425,   7.328438,   7.595082,   579.088989,   187.427872,   311.890350,   0.343351,   744.152283,   743.812683
-0.067093,   0.159099,   0.166806,   0.000000,   752.723877,   0.533425,   7.328438,   6.819907,   569.799316,   186.051163,   321.960205,   0.335412,   751.165527,   751.150879
-0.002521,   0.000812,   0.000754,   -383.216217,   0.000000,   0.535065,   8.199678,   51.283226,   -305.075500,   -85.502251,   152.524048,   -0.342983,   379.588989,   -379.428345
-0.000238,   0.000167,   0.000000,   -43.438648,   22.045818,   0.535064,   8.199678,   50.525185,   4.921602,   -26.314430,   28.777271,   -0.123563,   57.711132,   -46.720287
-0.000991,   0.002548,   0.000817,   -13.539655,   360.433319,   0.535065,   8.199678,   49.767139,   354.839081,   -7.945423,   -45.395992,   0.314737,   367.390320,   366.828339
-0.002081,   0.005224,   0.003365,   0.000000,   395.299622,   0.535064,   8.199678,   49.009098,   392.313660,   11.462811,   -33.854465,   0.344111,   391.130096,   390.923340
-0.003085,   0.007699,   0.005759,   0.000000,   419.033386,   0.535064,   8.199678,   48.251057,   416.130127,   22.394247,   -33.934448,   0.356841,   409.635803,   408.590515
-0.004086,   0.010083,   0.008076,   0.000000,   436.645020,   0.535065,   8.199678,   47.493015,   434.225281,   27.518496,   -31.463995,   0.362449,   424.652313,   422.978638
-0.005049,   0.012520,   0.010454,   0.000000,   453.850250,   0.535064,   8.199678,   46.734970,   452.504242,   35.610050,   -23.726603,   0.371705,   437.725189,   434.692657
-0.006016,   0.014893,   0.012774,   0.000000,   468.413452,   0.535064,   8.199678,   45.976933,   467.711487,   42.070694,   -17.299696,   0.378322,   449.160217,   444.843872
-0.006938,   0.017322,   0.015162,   0.000000,   482.665619,   0.535066,   8.199678,   45.218887,   482.464844,   50.053917,   -9.319905,   0.386076,   459.770660,   453.630157
-0.007914,   0.019754,   0.017557,   0.000000,   494.928986,   0.535064,   8.199678,   44.460846,   494.912903,   55.646069,   -2.658233,   0.390807,   469.591858,   462.091339
-0.008813,   0.022298,   0.020081,   0.000000,   507.884949,   0.535064,   8.199678,   43.702801,   507.825958,   63.973274,   5.117351,   0.397799,   479.135712,   469.401184
-0.009798,   0.024795,   0.022554,   0.000000,   518.874634,   0.535065,   8.199678,   42.944759,   518.568115,   69.740059,   11.733023,   0.401951,   487.877655,   476.571472
-0.010729,   0.027414,   0.025166,   0.000000,   530.399170,   0.535064,   8.199678,   42.186718,   529.610962,   77.450172,   18.895102,   0.407538,   496.526855,   482.942322
-0.011657,   0.030041,   0.027792,   0.000000,   541.296631,   0.535064,   8.199678,   41.428677,   539.827209,   85.036972,   25.892786,   0.412674,   504.728363,   488.799133
-0.012588,   0.032712,   0.030472,   0.000000,   551.987305,   0.535065,   8.199678,   40.670635,   549.644531,   93.140610,   32.786980,   0.417945,   512.654846,   494.076385
-0.013472,   0.035450,   0.033236,   0.000000,   562.452271,   0.535065,   8.199678,   39.912590,   559.078674,   101.394684,   39.438736,   0.423045,   520.411865,   499.004669
-0.014323,   0.038097,   0.035916,   0.000000,   572.134216,   0.535064,   8.199678,   39.154549,   567.635193,   109.345184,   45.629955,   0.427724,   527.583374,   503.337036
-0.015142,   0.040714,   0.038576,   0.000000,   581.419250,   0.535065,   8.199678,   38.396507,   575.664185,   117.418732,   51.675594,   0.432304,   534.409729,   507.156036
-0.015927,   0.043384,   0.041305,   0.000000,   590.428833,   0.535064,   8.199678,   37.638466,   583.393127,   125.241264,   57.209408,   0.436541,   541.097717,   510.821747
-0.016673,   0.046119,   0.044120,   0.000000,   599.415222,   0.535064,   8.199678,   36.880424,   590.951538,   133.418259,   62.801590,   0.440828,   547.734009,   514.177429
-0.017430,   0.048753,   0.046826,   0.000000,   607.528625,   0.535065,   8.199678,   36.122379,   597.719116,   140.577026,   67.679962,   0.444344,   553.846741,   517.374207
-0.018130,   0.051415,   0.049583,   0.000000,   615.528320,   0.535064,   8.199678,   35.364338,   604.230896,   147.877670,   72.685989,   0.447783,   559.875183,   520.375183
-0.018809,   0.054135,   0.052411,   0.000000,   623.354309,   0.535064,   8.199678,   34.606297,   610.559753,   154.976685,   77.412346,   0.450986,   565.823730,   523.318665
-0.019469,   0.056895,   0.055293,   0.000000,   630.919739,   0.535065,   8.199678,   33.848255,   616.593384,   161.675415,   81.991234,   0.453799,   571.669556,   526.340942
-0.020113,   0.059657,   0.058185,   0.000000,   638.154602,   0.535065,   8.199678,   33.090210,   622.227539,   167.953461,   86.538498,   0.456209,   577.353394,   529.440247
-0.020745,   0.062425,   0.061090,   0.000000,   645.070618,   0.535064,   8.199678,   32.332169,   627.507935,   173.771606,   90.979530,   0.458228,   582.882080,   532.652710
-0.021357,   0.065230,   0.064043,   0.000000,   651.749695,   0.535064,   8.199678,   31.574127,   632.472473,   179.136978,   95.449745,   0.459830,   588.340271,   536.119141
-0.021967,   0.068086,   0.067057,   0.000000,   658.203369,   0.535064,   8.199678,   30.816084,   637.159912,   184.005173,   99.893776,   0.461013,   593.739197,   539.883972
-0.022565,   0.070998,   0.070140,   0.000000,   664.519348,   0.535064,   8.199678,   30.058043,   641.570251,   188.585754,   104.509583,   0.461870,   599.126648,   543.928162
-0.023191,   0.073952,   0.073264,   0.000000,   670.542603,   0.535065,   8.199678,   29.300001,   645.630493,   192.496078,   109.129036,   0.462211,   604.433228,   548.400452
-0.023837,   0.077006,   0.076499,   0.000000,   676.451050,   0.535064,   8.199678,   28.541958,   649.447998,   195.969574,   113.905479,   0.462139,   609.785278,   553.329224
-0.024501,   0.080146,   0.079831,   0.000000,   682.225281,   0.535064,   8.199678,   27.783916,   652.979309,   199.013168,   118.878181,   0.461658,   615.168945,   558.710815
-0.025204,   0.083316,   0.083189,   0.000000,   687.700500,   0.535065,   8.199678,   27.025873,   656.090088,   201.418015,   123.982224,   0.460673,   620.475464,   564.544617
-0.025925,   0.086546,   0.086614,   0.000000,   692.987366,   0.535064,   8.199678,   26.267830,   658.835083,   203.347473,   129.314789,   0.459253,   625.786194,   570.828125
-0.026687,   0.089841,   0.090108,   0.000000,   698.081177,   0.535064,   8.199678,   25.509789,   661.195557,   204.797119,   134.889160,   0.457394,   631.106750,   577.559204
-0.027503,   0.093203,   0.093672,   0.000000,   702.979736,   0.535064,   8.199678,   24.751747,   663.126648,   205.761520,   140.768127,   0.455066,   636.455688,   584.762207
-0.028381,   0.096634,   0.097304,   0.000000,   707.667419,   0.535065,   8.199678,   23.993704,   664.611755,   206.219864,   146.935883,   0.452263,   641.833130,   592.415405
-0.029330,   0.100126,   0.100998,   0.000000,   712.133972,   0.535064,   8.199678,   23.235661,   665.621826,   206.187454,   153.403534,   0.448988,   647.240845,   600.479736
-0.030357,   0.103676,   0.104749,   0.000000,   716.369385,   0.535064,   8.199678,   22.477619,   666.130493,   205.683990,   160.175720,   0.445248,   652.680786,   608.907227
-0.031469,   0.107279,   0.108550,   0.000000,   720.364441,   0.535064,   8.199678,   21.719578,   666.114380,   204.733704,   167.251312,   0.441056,   658.154358,   617.641907
-0.032673,   0.110927,   0.112396,   0.000000,   724.111145,   0.535065,   8.199678,   20.961535,   665.554932,   203.366577,   174.621948,   0.436427,   663.662720,   626.619873
-0.033976,   0.114616,   0.116280,   0.000000,   727.604309,   0.535064,   8.199678,   20.203493,   664.439636,   201.620880,   182.273315,   0.431387,   669.206116,   635.770935
-0.035405,   0.118333,   0.120179,   0.000000,   730.785645,   0.535064,   8.199678,   19.445450,   662.776733,   199.422882,   190.098434,   0.425938,   674.745789,   645.004089
-0.036899,   0.122088,   0.124143,   0.000000,   733.857300,   0.535064,   8.199678,   18.687408,   660.473206,   197.281998,   198.434097,   0.420208,   680.421814,   654.317017
-0.038542,   0.125877,   0.128124,   0.000000,   736.591919,   0.535065,   8.199678,   17.929365,   657.727234,   194.656265,   206.735535,   0.414142,   686.064270,   663.544067
-0.040308,   0.129684,   0.132127,   0.000000,   739.092346,   0.535064,   8.199678,   17.171324,   654.513916,   191.870529,   215.135239,   0.407867,   691.715515,   672.611816
-0.042201,   0.133508,   0.136152,   0.000000,   741.388977,   0.535065,   8.199678,   16.413282,   650.918274,   189.006836,   223.549561,   0.401477,   697.361755,   681.435486
-0.044229,   0.137352,   0.140204,   0.000000,   743.521667,   0.535064,   8.199678,   15.655239,   647.064392,   186.147614,   231.868027,   0.395085,   702.980896,   689.932190
-0.046396,   0.141221,   0.144292,   0.000000,   745.548523,   0.535064,   8.199678,   14.897197,   643.103394,   183.392670,   239.979416,   0.388820,   708.551147,   698.034668
-0.048712,   0.145126,   0.148433,   0.000000,   747.534058,   0.535064,   8.199678,   14.139154,   639.211975,   180.821106,   247.765091,   0.382808,   714.050293,   705.698608
-0.051187,   0.149088,   0.152650,   0.000000,   749.548157,   0.535064,   8.199678,   13.381112,   635.556152,   178.497345,   255.137695,   0.377156,   719.467529,   712.918213
-0.053832,   0.153137,   0.156988,   0.000000,   751.684631,   0.535064,   8.199678,   12.623070,   632.259155,   176.522919,   262.085815,   0.371944,   724.824585,   719.738770
-0.056676,   0.157307,   0.161482,   0.000000,   753.915466,   0.535064,   8.199678,   11.865027,   629.363403,   174.708252,   268.591614,   0.367090,   730.130554,   726.239380
-0.059736,   0.161628,   0.166176,   0.000000,   756.256714,   0.535064,   8.199678,   11.106986,   626.767334,   173.031631,   274.811646,   0.362497,   735.452881,   732.544495
-0.062950,   0.166136,   0.171139,   0.000000,   758.768494,   0.535065,   8.199678,   10.348944,   624.321533,   171.580902,   280.972565,   0.358079,   740.899780,   738.801697
-0.066553,   0.170879,   0.176397,   0.000000,   761.100220,   0.535064,   8.199678,   9.590901,   621.598938,   169.553116,   287.265686,   0.353258,   746.528076,   745.165344
-0.070492,   0.175866,   0.181997,   0.000000,   763.267212,   0.535064,   8.199678,   8.832859,   618.263000,   167.093048,   294.020020,   0.347903,   752.466003,   751.735962
-0.074822,   0.181137,   0.188003,   0.000000,   765.183044,   0.535064,   8.199678,   8.074817,   613.980957,   164.087692,   301.474518,   0.341788,   758.822327,   758.576050
-0.079717,   0.186760,   0.194498,   0.000000,   766.668945,   0.535064,   8.199678,   7.316774,   608.392700,   160.208588,   309.819702,   0.334594,   765.704590,   765.699036
-0.003037,   0.001052,   0.001301,   -380.593445,   0.000000,   0.536039,   9.092217,   50.824341,   -308.429199,   -74.851250,   148.538406,   -0.336870,   379.257080,   -379.235657
-0.000297,   0.000795,   0.000000,   -13.522299,   162.878967,   0.536039,   9.092217,   50.082123,   162.852539,   -13.495875,   -2.158814,   0.292781,   170.043839,   168.827820
-0.001977,   0.004676,   0.002846,   -2.936628,   384.635254,   0.536040,   9.092217,   49.339905,   383.660645,   -1.962026,   -19.410778,   0.329523,   386.111908,   386.086761
-0.003323,   0.007677,   0.005746,   0.000000,   410.067963,   0.536039,   9.092217,   48.597683,   408.206421,   2.664984,   -27.538950,   0.334313,   409.666809,   409.665009
-0.004696,   0.010764,   0.008746,   0.000000,   431.512848,   0.536039,   9.092217,   47.855469,   429.987335,   6.894892,   -25.451021,   0.339574,   428.853363,   428.777710
-0.005936,   0.013783,   0.011688,   0.000000,   452.864288,   0.536040,   9.092217,   47.113247,   452.046783,   18.400463,   -18.846157,   0.352923,   444.333771,   443.550018
-0.007120,   0.016644,   0.014488,   0.000000,   469.999298,   0.536039,   9.092217,   46.371029,   469.628143,   26.964931,   -12.823323,   0.361988,   457.282745,   455.538025
-0.008272,   0.019459,   0.017253,   0.000000,   484.841766,   0.536039,   9.092217,   45.628811,   484.755615,   34.093521,   -6.231164,   0.368948,   468.764160,   465.976654
-0.009426,   0.022277,   0.020033,   0.000000,   497.995544,   0.536040,   9.092217,   44.886593,   497.995544,   39.875507,   0.012519,   0.374064,   479.303436,   475.550110
-0.010533,   0.025146,   0.022872,   0.000000,   511.061920,   0.536039,   9.092217,   44.144371,   510.949219,   47.270325,   7.229357,   0.380369,   489.190826,   484.037384
-0.011690,   0.028035,   0.025737,   0.000000,   523.007324,   0.536039,   9.092217,   43.402153,   522.567932,   53.784801,   14.358857,   0.385407,   498.480072,   491.996765
-0.012763,   0.031023,   0.028715,   0.000000,   535.362305,   0.536040,   9.092217,   42.659935,   534.343506,   62.291256,   21.953922,   0.391872,   507.507843,   499.084595
-0.013891,   0.033916,   0.031599,   0.000000,   546.217651,   0.536039,   9.092217,   41.917717,   544.460205,   69.343948,   28.949421,   0.396702,   515.756409,   505.649445
-0.014927,   0.036861,   0.034555,   0.000000,   557.103882,   0.536039,   9.092217,   41.175499,   554.411621,   77.402222,   35.937252,   0.402101,   523.760559,   511.566528
-0.015934,   0.039771,   0.037484,   0.000000,   567.406128,   0.536040,   9.092217,   40.433281,   563.635071,   85.413223,   42.633583,   0.407200,   531.310547,   516.915222
-0.016893,   0.042602,   0.040345,   0.000000,   577.186829,   0.536039,   9.092217,   39.691059,   572.198059,   93.626343,   49.115826,   0.412248,   538.368652,   521.572205
-0.017800,   0.045447,   0.043235,   0.000000,   586.575317,   0.536039,   9.092217,   38.948841,   580.322388,   101.625160,   55.066788,   0.416954,   545.182007,   525.920349
-0.018651,   0.048312,   0.046165,   0.000000,   595.870850,   0.536040,   9.092217,   38.206623,   588.224976,   110.097443,   60.943855,   0.421826,   551.824707,   529.789734
-0.019502,   0.051045,   0.048958,   0.000000,   604.217957,   0.536039,   9.092217,   37.464405,   595.256653,   117.569031,   66.037888,   0.425898,   557.899780,   533.331543
-0.020300,   0.053825,   0.051817,   0.000000,   612.566895,   0.536039,   9.092217,   36.722187,   602.174988,   125.445183,   71.148537,   0.430102,   563.912781,   536.543823
-0.021041,   0.056619,   0.054708,   0.000000,   620.677979,   0.536040,   9.092217,   35.979969,   608.880615,   133.205795,   75.834686,   0.434152,   569.759338,   539.491821
-0.021752,   0.059374,   0.057570,   0.000000,   628.443970,   0.536039,   9.092217,   35.237751,   615.188660,   140.814697,   80.396904,   0.437982,   575.368835,   542.167847
-0.022462,   0.062091,   0.060393,   0.000000,   635.666748,   0.536039,   9.092217,   34.495529,   621.055298,   147.633698,   84.444504,   0.441245,   580.697266,   544.812012
-0.023121,   0.064844,   0.063270,   0.000000,   642.831543,   0.536039,   9.092217,   33.753311,   626.794312,   154.587769,   88.487663,   0.444493,   585.972656,   547.268127
-0.023763,   0.067627,   0.066187,   0.000000,   649.771545,   0.536040,   9.092217,   33.011093,   632.288208,   161.213150,   92.420876,   0.447426,   591.159668,   549.746704
-0.024373,   0.070447,   0.069156,   0.000000,   656.520935,   0.536039,   9.092217,   32.268875,   637.577026,   167.531052,   96.246384,   0.450074,   596.277832,   552.272522
-0.025007,   0.073303,   0.072160,   0.000000,   662.991272,   0.536040,   9.092217,   31.526657,   642.556885,   173.299866,   100.032738,   0.452264,   601.312561,   555.013245
-0.025630,   0.076220,   0.075239,   0.000000,   669.296082,   0.536040,   9.092217,   30.784437,   647.336487,   178.673248,   103.797363,   0.454108,   606.323853,   557.963806
-0.026264,   0.079240,   0.078430,   0.000000,   675.494324,   0.536039,   9.092217,   30.042219,   651.939453,   183.645569,   107.635643,   0.455576,   611.376526,   561.240112
-0.026903,   0.082355,   0.081730,   0.000000,   681.581848,   0.536040,   9.092217,   29.299999,   656.354736,   188.230957,   111.560860,   0.456685,   616.460571,   564.842896
-0.027569,   0.085512,   0.085068,   0.000000,   687.393127,   0.536040,   9.092217,   28.557781,   660.438538,   192.190811,   115.533478,   0.457316,   621.474121,   568.820618
-0.028239,   0.088769,   0.088522,   0.000000,   693.125549,   0.536039,   9.092217,   27.815563,   664.298096,   195.823944,   119.732834,   0.457599,   626.547180,   573.182678
-0.028945,   0.092120,   0.092073,   0.000000,   698.666382,   0.536040,   9.092217,   27.073343,   667.889526,   198.848358,   124.027527,   0.457408,   631.630310,   578.024170
-0.029691,   0.095573,   0.095731,   0.000000,   704.066589,   0.536040,   9.092217,   26.331125,   671.200500,   201.392609,   128.533722,   0.456792,   636.755066,   583.332092
-0.030491,   0.099138,   0.099505,   0.000000,   709.321228,   0.536039,   9.092217,   25.588907,   674.208374,   203.420319,   133.280273,   0.455721,   641.934509,   589.148376
-0.031355,   0.102820,   0.103398,   0.000000,   714.421143,   0.536040,   9.092217,   24.846687,   676.881470,   204.911560,   138.299774,   0.454175,   647.176086,   595.492310
-0.032295,   0.106619,   0.107411,   0.000000,   719.352295,   0.536040,   9.092217,   24.104469,   679.191162,   205.844437,   143.607285,   0.452137,   652.482910,   602.366333
-0.033322,   0.110536,   0.111541,   0.000000,   724.102234,   0.536039,   9.092217,   23.362249,   681.105408,   206.217819,   149.222565,   0.449603,   657.857483,   609.752808
-0.034447,   0.114569,   0.115785,   0.000000,   728.656128,   0.536040,   9.092217,   22.620031,   682.591858,   206.034042,   155.158615,   0.446568,   663.300171,   617.620789
-0.035680,   0.118712,   0.120139,   0.000000,   732.998962,   0.536039,   9.092217,   21.877813,   683.619202,   205.300766,   161.423691,   0.443035,   668.811584,   625.928101
-0.037033,   0.122963,   0.124597,   0.000000,   737.115906,   0.536040,   9.092217,   21.135595,   684.159485,   204.031570,   168.018570,   0.439009,   674.391296,   634.620605
-0.038513,   0.127317,   0.129154,   0.000000,   740.995483,   0.536040,   9.092217,   20.393375,   684.187988,   202.251999,   174.941849,   0.434504,   680.040161,   643.634766
-0.040135,   0.131748,   0.133780,   0.000000,   744.568970,   0.536039,   9.092217,   19.651157,   683.685425,   199.886597,   182.104889,   0.429513,   685.716675,   652.879578
-0.041891,   0.136287,   0.138525,   0.000000,   747.964722,   0.536040,   9.092217,   18.908939,   682.587891,   197.238388,   189.749161,   0.424098,   691.527954,   662.351257
-0.043836,   0.140934,   0.143365,   0.000000,   751.046692,   0.536040,   9.092217,   18.166719,   681.000305,   194.002625,   197.532104,   0.418233,   697.380371,   671.921631
-0.045943,   0.145653,   0.148275,   0.000000,   753.844360,   0.536039,   9.092217,   17.424501,   678.879456,   190.378952,   205.524078,   0.412004,   703.276306,   681.479858
-0.048223,   0.150440,   0.153256,   0.000000,   756.367737,   0.536040,   9.092217,   16.682283,   676.268982,   186.429184,   213.661804,   0.405476,   709.206177,   690.930969
-0.050682,   0.155292,   0.158305,   0.000000,   758.635010,   0.536040,   9.092217,   15.940063,   673.242615,   182.224518,   221.858215,   0.398734,   715.152588,   700.175842
-0.053329,   0.160207,   0.163425,   0.000000,   760.680847,   0.536039,   9.092217,   15.197845,   669.909302,   177.856201,   230.008438,   0.391889,   721.093201,   709.117859
-0.056172,   0.165185,   0.168621,   0.000000,   762.553833,   0.536039,   9.092217,   14.455626,   666.417297,   173.418732,   237.986115,   0.385069,   727.000000,   717.671265
-0.059219,   0.170236,   0.173906,   0.000000,   764.320801,   0.536039,   9.092217,   13.713408,   662.948120,   169.013641,   245.658081,   0.378416,   732.845276,   725.772400
-0.062483,   0.175381,   0.179312,   0.000000,   766.075195,   0.536040,   9.092217,   12.971189,   659.688843,   164.767212,   252.924789,   0.372072,   738.617188,   733.399292
-0.065983,   0.180650,   0.184873,   0.000000,   767.871887,   0.536040,   9.092217,   12.228970,   656.833191,   160.676147,   259.657867,   0.366122,   744.295532,   740.557800
-0.069739,   0.186078,   0.190635,   0.000000,   769.774658,   0.536039,   9.092217,   11.486752,   654.464905,   156.776733,   265.865814,   0.360599,   749.901489,   747.315430
-0.073757,   0.191729,   0.196687,   0.000000,   771.907043,   0.536040,   9.092217,   10.744533,   652.596069,   153.224564,   271.690277,   0.355525,   755.521362,   753.805908
-0.078129,   0.197672,   0.203096,   0.000000,   774.076233,   0.536039,   9.092217,   10.002314,   651.100586,   149.445602,   277.153992,   0.350569,   761.186462,   760.149963
-0.082889,   0.203943,   0.209925,   0.000000,   776.269592,   0.536039,   9.092217,   9.260096,   649.698181,   145.435242,   282.569641,   0.345555,   767.011719,   766.489563
-0.088114,   0.210611,   0.217267,   0.000000,   778.373962,   0.536039,   9.092217,   8.517877,   648.058533,   140.934372,   288.215576,   0.340177,   773.119202,   772.955017
-0.093916,   0.217724,   0.225191,   0.000000,   780.176514,   0.536039,   9.092217,   7.775658,   645.832642,   135.513306,   294.289886,   0.334083,   779.592407,   779.590515
-0.002334,   0.000778,   0.000717,   -349.152679,   0.000000,   0.536478,   10.004342,   50.404324,   -281.387726,   -70.586494,   137.393677,   -0.337382,   347.750488,   -347.724731
-0.000677,   0.001615,   0.000000,   -44.384335,   325.900574,   0.536478,   10.004342,   49.676586,   324.625305,   -43.109081,   -21.692884,   0.267951,   350.208557,   343.795380
-0.002943,   0.006319,   0.004457,   -28.366892,   385.467102,   0.536478,   10.004342,   48.948853,   385.160431,   -28.060217,   -11.261379,   0.297283,   400.404907,   398.134674
-0.004934,   0.010677,   0.008675,   -12.229532,   422.398132,   0.536478,   10.004342,   48.221115,   421.774261,   -11.605677,   -16.454657,   0.318966,   428.643738,   428.250916
-0.006582,   0.014461,   0.012358,   0.000000,   449.367645,   0.536476,   10.004342,   47.493382,   449.040375,   3.314744,   -12.082114,   0.336663,   447.881348,   447.858887
-0.008097,   0.017976,   0.015800,   0.000000,   468.975677,   0.536478,   10.004342,   46.765648,   468.869171,   11.741153,   -6.978071,   0.345812,   463.267914,   462.939026
-0.009600,   0.021427,   0.019191,   0.000000,   485.290863,   0.536478,   10.004342,   46.037910,   485.274170,   17.796984,   -2.793802,   0.351811,   476.649506,   475.902527
-0.011002,   0.024903,   0.022624,   0.000000,   501.161377,   0.536478,   10.004342,   45.310177,   501.133545,   25.907848,   3.636608,   0.359459,   488.735535,   487.190247
-0.012432,   0.028208,   0.025887,   0.000000,   514.229431,   0.536478,   10.004342,   44.582439,   514.038635,   31.612902,   9.595711,   0.364306,   499.260529,   497.028473
-0.013757,   0.031611,   0.029266,   0.000000,   527.860535,   0.536478,   10.004342,   43.854706,   527.251282,   40.008656,   17.240261,   0.371264,   509.305084,   505.859283
-0.015125,   0.034944,   0.032576,   0.000000,   539.873718,   0.536478,   10.004342,   43.126968,   538.666809,   46.958923,   24.390465,   0.376477,   518.513794,   513.943115
-0.016397,   0.038291,   0.035918,   0.000000,   551.852600,   0.536476,   10.004342,   42.399235,   549.803284,   55.287155,   31.900019,   0.382542,   527.253357,   521.154846
-0.017567,   0.041625,   0.039265,   0.000000,   563.439331,   0.536478,   10.004342,   41.671501,   560.331238,   64.131348,   39.394100,   0.388680,   535.541626,   527.634705
-0.018747,   0.044774,   0.042428,   0.000000,   573.629272,   0.536478,   10.004342,   40.943764,   569.391113,   71.810616,   46.117199,   0.393613,   543.005615,   533.423523
-0.019815,   0.047911,   0.045599,   0.000000,   583.563721,   0.536478,   10.004342,   40.216030,   578.070007,   79.869934,   52.603584,   0.398636,   550.159241,   538.674133
-0.020813,   0.051041,   0.048782,   0.000000,   593.308350,   0.536478,   10.004342,   39.488293,   586.419922,   88.377617,   58.976154,   0.403791,   557.052185,   543.399475
-0.021805,   0.054005,   0.051797,   0.000000,   602.006714,   0.536478,   10.004342,   38.760559,   593.768921,   95.871498,   64.571129,   0.408077,   563.325500,   547.674377
-0.022708,   0.056965,   0.054827,   0.000000,   610.616577,   0.536478,   10.004342,   38.032822,   600.942627,   103.816895,   70.019691,   0.412566,   569.412170,   551.493896
-0.023559,   0.059909,   0.057856,   0.000000,   618.888916,   0.536476,   10.004342,   37.305088,   607.799133,   111.569107,   75.007011,   0.416830,   575.268616,   555.008667
-0.024387,   0.062740,   0.060774,   0.000000,   626.600403,   0.536478,   10.004342,   36.577354,   614.123230,   118.955627,   79.586304,   0.420781,   580.729126,   558.129639
-0.025143,   0.065541,   0.063677,   0.000000,   634.094360,   0.536478,   10.004342,   35.849617,   620.228088,   126.396179,   83.903938,   0.424708,   585.989746,   560.902283
-0.025842,   0.068346,   0.066598,   0.000000,   641.460388,   0.536478,   10.004342,   35.121883,   626.175964,   133.941132,   88.074615,   0.428622,   591.132141,   563.395996
-0.026553,   0.071115,   0.069482,   0.000000,   648.355896,   0.536478,   10.004342,   34.394146,   631.770996,   140.814713,   91.747086,   0.432072,   596.031311,   565.791992
-0.027243,   0.073915,   0.072409,   0.000000,   655.135742,   0.536478,   10.004342,   33.666412,   637.237427,   147.638367,   95.306580,   0.435415,   600.864319,   568.052612
-0.027913,   0.076751,   0.075382,   0.000000,   661.756409,   0.536476,   10.004342,   32.938675,   642.561890,   154.258377,   98.697342,   0.438565,   605.627197,   570.245422
-0.028578,   0.079658,   0.078437,   0.000000,   668.266968,   0.536479,   10.004342,   32.210941,   647.793152,   160.643784,   101.946022,   0.441498,   610.374817,   572.457397
-0.029231,   0.082644,   0.081584,   0.000000,   674.685974,   0.536477,   10.004342,   31.483206,   652.908020,   166.804886,   105.169403,   0.444194,   615.131165,   574.746094
-0.029875,   0.085671,   0.084780,   0.000000,   680.911743,   0.536479,   10.004342,   30.755470,   657.827759,   172.601700,   108.322701,   0.446591,   619.828918,   577.124084
-0.030540,   0.088750,   0.088028,   0.000000,   686.906128,   0.536478,   10.004342,   30.027735,   662.514343,   177.879776,   111.427361,   0.448588,   624.473145,   579.709778
-0.031190,   0.091928,   0.091391,   0.000000,   692.852844,   0.536477,   10.004342,   29.299999,   667.075195,   182.938675,   114.648933,   0.450336,   629.170227,   582.500122
-0.031859,   0.095207,   0.094860,   0.000000,   698.635437,   0.536478,   10.004342,   28.572264,   671.464050,   187.456635,   117.853508,   0.451675,   633.878479,   585.622986
-0.032561,   0.098611,   0.098463,   0.000000,   704.342896,   0.536478,   10.004342,   27.844528,   675.684814,   191.601028,   121.219673,   0.452662,   638.656128,   589.104614
-0.033300,   0.102151,   0.102208,   0.000000,   709.938477,   0.536478,   10.004342,   27.116795,   679.739319,   195.236679,   124.673798,   0.453243,   643.493225,   593.008057
-0.034086,   0.105835,   0.106103,   0.000000,   715.433594,   0.536477,   10.004342,   26.389059,   683.593811,   198.384171,   128.307236,   0.453408,   648.406372,   597.375000
-0.034932,   0.109676,   0.110160,   0.000000,   720.826843,   0.536478,   10.004342,   25.661324,   687.237244,   201.012695,   132.137573,   0.453139,   653.405457,   602.244568
-0.035853,   0.113686,   0.114388,   0.000000,   726.112732,   0.536478,   10.004342,   24.933588,   690.647827,   203.095322,   136.193893,   0.452414,   658.499146,   607.650330
-0.036863,   0.117871,   0.118794,   0.000000,   731.279541,   0.536477,   10.004342,   24.205853,   693.795227,   204.600952,   140.506927,   0.451211,   663.693298,   613.619385
-0.037976,   0.122239,   0.123384,   0.000000,   736.313110,   0.536478,   10.004342,   23.478117,   696.646667,   205.506683,   145.104141,   0.449509,   668.991577,   620.162231
-0.039208,   0.126792,   0.128157,   0.000000,   741.196960,   0.536478,   10.004342,   22.750381,   699.166626,   205.796356,   150.010239,   0.447296,   674.395569,   627.273987
-0.040573,   0.131530,   0.133113,   0.000000,   745.910645,   0.536477,   10.004342,   22.022648,   701.318726,   205.456085,   155.241394,   0.444560,   679.904114,   634.934082
-0.042086,   0.136451,   0.138249,   0.000000,   750.433960,   0.536478,   10.004342,   21.294912,   703.066223,   204.485321,   160.811539,   0.441299,   685.514893,   643.104309
-0.043760,   0.141548,   0.143555,   0.000000,   754.747253,   0.536478,   10.004342,   20.567177,   704.369690,   202.899765,   166.735550,   0.437518,   691.224121,   651.729919
-0.045597,   0.146799,   0.149010,   0.000000,   758.795654,   0.536478,   10.004342,   19.839441,   705.197144,   200.649353,   172.961823,   0.433210,   697.002991,   660.735779
-0.047640,   0.152238,   0.154646,   0.000000,   762.586548,   0.536477,   10.004342,   19.111706,   705.526611,   197.726089,   179.529678,   0.428352,   702.890503,   670.115479
-0.049914,   0.157872,   0.160468,   0.000000,   766.121399,   0.536478,   10.004342,   18.383970,   705.349243,   194.193848,   186.432999,   0.422982,   708.890747,   679.775513
-0.052397,   0.163649,   0.166427,   0.000000,   769.345764,   0.536478,   10.004342,   17.656237,   704.633789,   190.070786,   193.613068,   0.417137,   714.956970,   689.577942
-0.055104,   0.169557,   0.172514,   0.000000,   772.246216,   0.536477,   10.004342,   16.928501,   703.380554,   185.391907,   201.032608,   0.410853,   721.079468,   699.424988
-0.058044,   0.175589,   0.178723,   0.000000,   774.818542,   0.536478,   10.004342,   16.200766,   701.611572,   180.203674,   208.638367,   0.404179,   727.247620,   709.214783
-0.061229,   0.181736,   0.185050,   0.000000,   777.073853,   0.536477,   10.004342,   15.473030,   699.379517,   174.581314,   216.356766,   0.397194,   733.445618,   718.836914
-0.064669,   0.187992,   0.191492,   0.000000,   779.033630,   0.536478,   10.004342,   14.745295,   696.771912,   168.605759,   224.086685,   0.389994,   739.651123,   728.183228
-0.068372,   0.194352,   0.198050,   0.000000,   780.741821,   0.536477,   10.004342,   14.017559,   693.923828,   162.385422,   231.699112,   0.382707,   745.834839,   737.148254
-0.072349,   0.200821,   0.204736,   0.000000,   782.265503,   0.536478,   10.004342,   13.289824,   691.007141,   156.045441,   239.056107,   0.375483,   751.968079,   745.650146
-0.076612,   0.207412,   0.211571,   0.000000,   783.677307,   0.536478,   10.004342,   12.562089,   688.237671,   149.676514,   245.985413,   0.368468,   758.015564,   753.631470
-0.081178,   0.214155,   0.218594,   0.000000,   785.075623,   0.536478,   10.004342,   11.834353,   685.823120,   143.396667,   252.365265,   0.361807,   763.960693,   761.083191
-0.086070,   0.221104,   0.225877,   0.000000,   786.603333,   0.536478,   10.004342,   11.106618,   683.936035,   137.392029,   258.171967,   0.355632,   769.828552,   768.063477
-0.091337,   0.228328,   0.233492,   0.000000,   788.254211,   0.536478,   10.004342,   10.378882,   682.720215,   131.485519,   263.270599,   0.349923,   775.604126,   774.626343
-0.097024,   0.235891,   0.241526,   0.000000,   790.066101,   0.536478,   10.004342,   9.651148,   682.101807,   125.634567,   267.833679,   0.344576,   781.380859,   780.931091
-0.103203,   0.243877,   0.250083,   0.000000,   791.985291,   0.536478,   10.004342,   8.923412,   681.904724,   119.651962,   272.049316,   0.339394,   787.243225,   787.112244
-0.109957,   0.252350,   0.259253,   0.000000,   793.860779,   0.536478,   10.004342,   8.195677,   681.847290,   113.176598,   276.126434,   0.334066,   793.279846,   793.277893
-0.001031,   0.000347,   0.000000,   -213.917053,   8.795970,   0.536501,   10.934303,   50.023975,   -156.738693,   -48.382385,   97.288231,   -0.312998,   218.447891,   -218.048904
-0.001849,   0.004110,   0.002321,   -17.996679,   372.137512,   0.536499,   10.934303,   49.309357,   371.803101,   -17.662254,   -11.417480,   0.309465,   381.454407,   380.497498
-0.004297,   0.009013,   0.007067,   -15.591990,   410.627594,   0.536501,   10.934303,   48.594734,   410.335724,   -15.300122,   -11.149632,   0.314538,   418.641388,   417.987305
-0.006593,   0.013883,   0.011805,   -9.612055,   440.508850,   0.536501,   10.934303,   47.880116,   440.505005,   -9.608205,   -1.316436,   0.322485,   445.392670,   445.159241
-0.008657,   0.018464,   0.016293,   -2.743767,   464.331085,   0.536499,   10.934303,   47.165497,   464.331055,   -2.743741,   0.111664,   0.330383,   465.709076,   465.690857
-0.010679,   0.022844,   0.020602,   0.000000,   483.474609,   0.536499,   10.934303,   46.450878,   483.469574,   2.460847,   1.556824,   0.335876,   482.251404,   482.237335
-0.012525,   0.027070,   0.024770,   0.000000,   500.977325,   0.536501,   10.934303,   45.736256,   500.893555,   9.733295,   6.415137,   0.343009,   496.222961,   496.011780
-0.014378,   0.031228,   0.028879,   0.000000,   516.671631,   0.536501,   10.934303,   45.021637,   516.338745,   16.876032,   12.898066,   0.349464,   508.601837,   507.995911
-0.016039,   0.035394,   0.033010,   0.000000,   532.321960,   0.536501,   10.934303,   44.307014,   531.496643,   26.558540,   20.430494,   0.357774,   519.933167,   518.497498
-0.017708,   0.039364,   0.036955,   0.000000,   545.812134,   0.536499,   10.934303,   43.592396,   544.300781,   34.732624,   27.792696,   0.364184,   529.983032,   527.632812
-0.019150,   0.043264,   0.040853,   0.000000,   558.950012,   0.536501,   10.934303,   42.877777,   556.483582,   44.210995,   35.630909,   0.371287,   539.290833,   535.637756
-0.020580,   0.046879,   0.044470,   0.000000,   570.061218,   0.536499,   10.934303,   42.163158,   566.552734,   51.887798,   42.637962,   0.376540,   547.477051,   542.636597
-0.021880,   0.050465,   0.048079,   0.000000,   580.945435,   0.536501,   10.934303,   41.448536,   576.216614,   60.292774,   49.619213,   0.382114,   555.252502,   548.945374
-0.023070,   0.053999,   0.051655,   0.000000,   591.375732,   0.536499,   10.934303,   40.733917,   585.290771,   68.855186,   56.387196,   0.387557,   562.622925,   554.663147
-0.024242,   0.057304,   0.055003,   0.000000,   600.563171,   0.536501,   10.934303,   40.019299,   593.134216,   76.326561,   62.406219,   0.392013,   569.250122,   559.754517
-0.025297,   0.060565,   0.058327,   0.000000,   609.564209,   0.536501,   10.934303,   39.304676,   600.685425,   84.235146,   68.295525,   0.396643,   575.597534,   564.339661
-0.026279,   0.063769,   0.061608,   0.000000,   618.172546,   0.536499,   10.934303,   38.590057,   607.830566,   92.052200,   73.763908,   0.401099,   581.638062,   568.510132
-0.027243,   0.066822,   0.064739,   0.000000,   625.975403,   0.536501,   10.934303,   37.875439,   614.251404,   99.049553,   78.598289,   0.404914,   587.203003,   572.320496
-0.028120,   0.069830,   0.067840,   0.000000,   633.670715,   0.536499,   10.934303,   37.160820,   620.495300,   106.459465,   83.344063,   0.408933,   592.561523,   575.693542
-0.028910,   0.072774,   0.070891,   0.000000,   641.040955,   0.536501,   10.934303,   36.446198,   626.448975,   113.732376,   87.718094,   0.412815,   597.669800,   578.735291
-0.029718,   0.075662,   0.073885,   0.000000,   648.018799,   0.536499,   10.934303,   35.731579,   632.057617,   120.644836,   91.747086,   0.416408,   602.536377,   581.546753
-0.030513,   0.078598,   0.076939,   0.000000,   654.897278,   0.536501,   10.934303,   35.016960,   637.615967,   127.488640,   95.468933,   0.419921,   607.339844,   584.204712
-0.031269,   0.081572,   0.080045,   0.000000,   661.708191,   0.536501,   10.934303,   34.302338,   643.139343,   134.380722,   98.953781,   0.423434,   612.075500,   586.660217
-0.031996,   0.084516,   0.083127,   0.000000,   668.264404,   0.536501,   10.934303,   33.587719,   648.452881,   141.069809,   102.198479,   0.426786,   616.642761,   588.916016
-0.032704,   0.087471,   0.086229,   0.000000,   674.642029,   0.536498,   10.934303,   32.873100,   653.646301,   147.574844,   105.195839,   0.429999,   621.102661,   591.028442
-0.033419,   0.090435,   0.089338,   0.000000,   680.778687,   0.536502,   10.934303,   32.158482,   658.669495,   153.734573,   107.946770,   0.432976,   625.441467,   593.065735
-0.034094,   0.093454,   0.092518,   0.000000,   686.880249,   0.536500,   10.934303,   31.443859,   663.642883,   159.898529,   110.660194,   0.435895,   629.770508,   595.020813
-0.034770,   0.096548,   0.095780,   0.000000,   692.876038,   0.536500,   10.934303,   30.729240,   668.539673,   165.809326,   113.255836,   0.438608,   634.088806,   597.010254
-0.035456,   0.099727,   0.099135,   0.000000,   698.733521,   0.536501,   10.934303,   30.014620,   673.337708,   171.326965,   115.732117,   0.441031,   638.402283,   599.126038
-0.036158,   0.103022,   0.102613,   0.000000,   704.543213,   0.536499,   10.934303,   29.299999,   678.056580,   176.611115,   118.250320,   0.443223,   642.766907,   601.393982
-0.036878,   0.106441,   0.106224,   0.000000,   710.264648,   0.536501,   10.934303,   28.585381,   682.696228,   181.513367,   120.734528,   0.445120,   647.173279,   603.880920
-0.037627,   0.110004,   0.109985,   0.000000,   715.916626,   0.536500,   10.934303,   27.870760,   687.229492,   186.032166,   123.291862,   0.446692,   651.650391,   606.661865
-0.038418,   0.113731,   0.113918,   0.000000,   721.508423,   0.536501,   10.934303,   27.156141,   691.677490,   190.132141,   125.902534,   0.447930,   656.210510,   609.779175
-0.039262,   0.117643,   0.118041,   0.000000,   727.045166,   0.536499,   10.934303,   26.441521,   696.020874,   193.787384,   128.623215,   0.448806,   660.870911,   613.295227
-0.040172,   0.121756,   0.122372,   0.000000,   732.524780,   0.536501,   10.934303,   25.726900,   700.248047,   196.957153,   131.477600,   0.449293,   665.642273,   617.262695
-0.041165,   0.126089,   0.126926,   0.000000,   737.943848,   0.536500,   10.934303,   25.012281,   704.342285,   199.604218,   134.495605,   0.449366,   670.535156,   621.730347
-0.042256,   0.130658,   0.131718,   0.000000,   743.296875,   0.536500,   10.934303,   24.297661,   708.282532,   201.696564,   137.709015,   0.449001,   675.558167,   626.738098
-0.043465,   0.135477,   0.136762,   0.000000,   748.572205,   0.536500,   10.934303,   23.583042,   712.040955,   203.198700,   141.149445,   0.448174,   680.717102,   632.318970
-0.044811,   0.140557,   0.142066,   0.000000,   753.753418,   0.536501,   10.934303,   22.868422,   715.582520,   204.077194,   144.850449,   0.446861,   686.015137,   638.494751
-0.046311,   0.145905,   0.147635,   0.000000,   758.818420,   0.536499,   10.934303,   22.153801,   718.871887,   204.297928,   148.832672,   0.445040,   691.450562,   645.270874
-0.047986,   0.151522,   0.153470,   0.000000,   763.744934,   0.536501,   10.934303,   21.439182,   721.863403,   203.845154,   153.132126,   0.442697,   697.021973,   652.637939
-0.049850,   0.157405,   0.159564,   0.000000,   768.506836,   0.536500,   10.934303,   20.724562,   724.513306,   202.711929,   157.769806,   0.439826,   702.721924,   660.562378
-0.051910,   0.163535,   0.165901,   0.000000,   773.050537,   0.536501,   10.934303,   20.009941,   726.768188,   200.839127,   162.736877,   0.436400,   708.530029,   669.006165
-0.054252,   0.169946,   0.172490,   0.000000,   777.279602,   0.536499,   10.934303,   19.295322,   728.633240,   197.994370,   167.869354,   0.432350,   714.411133,   677.940369
-0.056853,   0.176653,   0.179376,   0.000000,   781.342163,   0.536501,   10.934303,   18.580702,   730.039978,   194.561584,   173.502548,   0.427774,   720.475037,   687.325439
-0.059718,   0.183586,   0.186476,   0.000000,   785.091675,   0.536500,   10.934303,   17.866083,   730.947632,   190.377533,   179.444229,   0.422655,   726.617371,   697.009705
-0.062861,   0.190726,   0.193773,   0.000000,   788.495483,   0.536500,   10.934303,   17.151463,   731.323364,   185.452118,   185.680603,   0.417005,   732.825134,   706.899902
-0.066296,   0.198056,   0.201249,   0.000000,   791.529968,   0.536500,   10.934303,   16.436844,   731.149292,   179.811356,   192.187363,   0.410849,   739.087585,   716.894409
-0.070035,   0.205558,   0.208892,   0.000000,   794.180115,   0.536500,   10.934303,   15.722223,   730.425110,   173.497925,   198.926117,   0.404227,   745.392456,   726.883362
-0.074091,   0.213214,   0.216688,   0.000000,   796.440247,   0.536501,   10.934303,   15.007604,   729.174988,   166.568619,   205.835999,   0.397195,   751.723999,   736.750610
-0.078473,   0.221008,   0.224624,   0.000000,   798.320496,   0.536500,   10.934303,   14.292984,   727.454102,   159.106979,   212.835022,   0.389837,   758.061829,   746.376282
-0.083192,   0.228922,   0.232691,   0.000000,   799.855164,   0.536501,   10.934303,   13.578364,   725.368225,   151.231720,   219.804352,   0.382272,   764.377747,   755.637024
-0.088256,   0.236945,   0.240885,   0.000000,   801.086060,   0.536500,   10.934303,   12.863744,   723.063110,   143.044510,   226.588516,   0.374629,   770.635315,   764.427307
-0.093672,   0.245074,   0.249212,   0.000000,   802.095215,   0.536500,   10.934303,   12.149125,   720.733826,   134.704269,   233.023285,   0.367078,   776.798645,   772.661804
-0.099451,   0.253325,   0.257701,   0.000000,   802.999146,   0.536500,   10.934303,   11.434505,   718.594055,   126.400177,   238.973648,   0.359795,   782.846863,   780.306458
-0.105618,   0.261736,   0.266399,   0.000000,   803.895020,   0.536500,   10.934303,   10.719885,   716.908203,   118.214310,   244.223663,   0.352933,   788.745117,   787.352417
-0.112195,   0.270362,   0.275379,   0.000000,   804.909973,   0.536500,   10.934303,   10.005265,   715.862061,   110.289047,   248.705765,   0.346612,   794.502441,   793.863220
-0.119235,   0.279289,   0.284742,   0.000000,   806.121277,   0.536500,   10.934303,   9.290645,   715.553528,   102.631973,   252.415237,   0.340844,   800.157410,   799.952759
-0.126810,   0.288616,   0.294611,   0.000000,   807.522888,   0.536500,   10.934303,   8.576026,   715.922913,   95.091530,   255.457825,   0.335498,   805.782776,   805.765747
-0.000407,   0.000298,   0.000000,   -73.353783,   40.552731,   0.536220,   11.880316,   49.684025,   6.276935,   -39.077988,   52.243721,   -0.109337,   99.999992,   -77.990036
-0.003320,   0.006792,   0.004924,   -33.294590,   386.444672,   0.536219,   11.880316,   48.981129,   386.384277,   -33.234203,   5.034193,   0.291290,   404.121918,   401.018738
-0.005919,   0.012378,   0.010339,   -9.404675,   432.964874,   0.536220,   11.880316,   48.278233,   432.960846,   -9.400642,   1.335640,   0.322533,   437.742981,   437.515594
-0.008488,   0.017646,   0.015507,   -9.130884,   457.943176,   0.536220,   11.880316,   47.575333,   457.942383,   -9.130095,   -0.607389,   0.323415,   462.576233,   462.373383
-0.011228,   0.023150,   0.020927,   -10.822484,   478.320953,   0.536220,   11.880316,   46.872437,   478.301392,   -10.802910,   3.094253,   0.322086,   483.823029,   483.550568
-0.013778,   0.028663,   0.026365,   -4.496843,   499.393890,   0.536219,   11.880316,   46.169540,   499.199066,   -4.302010,   9.906401,   0.328841,   501.657471,   501.612122
-0.016185,   0.033979,   0.031618,   0.000000,   518.452332,   0.536220,   11.880316,   45.466640,   517.902405,   4.103278,   16.818048,   0.336766,   516.684814,   516.657288
-0.018368,   0.039074,   0.036666,   0.000000,   535.935364,   0.536220,   11.880316,   44.763744,   534.814819,   13.978344,   24.184074,   0.345398,   529.623535,   529.272217
-0.020371,   0.043868,   0.041433,   0.000000,   551.489197,   0.536220,   11.880316,   44.060844,   549.550110,   23.901337,   31.985147,   0.353431,   540.842651,   539.838074
-0.022154,   0.048372,   0.045928,   0.000000,   565.102234,   0.536219,   11.880316,   43.357948,   562.219971,   32.919884,   39.164959,   0.360234,   550.698181,   548.850525
-0.023810,   0.052656,   0.050220,   0.000000,   577.666931,   0.536220,   11.880316,   42.655052,   573.637207,   42.161049,   46.453533,   0.366824,   559.576477,   556.642151
-0.025271,   0.056799,   0.054393,   0.000000,   589.323364,   0.536219,   11.880316,   41.952156,   584.012695,   51.182831,   53.459145,   0.372913,   567.778748,   563.586914
-0.026706,   0.060608,   0.058236,   0.000000,   599.294189,   0.536220,   11.880316,   41.249256,   592.701416,   58.715595,   59.698505,   0.377628,   575.007324,   569.656006
-0.027971,   0.064332,   0.062016,   0.000000,   609.027466,   0.536219,   11.880316,   40.546360,   601.010315,   66.842865,   65.930046,   0.382604,   581.849121,   575.101807
-0.029135,   0.067944,   0.065699,   0.000000,   618.182617,   0.536220,   11.880316,   39.843464,   608.707520,   74.743042,   71.757568,   0.387265,   588.270508,   580.040771
-0.030270,   0.071363,   0.069192,   0.000000,   626.395386,   0.536220,   11.880316,   39.140564,   615.521362,   81.720512,   76.959801,   0.391171,   594.148560,   584.532410
-0.031260,   0.074709,   0.072632,   0.000000,   634.530945,   0.536219,   11.880316,   38.437668,   622.146118,   89.309479,   82.173447,   0.395398,   599.779846,   588.528137
-0.032245,   0.077924,   0.075939,   0.000000,   641.924683,   0.536220,   11.880316,   37.734772,   628.132935,   96.018150,   86.769920,   0.398970,   605.016846,   592.250122
-0.033186,   0.081092,   0.079213,   0.000000,   649.087830,   0.536220,   11.880316,   37.031872,   633.877991,   102.722450,   91.159866,   0.402476,   610.057434,   595.689941
-0.034093,   0.084259,   0.082495,   0.000000,   656.084290,   0.536220,   11.880316,   36.328976,   639.505371,   109.396744,   95.202324,   0.405941,   614.951538,   598.887573
-0.034960,   0.087432,   0.085795,   0.000000,   662.929749,   0.536219,   11.880316,   35.626076,   645.003479,   116.024117,   99.015106,   0.409332,   619.731445,   601.891235
-0.035828,   0.090512,   0.088997,   0.000000,   669.339111,   0.536220,   11.880316,   34.923180,   650.180542,   122.205193,   102.383163,   0.412449,   624.227783,   604.646606
-0.036625,   0.093575,   0.092199,   0.000000,   675.691101,   0.536220,   11.880316,   34.220284,   655.292419,   128.600632,   105.640480,   0.415673,   628.613525,   607.130005
-0.037399,   0.096636,   0.095403,   0.000000,   681.878235,   0.536220,   11.880316,   33.517384,   660.307983,   134.878677,   108.622787,   0.418821,   632.877625,   609.427185
-0.038160,   0.099713,   0.098630,   0.000000,   687.933228,   0.536219,   11.880316,   32.814487,   665.267456,   141.047531,   111.335419,   0.421903,   637.045959,   611.560059
-0.038916,   0.102820,   0.101892,   0.000000,   693.828125,   0.536220,   11.880316,   32.111591,   670.160950,   146.970596,   113.765465,   0.424838,   641.131653,   613.598511
-0.039670,   0.105986,   0.105221,   0.000000,   699.674622,   0.536220,   11.880316,   31.408693,   675.038940,   152.857040,   116.065552,   0.427726,   645.191528,   615.538635
-0.040426,   0.109225,   0.108628,   0.000000,   705.438171,   0.536220,   11.880316,   30.705795,   679.895935,   158.566360,   118.187630,   0.430491,   649.228821,   617.439941
-0.041184,   0.112550,   0.112128,   0.000000,   711.117493,   0.536220,   11.880316,   30.002897,   684.729736,   164.045822,   120.149940,   0.433098,   653.258667,   619.351501
-0.041959,   0.115990,   0.115750,   0.000000,   716.739868,   0.536220,   11.880316,   29.299999,   689.532410,   169.287094,   122.044220,   0.435516,   657.319153,   621.345642
-0.042758,   0.119568,   0.119516,   0.000000,   722.317505,   0.536220,   11.880316,   28.597103,   694.325317,   174.257477,   123.860352,   0.437732,   661.427307,   623.463318
-0.043587,   0.123305,   0.123448,   0.000000,   727.851624,   0.536220,   11.880316,   27.894205,   699.090149,   178.906982,   125.652061,   0.439700,   665.603455,   625.776062
-0.044459,   0.127226,   0.127570,   0.000000,   733.352539,   0.536220,   11.880316,   27.191309,   703.833557,   183.204498,   127.435539,   0.441401,   669.865356,   628.335205
-0.045386,   0.131357,   0.131907,   0.000000,   738.830261,   0.536220,   11.880316,   26.488411,   708.553772,   187.121307,   129.243164,   0.442813,   674.231934,   631.197266
-0.046383,   0.135722,   0.136485,   0.000000,   744.288025,   0.536220,   11.880316,   25.785513,   713.245361,   190.618195,   131.100693,   0.443907,   678.718567,   634.418274
-0.047466,   0.140347,   0.141325,   0.000000,   749.725342,   0.536220,   11.880316,   25.082615,   717.897034,   193.653625,   133.036972,   0.444656,   683.338135,   638.053406
-0.048652,   0.145255,   0.146451,   0.000000,   755.141785,   0.536220,   11.880316,   24.379717,   722.497375,   196.196304,   135.079376,   0.445038,   688.101318,   642.147278
-0.049961,   0.150468,   0.151884,   0.000000,   760.522522,   0.536220,   11.880316,   23.676821,   727.020203,   198.202682,   137.255325,   0.445026,   693.009644,   646.738647
-0.051417,   0.156007,   0.157642,   0.000000,   765.867310,   0.536220,   11.880316,   22.973923,   731.447327,   199.629364,   139.606186,   0.444588,   698.081909,   651.883484
-0.053039,   0.161887,   0.163737,   0.000000,   771.147400,   0.536220,   11.880316,   22.271025,   735.740540,   200.419601,   142.153717,   0.443691,   703.312378,   657.608276
-0.054852,   0.168117,   0.170179,   0.000000,   776.353577,   0.536220,   11.880316,   21.568127,   739.860657,   200.579086,   144.954102,   0.442329,   708.703186,   663.915466
-0.056866,   0.174695,   0.176963,   0.000000,   781.444214,   0.536220,   11.880316,   20.865231,   743.753357,   200.045502,   148.031754,   0.440466,   714.242920,   670.814453
-0.059118,   0.181624,   0.184090,   0.000000,   786.370789,   0.536220,   11.880316,   20.162333,   747.361633,   198.729202,   151.404785,   0.438051,   719.923828,   678.320068
-0.061720,   0.188920,   0.191536,   0.000000,   791.002625,   0.536219,   11.880316,   19.459436,   750.703308,   196.354218,   154.802841,   0.435026,   725.671021,   686.377563
-0.064578,   0.196598,   0.199374,   0.000000,   795.534363,   0.536220,   11.880316,   18.756538,   753.663025,   193.424622,   158.780167,   0.431499,   731.626587,   694.981140
-0.067751,   0.204592,   0.207511,   0.000000,   799.786926,   0.536220,   11.880316,   18.053640,   756.199341,   189.671661,   163.074966,   0.427411,   737.674377,   704.018188
-0.071252,   0.212869,   0.215912,   0.000000,   803.715027,   0.536220,   11.880316,   17.350744,   758.253601,   185.097916,   167.699738,   0.422766,   743.793152,   713.403687
-0.075095,   0.221392,   0.224539,   0.000000,   807.267944,   0.536220,   11.880316,   16.647846,   759.774780,   179.689285,   172.643265,   0.417562,   749.959778,   723.046326
-0.079290,   0.230125,   0.233360,   0.000000,   810.405212,   0.536220,   11.880316,   15.944948,   760.719299,   173.451096,   177.897812,   0.411806,   756.157654,   732.848633
-0.083850,   0.239034,   0.242344,   0.000000,   813.096985,   0.536220,   11.880316,   15.242051,   761.057556,   166.410721,   183.448090,   0.405518,   762.372986,   742.703430
-0.088785,   0.248085,   0.251460,   0.000000,   815.319824,   0.536220,   11.880316,   14.539153,   760.771423,   158.605728,   189.268875,   0.398728,   768.592468,   752.499939
-0.094101,   0.257239,   0.260678,   0.000000,   817.073486,   0.536220,   11.880316,   13.836256,   759.880798,   150.126144,   195.306229,   0.391503,   774.798218,   762.107666
-0.099808,   0.266461,   0.269969,   0.000000,   818.359497,   0.536220,   11.880316,   13.133358,   758.442932,   141.044357,   201.450714,   0.383923,   780.962402,   771.396545
-0.105908,   0.275714,   0.279306,   0.000000,   819.211121,   0.536220,   11.880316,   12.430461,   756.548340,   131.491837,   207.591949,   0.376102,   787.057068,   780.242859
-0.112399,   0.284965,   0.288670,   0.000000,   819.688416,   0.536220,   11.880316,   11.727564,   754.343872,   121.627724,   213.575363,   0.368189,   793.046143,   788.533813
-0.119279,   0.294199,   0.298057,   0.000000,   819.867493,   0.536220,   11.880316,   11.024666,   752.023254,   111.596794,   219.207809,   0.360342,   798.890259,   796.187927
-0.126545,   0.303423,   0.307490,   0.000000,   819.895752,   0.536220,   11.880316,   10.321769,   749.855591,   101.652199,   224.289795,   0.352786,   804.555664,   803.156555
-0.134210,   0.312682,   0.317027,   0.000000,   819.927917,   0.536220,   11.880316,   9.618871,   748.117554,   91.994293,   228.633331,   0.345715,   810.024597,   809.458557
-0.142313,   0.322068,   0.326779,   0.000000,   820.126892,   0.536220,   11.880316,   8.915974,   747.060791,   82.787354,   232.108856,   0.339277,   815.309692,   815.179260
-0.000314,   0.000861,   0.000000,   -12.778809,   177.019714,   0.535738,   12.840565,   49.385132,   176.644638,   -12.403737,   8.428953,   0.297955,   183.742691,   182.738907
-0.004129,   0.008557,   0.006624,   -21.595890,   404.854248,   0.535738,   12.840565,   48.692539,   404.122131,   -20.863787,   17.654156,   0.307044,   416.072723,   414.808960
-0.007732,   0.015593,   0.013517,   -30.948383,   438.165131,   0.535738,   12.840565,   47.999950,   438.148163,   -30.931429,   2.820219,   0.298701,   454.430389,   452.050201
-0.011325,   0.022775,   0.020581,   -23.019825,   471.066040,   0.535738,   12.840565,   47.307358,   471.052673,   -23.006454,   2.570127,   0.309219,   482.987549,   481.750977
-0.014629,   0.029624,   0.027335,   -12.699748,   498.375153,   0.535738,   12.840565,   46.614769,   498.204590,   -12.529201,   9.334538,   0.320676,   504.844849,   504.485260
-0.017661,   0.036168,   0.033806,   -4.101256,   520.686890,   0.535738,   12.840565,   45.922176,   520.001099,   -3.415462,   18.958546,   0.329403,   522.749634,   522.713440
-0.020482,   0.042337,   0.039920,   0.000000,   539.567871,   0.535738,   12.840565,   45.229588,   538.130798,   5.186257,   27.712059,   0.336814,   537.703125,   537.673645
-0.022937,   0.048146,   0.045699,   0.000000,   556.552856,   0.535738,   12.840565,   44.536995,   554.159729,   14.749307,   36.008324,   0.344493,   550.478760,   550.166626
-0.025133,   0.053551,   0.051094,   0.000000,   571.711426,   0.535738,   12.840565,   43.844406,   568.235718,   24.566481,   43.608704,   0.351939,   561.463257,   560.570984
-0.027100,   0.058579,   0.056133,   0.000000,   585.036804,   0.535738,   12.840565,   43.151814,   580.421204,   33.687294,   50.446049,   0.358464,   571.056213,   569.387695
-0.028890,   0.063291,   0.060872,   0.000000,   596.951660,   0.535739,   12.840565,   42.459225,   591.102844,   42.276611,   56.957855,   0.364264,   579.596985,   577.013000
-0.030522,   0.067753,   0.065379,   0.000000,   607.955566,   0.535737,   12.840565,   41.766632,   600.759155,   50.836269,   63.318588,   0.369792,   587.352722,   583.688538
-0.031951,   0.072003,   0.069693,   0.000000,   618.132019,   0.535738,   12.840565,   41.074043,   609.536011,   59.141674,   69.318634,   0.374941,   594.472961,   589.609314
-0.033327,   0.075949,   0.073708,   0.000000,   627.028137,   0.535738,   12.840565,   40.381451,   617.082397,   66.255424,   74.681412,   0.379092,   600.855530,   594.875732
-0.034519,   0.079769,   0.077619,   0.000000,   635.723694,   0.535738,   12.840565,   39.688862,   624.289551,   73.930801,   80.147461,   0.383494,   606.893555,   599.589844
-0.035699,   0.083403,   0.081342,   0.000000,   643.514954,   0.535738,   12.840565,   38.996269,   630.678467,   80.587799,   85.005867,   0.387111,   612.456299,   603.939087
-0.036838,   0.087013,   0.085055,   0.000000,   651.084351,   0.535738,   12.840565,   38.303680,   636.831970,   87.231270,   89.645134,   0.390645,   617.835999,   608.025574
-0.037901,   0.090589,   0.088750,   0.000000,   658.460632,   0.535738,   12.840565,   37.611088,   642.797729,   93.918823,   94.033783,   0.394158,   623.029602,   611.825989
-0.038915,   0.094061,   0.092346,   0.000000,   665.427490,   0.535738,   12.840565,   36.918499,   648.392334,   100.312775,   98.116318,   0.397437,   627.944031,   615.336304
-0.039927,   0.097432,   0.095839,   0.000000,   671.956726,   0.535738,   12.840565,   36.225906,   653.631653,   106.282333,   101.813614,   0.400430,   632.581055,   618.598877
-0.040856,   0.100754,   0.099295,   0.000000,   678.362854,   0.535738,   12.840565,   35.533318,   658.742493,   112.400436,   105.377373,   0.403490,   637.060242,   621.587341
-0.041756,   0.104032,   0.102712,   0.000000,   684.476807,   0.535738,   12.840565,   34.840725,   663.666443,   118.193031,   108.556747,   0.406358,   641.354614,   624.395569
-0.042641,   0.107304,   0.106129,   0.000000,   690.475769,   0.535738,   12.840565,   34.148136,   668.507507,   123.987823,   111.556053,   0.409215,   645.540649,   627.018066
-0.043515,   0.110582,   0.109558,   0.000000,   696.334534,   0.535738,   12.840565,   33.455544,   673.288147,   129.665894,   114.278954,   0.412012,   649.620422,   629.482788
-0.044378,   0.113871,   0.113001,   0.000000,   702.058167,   0.535738,   12.840565,   32.762955,   678.021057,   135.219101,   116.726891,   0.414750,   653.598389,   631.795593
-0.045231,   0.117185,   0.116474,   0.000000,   707.666809,   0.535738,   12.840565,   32.070362,   682.735413,   140.643845,   118.897758,   0.417434,   657.492065,   633.973999
-0.046087,   0.120549,   0.120001,   0.000000,   713.195557,   0.535738,   12.840565,   31.377773,   687.445557,   145.961365,   120.856514,   0.420063,   661.335388,   636.054321
-0.046949,   0.123982,   0.123602,   0.000000,   718.654175,   0.535738,   12.840565,   30.685183,   692.177795,   151.141922,   122.579224,   0.422626,   665.142029,   638.058105
-0.047819,   0.127499,   0.127291,   0.000000,   724.055237,   0.535739,   12.840565,   29.992590,   696.940430,   156.177673,   124.088226,   0.425117,   668.927917,   640.009766
-0.048704,   0.131122,   0.131092,   0.000000,   729.404846,   0.535738,   12.840565,   29.299999,   701.726074,   161.027039,   125.427284,   0.427497,   672.717102,   641.963440
-0.049613,   0.134878,   0.135029,   0.000000,   734.717834,   0.535737,   12.840565,   28.607409,   706.546570,   165.665665,   126.613243,   0.429747,   676.531860,   643.961243
-0.050553,   0.138792,   0.139129,   0.000000,   739.999146,   0.535738,   12.840565,   27.914818,   711.398071,   170.049393,   127.676064,   0.431832,   680.393066,   646.058044
-0.051535,   0.142888,   0.143415,   0.000000,   745.256165,   0.535738,   12.840565,   27.222227,   716.277527,   174.143723,   128.647064,   0.433725,   684.320435,   648.306213
-0.052568,   0.147194,   0.147916,   0.000000,   750.490601,   0.535738,   12.840565,   26.529636,   721.179504,   177.920090,   129.547989,   0.435405,   688.324890,   650.745544
-0.053667,   0.151738,   0.152657,   0.000000,   755.719788,   0.535738,   12.840565,   25.837046,   726.114136,   181.338181,   130.403046,   0.436840,   692.436218,   653.442627
-0.054846,   0.156549,   0.157668,   0.000000,   760.945740,   0.535738,   12.840565,   25.144455,   731.071289,   184.374878,   131.243073,   0.438013,   696.665222,   656.438049
-0.056122,   0.161654,   0.162974,   0.000000,   766.167175,   0.535738,   12.840565,   24.451864,   736.046021,   186.989548,   132.081467,   0.438900,   701.022461,   659.776245
-0.057514,   0.167080,   0.168601,   0.000000,   771.386108,   0.535738,   12.840565,   23.759274,   741.026978,   189.156540,   132.951065,   0.439479,   705.520386,   663.500061
-0.059043,   0.172853,   0.174572,   0.000000,   776.606873,   0.535738,   12.840565,   23.066683,   746.002319,   190.869598,   133.888916,   0.439741,   710.169128,   667.638123
-0.060736,   0.178993,   0.180906,   0.000000,   781.793152,   0.535738,   12.840565,   22.374092,   750.933655,   192.020050,   134.907761,   0.439625,   714.967834,   672.253601
-0.062603,   0.185517,   0.187620,   0.000000,   786.966492,   0.535739,   12.840565,   21.681501,   755.809448,   192.676071,   136.074722,   0.439158,   719.926758,   677.336670
-0.064675,   0.192445,   0.194732,   0.000000,   792.076660,   0.535738,   12.840565,   20.988911,   760.573730,   192.698761,   137.412354,   0.438259,   725.044861,   682.960022
-0.067044,   0.199833,   0.202280,   0.000000,   797.106995,   0.535738,   12.840565,   20.296320,   765.213684,   192.010544,   138.919098,   0.436889,   730.333130,   689.162231
-0.069718,   0.207624,   0.210196,   0.000000,   801.933655,   0.535737,   12.840565,   19.603729,   769.678528,   190.438034,   140.441757,   0.435008,   735.708740,   695.887756
-0.072646,   0.215782,   0.218480,   0.000000,   806.646667,   0.535738,   12.840565,   18.911140,   773.808594,   188.309067,   142.495636,   0.432660,   741.242126,   703.140137
-0.075909,   0.224319,   0.227118,   0.000000,   811.135010,   0.535738,   12.840565,   18.218550,   777.600525,   185.375015,   144.860443,   0.429776,   746.881775,   710.900330
-0.079525,   0.233195,   0.236071,   0.000000,   815.359070,   0.535738,   12.840565,   17.525959,   780.988220,   181.651047,   147.584137,   0.426358,   752.605896,   719.102722
-0.083509,   0.242354,   0.245279,   0.000000,   819.245972,   0.535738,   12.840565,   16.833368,   783.896057,   177.080475,   150.666824,   0.422382,   758.379395,   727.682434
-0.087871,   0.251736,   0.254684,   0.000000,   822.733398,   0.535738,   12.840565,   16.140778,   786.248779,   171.638168,   154.126480,   0.417831,   764.173706,   736.560730
-0.092620,   0.261283,   0.264227,   0.000000,   825.763733,   0.535738,   12.840565,   15.448186,   787.974670,   165.303818,   157.981537,   0.412693,   769.966675,   745.654175
-0.097763,   0.270935,   0.273854,   0.000000,   828.291565,   0.535738,   12.840565,   14.755594,   789.015015,   158.082916,   162.245102,   0.406964,   775.741882,   754.865967
-0.103298,   0.280635,   0.283513,   0.000000,   830.274536,   0.535738,   12.840565,   14.063004,   789.300903,   149.986359,   166.954666,   0.400639,   781.491516,   764.104675
-0.109234,   0.290331,   0.293159,   0.000000,   831.691650,   0.535738,   12.840565,   13.370413,   788.837891,   141.061264,   172.035156,   0.393760,   787.195862,   773.233337
-0.115581,   0.299975,   0.302755,   0.000000,   832.530151,   0.535738,   12.840565,   12.677823,   787.605469,   131.368118,   177.480881,   0.386358,   792.850647,   782.143188
-0.122336,   0.309507,   0.312254,   0.000000,   832.794495,   0.535738,   12.840565,   11.985232,   785.648315,   121.004150,   183.188995,   0.378514,   798.431702,   790.691284
-0.129491,   0.318866,   0.321610,   0.000000,   832.502686,   0.535738,   12.840565,   11.292642,   783.031921,   110.083885,   189.046631,   0.370321,   803.911804,   798.746460
-0.137022,   0.328002,   0.330790,   0.000000,   831.703369,   0.535738,   12.840565,   10.600051,   779.883911,   98.755478,   194.886993,   0.361912,   809.256775,   806.185913
-0.144915,   0.336893,   0.339789,   0.000000,   830.503113,   0.535738,   12.840565,   9.907460,   776.432434,   87.234047,   200.472153,   0.353486,   814.427979,   812.906799
-0.153165,   0.345566,   0.348651,   0.000000,   829.089172,   0.535738,   12.840565,   9.214869,   772.999329,   75.832909,   205.548126,   0.345308,   819.396057,   818.860657
-0.000983,   0.002163,   0.000494,   -47.706230,   337.048492,   0.535148,   13.813208,   49.127861,   336.203674,   -46.861408,   -18.009310,   0.265506,   363.258698,   356.108673
-0.005511,   0.010952,   0.008993,   -41.998116,   408.885071,   0.535147,   13.813208,   48.444141,   408.782562,   -41.895603,   -6.797862,   0.283472,   431.420044,   426.784515
-0.010456,   0.020582,   0.018432,   -33.232731,   457.848846,   0.535148,   13.813208,   47.760422,   457.828949,   -33.212826,   3.126328,   0.297765,   475.337280,   472.712952
-0.014880,   0.029457,   0.027181,   -24.799358,   492.006805,   0.535148,   13.813208,   47.076702,   491.638214,   -24.430756,   13.797107,   0.308471,   504.863525,   503.490387
-0.018714,   0.037638,   0.035273,   -12.919333,   520.298584,   0.535148,   13.813208,   46.392986,   519.306091,   -11.926818,   22.983515,   0.320998,   526.877136,   526.520569
-0.022208,   0.045161,   0.042736,   -2.140527,   543.230286,   0.535148,   13.813208,   45.709267,   541.508484,   -0.418736,   30.594938,   0.331365,   544.303711,   544.294312
-0.025140,   0.052114,   0.049662,   0.000000,   562.655090,   0.535148,   13.813208,   45.025547,   559.911316,   10.619922,   38.918598,   0.340356,   558.758667,   558.633789
-0.027872,   0.058385,   0.055926,   0.000000,   578.180420,   0.535147,   13.813208,   44.341827,   574.305725,   19.012192,   46.546749,   0.346506,   570.762207,   570.310242
-0.030218,   0.064320,   0.061878,   0.000000,   592.325439,   0.535148,   13.813208,   43.658108,   587.174744,   27.729719,   53.926357,   0.352564,   581.364868,   580.377136
-0.032434,   0.069841,   0.067430,   0.000000,   604.781738,   0.535148,   13.813208,   42.974388,   598.370056,   35.780643,   60.400906,   0.357886,   590.645203,   588.999023
-0.034343,   0.075047,   0.072688,   0.000000,   616.321594,   0.535150,   13.813208,   42.290668,   608.598083,   44.076218,   66.481079,   0.363218,   598.973145,   596.483582
-0.036108,   0.079908,   0.077614,   0.000000,   626.750977,   0.535148,   13.813208,   41.606945,   617.690857,   51.975357,   72.163246,   0.368090,   606.433289,   603.002747
-0.037629,   0.084498,   0.082291,   0.000000,   636.507996,   0.535147,   13.813208,   40.923229,   626.021057,   59.986282,   77.755692,   0.372876,   613.258423,   608.739563
-0.039100,   0.088807,   0.086689,   0.000000,   645.130798,   0.535148,   13.813208,   40.239510,   633.300354,   66.876648,   82.710426,   0.376777,   619.444824,   613.905945
-0.040496,   0.093020,   0.091005,   0.000000,   653.373840,   0.535148,   13.813208,   39.555790,   640.170227,   73.701645,   87.485863,   0.380535,   625.323608,   618.688171
-0.041784,   0.097147,   0.095251,   0.000000,   661.286438,   0.535148,   13.813208,   38.872070,   646.700928,   80.471550,   92.040649,   0.384181,   630.928833,   623.118713
-0.043042,   0.101052,   0.099272,   0.000000,   668.453308,   0.535148,   13.813208,   38.188351,   652.563354,   86.531265,   96.159775,   0.387317,   636.081421,   627.165222
-0.044189,   0.104856,   0.103208,   0.000000,   675.415527,   0.535147,   13.813208,   37.504631,   658.175903,   92.743233,   100.225044,   0.390489,   641.007507,   630.886841
-0.045287,   0.108574,   0.107060,   0.000000,   682.041504,   0.535148,   13.813208,   36.820915,   663.506104,   98.713074,   103.981834,   0.393487,   645.696960,   634.352600
-0.046359,   0.112223,   0.110849,   0.000000,   688.310913,   0.535148,   13.813208,   36.137192,   668.562988,   104.285957,   107.393112,   0.396225,   650.177002,   637.636353
-0.047401,   0.115825,   0.114597,   0.000000,   694.391968,   0.535148,   13.813208,   35.453476,   673.465210,   109.796379,   110.605965,   0.398912,   654.497986,   640.712830
-0.048413,   0.119389,   0.118311,   0.000000,   700.250061,   0.535148,   13.813208,   34.769756,   678.225037,   115.107468,   113.524422,   0.401488,   658.660400,   643.613159
-0.049413,   0.122936,   0.122010,   0.000000,   705.921509,   0.535148,   13.813208,   34.086037,   682.862183,   120.238617,   116.212936,   0.403955,   662.697571,   646.375000
-0.050409,   0.126483,   0.125714,   0.000000,   711.434692,   0.535147,   13.813208,   33.402317,   687.428345,   125.194954,   118.631668,   0.406337,   666.625366,   649.009277
-0.051398,   0.130040,   0.129430,   0.000000,   716.805847,   0.535148,   13.813208,   32.718597,   691.949402,   129.984451,   120.773735,   0.408647,   670.452209,   651.521057
-0.052384,   0.133617,   0.133167,   0.000000,   722.058716,   0.535148,   13.813208,   32.034878,   696.452698,   134.635971,   122.644081,   0.410908,   674.188660,   653.911377
-0.053373,   0.137228,   0.136941,   0.000000,   727.206299,   0.535148,   13.813208,   31.351158,   700.954224,   139.137650,   124.249771,   0.413116,   677.850281,   656.201172
-0.054370,   0.140891,   0.140769,   0.000000,   732.263977,   0.535147,   13.813208,   30.667439,   705.477539,   143.483292,   125.583969,   0.415271,   681.451233,   658.405701
-0.055377,   0.144620,   0.144665,   0.000000,   737.250427,   0.535149,   13.813208,   29.983719,   710.041565,   147.685211,   126.654640,   0.417382,   685.004700,   660.535095
-0.056397,   0.148430,   0.148644,   0.000000,   742.169067,   0.535147,   13.813208,   29.299999,   714.644592,   151.736023,   127.480782,   0.419442,   688.518250,   662.603699
-0.057436,   0.152342,   0.152726,   0.000000,   747.032654,   0.535148,   13.813208,   28.616280,   719.301880,   155.592377,   128.066772,   0.421421,   692.018494,   664.658630
-0.058500,   0.156376,   0.156931,   0.000000,   751.848755,   0.535148,   13.813208,   27.932560,   724.011108,   159.243057,   128.439606,   0.423307,   695.519165,   666.727295
-0.059595,   0.160557,   0.161284,   0.000000,   756.626038,   0.535147,   13.813208,   27.248842,   728.771057,   162.666107,   128.626328,   0.425078,   699.038879,   668.847412
-0.060731,   0.164907,   0.165807,   0.000000,   761.369934,   0.535148,   13.813208,   26.565123,   733.578430,   165.832886,   128.650208,   0.426710,   702.594543,   671.059143
-0.061915,   0.169450,   0.170523,   0.000000,   766.087646,   0.535148,   13.813208,   25.881403,   738.429199,   168.721176,   128.538849,   0.428182,   706.202942,   673.401917
-0.063158,   0.174212,   0.175457,   0.000000,   770.792603,   0.535147,   13.813208,   25.197683,   743.323730,   171.328415,   128.322281,   0.429486,   709.880920,   675.907104
-0.064475,   0.179218,   0.180632,   0.000000,   775.469177,   0.535148,   13.813208,   24.513964,   748.246216,   173.574203,   128.005264,   0.430573,   713.638672,   678.631592
-0.065882,   0.184494,   0.186073,   0.000000,   780.134766,   0.535147,   13.813208,   23.830246,   753.193726,   175.476746,   127.632751,   0.431443,   717.492371,   681.599915
-0.067384,   0.190061,   0.191802,   0.000000,   784.808105,   0.535148,   13.813208,   23.146526,   758.173889,   177.065521,   127.227081,   0.432110,   721.452393,   684.819397
-0.069028,   0.195944,   0.197836,   0.000000,   789.443726,   0.535148,   13.813208,   22.462807,   763.143188,   178.198090,   126.791504,   0.432490,   725.520264,   688.367004
-0.070794,   0.202174,   0.204215,   0.000000,   794.093384,   0.535148,   13.813208,   21.779087,   768.119568,   178.975281,   126.400040,   0.432627,   729.723450,   692.240967
-0.072787,   0.208791,   0.210959,   0.000000,   798.700012,   0.535148,   13.813208,   21.095367,   773.057312,   179.220505,   126.036240,   0.432425,   734.060791,   696.525024
-0.075015,   0.215797,   0.218066,   0.000000,   803.258545,   0.535148,   13.813208,   20.411648,   777.931519,   178.959732,   125.744308,   0.431892,   738.525879,   701.207336
-0.077448,   0.223143,   0.225497,   0.000000,   807.692078,   0.535147,   13.813208,   19.727928,   782.672607,   178.078186,   125.509361,   0.430976,   743.080811,   706.296021
-0.080125,   0.230847,   0.233271,   0.000000,   812.049988,   0.535148,   13.813208,   19.044209,   787.200623,   176.722290,   125.648270,   0.429687,   747.771423,   711.820068
-0.083114,   0.238921,   0.241386,   0.000000,   816.245789,   0.535147,   13.813208,   18.360491,   791.477661,   174.676147,   126.057411,   0.427933,   752.574097,   717.820007
-0.086430,   0.247340,   0.249819,   0.000000,   820.257019,   0.535148,   13.813208,   17.676771,   795.440308,   171.960129,   126.840775,   0.425709,   757.480896,   724.271851
-0.090101,   0.256050,   0.258513,   0.000000,   824.003296,   0.535148,   13.813208,   16.993052,   798.999878,   168.477310,   128.024994,   0.422964,   762.458679,   731.156799
-0.094146,   0.264990,   0.267404,   0.000000,   827.418213,   0.535147,   13.813208,   16.309332,   802.073608,   164.179840,   129.651489,   0.419666,   767.477295,   738.427856
-0.098573,   0.274082,   0.276413,   0.000000,   830.430176,   0.535149,   13.813208,   15.625613,   804.576172,   159.023804,   131.751785,   0.415791,   772.502563,   746.019775
-0.103384,   0.283248,   0.285466,   0.000000,   832.971985,   0.535148,   13.813208,   14.941894,   806.423645,   152.969543,   134.361267,   0.411311,   777.508484,   753.863281
-0.108590,   0.292401,   0.294480,   0.000000,   834.943054,   0.535148,   13.813208,   14.258174,   807.459961,   145.902740,   137.611633,   0.406127,   782.482910,   761.931091
-0.114172,   0.301479,   0.303396,   0.000000,   836.312561,   0.535148,   13.813208,   13.574455,   807.686523,   137.861221,   141.399826,   0.400283,   787.398438,   770.074585
-0.120157,   0.310446,   0.312189,   0.000000,   837.056213,   0.535148,   13.813208,   12.890736,   807.038147,   128.861435,   145.803467,   0.393762,   792.272522,   778.219299
-0.126550,   0.319252,   0.320824,   0.000000,   837.122559,   0.535148,   13.813208,   12.207016,   805.450073,   118.871704,   150.826981,   0.386531,   797.108154,   786.270142
-0.133354,   0.327838,   0.329258,   0.000000,   836.531128,   0.535148,   13.813208,   11.523296,   802.944580,   108.046631,   156.420258,   0.378681,   801.898071,   794.064636
-0.140570,   0.336126,   0.337431,   0.000000,   835.206848,   0.535148,   13.813208,   10.839578,   799.457947,   96.321579,   162.524811,   0.370175,   806.627991,   801.487183
-0.148175,   0.344050,   0.345297,   0.000000,   833.136475,   0.535148,   13.813208,   10.155858,   795.049866,   83.756027,   168.941895,   0.361084,   811.266418,   808.366699
-0.156143,   0.351559,   0.352830,   0.000000,   830.402466,   0.535148,   13.813208,   9.472138,   789.851807,   70.598900,   175.529251,   0.351580,   815.793457,   814.547058
-0.004974,   0.010689,   0.008679,   -5.812791,   426.800293,   0.534530,   14.796378,   48.912712,   422.610107,   -1.622607,   -42.369457,   0.326547,   429.736176,   429.647736
-0.009403,   0.019350,   0.017176,   -9.562869,   465.083893,   0.534527,   14.796378,   48.236412,   463.986908,   -8.465871,   -22.792179,   0.323107,   469.938293,   469.719299
-0.014278,   0.028628,   0.026328,   -13.613501,   494.823547,   0.534530,   14.796378,   47.560112,   494.805115,   -13.595061,   3.061866,   0.319676,   501.768829,   501.353058
-0.018823,   0.037910,   0.035523,   -10.308870,   522.106812,   0.534529,   14.796378,   46.883808,   521.348267,   -9.550310,   20.082186,   0.323511,   527.336853,   527.110107
-0.023105,   0.046796,   0.044355,   -5.790262,   545.053528,   0.534529,   14.796378,   46.207512,   543.177856,   -3.914565,   32.088905,   0.328036,   547.971619,   547.902710
-0.026763,   0.055008,   0.052543,   0.000000,   565.433105,   0.534530,   14.796378,   45.531208,   562.378113,   4.730076,   41.387920,   0.334816,   564.597473,   564.591858
-0.030092,   0.062546,   0.060083,   0.000000,   583.039795,   0.534529,   14.796378,   44.854908,   578.833801,   13.740873,   48.933327,   0.341543,   578.331299,   578.154419
-0.032966,   0.069654,   0.067216,   0.000000,   599.028748,   0.534527,   14.796378,   44.178608,   593.579773,   23.420464,   56.004173,   0.348441,   590.248230,   589.632141
-0.035662,   0.076163,   0.073766,   0.000000,   612.478821,   0.534530,   14.796378,   43.502308,   605.790771,   31.474436,   62.336098,   0.353759,   600.469421,   599.316772
-0.037988,   0.082286,   0.079953,   0.000000,   624.784302,   0.534529,   14.796378,   42.826008,   616.726624,   39.659927,   68.663879,   0.358918,   609.597778,   607.750671
-0.040155,   0.087949,   0.085691,   0.000000,   635.538574,   0.534529,   14.796378,   42.149708,   626.157471,   46.867760,   74.312721,   0.363219,   617.649048,   615.081787
-0.041996,   0.093295,   0.091134,   0.000000,   645.682495,   0.534530,   14.796378,   41.473408,   634.906921,   54.497150,   79.814583,   0.367700,   624.969788,   621.515076
-0.043816,   0.098388,   0.096328,   0.000000,   654.914124,   0.534527,   14.796378,   40.797108,   642.803467,   61.480591,   84.775505,   0.371647,   631.677795,   627.315125
-0.045460,   0.103321,   0.101380,   0.000000,   663.694885,   0.534530,   14.796378,   40.120808,   650.246948,   68.460876,   89.468773,   0.375518,   637.969849,   632.600342
-0.047032,   0.107935,   0.106111,   0.000000,   671.557800,   0.534529,   14.796378,   39.444504,   656.855835,   74.676254,   93.676720,   0.378834,   643.669617,   637.337952
-0.048447,   0.112374,   0.110684,   0.000000,   679.102417,   0.534529,   14.796378,   38.768208,   663.094604,   81.036224,   97.845367,   0.382172,   649.036011,   641.645386
-0.049780,   0.116646,   0.115093,   0.000000,   686.086792,   0.534530,   14.796378,   38.091904,   668.857422,   86.861664,   101.608398,   0.385145,   654.056519,   645.638306
-0.051061,   0.120800,   0.119393,   0.000000,   692.745178,   0.534527,   14.796378,   37.415604,   674.302246,   92.537842,   105.212112,   0.387981,   658.830078,   649.357056
-0.052292,   0.124854,   0.123596,   0.000000,   699.060303,   0.534529,   14.796378,   36.739307,   679.469971,   97.929237,   108.518974,   0.390632,   663.369263,   652.840759
-0.053480,   0.128825,   0.127719,   0.000000,   705.060730,   0.534530,   14.796378,   36.063004,   684.391785,   103.024406,   111.550293,   0.393097,   667.703125,   656.130615
-0.054646,   0.132740,   0.131790,   0.000000,   710.803894,   0.534529,   14.796378,   35.386703,   689.121094,   107.865822,   114.338898,   0.395407,   671.870850,   659.263000
-0.055793,   0.136616,   0.135824,   0.000000,   716.326294,   0.534530,   14.796378,   34.710403,   693.710876,   112.485092,   116.859406,   0.397599,   675.887512,   662.245239
-0.056925,   0.140460,   0.139827,   0.000000,   721.633850,   0.534529,   14.796378,   34.034103,   698.171631,   116.854324,   119.119507,   0.399660,   679.766541,   665.103027
-0.058051,   0.144288,   0.143815,   0.000000,   726.749146,   0.534527,   14.796378,   33.357803,   702.534790,   120.979568,   121.112823,   0.401603,   683.523071,   667.852112
-0.059176,   0.148110,   0.147797,   0.000000,   731.694702,   0.534530,   14.796378,   32.681503,   706.829163,   124.879623,   122.836418,   0.403447,   687.168213,   670.499817
-0.060299,   0.151933,   0.151780,   0.000000,   736.480652,   0.534529,   14.796378,   32.005203,   711.067627,   128.575699,   124.292847,   0.405213,   690.701843,   673.041077
-0.061422,   0.155762,   0.155768,   0.000000,   741.125671,   0.534530,   14.796378,   31.328901,   715.280212,   132.057114,   125.465683,   0.406900,   694.141113,   675.496094
-0.062550,   0.159606,   0.159770,   0.000000,   745.639954,   0.534528,   14.796378,   30.652601,   719.478088,   135.340073,   126.358978,   0.408522,   697.489197,   677.864136
-0.063683,   0.163473,   0.163795,   0.000000,   750.040161,   0.534530,   14.796378,   29.976301,   723.681396,   138.443893,   126.968170,   0.410095,   700.753113,   680.146118
-0.064820,   0.167370,   0.167847,   0.000000,   754.343750,   0.534529,   14.796378,   29.300001,   727.904053,   141.397125,   127.303261,   0.411636,   703.940552,   682.341614
-0.065963,   0.171304,   0.171933,   0.000000,   758.539368,   0.534530,   14.796378,   28.623699,   732.146301,   144.151672,   127.340324,   0.413122,   707.053406,   684.467651
-0.067115,   0.175289,   0.176067,   0.000000,   762.653381,   0.534529,   14.796378,   27.947399,   736.419922,   146.747940,   127.111481,   0.414570,   710.107849,   686.532532
-0.068278,   0.179337,   0.180260,   0.000000,   766.690491,   0.534529,   14.796378,   27.271099,   740.723633,   149.171555,   126.629448,   0.415966,   713.115540,   688.557251
-0.069454,   0.183462,   0.184527,   0.000000,   770.655518,   0.534530,   14.796378,   26.594799,   745.051575,   151.409439,   125.917183,   0.417295,   716.089539,   690.567017
-0.070648,   0.187676,   0.188879,   0.000000,   774.550476,   0.534530,   14.796378,   25.918497,   749.393555,   153.444138,   125.000549,   0.418537,   719.041870,   692.588928
-0.071853,   0.191994,   0.193330,   0.000000,   778.394775,   0.534528,   14.796378,   25.242197,   753.754822,   155.303391,   123.907051,   0.419703,   721.985901,   694.633545
-0.073099,   0.196433,   0.197892,   0.000000,   782.153809,   0.534530,   14.796378,   24.565897,   758.101685,   156.869019,   122.635315,   0.420718,   724.928711,   696.761719
-0.074383,   0.201020,   0.202595,   0.000000,   785.865295,   0.534529,   14.796378,   23.889597,   762.444641,   158.193817,   121.245598,   0.421597,   727.897400,   698.994507
-0.075693,   0.205771,   0.207458,   0.000000,   789.545715,   0.534530,   14.796378,   23.213297,   766.786377,   159.296890,   119.766594,   0.422345,   730.905090,   701.346313
-0.077095,   0.210697,   0.212476,   0.000000,   793.148987,   0.534529,   14.796378,   22.536997,   771.079102,   160.062927,   118.203857,   0.422892,   733.947144,   703.867859
-0.078591,   0.215844,   0.217702,   0.000000,   796.718994,   0.534529,   14.796378,   21.860695,   775.351196,   160.526611,   116.593430,   0.423249,   737.058899,   706.590393
-0.080229,   0.221227,   0.223137,   0.000000,   800.216858,   0.534530,   14.796378,   21.184395,   779.565918,   160.590332,   114.929977,   0.423359,   740.235229,   709.553589
-0.081968,   0.226834,   0.228784,   0.000000,   803.673828,   0.534530,   14.796378,   20.508095,   783.717529,   160.352341,   113.306351,   0.423263,   743.485107,   712.739990
-0.083849,   0.232670,   0.234639,   0.000000,   807.052856,   0.534528,   14.796378,   19.831795,   787.770630,   159.725876,   111.722458,   0.422913,   746.802002,   716.180725
-0.085910,   0.238759,   0.240724,   0.000000,   810.376038,   0.534530,   14.796378,   19.155495,   791.691040,   158.754791,   110.342812,   0.422300,   750.213013,   719.906799
-0.088216,   0.245122,   0.247051,   0.000000,   813.588135,   0.534529,   14.796378,   18.479193,   795.438904,   157.277649,   109.139954,   0.421341,   753.716858,   723.976440
-0.090760,   0.251767,   0.253641,   0.000000,   816.698059,   0.534530,   14.796378,   17.802893,   798.979065,   155.312149,   108.254852,   0.420022,   757.334534,   728.413086
-0.093598,   0.258674,   0.260462,   0.000000,   819.640198,   0.534529,   14.796378,   17.126593,   802.231812,   152.748871,   107.747368,   0.418273,   761.049683,   733.238159
-0.096763,   0.265817,   0.267486,   0.000000,   822.360413,   0.534529,   14.796378,   16.450293,   805.122192,   149.506409,   107.697701,   0.416040,   764.852539,   738.461426
-0.100279,   0.273152,   0.274671,   0.000000,   824.791992,   0.534530,   14.796378,   15.773993,   807.564575,   145.498276,   108.177986,   0.413266,   768.725220,   744.074829
-0.104165,   0.280607,   0.281942,   0.000000,   826.847046,   0.534529,   14.796378,   15.097692,   809.451965,   140.622635,   109.256279,   0.409883,   772.638794,   750.051331
-0.108488,   0.288079,   0.289197,   0.000000,   828.402405,   0.534529,   14.796378,   14.421391,   810.621765,   134.730316,   111.058319,   0.405786,   776.560669,   756.367004
-0.113169,   0.295484,   0.296358,   0.000000,   829.408936,   0.534530,   14.796378,   13.745091,   811.077026,   127.834366,   113.407326,   0.401018,   780.440735,   762.870178
-0.118226,   0.302787,   0.303398,   0.000000,   829.806458,   0.534529,   14.796378,   13.068790,   810.708069,   119.858437,   116.442596,   0.395500,   784.295898,   769.532104
-0.123706,   0.309941,   0.310279,   0.000000,   829.451111,   0.534529,   14.796378,   12.392490,   809.321350,   110.547554,   120.296928,   0.389045,   788.141724,   776.344543
-0.129568,   0.316926,   0.317002,   0.000000,   828.443054,   0.534529,   14.796378,   11.716190,   807.032349,   100.227409,   124.866402,   0.381852,   791.981567,   783.085205
-0.135902,   0.323723,   0.323562,   0.000000,   826.684143,   0.534530,   14.796378,   11.039889,   803.716187,   88.738297,   130.188675,   0.373800,   795.839844,   789.690613
-0.142724,   0.330274,   0.329923,   0.000000,   824.014526,   0.534529,   14.796378,   10.363589,   799.229065,   75.833557,   136.176346,   0.364740,   799.713379,   796.035278
-0.149983,   0.336484,   0.336021,   0.000000,   820.503235,   0.534529,   14.796378,   9.687288,   793.597107,   61.858086,   142.871277,   0.354844,   803.597534,   801.884644
-0.012870,   0.027781,   0.025460,   -9.586218,   495.365143,   0.533953,   15.788191,   48.740093,   491.752014,   -5.973083,   -42.560581,   0.323706,   500.227142,   500.020416
-0.016216,   0.034627,   0.032193,   -0.001862,   518.498474,   0.533950,   15.788191,   48.069744,   517.485718,   1.010924,   -22.893322,   0.333332,   518.499390,   518.499451
-0.019932,   0.042072,   0.039571,   0.000000,   539.123047,   0.533951,   15.788191,   47.399399,   539.120483,   5.629789,   -1.164915,   0.338566,   536.331543,   536.265076
-0.024011,   0.050070,   0.047543,   0.000000,   556.933533,   0.533950,   15.788191,   46.729050,   556.426025,   6.899326,   16.707575,   0.339088,   553.765259,   553.682190
-0.027905,   0.058308,   0.055783,   0.000000,   574.326599,   0.533950,   15.788191,   46.058701,   572.480835,   10.700138,   32.254009,   0.341071,   569.950989,   569.796204
-0.031615,   0.066473,   0.063977,   0.000000,   590.393799,   0.533951,   15.788191,   45.388355,   586.860962,   15.430273,   45.069427,   0.343458,   584.535889,   584.263367
-0.035195,   0.074393,   0.071934,   0.000000,   605.045105,   0.533950,   15.788191,   44.718006,   599.973816,   20.630983,   54.440220,   0.346271,   597.417236,   596.961060
-0.038367,   0.081993,   0.079599,   0.000000,   619.414429,   0.533950,   15.788191,   44.047657,   612.791870,   28.349270,   62.564762,   0.351017,   608.841858,   607.968750
-0.041306,   0.089153,   0.086833,   0.000000,   632.114319,   0.533951,   15.788191,   43.377312,   624.188110,   35.342049,   68.775970,   0.355238,   618.862000,   617.493469
-0.043815,   0.095876,   0.093659,   0.000000,   644.223511,   0.533950,   15.788191,   42.706963,   634.852234,   43.588615,   75.024826,   0.360213,   627.814575,   625.711426
-0.046205,   0.102098,   0.099985,   0.000000,   654.665405,   0.533950,   15.788191,   42.036613,   643.965332,   50.473263,   80.404533,   0.364126,   635.712585,   632.904175
-0.048393,   0.108068,   0.106075,   0.000000,   664.452820,   0.533951,   15.788191,   41.366264,   652.416626,   57.345150,   85.482635,   0.367945,   642.996765,   639.390320
-0.050447,   0.113751,   0.111880,   0.000000,   673.413086,   0.533950,   15.788191,   40.695919,   660.125793,   63.735985,   90.005302,   0.371406,   649.659485,   645.230469
-0.052283,   0.119145,   0.117415,   0.000000,   681.901367,   0.533953,   15.788191,   40.025570,   667.323242,   70.321480,   94.422966,   0.374929,   655.808899,   650.446838
-0.053983,   0.124259,   0.122674,   0.000000,   689.644531,   0.533950,   15.788191,   39.355221,   673.880859,   76.311897,   98.327858,   0.378053,   661.452087,   655.173767
-0.055579,   0.129147,   0.127714,   0.000000,   696.901978,   0.533950,   15.788191,   38.684872,   679.972717,   82.102180,   102.020210,   0.381013,   666.708923,   659.485168
-0.057075,   0.133843,   0.132567,   0.000000,   703.681580,   0.533951,   15.788191,   38.014526,   685.660461,   87.547287,   105.372795,   0.383751,   671.622925,   663.454102
-0.058501,   0.138379,   0.137262,   0.000000,   710.034119,   0.533950,   15.788191,   37.344177,   690.976257,   92.641998,   108.472069,   0.386256,   676.251343,   667.155273
-0.059872,   0.142784,   0.141829,   0.000000,   716.012817,   0.533950,   15.788191,   36.673828,   695.997986,   97.391510,   111.272675,   0.388556,   680.631226,   670.628967
-0.061196,   0.147080,   0.146286,   0.000000,   721.662781,   0.533951,   15.788191,   36.003483,   700.768677,   101.825851,   113.802170,   0.390675,   684.793213,   673.907654
-0.062486,   0.151284,   0.150654,   0.000000,   727.006714,   0.533950,   15.788191,   35.333134,   705.316223,   105.940987,   116.065620,   0.392619,   688.757080,   677.018494
-0.063753,   0.155417,   0.154949,   0.000000,   732.087524,   0.533951,   15.788191,   34.662785,   709.690918,   109.748795,   118.060532,   0.394404,   692.555542,   679.995911
-0.065000,   0.159486,   0.159180,   0.000000,   736.921753,   0.533950,   15.788191,   33.992435,   713.912781,   113.261169,   119.790627,   0.396044,   696.197083,   682.849731
-0.066232,   0.163501,   0.163355,   0.000000,   741.524780,   0.533950,   15.788191,   33.322090,   718.000732,   116.481392,   121.258217,   0.397547,   699.692749,   685.593933
-0.067454,   0.167468,   0.167479,   0.000000,   745.918518,   0.533951,   15.788191,   32.651741,   721.978088,   119.433769,   122.467621,   0.398933,   703.052734,   688.235229
-0.068666,   0.171391,   0.171555,   0.000000,   750.120483,   0.533951,   15.788191,   31.981392,   725.861267,   122.143829,   123.426933,   0.400219,   706.283813,   690.776062
-0.069868,   0.175267,   0.175582,   0.000000,   754.126709,   0.533951,   15.788191,   31.311045,   729.658325,   124.590652,   124.111755,   0.401404,   709.384766,   693.220886
-0.071062,   0.179099,   0.179559,   0.000000,   757.960083,   0.533950,   15.788191,   30.640696,   733.384827,   126.818344,   124.541107,   0.402512,   712.362976,   695.567810
-0.072247,   0.182886,   0.183486,   0.000000,   761.627686,   0.533951,   15.788191,   29.970348,   737.049622,   128.838348,   124.710541,   0.403553,   715.219788,   697.815491
-0.073410,   0.186621,   0.187357,   0.000000,   765.153931,   0.533951,   15.788191,   29.299999,   740.670532,   130.713196,   124.632507,   0.404566,   717.957642,   699.948486
-0.074567,   0.190298,   0.191160,   0.000000,   768.501709,   0.533951,   15.788191,   28.629652,   744.231750,   132.355728,   124.254776,   0.405510,   720.564636,   701.978394
-0.075705,   0.193925,   0.194907,   0.000000,   771.716553,   0.533950,   15.788191,   27.959303,   747.760376,   133.856339,   123.615059,   0.406430,   723.057861,   703.898804
-0.076820,   0.197495,   0.198589,   0.000000,   774.796997,   0.533951,   15.788191,   27.288956,   751.252808,   135.217941,   122.712570,   0.407328,   725.435669,   705.707886
-0.077911,   0.201009,   0.202205,   0.000000,   777.747070,   0.533951,   15.788191,   26.618608,   754.706421,   136.444855,   121.556709,   0.408203,   727.702698,   707.411926
-0.078974,   0.204468,   0.205759,   0.000000,   780.573425,   0.533951,   15.788191,   25.948259,   758.115845,   137.543625,   120.170219,   0.409051,   729.867493,   709.021851
-0.079988,   0.207879,   0.209257,   0.000000,   783.292419,   0.533951,   15.788191,   25.277912,   761.486206,   138.536255,   118.573608,   0.409879,   731.942078,   710.546936
-0.080999,   0.211243,   0.212690,   0.000000,   785.865173,   0.533951,   15.788191,   24.607563,   764.776001,   139.329636,   116.768539,   0.410627,   733.923523,   712.020386
-0.081983,   0.214573,   0.216079,   0.000000,   788.321045,   0.533951,   15.788191,   23.937216,   767.990173,   139.961884,   114.811623,   0.411302,   735.835571,   713.463318
-0.082957,   0.217899,   0.219450,   0.000000,   790.665222,   0.533951,   15.788191,   23.266867,   771.128357,   140.393784,   112.713135,   0.411876,   737.699463,   714.915771
-0.083920,   0.221240,   0.222824,   0.000000,   792.909729,   0.533950,   15.788191,   22.596519,   774.184143,   140.622803,   110.519020,   0.412335,   739.534485,   716.407898
-0.084918,   0.224586,   0.226174,   0.000000,   795.015991,   0.533951,   15.788191,   21.926172,   777.116089,   140.582321,   108.232552,   0.412637,   741.327759,   717.954407
-0.085926,   0.227954,   0.229527,   0.000000,   796.998108,   0.533951,   15.788191,   21.255823,   779.932007,   140.265762,   105.867264,   0.412776,   743.097778,   719.581055
-0.086939,   0.231375,   0.232920,   0.000000,   798.911377,   0.533951,   15.788191,   20.585474,   782.660583,   139.761520,   103.497353,   0.412786,   744.875916,   721.296570
-0.088001,   0.234868,   0.236362,   0.000000,   800.740662,   0.533950,   15.788191,   19.915127,   785.280212,   139.013809,   101.146301,   0.412629,   746.670471,   723.133911
-0.089144,   0.238457,   0.239876,   0.000000,   802.494568,   0.533951,   15.788191,   19.244780,   787.781128,   138.012604,   98.877800,   0.412288,   748.500671,   725.123169
-0.090407,   0.242144,   0.243458,   0.000000,   804.133789,   0.533951,   15.788191,   18.574430,   790.119934,   136.660126,   96.715431,   0.411701,   750.366089,   727.301453
-0.091822,   0.245959,   0.247143,   0.000000,   805.661865,   0.533951,   15.788191,   17.904083,   792.280701,   134.917969,   94.738228,   0.410832,   752.292908,   729.713745
-0.093446,   0.249957,   0.250983,   0.000000,   807.079956,   0.533951,   15.788191,   17.233734,   794.250793,   132.716095,   93.013603,   0.409628,   754.315979,   732.420532
-0.095329,   0.254158,   0.255001,   0.000000,   808.363159,   0.533951,   15.788191,   16.563387,   795.988403,   129.969543,   91.623901,   0.408027,   756.452393,   735.465576
-0.097518,   0.258575,   0.259208,   0.000000,   809.473999,   0.533951,   15.788191,   15.893039,   797.439087,   126.581947,   90.656143,   0.405960,   758.713562,   738.883423
-0.100059,   0.263209,   0.263606,   0.000000,   810.367981,   0.533950,   15.788191,   15.222691,   798.543701,   122.460228,   90.188797,   0.403363,   761.104980,   742.690369
-0.102999,   0.268104,   0.268241,   0.000000,   811.030334,   0.533950,   15.788191,   14.552342,   799.273804,   117.532692,   90.294548,   0.400183,   763.656372,   746.908081
-0.106342,   0.273194,   0.273048,   0.000000,   811.351440,   0.533951,   15.788191,   13.881994,   799.519165,   111.651436,   90.989235,   0.396334,   766.333252,   751.498413
-0.110087,   0.278305,   0.277856,   0.000000,   811.133606,   0.533950,   15.788191,   13.211646,   799.057983,   104.594986,   92.368362,   0.391670,   769.059204,   756.386780
-0.114397,   0.283336,   0.282561,   0.000000,   810.150330,   0.533951,   15.788191,   12.541299,   797.642944,   95.996178,   94.510414,   0.385954,   771.800171,   761.541443
-0.118997,   0.288301,   0.287211,   0.000000,   808.524292,   0.533951,   15.788191,   11.870951,   795.464172,   86.170273,   97.129044,   0.379412,   774.561340,   766.740967
-0.124057,   0.293252,   0.291866,   0.000000,   806.185791,   0.533951,   15.788191,   11.200602,   792.391113,   74.964127,   100.433960,   0.371900,   777.408081,   771.965942
-0.129757,   0.298200,   0.296547,   0.000000,   802.858154,   0.533950,   15.788191,   10.530254,   788.137817,   61.816502,   104.443245,   0.363053,   780.376709,   777.169556
-0.135942,   0.303068,   0.301222,   0.000000,   798.762268,   0.533951,   15.788191,   9.859906,   782.848328,   47.435081,   109.346214,   0.353247,   783.477417,   782.048889
-0.023884,   0.051553,   0.048955,   -3.830016,   555.586121,   0.533467,   16.786739,   48.610340,   553.363342,   -1.607240,   -35.192551,   0.329893,   557.510986,   557.481384
-0.025813,   0.056433,   0.053757,   0.000000,   567.760498,   0.533467,   16.786739,   47.944466,   567.304504,   4.230102,   -16.030579,   0.336662,   565.882935,   565.854614
-0.028211,   0.061980,   0.059282,   0.000000,   581.037476,   0.533465,   16.786739,   47.278591,   581.018494,   11.440362,   3.286188,   0.343209,   575.411743,   575.156677
-0.031233,   0.067980,   0.065302,   0.000000,   592.895996,   0.533467,   16.786739,   46.612720,   592.317932,   15.556349,   18.268095,   0.346041,   585.550537,   585.119202
-0.034316,   0.074628,   0.072013,   0.000000,   605.873474,   0.533465,   16.786739,   45.946846,   604.117920,   21.489283,   32.029911,   0.349745,   596.251587,   595.516235
-0.037775,   0.081867,   0.079326,   0.000000,   618.455078,   0.533467,   16.786739,   45.280972,   615.206970,   26.343250,   43.854855,   0.352169,   607.237000,   606.247620
-0.041069,   0.089385,   0.086946,   0.000000,   630.746338,   0.533467,   16.786739,   44.615097,   625.799744,   31.312971,   54.453381,   0.354438,   617.985168,   616.717712
-0.044248,   0.096808,   0.094482,   0.000000,   642.426758,   0.533465,   16.786739,   43.949223,   635.688293,   36.670750,   63.889580,   0.356881,   627.995911,   626.387878
-0.047268,   0.103989,   0.101779,   0.000000,   653.319336,   0.533467,   16.786739,   43.283348,   644.932007,   42.133316,   71.597595,   0.359466,   637.116943,   635.101501
-0.050117,   0.111088,   0.109010,   0.000000,   664.001892,   0.533465,   16.786739,   42.617477,   654.049011,   48.356556,   78.277985,   0.362631,   645.657166,   643.079956
-0.052716,   0.118022,   0.116094,   0.000000,   674.315491,   0.533467,   16.786739,   41.951603,   662.916077,   55.041515,   84.020004,   0.366162,   653.588135,   650.297729
-0.055201,   0.124527,   0.122743,   0.000000,   683.586365,   0.533465,   16.786739,   41.285728,   670.893555,   61.133560,   88.885651,   0.369319,   660.699158,   656.686035
-0.057398,   0.130665,   0.129039,   0.000000,   692.184204,   0.533467,   16.786739,   40.619858,   678.264343,   67.124847,   93.277718,   0.372411,   667.174683,   662.376465
-0.059438,   0.136491,   0.135029,   0.000000,   700.174500,   0.533468,   16.786739,   39.953979,   685.068481,   72.923767,   97.340881,   0.375357,   673.130493,   667.509644
-0.061323,   0.142039,   0.140744,   0.000000,   707.580505,   0.533465,   16.786739,   39.288105,   691.388611,   78.393494,   100.934364,   0.378111,   678.621094,   672.162720
-0.063084,   0.147327,   0.146202,   0.000000,   714.441956,   0.533467,   16.786739,   38.622231,   697.243347,   83.498634,   104.169853,   0.380641,   683.707153,   676.418091
-0.064739,   0.152385,   0.151431,   0.000000,   720.824219,   0.533465,   16.786739,   37.956360,   702.708130,   88.277328,   107.047989,   0.382990,   688.430237,   680.316833
-0.066302,   0.157233,   0.156451,   0.000000,   726.758118,   0.533467,   16.786739,   37.290485,   707.812317,   92.670959,   109.605232,   0.385120,   692.843750,   683.935303
-0.067791,   0.161896,   0.161284,   0.000000,   732.284363,   0.533465,   16.786739,   36.624611,   712.598572,   96.693596,   111.857513,   0.387048,   696.978455,   687.309509
-0.069216,   0.166392,   0.165949,   0.000000,   737.440979,   0.533467,   16.786739,   35.958740,   717.103821,   100.358498,   113.826447,   0.388787,   700.864929,   690.475037
-0.070587,   0.170738,   0.170460,   0.000000,   742.261047,   0.533465,   16.786739,   35.292866,   721.360229,   103.682220,   115.528450,   0.390353,   704.527344,   693.459106
-0.071913,   0.174947,   0.174831,   0.000000,   746.772339,   0.533467,   16.786739,   34.626991,   725.397156,   106.676933,   116.970703,   0.391756,   707.986084,   696.283997
-0.073200,   0.179029,   0.179071,   0.000000,   751.004456,   0.533467,   16.786739,   33.961117,   729.240295,   109.374458,   118.171562,   0.393020,   711.257690,   698.963623
-0.074452,   0.182989,   0.183184,   0.000000,   754.966980,   0.533465,   16.786739,   33.295242,   732.904602,   111.768318,   119.123878,   0.394145,   714.351013,   701.511047
-0.075673,   0.186830,   0.187172,   0.000000,   758.682922,   0.533467,   16.786739,   32.629368,   736.405212,   113.890488,   119.852020,   0.395149,   717.277954,   703.934875
-0.076857,   0.190552,   0.191036,   0.000000,   762.175903,   0.533467,   16.786739,   31.963495,   739.759521,   115.786201,   120.373192,   0.396061,   720.045654,   706.233276
-0.078018,   0.194148,   0.194763,   0.000000,   765.421082,   0.533466,   16.786739,   31.297621,   742.960205,   117.392845,   120.645248,   0.396853,   722.646912,   708.414612
-0.079146,   0.197621,   0.198361,   0.000000,   768.456360,   0.533466,   16.786739,   30.631748,   746.029602,   118.782738,   120.706581,   0.397562,   725.096069,   710.478027
-0.080238,   0.200960,   0.201816,   0.000000,   771.282959,   0.533467,   16.786739,   29.965874,   748.966858,   119.967041,   120.560532,   0.398197,   727.390320,   712.419495
-0.081275,   0.204159,   0.205125,   0.000000,   773.920715,   0.533466,   16.786739,   29.299999,   751.783142,   120.991653,   120.225883,   0.398782,   729.534241,   714.232910
-0.082290,   0.207192,   0.208251,   0.000000,   776.326355,   0.533466,   16.786739,   28.634127,   754.450317,   121.793617,   119.660286,   0.399289,   731.503601,   715.909302
-0.083251,   0.210056,   0.211198,   0.000000,   778.529724,   0.533466,   16.786739,   27.968252,   756.989624,   122.431534,   118.879890,   0.399751,   733.308044,   717.443848
-0.084154,   0.212742,   0.213956,   0.000000,   780.535583,   0.533467,   16.786739,   27.302378,   759.403625,   122.923477,   117.883904,   0.400178,   734.945801,   718.829712
-0.084992,   0.215239,   0.216512,   0.000000,   782.347229,   0.533466,   16.786739,   26.636505,   761.692993,   123.287109,   116.672104,   0.400581,   736.414368,   720.060059
-0.085761,   0.217537,   0.218858,   0.000000,   783.972290,   0.533466,   16.786739,   25.970631,   763.856384,   123.549210,   115.260696,   0.400971,   737.714172,   721.129822
-0.086461,   0.219641,   0.220994,   0.000000,   785.405151,   0.533467,   16.786739,   25.304758,   765.892578,   123.681755,   113.630600,   0.401334,   738.848694,   722.050171
-0.087078,   0.221546,   0.222919,   0.000000,   786.659180,   0.533466,   16.786739,   24.638884,   767.803589,   123.716568,   111.804176,   0.401682,   739.823364,   722.820374
-0.087612,   0.223240,   0.224618,   0.000000,   787.724854,   0.533466,   16.786739,   23.973009,   769.566101,   123.647293,   109.812614,   0.402003,   740.636414,   723.445251
-0.088091,   0.224723,   0.226082,   0.000000,   788.565918,   0.533466,   16.786739,   23.307137,   771.148010,   123.384438,   107.638611,   0.402244,   741.285034,   723.950684
-0.088468,   0.226022,   0.227348,   0.000000,   789.244202,   0.533466,   16.786739,   22.641262,   772.583435,   123.027969,   105.354996,   0.402448,   741.802307,   724.346924
-0.088771,   0.227140,   0.228412,   0.000000,   789.713379,   0.533467,   16.786739,   21.975388,   773.832397,   122.455437,   102.940308,   0.402543,   742.187317,   724.672058
-0.088996,   0.228078,   0.229276,   0.000000,   789.985413,   0.533467,   16.786739,   21.309513,   774.890381,   121.696754,   100.438263,   0.402537,   742.446716,   724.928589
-0.089151,   0.228869,   0.229972,   0.000000,   790.078613,   0.533466,   16.786739,   20.643641,   775.760925,   120.743866,   97.894463,   0.402413,   742.607361,   725.151917
-0.089268,   0.229568,   0.230553,   0.000000,   790.018616,   0.533466,   16.786739,   19.977766,   776.463013,   119.578247,   95.332237,   0.402152,   742.704773,   725.386108
-0.089376,   0.230218,   0.231062,   0.000000,   789.828247,   0.533466,   16.786739,   19.311893,   777.018616,   118.189369,   92.754677,   0.401745,   742.766235,   725.661926
-0.089489,   0.230872,   0.231560,   0.000000,   789.541870,   0.533466,   16.786739,   18.646019,   777.453369,   116.575226,   90.195084,   0.401181,   742.830566,   726.021362
-0.089686,   0.231576,   0.232079,   0.000000,   789.149658,   0.533466,   16.786739,   17.980146,   777.767761,   114.654633,   87.618561,   0.400414,   742.916382,   726.503906
-0.089999,   0.232395,   0.232692,   0.000000,   788.689392,   0.533467,   16.786739,   17.314272,   777.984680,   112.417793,   85.083969,   0.399424,   743.072327,   727.163147
-0.090486,   0.233394,   0.233464,   0.000000,   788.174011,   0.533466,   16.786739,   16.648397,   778.107178,   109.799339,   82.638206,   0.398159,   743.342651,   728.062134
-0.091212,   0.234636,   0.234462,   0.000000,   787.600403,   0.533466,   16.786739,   15.982523,   778.117371,   106.699440,   80.355530,   0.396544,   743.772644,   729.273132
-0.092241,   0.236175,   0.235740,   0.000000,   786.948669,   0.533466,   16.786739,   15.316649,   777.983276,   102.997482,   78.306320,   0.394492,   744.400269,   730.859436
-0.093601,   0.238036,   0.237321,   0.000000,   786.184326,   0.533466,   16.786739,   14.650777,   777.674988,   98.587364,   76.491859,   0.391938,   745.239502,   732.841675
-0.095417,   0.240232,   0.239230,   0.000000,   785.210205,   0.533466,   16.786739,   13.984902,   777.040955,   93.227234,   75.186287,   0.388690,   746.325317,   735.302002
-0.097696,   0.242753,   0.241453,   0.000000,   783.944397,   0.533466,   16.786739,   13.319029,   776.017334,   86.772758,   74.340660,   0.384670,   747.646240,   738.205688
-0.100481,   0.245573,   0.243961,   0.000000,   782.308899,   0.533466,   16.786739,   12.653154,   774.506470,   79.134041,   74.070816,   0.379804,   749.194336,   741.496643
-0.103689,   0.248559,   0.246631,   0.000000,   780.001465,   0.533466,   16.786739,   11.987281,   772.258118,   69.823235,   74.156311,   0.373815,   750.888672,   745.082214
-0.107379,   0.251609,   0.249375,   0.000000,   776.879272,   0.533466,   16.786739,   11.321407,   769.098328,   58.725060,   74.752396,   0.366601,   752.701294,   748.807800
-0.111944,   0.254827,   0.252300,   0.000000,   772.774597,   0.533466,   16.786739,   10.655534,   764.904541,   45.434521,   75.658440,   0.357911,   754.693787,   752.586121
-0.116799,   0.258285,   0.255551,   0.000000,   768.019714,   0.533466,   16.786739,   9.989659,   759.947205,   30.689564,   77.149803,   0.348161,   756.964661,   756.203796
-0.037766,   0.082290,   0.079424,   0.000000,   607.142456,   0.533122,   17.790113,   48.523701,   606.477722,   0.815802,   -20.076372,   0.333458,   607.066956,   607.066956
-0.038297,   0.084712,   0.081822,   0.000000,   614.224792,   0.533123,   17.790113,   47.860813,   614.181091,   8.795483,   -5.143866,   0.340482,   609.895996,   609.754639
-0.039322,   0.088064,   0.085204,   0.000000,   622.255371,   0.533122,   17.790113,   47.197926,   622.111023,   16.476843,   9.351974,   0.346540,   614.252075,   613.763184
-0.041014,   0.092441,   0.089658,   0.000000,   630.890625,   0.533121,   17.790113,   46.535042,   630.012634,   23.011005,   23.102161,   0.351020,   620.120422,   619.230774
-0.043330,   0.097549,   0.094865,   0.000000,   639.623718,   0.533122,   17.790113,   45.872154,   637.599854,   28.338917,   35.173088,   0.354102,   626.880554,   625.635986
-0.045812,   0.103194,   0.100645,   0.000000,   648.987183,   0.533123,   17.790113,   45.209270,   645.606934,   34.263237,   45.584122,   0.357388,   634.109924,   632.414490
-0.048539,   0.109211,   0.106807,   0.000000,   658.473511,   0.533122,   17.790113,   44.546383,   653.570312,   40.248196,   55.057045,   0.360501,   641.531677,   639.335510
-0.051419,   0.115786,   0.113544,   0.000000,   667.934570,   0.533121,   17.790113,   43.883495,   661.481812,   45.513714,   63.374683,   0.362961,   649.285950,   646.634521
-0.054258,   0.122682,   0.120624,   0.000000,   677.533386,   0.533123,   17.790113,   43.220608,   669.449768,   51.095066,   71.160950,   0.365526,   657.084229,   653.905701
-0.057115,   0.129470,   0.127580,   0.000000,   686.352966,   0.533121,   17.790113,   42.557724,   676.746277,   55.904682,   77.823540,   0.367567,   664.414856,   660.770996
-0.059743,   0.136187,   0.134481,   0.000000,   695.073547,   0.533122,   17.790113,   41.894836,   683.950745,   61.291779,   83.960770,   0.369996,   671.396301,   667.159546
-0.062245,   0.142726,   0.141202,   0.000000,   703.207397,   0.533121,   17.790113,   41.231953,   690.741943,   66.272346,   89.104919,   0.372231,   677.907410,   673.078003
-0.064568,   0.149030,   0.147694,   0.000000,   710.956055,   0.533123,   17.790113,   40.569065,   697.255310,   71.360519,   93.610558,   0.374596,   683.951477,   678.450928
-0.066730,   0.155067,   0.153919,   0.000000,   718.196045,   0.533121,   17.790113,   39.906178,   703.384033,   76.219940,   97.513794,   0.376868,   689.545898,   683.353333
-0.068746,   0.160826,   0.159866,   0.000000,   724.939453,   0.533122,   17.790113,   39.243294,   709.142578,   80.827843,   100.870911,   0.379041,   694.710510,   687.812683
-0.070622,   0.166304,   0.165529,   0.000000,   731.182678,   0.533123,   17.790113,   38.580406,   714.515137,   85.110748,   103.771141,   0.381059,   699.477051,   691.883301
-0.072371,   0.171504,   0.170912,   0.000000,   736.955627,   0.533120,   17.790113,   37.917519,   719.524841,   89.067986,   106.269501,   0.382924,   703.876465,   695.603943
-0.074003,   0.176433,   0.176020,   0.000000,   742.281372,   0.533123,   17.790113,   37.254635,   724.189758,   92.685921,   108.407700,   0.384627,   707.937866,   699.014160
-0.075529,   0.181104,   0.180865,   0.000000,   747.185913,   0.533121,   17.790113,   36.591747,   728.528320,   95.960861,   110.228355,   0.386165,   711.690063,   702.151367
-0.076961,   0.185527,   0.185457,   0.000000,   751.704834,   0.533123,   17.790113,   35.928864,   732.569153,   98.916763,   111.765602,   0.387553,   715.159668,   705.043701
-0.078307,   0.189715,   0.189806,   0.000000,   755.858337,   0.533120,   17.790113,   35.265976,   736.327637,   101.550194,   113.044701,   0.388787,   718.368958,   707.719788
-0.079574,   0.193675,   0.193921,   0.000000,   759.677002,   0.533123,   17.790113,   34.603092,   739.828430,   103.891037,   114.089470,   0.389887,   721.337036,   710.196960
-0.080767,   0.197416,   0.197808,   0.000000,   763.184631,   0.533123,   17.790113,   33.940201,   743.087402,   105.959198,   114.927834,   0.390861,   724.081848,   712.493591
-0.081897,   0.200941,   0.201471,   0.000000,   766.383667,   0.533120,   17.790113,   33.277317,   746.115723,   107.733330,   115.540024,   0.391704,   726.610046,   714.622375
-0.082962,   0.204260,   0.204917,   0.000000,   769.308716,   0.533123,   17.790113,   32.614429,   748.929749,   109.263824,   115.978645,   0.392438,   728.942078,   716.597839
-0.083956,   0.207370,   0.208149,   0.000000,   771.976196,   0.533122,   17.790113,   31.951544,   751.540222,   110.575310,   116.259918,   0.393075,   731.086121,   718.424683
-0.084905,   0.210259,   0.211143,   0.000000,   774.361389,   0.533121,   17.790113,   31.288658,   753.935120,   111.623367,   116.349770,   0.393599,   733.029968,   720.101013
-0.085790,   0.212931,   0.213909,   0.000000,   776.495728,   0.533122,   17.790113,   30.625772,   756.133118,   112.459518,   116.282043,   0.394033,   734.788818,   721.632446
-0.086611,   0.215380,   0.216441,   0.000000,   778.387634,   0.533122,   17.790113,   29.962887,   758.139954,   113.100677,   116.062492,   0.394388,   736.364929,   723.018127
-0.087377,   0.217618,   0.218750,   0.000000,   780.051697,   0.533122,   17.790113,   29.300001,   759.970215,   113.556244,   115.690147,   0.394670,   737.768921,   724.266724
-0.088067,   0.219627,   0.220820,   0.000000,   781.500916,   0.533122,   17.790113,   28.637114,   761.624634,   113.874496,   115.195168,   0.394903,   738.999084,   725.366516
-0.088678,   0.221364,   0.222602,   0.000000,   782.686218,   0.533122,   17.790113,   27.974228,   763.065491,   113.998154,   114.543159,   0.395060,   740.024902,   726.300171
-0.089203,   0.222820,   0.224088,   0.000000,   783.616638,   0.533123,   17.790113,   27.311340,   764.295715,   113.956902,   113.747238,   0.395158,   740.845886,   727.060547
-0.089637,   0.223983,   0.225266,   0.000000,   784.291260,   0.533122,   17.790113,   26.648455,   765.314941,   113.758080,   112.801796,   0.395200,   741.457947,   727.641296
-0.089968,   0.224842,   0.226126,   0.000000,   784.721558,   0.533121,   17.790113,   25.985569,   766.126587,   113.443153,   111.724609,   0.395210,   741.858887,   728.030273
-0.090217,   0.225377,   0.226639,   0.000000,   784.856995,   0.533122,   17.790113,   25.322683,   766.698364,   112.920715,   110.460045,   0.395142,   742.028015,   728.228088
-0.090328,   0.225594,   0.226821,   0.000000,   784.758484,   0.533121,   17.790113,   24.659798,   767.075562,   112.321487,   109.044174,   0.395068,   741.979675,   728.215210
-0.090317,   0.225486,   0.226665,   0.000000,   784.411072,   0.533122,   17.790113,   23.996910,   767.242920,   111.617928,   107.473846,   0.394970,   741.710205,   727.996338
-0.090194,   0.225036,   0.226144,   0.000000,   783.767761,   0.533121,   17.790113,   23.334024,   767.169067,   110.730232,   105.695580,   0.394811,   741.198669,   727.568604
-0.089936,   0.224256,   0.225276,   0.000000,   782.882568,   0.533122,   17.790113,   22.671139,   766.890015,   109.774139,   103.753204,   0.394649,   740.459412,   726.917908
-0.089546,   0.223168,   0.224083,   0.000000,   781.731750,   0.533123,   17.790113,   22.008251,   766.389893,   108.658577,   101.617851,   0.394431,   739.502502,   726.078918
-0.089011,   0.221802,   0.222599,   0.000000,   780.355957,   0.533122,   17.790113,   21.345366,   765.691833,   107.441460,   99.336296,   0.394181,   738.351990,   725.064087
-0.088379,   0.220176,   0.220833,   0.000000,   778.718994,   0.533122,   17.790113,   20.682480,   764.762207,   106.022621,   96.895172,   0.393836,   737.011475,   723.904724
-0.087645,   0.218334,   0.218832,   0.000000,   776.844543,   0.533122,   17.790113,   20.019594,   763.613098,   104.396538,   94.326401,   0.393381,   735.511658,   722.636658
-0.086829,   0.216324,   0.216644,   0.000000,   774.743591,   0.533121,   17.790113,   19.356709,   762.252808,   102.523468,   91.632622,   0.392787,   733.880920,   721.299194
-0.085949,   0.214213,   0.214340,   0.000000,   772.463257,   0.533122,   17.790113,   18.693821,   760.716064,   100.417915,   88.851921,   0.392049,   732.166077,   719.937500
-0.085061,   0.212064,   0.211976,   0.000000,   769.997803,   0.533121,   17.790113,   18.030935,   759.013977,   97.975784,   85.914940,   0.391107,   730.397583,   718.604004
-0.084201,   0.209948,   0.209628,   0.000000,   767.405701,   0.533123,   17.790113,   17.368050,   757.199341,   95.227280,   82.828102,   0.389970,   728.625122,   717.337830
-0.083421,   0.207948,   0.207381,   0.000000,   764.740906,   0.533122,   17.790113,   16.705162,   755.326965,   92.168510,   79.571144,   0.388632,   726.905212,   716.192200
-0.082789,   0.206158,   0.205331,   0.000000,   762.061218,   0.533122,   17.790113,   16.042276,   753.448486,   88.784340,   76.149452,   0.387070,   725.306213,   715.235596
-0.082379,   0.204676,   0.203580,   0.000000,   759.396606,   0.533122,   17.790113,   15.379390,   751.582642,   84.979729,   72.593910,   0.385208,   723.904968,   714.564087
-0.082259,   0.203579,   0.202208,   0.000000,   756.752625,   0.533122,   17.790113,   14.716504,   749.733032,   80.633987,   68.891693,   0.382960,   722.762512,   714.255249
-0.082539,   0.202964,   0.201314,   0.000000,   754.106689,   0.533122,   17.790113,   14.053617,   747.802551,   75.540947,   65.404617,   0.380131,   721.982483,   714.456055
-0.083309,   0.202938,   0.201008,   0.000000,   751.408569,   0.533122,   17.790113,   13.390732,   745.789673,   69.408272,   61.903873,   0.376553,   721.631531,   715.247192
-0.084498,   0.203491,   0.201296,   0.000000,   748.825195,   0.533122,   17.790113,   12.727845,   743.799377,   62.666862,   58.723988,   0.372467,   721.733032,   716.526978
-0.086416,   0.204529,   0.202066,   0.000000,   745.743958,   0.533122,   17.790113,   12.064960,   741.259216,   54.083015,   55.694912,   0.367080,   722.223267,   718.376587
-0.088889,   0.206019,   0.203300,   0.000000,   742.039734,   0.533122,   17.790113,   11.402073,   738.048401,   43.496643,   52.802654,   0.360277,   723.096924,   720.662903
-0.091885,   0.207786,   0.204829,   0.000000,   737.811584,   0.533122,   17.790113,   10.739187,   734.231873,   31.518652,   50.282478,   0.352436,   724.246399,   723.032410
-0.095425,   0.209847,   0.206702,   0.000000,   732.693970,   0.533122,   17.790113,   10.076301,   729.513855,   17.370167,   47.694790,   0.343062,   725.702942,   725.390625
-0.054362,   0.119266,   0.116176,   0.000000,   652.781494,   0.532940,   18.796381,   48.480339,   652.780945,   4.337263,   -0.594468,   0.336661,   650.623962,   650.591431
-0.053600,   0.119947,   0.116905,   0.000000,   658.293884,   0.532942,   18.796381,   47.818947,   658.130371,   14.671936,   10.257985,   0.344412,   651.160828,   650.796997
-0.053494,   0.121261,   0.118300,   0.000000,   663.042114,   0.532942,   18.796381,   47.157555,   662.428650,   22.068975,   19.829311,   0.349637,   652.578918,   651.784607
-0.053730,   0.123539,   0.120715,   0.000000,   669.253967,   0.532939,   18.796381,   46.496166,   667.805908,   30.645615,   30.409452,   0.355368,   655.143311,   653.677002
-0.054828,   0.126637,   0.123955,   0.000000,   675.134460,   0.532942,   18.796381,   45.834774,   672.678345,   36.840008,   39.594589,   0.359096,   658.616028,   656.592102
-0.056312,   0.130672,   0.128176,   0.000000,   681.730957,   0.532942,   18.796381,   45.173382,   678.036987,   42.747208,   48.583691,   0.362348,   663.067383,   660.472412
-0.058160,   0.135448,   0.133167,   0.000000,   689.041931,   0.532939,   18.796381,   44.511990,   683.963745,   48.949368,   57.013401,   0.365623,   668.187439,   664.935486
-0.060376,   0.140518,   0.138434,   0.000000,   696.078186,   0.532942,   18.796381,   43.850601,   689.698303,   54.267311,   63.989815,   0.368256,   673.412781,   669.565857
-0.062617,   0.145958,   0.144098,   0.000000,   703.428528,   0.532940,   18.796381,   43.189209,   695.653992,   59.901814,   70.732788,   0.370988,   678.867554,   674.342773
-0.064958,   0.151638,   0.149997,   0.000000,   710.469360,   0.532942,   18.796381,   42.527821,   701.401306,   64.689697,   76.524323,   0.373145,   684.355896,   679.242615
-0.067306,   0.157444,   0.156023,   0.000000,   717.370728,   0.532940,   18.796381,   41.866428,   707.014099,   69.285225,   81.926620,   0.375134,   689.796875,   684.099304
-0.069596,   0.163279,   0.162074,   0.000000,   723.965515,   0.532940,   18.796381,   41.205036,   712.402588,   73.461823,   86.727966,   0.376867,   695.086243,   688.844543
-0.071803,   0.169046,   0.168054,   0.000000,   730.277527,   0.532942,   18.796381,   40.543648,   717.580139,   77.436935,   91.045975,   0.378495,   700.156189,   693.374268
-0.073893,   0.174665,   0.173881,   0.000000,   736.249634,   0.532940,   18.796381,   39.882256,   722.520935,   81.183754,   94.832596,   0.380031,   704.946777,   697.630371
-0.075852,   0.180069,   0.179488,   0.000000,   741.850891,   0.532940,   18.796381,   39.220863,   727.203552,   84.704849,   98.109276,   0.381489,   709.421326,   701.575317
-0.077673,   0.185213,   0.184827,   0.000000,   747.073486,   0.532942,   18.796381,   38.559475,   731.618286,   88.017540,   100.924919,   0.382883,   713.564819,   705.192566
-0.079353,   0.190067,   0.189868,   0.000000,   751.901855,   0.532939,   18.796381,   37.898083,   735.745850,   91.092033,   103.324944,   0.384196,   717.375244,   708.489502
-0.080896,   0.194612,   0.194592,   0.000000,   756.340515,   0.532942,   18.796381,   37.236691,   739.584473,   93.928474,   105.353775,   0.385426,   720.859192,   711.476440
-0.082306,   0.198839,   0.198989,   0.000000,   760.385681,   0.532942,   18.796381,   36.575302,   743.124634,   96.495483,   107.048729,   0.386551,   724.027466,   714.175598
-0.083588,   0.202748,   0.203057,   0.000000,   764.070923,   0.532940,   18.796381,   35.913910,   746.382874,   98.843819,   108.473892,   0.387595,   726.898804,   716.600037
-0.084753,   0.206338,   0.206796,   0.000000,   767.388428,   0.532940,   18.796381,   35.252518,   749.348389,   100.922264,   109.649734,   0.388524,   729.487183,   718.779663
-0.085800,   0.209613,   0.210209,   0.000000,   770.362976,   0.532942,   18.796381,   34.591129,   752.034546,   102.763283,   110.616653,   0.389354,   731.807983,   720.726990
-0.086737,   0.212576,   0.213299,   0.000000,   773.006897,   0.532940,   18.796381,   33.929737,   754.445251,   104.366127,   111.404930,   0.390080,   733.876404,   722.461792
-0.087579,   0.215227,   0.216062,   0.000000,   775.320129,   0.532940,   18.796381,   33.268345,   756.587402,   105.718147,   111.997604,   0.390699,   735.694397,   723.989441
-0.088323,   0.217583,   0.218518,   0.000000,   777.343506,   0.532940,   18.796381,   32.606956,   758.483398,   106.874046,   112.450508,   0.391235,   737.287109,   725.326904
-0.088982,   0.219662,   0.220685,   0.000000,   779.084534,   0.532942,   18.796381,   31.945564,   760.145813,   107.807762,   112.752571,   0.391674,   738.670410,   726.497253
-0.089550,   0.221464,   0.222562,   0.000000,   780.563293,   0.532940,   18.796381,   31.284174,   761.583862,   108.560249,   112.934601,   0.392036,   739.851440,   727.500305
-0.090031,   0.222965,   0.224124,   0.000000,   781.760132,   0.532941,   18.796381,   30.622782,   762.776245,   109.113304,   113.001953,   0.392309,   740.818848,   728.330750
-0.090425,   0.224168,   0.225372,   0.000000,   782.681519,   0.532941,   18.796381,   29.961391,   763.726196,   109.471222,   112.964211,   0.392495,   741.578308,   728.994751
-0.090751,   0.225061,   0.226290,   0.000000,   783.305420,   0.532940,   18.796381,   29.300001,   764.417175,   109.598389,   112.805794,   0.392576,   742.119934,   729.491028
-0.090959,   0.225656,   0.226901,   0.000000,   783.707397,   0.532941,   18.796381,   28.638609,   764.892944,   109.647736,   112.614731,   0.392627,   742.469727,   729.812256
-0.091080,   0.225939,   0.227184,   0.000000,   783.822083,   0.532941,   18.796381,   27.977219,   765.121155,   109.479065,   112.297981,   0.392581,   742.606140,   729.966492
-0.091108,   0.225912,   0.227141,   0.000000,   783.669312,   0.532941,   18.796381,   27.315826,   765.113770,   109.140022,   111.876152,   0.392465,   742.532715,   729.946472
-0.091038,   0.225565,   0.226762,   0.000000,   783.242493,   0.532940,   18.796381,   26.654436,   764.865417,   108.628098,   111.343796,   0.392276,   742.243652,   729.745972
-0.090849,   0.224889,   0.226043,   0.000000,   782.551514,   0.532940,   18.796381,   25.993046,   764.375916,   107.980972,   110.728149,   0.392033,   741.737549,   729.355957
-0.090567,   0.223855,   0.224944,   0.000000,   781.526978,   0.532942,   18.796381,   25.331656,   763.600769,   107.084496,   109.955460,   0.391681,   740.981812,   728.767395
-0.090162,   0.222462,   0.223470,   0.000000,   780.212463,   0.532940,   18.796381,   24.670263,   762.571472,   106.050049,   109.054504,   0.391282,   739.979614,   727.955383
-0.089630,   0.220720,   0.221632,   0.000000,   778.598694,   0.532941,   18.796381,   24.008873,   761.288574,   104.847572,   107.994125,   0.390822,   738.730164,   726.924255
-0.088970,   0.218630,   0.219432,   0.000000,   776.672974,   0.532941,   18.796381,   23.347481,   759.750122,   103.451599,   106.737236,   0.390292,   737.226990,   725.670654
-0.088168,   0.216180,   0.216858,   0.000000,   774.442932,   0.532940,   18.796381,   22.686090,   757.962891,   101.914276,   105.277252,   0.389725,   735.456909,   724.166687
-0.087234,   0.213367,   0.213906,   0.000000,   771.875793,   0.532941,   18.796381,   22.024700,   755.904297,   100.179344,   103.576118,   0.389090,   733.406616,   722.410400
-0.086146,   0.210214,   0.210601,   0.000000,   769.013367,   0.532940,   18.796381,   21.363308,   753.605896,   98.330025,   101.654030,   0.388433,   731.087646,   720.393616
-0.084929,   0.206745,   0.206964,   0.000000,   765.825012,   0.532942,   18.796381,   20.701918,   751.053284,   96.277588,   99.450279,   0.387706,   728.499756,   718.134216
-0.083575,   0.202988,   0.203026,   0.000000,   762.331543,   0.532940,   18.796381,   20.040525,   748.263855,   94.048622,   96.959854,   0.386921,   725.654480,   715.637207
-0.082092,   0.198985,   0.198830,   0.000000,   758.540405,   0.532940,   18.796381,   19.379135,   745.242615,   91.616470,   94.173424,   0.386056,   722.571472,   712.928528
-0.080501,   0.194796,   0.194435,   0.000000,   754.481018,   0.532941,   18.796381,   18.717745,   742.007080,   88.978951,   91.112114,   0.385097,   719.286438,   710.046326
-0.078827,   0.190487,   0.189906,   0.000000,   750.145020,   0.532941,   18.796381,   18.056355,   738.551575,   86.024307,   87.746590,   0.383968,   715.837708,   707.053345
-0.077103,   0.186135,   0.185324,   0.000000,   745.572449,   0.532941,   18.796381,   17.394962,   734.906189,   82.734352,   84.083344,   0.382641,   712.278137,   704.005371
-0.075376,   0.181827,   0.180775,   0.000000,   740.802856,   0.532940,   18.796381,   16.733572,   731.104004,   79.063171,   80.113136,   0.381073,   708.671265,   700.972839
-0.073700,   0.177660,   0.176359,   0.000000,   735.911438,   0.532941,   18.796381,   16.072182,   727.227112,   75.019974,   75.758713,   0.379266,   705.087830,   698.015564
-0.072143,   0.173737,   0.172183,   0.000000,   730.987732,   0.532941,   18.796381,   15.410790,   723.355103,   70.625259,   70.995155,   0.377215,   701.615540,   695.210632
-0.070787,   0.170186,   0.168379,   0.000000,   726.116211,   0.532941,   18.796381,   14.749399,   719.606445,   65.814240,   65.562408,   0.374891,   698.355103,   692.655884
-0.069737,   0.167125,   0.165072,   0.000000,   721.507996,   0.532941,   18.796381,   14.088008,   716.079102,   60.851887,   59.888622,   0.372385,   695.454834,   690.460022
-0.069141,   0.164677,   0.162378,   0.000000,   716.879761,   0.532940,   18.796381,   13.426618,   712.568726,   54.804028,   53.424824,   0.369099,   693.014221,   688.857422
-0.068831,   0.162940,   0.160432,   0.000000,   712.693298,   0.532940,   18.796381,   12.765226,   709.324036,   48.517056,   47.305065,   0.365457,   691.226074,   687.897034
-0.069273,   0.161835,   0.159103,   0.000000,   708.373840,   0.532941,   18.796381,   12.103836,   705.828552,   40.870815,   41.218697,   0.360719,   690.009827,   687.609009
-0.070447,   0.161393,   0.158448,   0.000000,   703.589783,   0.532940,   18.796381,   11.442445,   701.829651,   31.067957,   34.405334,   0.354363,   689.403259,   687.999573
-0.071689,   0.161398,   0.158304,   0.000000,   698.967041,   0.532941,   18.796381,   10.781054,   697.755798,   20.916458,   28.658392,   0.347524,   689.325745,   688.691589
-0.073984,   0.161780,   0.158557,   0.000000,   693.244690,   0.532941,   18.796381,   10.119662,   692.561523,   7.874291,   21.638575,   0.338533,   689.677307,   689.593018
-0.073984,   0.161780,   0.158557,   0.000000,   693.244568,   0.532941,   19.803617,   48.480339,   692.561401,   7.874022,   21.638700,   0.338533,   689.677307,   689.592957
-0.071689,   0.161398,   0.158304,   0.000000,   698.967041,   0.532943,   19.803617,   47.818947,   697.755737,   20.916410,   28.658468,   0.347524,   689.325745,   688.691650
-0.070447,   0.161393,   0.158448,   0.000000,   703.589783,   0.532943,   19.803617,   47.157555,   701.829651,   31.068026,   34.405380,   0.354363,   689.403198,   687.999390
-0.069273,   0.161835,   0.159103,   0.000000,   708.373840,   0.532940,   19.803617,   46.496166,   705.828552,   40.870754,   41.218689,   0.360719,   690.009827,   687.608948
-0.068831,   0.162940,   0.160432,   0.000000,   712.693298,   0.532943,   19.803617,   45.834774,   709.324036,   48.517109,   47.305077,   0.365457,   691.226074,   687.897034
-0.069141,   0.164677,   0.162378,   0.000000,   716.879700,   0.532943,   19.803617,   45.173382,   712.568665,   54.803986,   53.424843,   0.369099,   693.014160,   688.857361
-0.069737,   0.167125,   0.165072,   0.000000,   721.507996,   0.532940,   19.803617,   44.511990,   716.079102,   60.851906,   59.888607,   0.372385,   695.454773,   690.459900
-0.070787,   0.170186,   0.168379,   0.000000,   726.116211,   0.532943,   19.803617,   43.850601,   719.606384,   65.814247,   65.562424,   0.374891,   698.355103,   692.655762
-0.072143,   0.173737,   0.172183,   0.000000,   730.987671,   0.532941,   19.803617,   43.189209,   723.355042,   70.625122,   70.995125,   0.377215,   701.615540,   695.210632
-0.073700,   0.177660,   0.176359,   0.000000,   735.911377,   0.532943,   19.803617,   42.527821,   727.227051,   75.020012,   75.758736,   0.379266,   705.087769,   698.015442
-0.075376,   0.181827,   0.180775,   0.000000,   740.802856,   0.532941,   19.803617,   41.866428,   731.104004,   79.063332,   80.113182,   0.381073,   708.671204,   700.972778
-0.077103,   0.186135,   0.185324,   0.000000,   745.572388,   0.532941,   19.803617,   41.205036,   734.906128,   82.734314,   84.083321,   0.382641,   712.278076,   704.005371
-0.078827,   0.190487,   0.189906,   0.000000,   750.144958,   0.532943,   19.803617,   40.543648,   738.551514,   86.024269,   87.746582,   0.383968,   715.837646,   707.053223
-0.080501,   0.194796,   0.194435,   0.000000,   754.481079,   0.532941,   19.803617,   39.882256,   742.007141,   88.979126,   91.112175,   0.385098,   719.286438,   710.046204
-0.082092,   0.198985,   0.198830,   0.000000,   758.540344,   0.532941,   19.803617,   39.220863,   745.242554,   91.616371,   94.173401,   0.386056,   722.571411,   712.928528
-0.083575,   0.202988,   0.203026,   0.000000,   762.331604,   0.532943,   19.803617,   38.559475,   748.263855,   94.048630,   96.959885,   0.386921,   725.654480,   715.637207
-0.084929,   0.206745,   0.206964,   0.000000,   765.824951,   0.532940,   19.803617,   37.898083,   751.053284,   96.277588,   99.450241,   0.387706,   728.499695,   718.134216
-0.086146,   0.210214,   0.210601,   0.000000,   769.013306,   0.532943,   19.803617,   37.236691,   753.605835,   98.330025,   101.654053,   0.388433,   731.087585,   720.393555
-0.087234,   0.213367,   0.213906,   0.000000,   771.875854,   0.532943,   19.803617,   36.575302,   755.904297,   100.179367,   103.576149,   0.389090,   733.406616,   722.410339
-0.088168,   0.216180,   0.216858,   0.000000,   774.442932,   0.532941,   19.803617,   35.913910,   757.962891,   101.914230,   105.277229,   0.389725,   735.456970,   724.166748
-0.088970,   0.218629,   0.219432,   0.000000,   776.672974,   0.532941,   19.803617,   35.252518,   759.750122,   103.451614,   106.737244,   0.390292,   737.226990,   725.670654
-0.089630,   0.220720,   0.221632,   0.000000,   778.598755,   0.532943,   19.803617,   34.591129,   761.288574,   104.847588,   107.994141,   0.390822,   738.730164,   726.924255
-0.090162,   0.222462,   0.223470,   0.000000,   780.212402,   0.532941,   19.803617,   33.929737,   762.571411,   106.050018,   109.054489,   0.391282,   739.979492,   727.955261
-0.090567,   0.223855,   0.224944,   0.000000,   781.526978,   0.532941,   19.803617,   33.268345,   763.600769,   107.084496,   109.955452,   0.391681,   740.981812,   728.767395
-0.090849,   0.224889,   0.226043,   0.000000,   782.551453,   0.532941,   19.803617,   32.606956,   764.375854,   107.980942,   110.728142,   0.392033,   741.737427,   729.355835
-0.091038,   0.225565,   0.226762,   0.000000,   783.242493,   0.532943,   19.803617,   31.945564,   764.865417,   108.628075,   111.343803,   0.392276,   742.243591,   729.746033
-0.091108,   0.225912,   0.227141,   0.000000,   783.669312,   0.532941,   19.803617,   31.284174,   765.113770,   109.140007,   111.876122,   0.392465,   742.532715,   729.946472
-0.091080,   0.225939,   0.227184,   0.000000,   783.822083,   0.532942,   19.803617,   30.622782,   765.121155,   109.479042,   112.297966,   0.392581,   742.606079,   729.966492
-0.090959,   0.225656,   0.226901,   0.000000,   783.707397,   0.532942,   19.803617,   29.961391,   764.892944,   109.647713,   112.614716,   0.392627,   742.469727,   729.812256
-0.090751,   0.225061,   0.226290,   0.000000,   783.305420,   0.532941,   19.803617,   29.300001,   764.417175,   109.598366,   112.805779,   0.392576,   742.119934,   729.491028
-0.090425,   0.224168,   0.225372,   0.000000,   782.681580,   0.532942,   19.803617,   28.638609,   763.726257,   109.471199,   112.964188,   0.392495,   741.578369,   728.994751
-0.090031,   0.222965,   0.224124,   0.000000,   781.760132,   0.532942,   19.803617,   27.977219,   762.776245,   109.113281,   113.001930,   0.392309,   740.818848,   728.330750
-0.089550,   0.221464,   0.222562,   0.000000,   780.563293,   0.532942,   19.803617,   27.315826,   761.583862,   108.560242,   112.934608,   0.392036,   739.851440,   727.500305
-0.088982,   0.219662,   0.220685,   0.000000,   779.084534,   0.532941,   19.803617,   26.654436,   760.145813,   107.807724,   112.752548,   0.391674,   738.670410,   726.497192
-0.088323,   0.217583,   0.218518,   0.000000,   777.343445,   0.532941,   19.803617,   25.993046,   758.483398,   106.873955,   112.450447,   0.391235,   737.287109,   725.326904
-0.087579,   0.215228,   0.216062,   0.000000,   775.320190,   0.532943,   19.803617,   25.331656,   756.587463,   105.718178,   111.997635,   0.390699,   735.694397,   723.989441
-0.086737,   0.212576,   0.213299,   0.000000,   773.006836,   0.532941,   19.803617,   24.670263,   754.445251,   104.366013,   111.404854,   0.390080,   733.876404,   722.461914
-0.085800,   0.209613,   0.210209,   0.000000,   770.363037,   0.532942,   19.803617,   24.008873,   752.034607,   102.763290,   110.616631,   0.389354,   731.807983,   720.726990
-0.084753,   0.206338,   0.206796,   0.000000,   767.388489,   0.532942,   19.803617,   23.347481,   749.348450,   100.922272,   109.649742,   0.388524,   729.487244,   718.779724
-0.083588,   0.202748,   0.203057,   0.000000,   764.070923,   0.532941,   19.803617,   22.686090,   746.382874,   98.843697,   108.473801,   0.387595,   726.898865,   716.600037
-0.082306,   0.198839,   0.198989,   0.000000,   760.385742,   0.532942,   19.803617,   22.024700,   743.124695,   96.495499,   107.048767,   0.386551,   724.027527,   714.175720
-0.080896,   0.194612,   0.194592,   0.000000,   756.340515,   0.532941,   19.803617,   21.363308,   739.584473,   93.928444,   105.353745,   0.385426,   720.859131,   711.476379
-0.079353,   0.190067,   0.189868,   0.000000,   751.901917,   0.532943,   19.803617,   20.701918,   735.745911,   91.091988,   103.324913,   0.384196,   717.375305,   708.489624
-0.077673,   0.185213,   0.184827,   0.000000,   747.073486,   0.532941,   19.803617,   20.040525,   731.618286,   88.017494,   100.924889,   0.382883,   713.564758,   705.192505
-0.075852,   0.180069,   0.179488,   0.000000,   741.850830,   0.532941,   19.803617,   19.379135,   727.203552,   84.704697,   98.109207,   0.381489,   709.421326,   701.575439
-0.073893,   0.174665,   0.173881,   0.000000,   736.249756,   0.532942,   19.803617,   18.717745,   722.520996,   81.183914,   94.832634,   0.380031,   704.946838,   697.630432
-0.071803,   0.169046,   0.168054,   0.000000,   730.277527,   0.532942,   19.803617,   18.056355,   717.580139,   77.436829,   91.045891,   0.378495,   700.156189,   693.374390
-0.069596,   0.163279,   0.162074,   0.000000,   723.965515,   0.532942,   19.803617,   17.394962,   712.402588,   73.461716,   86.727943,   0.376867,   695.086304,   688.844543
-0.067306,   0.157444,   0.156023,   0.000000,   717.370789,   0.532941,   19.803617,   16.733572,   707.014160,   69.285347,   81.926636,   0.375134,   689.796875,   684.099243
-0.064958,   0.151638,   0.149997,   0.000000,   710.469360,   0.532942,   19.803617,   16.072182,   701.401306,   64.689674,   76.524338,   0.373145,   684.355896,   679.242615
-0.062617,   0.145958,   0.144098,   0.000000,   703.428467,   0.532942,   19.803617,   15.410790,   695.653931,   59.901653,   70.732689,   0.370988,   678.867554,   674.342773
-0.060376,   0.140518,   0.138434,   0.000000,   696.078247,   0.532942,   19.803617,   14.749399,   689.698303,   54.267292,   63.989838,   0.368256,   673.412781,   669.565918
-0.058160,   0.135448,   0.133167,   0.000000,   689.041931,   0.532942,   19.803617,   14.088008,   683.963745,   48.949390,   57.013374,   0.365623,   668.187439,   664.935486
-0.056312,   0.130672,   0.128176,   0.000000,   681.730957,   0.532942,   19.803617,   13.426618,   678.036987,   42.747143,   48.583649,   0.362348,   663.067505,   660.472473
-0.054828,   0.126637,   0.123955,   0.000000,   675.134521,   0.532942,   19.803617,   12.765226,   672.678406,   36.840088,   39.594643,   0.359096,   658.616028,   656.592102
-0.053730,   0.123539,   0.120715,   0.000000,   669.253967,   0.532942,   19.803617,   12.103836,   667.805908,   30.645609,   30.409439,   0.355368,   655.143311,   653.677002
-0.053494,   0.121261,   0.118300,   0.000000,   663.042236,   0.532942,   19.803617,   11.442445,   662.428772,   22.069101,   19.829357,   0.349637,   652.578979,   651.784668
-0.053600,   0.119947,   0.116905,   0.000000,   658.293945,   0.532942,   19.803617,   10.781054,   658.130432,   14.672051,   10.258041,   0.344412,   651.160889,   650.797058
-0.054362,   0.119266,   0.116176,   0.000000,   652.781555,   0.532942,   19.803617,   10.119662,   652.781006,   4.337278,   -0.594329,   0.336661,   650.624023,   650.591553
-0.095425,   0.209847,   0.206702,   0.000000,   732.694092,   0.533120,   20.809887,   48.523701,   729.514038,   17.370453,   47.694668,   0.343063,   725.703003,   725.390747
-0.091885,   0.207786,   0.204829,   0.000000,   737.811646,   0.533122,   20.809887,   47.860813,   734.231934,   31.518726,   50.282368,   0.352436,   724.246399,   723.032349
-0.088889,   0.206019,   0.203300,   0.000000,   742.039856,   0.533120,   20.809887,   47.197926,   738.048523,   43.496922,   52.802616,   0.360277,   723.096863,   720.662720
-0.086416,   0.204529,   0.202066,   0.000000,   745.743896,   0.533120,   20.809887,   46.535042,   741.259155,   54.082752,   55.694851,   0.367080,   722.223267,   718.376587
-0.084498,   0.203491,   0.201296,   0.000000,   748.825256,   0.533120,   20.809887,   45.872154,   743.799438,   62.667110,   58.724014,   0.372468,   721.733032,   716.526978
-0.083309,   0.202938,   0.201008,   0.000000,   751.408630,   0.533122,   20.809887,   45.209270,   745.789734,   69.408417,   61.903946,   0.376553,   721.631531,   715.247192
-0.082539,   0.202964,   0.201314,   0.000000,   754.106628,   0.533120,   20.809887,   44.546383,   747.802490,   75.540794,   65.404602,   0.380131,   721.982483,   714.456238
-0.082259,   0.203579,   0.202208,   0.000000,   756.752625,   0.533120,   20.809887,   43.883495,   749.733032,   80.634186,   68.891777,   0.382960,   722.762512,   714.255188
-0.082379,   0.204676,   0.203580,   0.000000,   759.396606,   0.533122,   20.809887,   43.220608,   751.582642,   84.979759,   72.593964,   0.385208,   723.904968,   714.564087
-0.082789,   0.206158,   0.205331,   0.000000,   762.061218,   0.533120,   20.809887,   42.557724,   753.448486,   88.784500,   76.149544,   0.387070,   725.306152,   715.235596
-0.083421,   0.207948,   0.207381,   0.000000,   764.740845,   0.533120,   20.809887,   41.894836,   755.326904,   92.168442,   79.571175,   0.388632,   726.905212,   716.192322
-0.084201,   0.209948,   0.209628,   0.000000,   767.405762,   0.533120,   20.809887,   41.231953,   757.199402,   95.227448,   82.828171,   0.389970,   728.625122,   717.337708
-0.085061,   0.212064,   0.211976,   0.000000,   769.997803,   0.533122,   20.809887,   40.569065,   759.013977,   97.975815,   85.914986,   0.391107,   730.397583,   718.603943
-0.085949,   0.214213,   0.214340,   0.000000,   772.463196,   0.533120,   20.809887,   39.906178,   760.716003,   100.417831,   88.851936,   0.392049,   732.166077,   719.937439
-0.086829,   0.216324,   0.216644,   0.000000,   774.743591,   0.533120,   20.809887,   39.243294,   762.252808,   102.523560,   91.632675,   0.392787,   733.880920,   721.299133
-0.087645,   0.218334,   0.218832,   0.000000,   776.844543,   0.533122,   20.809887,   38.580406,   763.613037,   104.396553,   94.326454,   0.393381,   735.511658,   722.636658
-0.088379,   0.220176,   0.220832,   0.000000,   778.718933,   0.533119,   20.809887,   37.917519,   764.762146,   106.022614,   96.895157,   0.393836,   737.011414,   723.904724
-0.089011,   0.221802,   0.222599,   0.000000,   780.355896,   0.533122,   20.809887,   37.254635,   765.691772,   107.441452,   99.336334,   0.394181,   738.351929,   725.064026
-0.089546,   0.223168,   0.224083,   0.000000,   781.731750,   0.533120,   20.809887,   36.591747,   766.389893,   108.658600,   101.617882,   0.394431,   739.502441,   726.078918
-0.089936,   0.224255,   0.225276,   0.000000,   782.882568,   0.533122,   20.809887,   35.928864,   766.890015,   109.774139,   103.753220,   0.394649,   740.459412,   726.917908
-0.090194,   0.225036,   0.226144,   0.000000,   783.767700,   0.533119,   20.809887,   35.265976,   767.169006,   110.730225,   105.695572,   0.394811,   741.198547,   727.568481
-0.090317,   0.225486,   0.226665,   0.000000,   784.411072,   0.533122,   20.809887,   34.603092,   767.242920,   111.617920,   107.473854,   0.394970,   741.710205,   727.996338
-0.090328,   0.225594,   0.226821,   0.000000,   784.758423,   0.533122,   20.809887,   33.940201,   767.075562,   112.321465,   109.044167,   0.395068,   741.979675,   728.215210
-0.090217,   0.225377,   0.226639,   0.000000,   784.856934,   0.533119,   20.809887,   33.277317,   766.698364,   112.920715,   110.460030,   0.395142,   742.028015,   728.228027
-0.089968,   0.224842,   0.226126,   0.000000,   784.721558,   0.533122,   20.809887,   32.614429,   766.126587,   113.443138,   111.724609,   0.395210,   741.858887,   728.030273
-0.089637,   0.223983,   0.225266,   0.000000,   784.291260,   0.533121,   20.809887,   31.951544,   765.314941,   113.758041,   112.801796,   0.395200,   741.457947,   727.641235
-0.089203,   0.222820,   0.224088,   0.000000,   783.616699,   0.533120,   20.809887,   31.288658,   764.295776,   113.956879,   113.747223,   0.395158,   740.845947,   727.060608
-0.088678,   0.221364,   0.222602,   0.000000,   782.686218,   0.533120,   20.809887,   30.625772,   763.065491,   113.998131,   114.543152,   0.395060,   740.024902,   726.300293
-0.088067,   0.219627,   0.220820,   0.000000,   781.500916,   0.533121,   20.809887,   29.962887,   761.624634,   113.874474,   115.195168,   0.394903,   738.999084,   725.366516
-0.087377,   0.217618,   0.218750,   0.000000,   780.051697,   0.533120,   20.809887,   29.300001,   759.970215,   113.556213,   115.690132,   0.394670,   737.768921,   724.266785
-0.086612,   0.215380,   0.216441,   0.000000,   778.387573,   0.533121,   20.809887,   28.637114,   758.139954,   113.100639,   116.062469,   0.394388,   736.364929,   723.018127
-0.085790,   0.212931,   0.213909,   0.000000,   776.495789,   0.533120,   20.809887,   27.974228,   756.133179,   112.459496,   116.282021,   0.394033,   734.788879,   721.632568
-0.084905,   0.210259,   0.211143,   0.000000,   774.361389,   0.533122,   20.809887,   27.311340,   753.935120,   111.623337,   116.349754,   0.393598,   733.029968,   720.101013
-0.083956,   0.207370,   0.208149,   0.000000,   771.976257,   0.533120,   20.809887,   26.648455,   751.540283,   110.575340,   116.259918,   0.393075,   731.086182,   718.424805
-0.082962,   0.204260,   0.204917,   0.000000,   769.308716,   0.533120,   20.809887,   25.985569,   748.929749,   109.263809,   115.978615,   0.392438,   728.942078,   716.597900
-0.081897,   0.200941,   0.201471,   0.000000,   766.383667,   0.533121,   20.809887,   25.322683,   746.115723,   107.733253,   115.540001,   0.391704,   726.609985,   714.622437
-0.080767,   0.197416,   0.197809,   0.000000,   763.184692,   0.533120,   20.809887,   24.659798,   743.087463,   105.959167,   114.927818,   0.390861,   724.081909,   712.493713
-0.079574,   0.193675,   0.193921,   0.000000,   759.677002,   0.533121,   20.809887,   23.996910,   739.828430,   103.890953,   114.089439,   0.389887,   721.337097,   710.197144
-0.078307,   0.189715,   0.189806,   0.000000,   755.858398,   0.533120,   20.809887,   23.334024,   736.327698,   101.550171,   113.044685,   0.388787,   718.368958,   707.719788
-0.076961,   0.185528,   0.185457,   0.000000,   751.704895,   0.533120,   20.809887,   22.671139,   732.569214,   98.916740,   111.765564,   0.387553,   715.159729,   705.043640
-0.075529,   0.181104,   0.180865,   0.000000,   747.185974,   0.533122,   20.809887,   22.008251,   728.528381,   95.960968,   110.228432,   0.386165,   711.690063,   702.151428
-0.074003,   0.176433,   0.176020,   0.000000,   742.281433,   0.533120,   20.809887,   21.345366,   724.189819,   92.685913,   108.407707,   0.384627,   707.937927,   699.014282
-0.072371,   0.171504,   0.170912,   0.000000,   736.955627,   0.533121,   20.809887,   20.682480,   719.524841,   89.067902,   106.269417,   0.382924,   703.876465,   695.604004
-0.070622,   0.166304,   0.165529,   0.000000,   731.182678,   0.533120,   20.809887,   20.019594,   714.515137,   85.110718,   103.771149,   0.381059,   699.477051,   691.883301
-0.068746,   0.160826,   0.159866,   0.000000,   724.939514,   0.533120,   20.809887,   19.356709,   709.142639,   80.827942,   100.870979,   0.379041,   694.710571,   687.812683
-0.066730,   0.155067,   0.153919,   0.000000,   718.195923,   0.533121,   20.809887,   18.693821,   703.383972,   76.219711,   97.513641,   0.376868,   689.545837,   683.353394
-0.064568,   0.149030,   0.147694,   0.000000,   710.956055,   0.533120,   20.809887,   18.030935,   697.255310,   71.360527,   93.610558,   0.374596,   683.951477,   678.450928
-0.062245,   0.142726,   0.141202,   0.000000,   703.207458,   0.533122,   20.809887,   17.368050,   690.742004,   66.272491,   89.105011,   0.372231,   677.907410,   673.077881
-0.059743,   0.136187,   0.134481,   0.000000,   695.073486,   0.533120,   20.809887,   16.705162,   683.950745,   61.291618,   83.960693,   0.369996,   671.396301,   667.159607
-0.057115,   0.129470,   0.127580,   0.000000,   686.353027,   0.533121,   20.809887,   16.042276,   676.746338,   55.904816,   77.823624,   0.367567,   664.414856,   660.770996
-0.054258,   0.122682,   0.120625,   0.000000,   677.533447,   0.533121,   20.809887,   15.379390,   669.449829,   51.095032,   71.160896,   0.365526,   657.084351,   653.905823
-0.051419,   0.115786,   0.113544,   0.000000,   667.934692,   0.533121,   20.809887,   14.716504,   661.481873,   45.513859,   63.374779,   0.362961,   649.285950,   646.634521
-0.048539,   0.109211,   0.106807,   0.000000,   658.473450,   0.533121,   20.809887,   14.053617,   653.570251,   40.247959,   55.056938,   0.360501,   641.531677,   639.335510
-0.045812,   0.103194,   0.100645,   0.000000,   648.987183,   0.533121,   20.809887,   13.390732,   645.606934,   34.263275,   45.584179,   0.357388,   634.109985,   632.414551
-0.043330,   0.097549,   0.094865,   0.000000,   639.623840,   0.533121,   20.809887,   12.727845,   637.599976,   28.339054,   35.173210,   0.354102,   626.880615,   625.636108
-0.041014,   0.092442,   0.089658,   0.000000,   630.890442,   0.533121,   20.809887,   12.064960,   630.012451,   23.010635,   23.102083,   0.351020,   620.120361,   619.230774
-0.039322,   0.088064,   0.085204,   0.000000,   622.255371,   0.533121,   20.809887,   11.402073,   622.111023,   16.476931,   9.352023,   0.346540,   614.252014,   613.763123
-0.038297,   0.084712,   0.081822,   0.000000,   614.224670,   0.533121,   20.809887,   10.739187,   614.180969,   8.795324,   -5.143958,   0.340482,   609.895996,   609.754639
-0.037766,   0.082290,   0.079424,   0.000000,   607.142395,   0.533121,   20.809887,   10.076301,   606.477600,   0.815709,   -20.076567,   0.333458,   607.066895,   607.066895
-0.116799,   0.258286,   0.255551,   0.000000,   768.019836,   0.533468,   21.813259,   48.610340,   759.947327,   30.689703,   77.150009,   0.348161,   756.964722,   756.203918
-0.111944,   0.254827,   0.252300,   0.000000,   772.774780,   0.533468,   21.813259,   47.944466,   764.904724,   45.434963,   75.658569,   0.357911,   754.693848,   752.586121
-0.107379,   0.251609,   0.249375,   0.000000,   776.879395,   0.533466,   21.813259,   47.278591,   769.098389,   58.725315,   74.752548,   0.366601,   752.701294,   748.807678
-0.103689,   0.248559,   0.246630,   0.000000,   780.001587,   0.533468,   21.813259,   46.612720,   772.258240,   69.823616,   74.156410,   0.373816,   750.888672,   745.082214
-0.100481,   0.245573,   0.243961,   0.000000,   782.308960,   0.533466,   21.813259,   45.946846,   774.506470,   79.134178,   74.070877,   0.379804,   749.194275,   741.496643
-0.097696,   0.242752,   0.241453,   0.000000,   783.944458,   0.533468,   21.813259,   45.280972,   776.017334,   86.772926,   74.340752,   0.384670,   747.646179,   738.205566
-0.095417,   0.240232,   0.239230,   0.000000,   785.210266,   0.533468,   21.813259,   44.615097,   777.041016,   93.227394,   75.186287,   0.388690,   746.325317,   735.301880
-0.093601,   0.238036,   0.237321,   0.000000,   786.184265,   0.533466,   21.813259,   43.949223,   777.674927,   98.587341,   76.491844,   0.391938,   745.239441,   732.841553
-0.092241,   0.236175,   0.235739,   0.000000,   786.948608,   0.533468,   21.813259,   43.283348,   777.983215,   102.997536,   78.306358,   0.394492,   744.400208,   730.859375
-0.091212,   0.234636,   0.234462,   0.000000,   787.600281,   0.533466,   21.813259,   42.617477,   778.117249,   106.699356,   80.355515,   0.396544,   743.772583,   729.273071
-0.090486,   0.233394,   0.233464,   0.000000,   788.173950,   0.533468,   21.813259,   41.951603,   778.107117,   109.799332,   82.638176,   0.398159,   743.342529,   728.062073
-0.089999,   0.232395,   0.232692,   0.000000,   788.689331,   0.533466,   21.813259,   41.285728,   777.984619,   112.417702,   85.083961,   0.399424,   743.072266,   727.163086
-0.089686,   0.231576,   0.232079,   0.000000,   789.149536,   0.533468,   21.813259,   40.619858,   777.767700,   114.654564,   87.618507,   0.400414,   742.916321,   726.503845
-0.089489,   0.230872,   0.231559,   0.000000,   789.541809,   0.533469,   21.813259,   39.953979,   777.453308,   116.575104,   90.195076,   0.401181,   742.830505,   726.021301
-0.089376,   0.230218,   0.231062,   0.000000,   789.828064,   0.533466,   21.813259,   39.288105,   777.018494,   118.189262,   92.754631,   0.401745,   742.766052,   725.661865
-0.089268,   0.229567,   0.230553,   0.000000,   790.018555,   0.533468,   21.813259,   38.622231,   776.462952,   119.578171,   95.332214,   0.402152,   742.704712,   725.385986
-0.089151,   0.228869,   0.229972,   0.000000,   790.078552,   0.533466,   21.813259,   37.956360,   775.760864,   120.743790,   97.894432,   0.402413,   742.607300,   725.151917
-0.088996,   0.228078,   0.229276,   0.000000,   789.985352,   0.533468,   21.813259,   37.290485,   774.890320,   121.696648,   100.438194,   0.402537,   742.446594,   724.928589
-0.088771,   0.227140,   0.228412,   0.000000,   789.713379,   0.533466,   21.813259,   36.624611,   773.832397,   122.455376,   102.940269,   0.402543,   742.187317,   724.672058
-0.088468,   0.226022,   0.227348,   0.000000,   789.244141,   0.533468,   21.813259,   35.958740,   772.583374,   123.027878,   105.354980,   0.402448,   741.802307,   724.346924
-0.088091,   0.224723,   0.226082,   0.000000,   788.565918,   0.533466,   21.813259,   35.292866,   771.148010,   123.384377,   107.638565,   0.402244,   741.285034,   723.950745
-0.087612,   0.223240,   0.224618,   0.000000,   787.724854,   0.533468,   21.813259,   34.626991,   769.566101,   123.647194,   109.812584,   0.402003,   740.636414,   723.445251
-0.087078,   0.221546,   0.222919,   0.000000,   786.659180,   0.533468,   21.813259,   33.961117,   767.803589,   123.716454,   111.804115,   0.401681,   739.823425,   722.820374
-0.086461,   0.219641,   0.220994,   0.000000,   785.405090,   0.533466,   21.813259,   33.295242,   765.892578,   123.681702,   113.630562,   0.401333,   738.848755,   722.050232
-0.085761,   0.217537,   0.218858,   0.000000,   783.972290,   0.533468,   21.813259,   32.629368,   763.856384,   123.549103,   115.260651,   0.400971,   737.714233,   721.129761
-0.084992,   0.215239,   0.216512,   0.000000,   782.347229,   0.533468,   21.813259,   31.963495,   761.692993,   123.287064,   116.672073,   0.400581,   736.414368,   720.060181
-0.084154,   0.212742,   0.213956,   0.000000,   780.535645,   0.533467,   21.813259,   31.297621,   759.403687,   122.923470,   117.883896,   0.400178,   734.945862,   718.829834
-0.083251,   0.210056,   0.211198,   0.000000,   778.529785,   0.533467,   21.813259,   30.631748,   756.989685,   122.431488,   118.879852,   0.399751,   733.308105,   717.443909
-0.082290,   0.207192,   0.208251,   0.000000,   776.326355,   0.533468,   21.813259,   29.965874,   754.450317,   121.793617,   119.660278,   0.399289,   731.503601,   715.909302
-0.081275,   0.204159,   0.205125,   0.000000,   773.920715,   0.533467,   21.813259,   29.299999,   751.783142,   120.991608,   120.225861,   0.398782,   729.534180,   714.232910
-0.080238,   0.200960,   0.201816,   0.000000,   771.282959,   0.533467,   21.813259,   28.634127,   748.966858,   119.966949,   120.560486,   0.398197,   727.390320,   712.419434
-0.079146,   0.197621,   0.198361,   0.000000,   768.456421,   0.533467,   21.813259,   27.968252,   746.029663,   118.782692,   120.706566,   0.397562,   725.096130,   710.478149
-0.078018,   0.194148,   0.194763,   0.000000,   765.421021,   0.533468,   21.813259,   27.302378,   742.960205,   117.392738,   120.645195,   0.396853,   722.646912,   708.414551
-0.076857,   0.190552,   0.191036,   0.000000,   762.175842,   0.533467,   21.813259,   26.636505,   739.759521,   115.786110,   120.373169,   0.396061,   720.045715,   706.233337
-0.075673,   0.186830,   0.187172,   0.000000,   758.682983,   0.533467,   21.813259,   25.970631,   736.405273,   113.890511,   119.852028,   0.395149,   717.278015,   703.934998
-0.074452,   0.182989,   0.183184,   0.000000,   754.966980,   0.533468,   21.813259,   25.304758,   732.904602,   111.768288,   119.123833,   0.394145,   714.350952,   701.511047
-0.073200,   0.179029,   0.179072,   0.000000,   751.004517,   0.533467,   21.813259,   24.638884,   729.240356,   109.374504,   118.171600,   0.393020,   711.257751,   698.963684
-0.071913,   0.174947,   0.174832,   0.000000,   746.772400,   0.533467,   21.813259,   23.973009,   725.397217,   106.676979,   116.970703,   0.391756,   707.986084,   696.284058
-0.070587,   0.170738,   0.170460,   0.000000,   742.261047,   0.533467,   21.813259,   23.307137,   721.360229,   103.682137,   115.528412,   0.390353,   704.527405,   693.459106
-0.069216,   0.166392,   0.165949,   0.000000,   737.440979,   0.533467,   21.813259,   22.641262,   717.103821,   100.358543,   113.826469,   0.388787,   700.864929,   690.475098
-0.067791,   0.161896,   0.161284,   0.000000,   732.284302,   0.533468,   21.813259,   21.975388,   712.598572,   96.693451,   111.857452,   0.387048,   696.978516,   687.309570
-0.066302,   0.157233,   0.156451,   0.000000,   726.758179,   0.533468,   21.813259,   21.309513,   707.812317,   92.671074,   109.605339,   0.385120,   692.843750,   683.935303
-0.064739,   0.152385,   0.151431,   0.000000,   720.824219,   0.533467,   21.813259,   20.643641,   702.708191,   88.277260,   107.047890,   0.382990,   688.430298,   680.316895
-0.063084,   0.147327,   0.146202,   0.000000,   714.442078,   0.533467,   21.813259,   19.977766,   697.243408,   83.498703,   104.169907,   0.380642,   683.707214,   676.418213
-0.061323,   0.142039,   0.140744,   0.000000,   707.580505,   0.533467,   21.813259,   19.311893,   691.388611,   78.393410,   100.934349,   0.378111,   678.621155,   672.162720
-0.059438,   0.136491,   0.135030,   0.000000,   700.174438,   0.533467,   21.813259,   18.646019,   685.068481,   72.923683,   97.340790,   0.375357,   673.130493,   667.509644
-0.057398,   0.130665,   0.129039,   0.000000,   692.184204,   0.533467,   21.813259,   17.980146,   678.264343,   67.124901,   93.277832,   0.372411,   667.174683,   662.376526
-0.055202,   0.124527,   0.122743,   0.000000,   683.586365,   0.533468,   21.813259,   17.314272,   670.893616,   61.133503,   88.885567,   0.369319,   660.699158,   656.686096
-0.052716,   0.118022,   0.116094,   0.000000,   674.315552,   0.533467,   21.813259,   16.648397,   662.916138,   55.041580,   84.020050,   0.366162,   653.588257,   650.297913
-0.050117,   0.111088,   0.109010,   0.000000,   664.001892,   0.533467,   21.813259,   15.982523,   654.049011,   48.356438,   78.277962,   0.362631,   645.657288,   643.080078
-0.047268,   0.103989,   0.101779,   0.000000,   653.319397,   0.533467,   21.813259,   15.316649,   644.932068,   42.133377,   71.597626,   0.359466,   637.117004,   635.101624
-0.044248,   0.096808,   0.094482,   0.000000,   642.426697,   0.533467,   21.813259,   14.650777,   635.688232,   36.670647,   63.889526,   0.356881,   627.995850,   626.387878
-0.041069,   0.089385,   0.086946,   0.000000,   630.746460,   0.533467,   21.813259,   13.984902,   625.799805,   31.313084,   54.453411,   0.354438,   617.985168,   616.717712
-0.037775,   0.081867,   0.079326,   0.000000,   618.455139,   0.533467,   21.813259,   13.319029,   615.207031,   26.343309,   43.854820,   0.352169,   607.237061,   606.247742
-0.034316,   0.074628,   0.072013,   0.000000,   605.873413,   0.533467,   21.813259,   12.653154,   604.117859,   21.489162,   32.029854,   0.349744,   596.251587,   595.516235
-0.031233,   0.067980,   0.065302,   0.000000,   592.896057,   0.533467,   21.813259,   11.987281,   592.317993,   15.556475,   18.268135,   0.346042,   585.550476,   585.119202
-0.028211,   0.061980,   0.059282,   0.000000,   581.037354,   0.533467,   21.813259,   11.321407,   581.018372,   11.440174,   3.286153,   0.343208,   575.411743,   575.156555
-0.025813,   0.056433,   0.053757,   0.000000,   567.760437,   0.533467,   21.813259,   10.655534,   567.304443,   4.229998,   -16.030405,   0.336662,   565.882874,   565.854553
-0.023884,   0.051553,   0.048955,   -3.830453,   555.585876,   0.533467,   21.813259,   9.989659,   553.363098,   -1.607697,   -35.192398,   0.329892,   557.510986,   557.481384
-0.135942,   0.303067,   0.301222,   0.000000,   798.761719,   0.533953,   22.811810,   48.740093,   782.847717,   47.434368,   109.346268,   0.353247,   783.477173,   782.048645
-0.129756,   0.298200,   0.296546,   0.000000,   802.857666,   0.533950,   22.811810,   48.069744,   788.137329,   61.815910,   104.443245,   0.363053,   780.376465,   777.169495
-0.124057,   0.293252,   0.291866,   0.000000,   806.185364,   0.533951,   22.811810,   47.399399,   792.390686,   74.963501,   100.434021,   0.371900,   777.407959,   771.965820
-0.118997,   0.288301,   0.287211,   0.000000,   808.524048,   0.533950,   22.811810,   46.729050,   795.463867,   86.169853,   97.129074,   0.379412,   774.561279,   766.740967
-0.114397,   0.283336,   0.282561,   0.000000,   810.150085,   0.533950,   22.811810,   46.058701,   797.642700,   95.995850,   94.510445,   0.385954,   771.800049,   761.541382
-0.110087,   0.278305,   0.277856,   0.000000,   811.133423,   0.533951,   22.811810,   45.388355,   799.057739,   104.594604,   92.368408,   0.391670,   769.059143,   756.386841
-0.106342,   0.273194,   0.273048,   0.000000,   811.351257,   0.533950,   22.811810,   44.718006,   799.518982,   111.651215,   90.989227,   0.396333,   766.333130,   751.498413
-0.102999,   0.268104,   0.268241,   0.000000,   811.030151,   0.533950,   22.811810,   44.047657,   799.273682,   117.532486,   90.294495,   0.400183,   763.656311,   746.908142
-0.100059,   0.263209,   0.263606,   0.000000,   810.367859,   0.533951,   22.811810,   43.377312,   798.543579,   122.460014,   90.188812,   0.403363,   761.104919,   742.690369
-0.097518,   0.258575,   0.259208,   0.000000,   809.473938,   0.533950,   22.811810,   42.706963,   797.439026,   126.581818,   90.656097,   0.405959,   758.713562,   738.883423
-0.095329,   0.254158,   0.255001,   0.000000,   808.363098,   0.533950,   22.811810,   42.036613,   795.988342,   129.969437,   91.623894,   0.408026,   756.452393,   735.465637
-0.093446,   0.249957,   0.250983,   0.000000,   807.079834,   0.533951,   22.811810,   41.366264,   794.250671,   132.715912,   93.013634,   0.409628,   754.315979,   732.420654
-0.091822,   0.245959,   0.247143,   0.000000,   805.661804,   0.533950,   22.811810,   40.695919,   792.280701,   134.917862,   94.738113,   0.410832,   752.292908,   729.713745
-0.090407,   0.242144,   0.243458,   0.000000,   804.133728,   0.533953,   22.811810,   40.025570,   790.119873,   136.660019,   96.715408,   0.411701,   750.366028,   727.301392
-0.089144,   0.238457,   0.239876,   0.000000,   802.494568,   0.533950,   22.811810,   39.355221,   787.781128,   138.012527,   98.877739,   0.412288,   748.500732,   725.123230
-0.088001,   0.234868,   0.236362,   0.000000,   800.740601,   0.533950,   22.811810,   38.684872,   785.280151,   139.013748,   101.146301,   0.412629,   746.670410,   723.133850
-0.086939,   0.231375,   0.232920,   0.000000,   798.911377,   0.533951,   22.811810,   38.014526,   782.660583,   139.761459,   103.497360,   0.412785,   744.875977,   721.296570
-0.085926,   0.227954,   0.229527,   0.000000,   796.998108,   0.533950,   22.811810,   37.344177,   779.932007,   140.265686,   105.867180,   0.412776,   743.097778,   719.580994
-0.084918,   0.224586,   0.226174,   0.000000,   795.015930,   0.533950,   22.811810,   36.673828,   777.116089,   140.582245,   108.232513,   0.412637,   741.327820,   717.954468
-0.083920,   0.221240,   0.222824,   0.000000,   792.909729,   0.533951,   22.811810,   36.003483,   774.184143,   140.622803,   110.519035,   0.412335,   739.534485,   716.407898
-0.082957,   0.217899,   0.219451,   0.000000,   790.665222,   0.533950,   22.811810,   35.333134,   771.128418,   140.393707,   112.713089,   0.411876,   737.699524,   714.915894
-0.081983,   0.214573,   0.216079,   0.000000,   788.321045,   0.533951,   22.811810,   34.662785,   767.990173,   139.961899,   114.811638,   0.411302,   735.835571,   713.463257
-0.080999,   0.211243,   0.212691,   0.000000,   785.865112,   0.533950,   22.811810,   33.992435,   764.776001,   139.329544,   116.768486,   0.410627,   733.923584,   712.020508
-0.079988,   0.207879,   0.209257,   0.000000,   783.292419,   0.533950,   22.811810,   33.322090,   761.486206,   138.536270,   118.573601,   0.409879,   731.942078,   710.546936
-0.078974,   0.204468,   0.205759,   0.000000,   780.573486,   0.533951,   22.811810,   32.651741,   758.115906,   137.543640,   120.170219,   0.409051,   729.867493,   709.021912
-0.077911,   0.201009,   0.202205,   0.000000,   777.747070,   0.533951,   22.811810,   31.981392,   754.706421,   136.444717,   121.556641,   0.408203,   727.702759,   707.411926
-0.076820,   0.197495,   0.198589,   0.000000,   774.796997,   0.533951,   22.811810,   31.311045,   751.252808,   135.217926,   122.712585,   0.407328,   725.435669,   705.707947
-0.075705,   0.193925,   0.194907,   0.000000,   771.716553,   0.533950,   22.811810,   30.640696,   747.760376,   133.856308,   123.615036,   0.406430,   723.057861,   703.898743
-0.074567,   0.190298,   0.191160,   0.000000,   768.501709,   0.533951,   22.811810,   29.970348,   744.231750,   132.355652,   124.254738,   0.405510,   720.564575,   701.978455
-0.073410,   0.186621,   0.187357,   0.000000,   765.153931,   0.533951,   22.811810,   29.299999,   740.670532,   130.713196,   124.632492,   0.404566,   717.957642,   699.948486
-0.072247,   0.182886,   0.183486,   0.000000,   761.627686,   0.533951,   22.811810,   28.629652,   737.049622,   128.838409,   124.710556,   0.403553,   715.219788,   697.815369
-0.071062,   0.179099,   0.179559,   0.000000,   757.960083,   0.533950,   22.811810,   27.959303,   733.384827,   126.818336,   124.541107,   0.402512,   712.362976,   695.567810
-0.069868,   0.175267,   0.175582,   0.000000,   754.126709,   0.533951,   22.811810,   27.288956,   729.658325,   124.590630,   124.111717,   0.401404,   709.384705,   693.220825
-0.068666,   0.171391,   0.171556,   0.000000,   750.120483,   0.533951,   22.811810,   26.618608,   725.861267,   122.143944,   123.426987,   0.400219,   706.283813,   690.776062
-0.067454,   0.167468,   0.167479,   0.000000,   745.918518,   0.533951,   22.811810,   25.948259,   721.978088,   119.433701,   122.467598,   0.398932,   703.052734,   688.235168
-0.066232,   0.163501,   0.163355,   0.000000,   741.524780,   0.533951,   22.811810,   25.277912,   718.000732,   116.481308,   121.258186,   0.397547,   699.692749,   685.593933
-0.065000,   0.159486,   0.159180,   0.000000,   736.921753,   0.533951,   22.811810,   24.607563,   713.912781,   113.261223,   119.790672,   0.396044,   696.197083,   682.849670
-0.063753,   0.155417,   0.154949,   0.000000,   732.087524,   0.533951,   22.811810,   23.937216,   709.690918,   109.748726,   118.060501,   0.394404,   692.555542,   679.995972
-0.062486,   0.151284,   0.150654,   0.000000,   727.006775,   0.533951,   22.811810,   23.266867,   705.316284,   105.941040,   116.065636,   0.392619,   688.757080,   677.018616
-0.061196,   0.147080,   0.146286,   0.000000,   721.662781,   0.533950,   22.811810,   22.596519,   700.768677,   101.825714,   113.802116,   0.390675,   684.793213,   673.907715
-0.059872,   0.142784,   0.141829,   0.000000,   716.012817,   0.533951,   22.811810,   21.926172,   695.997986,   97.391571,   111.272675,   0.388556,   680.631226,   670.628967
-0.058501,   0.138379,   0.137262,   0.000000,   710.034180,   0.533951,   22.811810,   21.255823,   690.976257,   92.641968,   108.472115,   0.386256,   676.251404,   667.155273
-0.057075,   0.133843,   0.132567,   0.000000,   703.681519,   0.533951,   22.811810,   20.585474,   685.660400,   87.547188,   105.372734,   0.383751,   671.622864,   663.454041
-0.055579,   0.129147,   0.127714,   0.000000,   696.901978,   0.533950,   22.811810,   19.915127,   679.972717,   82.102165,   102.020203,   0.381013,   666.708923,   659.485168
-0.053983,   0.124259,   0.122674,   0.000000,   689.644592,   0.533951,   22.811810,   19.244780,   673.880920,   76.311951,   98.327858,   0.378053,   661.452148,   655.173828
-0.052283,   0.119145,   0.117415,   0.000000,   681.901367,   0.533951,   22.811810,   18.574430,   667.323242,   70.321564,   94.422989,   0.374929,   655.808899,   650.446838
-0.050447,   0.113751,   0.111880,   0.000000,   673.413147,   0.533951,   22.811810,   17.904083,   660.125854,   63.736053,   90.005386,   0.371406,   649.659546,   645.230530
-0.048393,   0.108068,   0.106075,   0.000000,   664.452759,   0.533951,   22.811810,   17.233734,   652.416565,   57.344952,   85.482468,   0.367945,   642.996765,   639.390381
-0.046205,   0.102098,   0.099985,   0.000000,   654.665405,   0.533951,   22.811810,   16.563387,   643.965332,   50.473320,   80.404579,   0.364126,   635.712585,   632.904175
-0.043815,   0.095876,   0.093659,   0.000000,   644.223572,   0.533951,   22.811810,   15.893039,   634.852295,   43.588676,   75.024849,   0.360213,   627.814697,   625.711548
-0.041306,   0.089153,   0.086833,   0.000000,   632.114319,   0.533950,   22.811810,   15.222691,   624.188110,   35.341938,   68.775917,   0.355238,   618.862061,   617.493591
-0.038367,   0.081993,   0.079599,   0.000000,   619.414429,   0.533950,   22.811810,   14.552342,   612.791870,   28.349289,   62.564819,   0.351017,   608.841858,   607.968628
-0.035195,   0.074393,   0.071934,   0.000000,   605.045105,   0.533951,   22.811810,   13.881994,   599.973816,   20.630978,   54.440281,   0.346271,   597.417236,   596.961060
-0.031615,   0.066473,   0.063977,   0.000000,   590.393738,   0.533950,   22.811810,   13.211646,   586.860901,   15.430154,   45.069347,   0.343458,   584.535889,   584.263367
-0.027905,   0.058308,   0.055783,   0.000000,   574.326660,   0.533951,   22.811810,   12.541299,   572.480896,   10.700250,   32.254047,   0.341071,   569.950989,   569.796204
-0.024011,   0.050070,   0.047543,   0.000000,   556.933533,   0.533951,   22.811810,   11.870951,   556.426025,   6.899391,   16.707554,   0.339088,   553.765259,   553.682190
-0.019932,   0.042072,   0.039571,   0.000000,   539.123047,   0.533951,   22.811810,   11.200602,   539.120483,   5.629830,   -1.165059,   0.338566,   536.331543,   536.265137
-0.016216,   0.034627,   0.032193,   -0.001597,   518.498657,   0.533950,   22.811810,   10.530254,   517.485901,   1.011183,   -22.893250,   0.333332,   518.499512,   518.499573
-0.012870,   0.027781,   0.025460,   -9.585671,   495.365601,   0.533951,   22.811810,   9.859906,   491.752472,   -5.972534,   -42.560589,   0.323706,   500.227325,   500.020569
-0.149983,   0.336484,   0.336021,   0.000000,   820.503174,   0.534530,   23.803621,   48.912712,   793.597107,   61.858101,   142.871094,   0.354844,   803.597412,   801.884521
-0.142724,   0.330274,   0.329923,   0.000000,   824.014465,   0.534527,   23.803621,   48.236412,   799.229065,   75.833572,   136.176147,   0.364740,   799.713257,   796.035156
-0.135902,   0.323723,   0.323562,   0.000000,   826.684082,   0.534530,   23.803621,   47.560112,   803.716187,   88.738197,   130.188522,   0.373800,   795.839844,   789.690613
-0.129568,   0.316926,   0.317002,   0.000000,   828.442993,   0.534528,   23.803621,   46.883808,   807.032288,   100.227264,   124.866318,   0.381852,   791.981506,   783.085266
-0.123706,   0.309941,   0.310279,   0.000000,   829.450989,   0.534528,   23.803621,   46.207512,   809.321228,   110.547363,   120.296883,   0.389045,   788.141663,   776.344482
-0.118226,   0.302787,   0.303397,   0.000000,   829.806335,   0.534530,   23.803621,   45.531208,   810.707947,   119.858246,   116.442505,   0.395500,   784.295776,   769.532104
-0.113169,   0.295484,   0.296358,   0.000000,   829.408813,   0.534528,   23.803621,   44.854908,   811.076904,   127.834221,   113.407318,   0.401018,   780.440613,   762.870178
-0.108488,   0.288079,   0.289197,   0.000000,   828.402405,   0.534527,   23.803621,   44.178608,   810.621765,   134.730179,   111.058273,   0.405786,   776.560669,   756.367004
-0.104165,   0.280607,   0.281942,   0.000000,   826.846985,   0.534530,   23.803621,   43.502308,   809.451904,   140.622482,   109.256233,   0.409883,   772.638794,   750.051331
-0.100279,   0.273152,   0.274671,   0.000000,   824.791992,   0.534528,   23.803621,   42.826008,   807.564575,   145.498184,   108.177971,   0.413265,   768.725220,   744.074829
-0.096763,   0.265817,   0.267486,   0.000000,   822.360352,   0.534528,   23.803621,   42.149708,   805.122131,   149.506363,   107.697838,   0.416040,   764.852539,   738.461426
-0.093598,   0.258674,   0.260462,   0.000000,   819.640137,   0.534530,   23.803621,   41.473408,   802.231812,   152.748734,   107.747284,   0.418273,   761.049683,   733.238220
-0.090760,   0.251767,   0.253641,   0.000000,   816.698120,   0.534527,   23.803621,   40.797108,   798.979126,   155.312073,   108.254791,   0.420022,   757.334595,   728.413208
-0.088216,   0.245122,   0.247051,   0.000000,   813.588135,   0.534530,   23.803621,   40.120808,   795.438904,   157.277557,   109.139915,   0.421341,   753.716858,   723.976501
-0.085910,   0.238759,   0.240724,   0.000000,   810.376038,   0.534528,   23.803621,   39.444504,   791.691040,   158.754745,   110.342842,   0.422300,   750.213074,   719.906799
-0.083849,   0.232671,   0.234639,   0.000000,   807.052856,   0.534528,   23.803621,   38.768208,   787.770630,   159.725861,   111.722504,   0.422913,   746.802063,   716.180847
-0.081968,   0.226834,   0.228784,   0.000000,   803.673828,   0.534530,   23.803621,   38.091904,   783.717529,   160.352249,   113.306305,   0.423263,   743.485107,   712.740112
-0.080229,   0.221227,   0.223137,   0.000000,   800.216858,   0.534527,   23.803621,   37.415604,   779.565918,   160.590240,   114.929939,   0.423359,   740.235291,   709.553650
-0.078591,   0.215845,   0.217702,   0.000000,   796.719055,   0.534528,   23.803621,   36.739307,   775.351257,   160.526657,   116.593460,   0.423249,   737.058960,   706.590332
-0.077095,   0.210697,   0.212476,   0.000000,   793.148987,   0.534530,   23.803621,   36.063004,   771.079102,   160.062790,   118.203781,   0.422892,   733.947144,   703.867859
-0.075693,   0.205772,   0.207458,   0.000000,   789.545776,   0.534528,   23.803621,   35.386703,   766.786438,   159.296906,   119.766609,   0.422345,   730.905151,   701.346436
-0.074383,   0.201020,   0.202595,   0.000000,   785.865295,   0.534530,   23.803621,   34.710403,   762.444641,   158.193787,   121.245590,   0.421597,   727.897400,   698.994446
-0.073099,   0.196433,   0.197892,   0.000000,   782.153870,   0.534528,   23.803621,   34.034103,   758.101746,   156.869049,   122.635338,   0.420718,   724.928772,   696.761780
-0.071853,   0.191994,   0.193330,   0.000000,   778.394775,   0.534527,   23.803621,   33.357803,   753.754822,   155.303329,   123.907021,   0.419703,   721.985962,   694.633606
-0.070648,   0.187676,   0.188879,   0.000000,   774.550476,   0.534530,   23.803621,   32.681503,   749.393555,   153.444077,   125.000511,   0.418537,   719.041870,   692.588867
-0.069454,   0.183462,   0.184527,   0.000000,   770.655518,   0.534528,   23.803621,   32.005203,   745.051575,   151.409485,   125.917191,   0.417295,   716.089539,   690.567078
-0.068278,   0.179337,   0.180260,   0.000000,   766.690552,   0.534529,   23.803621,   31.328901,   740.723694,   149.171616,   126.629478,   0.415966,   713.115601,   688.557312
-0.067115,   0.175289,   0.176067,   0.000000,   762.653381,   0.534528,   23.803621,   30.652601,   736.419922,   146.747864,   127.111450,   0.414570,   710.107849,   686.532532
-0.065963,   0.171304,   0.171933,   0.000000,   758.539429,   0.534529,   23.803621,   29.976301,   732.146362,   144.151657,   127.340324,   0.413122,   707.053467,   684.467834
-0.064820,   0.167370,   0.167847,   0.000000,   754.343750,   0.534528,   23.803621,   29.300001,   727.904053,   141.397095,   127.303261,   0.411636,   703.940552,   682.341614
-0.063683,   0.163473,   0.163795,   0.000000,   750.040161,   0.534529,   23.803621,   28.623699,   723.681396,   138.443893,   126.968163,   0.410095,   700.753113,   680.146118
-0.062550,   0.159606,   0.159770,   0.000000,   745.639954,   0.534528,   23.803621,   27.947399,   719.478088,   135.340134,   126.359001,   0.408522,   697.489197,   677.864075
-0.061422,   0.155762,   0.155768,   0.000000,   741.125610,   0.534528,   23.803621,   27.271099,   715.280212,   132.057053,   125.465645,   0.406900,   694.141113,   675.495972
-0.060299,   0.151933,   0.151780,   0.000000,   736.480652,   0.534529,   23.803621,   26.594799,   711.067627,   128.575623,   124.292831,   0.405213,   690.701843,   673.041138
-0.059176,   0.148110,   0.147797,   0.000000,   731.694763,   0.534529,   23.803621,   25.918497,   706.829224,   124.879684,   122.836441,   0.403447,   687.168274,   670.499878
-0.058051,   0.144288,   0.143815,   0.000000,   726.749146,   0.534528,   23.803621,   25.242197,   702.534790,   120.979630,   121.112831,   0.401603,   683.523010,   667.852173
-0.056925,   0.140460,   0.139827,   0.000000,   721.633789,   0.534529,   23.803621,   24.565897,   698.171631,   116.854240,   119.119476,   0.399660,   679.766602,   665.103088
-0.055793,   0.136616,   0.135824,   0.000000,   716.326294,   0.534528,   23.803621,   23.889597,   693.710876,   112.485069,   116.859406,   0.397599,   675.887512,   662.245361
-0.054646,   0.132740,   0.131790,   0.000000,   710.803894,   0.534529,   23.803621,   23.213297,   689.121094,   107.865746,   114.338867,   0.395407,   671.870850,   659.263123
-0.053480,   0.128825,   0.127719,   0.000000,   705.060852,   0.534528,   23.803621,   22.536997,   684.391846,   103.024529,   111.550354,   0.393097,   667.703186,   656.130615
-0.052292,   0.124854,   0.123596,   0.000000,   699.060303,   0.534528,   23.803621,   21.860695,   679.469971,   97.929115,   108.518913,   0.390632,   663.369202,   652.840881
-0.051061,   0.120800,   0.119393,   0.000000,   692.745239,   0.534529,   23.803621,   21.184395,   674.302307,   92.537895,   105.212128,   0.387981,   658.830078,   649.357056
-0.049780,   0.116646,   0.115093,   0.000000,   686.086792,   0.534529,   23.803621,   20.508095,   668.857422,   86.861702,   101.608429,   0.385145,   654.056519,   645.638367
-0.048447,   0.112374,   0.110684,   0.000000,   679.102356,   0.534528,   23.803621,   19.831795,   663.094604,   81.036148,   97.845337,   0.382172,   649.036072,   641.645508
-0.047032,   0.107935,   0.106111,   0.000000,   671.557800,   0.534529,   23.803621,   19.155495,   656.855835,   74.676170,   93.676697,   0.378834,   643.669617,   637.338013
-0.045460,   0.103321,   0.101380,   0.000000,   663.694885,   0.534528,   23.803621,   18.479193,   650.246948,   68.460861,   89.468811,   0.375518,   637.969849,   632.600403
-0.043816,   0.098388,   0.096328,   0.000000,   654.914246,   0.534529,   23.803621,   17.802893,   642.803528,   61.480656,   84.775536,   0.371647,   631.677856,   627.315125
-0.041996,   0.093295,   0.091134,   0.000000,   645.682556,   0.534528,   23.803621,   17.126593,   634.906982,   54.497292,   79.814629,   0.367700,   624.969788,   621.514893
-0.040155,   0.087949,   0.085691,   0.000000,   635.538574,   0.534528,   23.803621,   16.450293,   626.157471,   46.867672,   74.312614,   0.363219,   617.648987,   615.081726
-0.037988,   0.082286,   0.079953,   0.000000,   624.784180,   0.534529,   23.803621,   15.773993,   616.726562,   39.659866,   68.663849,   0.358918,   609.597778,   607.750671
-0.035662,   0.076163,   0.073766,   0.000000,   612.478882,   0.534528,   23.803621,   15.097692,   605.790833,   31.474516,   62.336151,   0.353759,   600.469482,   599.316956
-0.032966,   0.069654,   0.067216,   0.000000,   599.028809,   0.534528,   23.803621,   14.421391,   593.579834,   23.420555,   56.004227,   0.348441,   590.248230,   589.632141
-0.030092,   0.062546,   0.060083,   0.000000,   583.039734,   0.534529,   23.803621,   13.745091,   578.833740,   13.740830,   48.933273,   0.341543,   578.331238,   578.154358
-0.026763,   0.055008,   0.052543,   0.000000,   565.433167,   0.534528,   23.803621,   13.068790,   562.378113,   4.730145,   41.388012,   0.334816,   564.597473,   564.591919
-0.023105,   0.046796,   0.044355,   -5.790358,   545.053467,   0.534529,   23.803621,   12.392490,   543.177795,   -3.914664,   32.088879,   0.328036,   547.971558,   547.902771
-0.018823,   0.037910,   0.035523,   -10.308948,   522.106812,   0.534528,   23.803621,   11.716190,   521.348267,   -9.550387,   20.082184,   0.323511,   527.336853,   527.110107
-0.014278,   0.028628,   0.026328,   -13.613427,   494.823608,   0.534529,   23.803621,   11.039889,   494.805176,   -13.594986,   3.061991,   0.319676,   501.768860,   501.353119
-0.009403,   0.019350,   0.017176,   -9.562796,   465.083984,   0.534528,   23.803621,   10.363589,   463.987000,   -8.465804,   -22.792110,   0.323107,   469.938385,   469.719391
-0.004974,   0.010689,   0.008679,   -5.813052,   426.800171,   0.534529,   23.803621,   9.687288,   422.609924,   -1.622820,   -42.369705,   0.326547,   429.736176,   429.647736
-0.156143,   0.351559,   0.352830,   0.000000,   830.402588,   0.535148,   24.786791,   49.127861,   789.852051,   70.599068,   175.529053,   0.351580,   815.793518,   814.546936
-0.148175,   0.344050,   0.345297,   0.000000,   833.136597,   0.535147,   24.786791,   48.444141,   795.050049,   83.756218,   168.941803,   0.361084,   811.266479,   808.366699
-0.140570,   0.336126,   0.337431,   0.000000,   835.206909,   0.535148,   24.786791,   47.760422,   799.458069,   96.321686,   162.524673,   0.370175,   806.627991,   801.487061
-0.133354,   0.327838,   0.329258,   0.000000,   836.531250,   0.535148,   24.786791,   47.076702,   802.944702,   108.046707,   156.420135,   0.378681,   801.898071,   794.064575
-0.126550,   0.319252,   0.320824,   0.000000,   837.122620,   0.535148,   24.786791,   46.392986,   805.450195,   118.871765,   150.826828,   0.386531,   797.108154,   786.270142
-0.120157,   0.310446,   0.312189,   0.000000,   837.056213,   0.535148,   24.786791,   45.709267,   807.038208,   128.861450,   145.803284,   0.393762,   792.272400,   778.219177
-0.114172,   0.301479,   0.303396,   0.000000,   836.312622,   0.535148,   24.786791,   45.025547,   807.686584,   137.861252,   141.399765,   0.400283,   787.398499,   770.074585
-0.108590,   0.292401,   0.294480,   0.000000,   834.943054,   0.535147,   24.786791,   44.341827,   807.459961,   145.902771,   137.611649,   0.406127,   782.482910,   761.931091
-0.103384,   0.283248,   0.285466,   0.000000,   832.972046,   0.535148,   24.786791,   43.658108,   806.423706,   152.969452,   134.361176,   0.411311,   777.508484,   753.863342
-0.098573,   0.274082,   0.276413,   0.000000,   830.430115,   0.535148,   24.786791,   42.974388,   804.576172,   159.023666,   131.751755,   0.415791,   772.502625,   746.019836
-0.094146,   0.264990,   0.267404,   0.000000,   827.418213,   0.535150,   24.786791,   42.290668,   802.073608,   164.179794,   129.651550,   0.419666,   767.477295,   738.427856
-0.090102,   0.256050,   0.258513,   0.000000,   824.003296,   0.535148,   24.786791,   41.606945,   798.999939,   168.477203,   128.024857,   0.422964,   762.458679,   731.156799
-0.086430,   0.247340,   0.249820,   0.000000,   820.257019,   0.535147,   24.786791,   40.923229,   795.440308,   171.960159,   126.840874,   0.425710,   757.480896,   724.271912
-0.083114,   0.238921,   0.241387,   0.000000,   816.245789,   0.535148,   24.786791,   40.239510,   791.477722,   174.676010,   126.057312,   0.427933,   752.574158,   717.820129
-0.080125,   0.230847,   0.233271,   0.000000,   812.050049,   0.535148,   24.786791,   39.555790,   787.200684,   176.722260,   125.648293,   0.429687,   747.771545,   711.820251
-0.077448,   0.223143,   0.225497,   0.000000,   807.692139,   0.535148,   24.786791,   38.872070,   782.672668,   178.078125,   125.509346,   0.430976,   743.080872,   706.296082
-0.075015,   0.215797,   0.218066,   0.000000,   803.258606,   0.535148,   24.786791,   38.188351,   777.931580,   178.959686,   125.744255,   0.431892,   738.525940,   701.207397
-0.072787,   0.208791,   0.210959,   0.000000,   798.700073,   0.535147,   24.786791,   37.504631,   773.057312,   179.220596,   126.036362,   0.432425,   734.060852,   696.525085
-0.070794,   0.202174,   0.204215,   0.000000,   794.093384,   0.535148,   24.786791,   36.820915,   768.119568,   178.975159,   126.399971,   0.432627,   729.723450,   692.240967
-0.069028,   0.195944,   0.197836,   0.000000,   789.443726,   0.535148,   24.786791,   36.137192,   763.143188,   178.198044,   126.791473,   0.432490,   725.520264,   688.367004
-0.067384,   0.190061,   0.191802,   0.000000,   784.808167,   0.535148,   24.786791,   35.453476,   758.173950,   177.065491,   127.227097,   0.432110,   721.452454,   684.819458
-0.065882,   0.184494,   0.186073,   0.000000,   780.134766,   0.535148,   24.786791,   34.769756,   753.193726,   175.476654,   127.632706,   0.431443,   717.492371,   681.599976
-0.064475,   0.179218,   0.180632,   0.000000,   775.469238,   0.535148,   24.786791,   34.086037,   748.246277,   173.574188,   128.005280,   0.430573,   713.638794,   678.631775
-0.063158,   0.174212,   0.175457,   0.000000,   770.792664,   0.535147,   24.786791,   33.402317,   743.323792,   171.328476,   128.322311,   0.429486,   709.880981,   675.907166
-0.061915,   0.169450,   0.170523,   0.000000,   766.087708,   0.535148,   24.786791,   32.718597,   738.429260,   168.721146,   128.538818,   0.428182,   706.203003,   673.402039
-0.060731,   0.164907,   0.165807,   0.000000,   761.369934,   0.535148,   24.786791,   32.034878,   733.578430,   165.832870,   128.650238,   0.426710,   702.594543,   671.059143
-0.059595,   0.160557,   0.161284,   0.000000,   756.625977,   0.535148,   24.786791,   31.351158,   728.771057,   162.666046,   128.626282,   0.425077,   699.038879,   668.847351
-0.058500,   0.156376,   0.156931,   0.000000,   751.848816,   0.535147,   24.786791,   30.667439,   724.011169,   159.243118,   128.439636,   0.423307,   695.519226,   666.727295
-0.057436,   0.152342,   0.152726,   0.000000,   747.032715,   0.535149,   24.786791,   29.983719,   719.301941,   155.592438,   128.066803,   0.421421,   692.018555,   664.658752
-0.056397,   0.148430,   0.148644,   0.000000,   742.169128,   0.535147,   24.786791,   29.299999,   714.644653,   151.736008,   127.480774,   0.419442,   688.518311,   662.603760
-0.055377,   0.144620,   0.144665,   0.000000,   737.250427,   0.535148,   24.786791,   28.616280,   710.041565,   147.685120,   126.654602,   0.417382,   685.004761,   660.535156
-0.054370,   0.140891,   0.140769,   0.000000,   732.263977,   0.535148,   24.786791,   27.932560,   705.477539,   143.483215,   125.583946,   0.415271,   681.451233,   658.405762
-0.053373,   0.137228,   0.136941,   0.000000,   727.206299,   0.535147,   24.786791,   27.248842,   700.954224,   139.137695,   124.249809,   0.413116,   677.850281,   656.201111
-0.052384,   0.133617,   0.133167,   0.000000,   722.058777,   0.535148,   24.786791,   26.565123,   696.452759,   134.635956,   122.644066,   0.410908,   674.188660,   653.911438
-0.051398,   0.130040,   0.129430,   0.000000,   716.805908,   0.535148,   24.786791,   25.881403,   691.949463,   129.984421,   120.773758,   0.408646,   670.452271,   651.521118
-0.050409,   0.126483,   0.125714,   0.000000,   711.434692,   0.535147,   24.786791,   25.197683,   687.428345,   125.194885,   118.631638,   0.406337,   666.625366,   649.009216
-0.049413,   0.122936,   0.122010,   0.000000,   705.921509,   0.535148,   24.786791,   24.513964,   682.862183,   120.238609,   116.212921,   0.403955,   662.697510,   646.375061
-0.048413,   0.119389,   0.118311,   0.000000,   700.250122,   0.535147,   24.786791,   23.830246,   678.225037,   115.107513,   113.524460,   0.401488,   658.660400,   643.613159
-0.047401,   0.115825,   0.114597,   0.000000,   694.391968,   0.535148,   24.786791,   23.146526,   673.465210,   109.796371,   110.605957,   0.398912,   654.497986,   640.712769
-0.046359,   0.112223,   0.110849,   0.000000,   688.310913,   0.535148,   24.786791,   22.462807,   668.562988,   104.285965,   107.393135,   0.396225,   650.177002,   637.636353
-0.045287,   0.108574,   0.107060,   0.000000,   682.041565,   0.535148,   24.786791,   21.779087,   663.506165,   98.713196,   103.981873,   0.393487,   645.697021,   634.352600
-0.044189,   0.104856,   0.103208,   0.000000,   675.415527,   0.535148,   24.786791,   21.095367,   658.175903,   92.743111,   100.224968,   0.390489,   641.007507,   630.886902
-0.043042,   0.101052,   0.099272,   0.000000,   668.453308,   0.535148,   24.786791,   20.411648,   652.563354,   86.531242,   96.159790,   0.387317,   636.081421,   627.165222
-0.041784,   0.097147,   0.095251,   0.000000,   661.286499,   0.535147,   24.786791,   19.727928,   646.700989,   80.471619,   92.040665,   0.384181,   630.928833,   623.118652
-0.040496,   0.093020,   0.091005,   0.000000,   653.373840,   0.535148,   24.786791,   19.044209,   640.170227,   73.701668,   87.485847,   0.380535,   625.323608,   618.688171
-0.039100,   0.088807,   0.086689,   0.000000,   645.130920,   0.535147,   24.786791,   18.360491,   633.300415,   66.876709,   82.710495,   0.376777,   619.444824,   613.905945
-0.037630,   0.084498,   0.082291,   0.000000,   636.507935,   0.535148,   24.786791,   17.676771,   626.020996,   59.986164,   77.755630,   0.372876,   613.258362,   608.739563
-0.036108,   0.079908,   0.077614,   0.000000,   626.750916,   0.535148,   24.786791,   16.993052,   617.690796,   51.975307,   72.163307,   0.368090,   606.433228,   603.002686
-0.034343,   0.075047,   0.072688,   0.000000,   616.321594,   0.535147,   24.786791,   16.309332,   608.598083,   44.076180,   66.481041,   0.363218,   598.973145,   596.483582
-0.032434,   0.069841,   0.067430,   0.000000,   604.781860,   0.535149,   24.786791,   15.625613,   598.370117,   35.780708,   60.400932,   0.357886,   590.645203,   588.999023
-0.030218,   0.064320,   0.061878,   0.000000,   592.325500,   0.535148,   24.786791,   14.941894,   587.174805,   27.729774,   53.926441,   0.352564,   581.364929,   580.377136
-0.027872,   0.058385,   0.055926,   0.000000,   578.180420,   0.535148,   24.786791,   14.258174,   574.305725,   19.012117,   46.546703,   0.346506,   570.762207,   570.310242
-0.025140,   0.052114,   0.049662,   0.000000,   562.655151,   0.535148,   24.786791,   13.574455,   559.911377,   10.619913,   38.918598,   0.340356,   558.758667,   558.633728
-0.022208,   0.045161,   0.042737,   -2.140509,   543.230286,   0.535148,   24.786791,   12.890736,   541.508484,   -0.418711,   30.594995,   0.331365,   544.303711,   544.294189
-0.018714,   0.037638,   0.035273,   -12.919216,   520.298706,   0.535148,   24.786791,   12.207016,   519.306213,   -11.926701,   22.983519,   0.320998,   526.877136,   526.520569
-0.014880,   0.029457,   0.027181,   -24.799309,   492.006897,   0.535148,   24.786791,   11.523296,   491.638306,   -24.430706,   13.797095,   0.308471,   504.863556,   503.490417
-0.010456,   0.020582,   0.018432,   -33.232830,   457.848846,   0.535148,   24.786791,   10.839578,   457.828949,   -33.212925,   3.126355,   0.297765,   475.337402,   472.713043
-0.005511,   0.010952,   0.008993,   -41.998474,   408.884857,   0.535148,   24.786791,   10.155858,   408.782349,   -41.895954,   -6.798113,   0.283472,   431.420044,   426.784454
-0.000983,   0.002163,   0.000494,   -47.706398,   337.048279,   0.535148,   24.786791,   9.472138,   336.203491,   -46.861599,   -18.009056,   0.265506,   363.258575,   356.108490
-0.153165,   0.345566,   0.348651,   0.000000,   829.089172,   0.535738,   25.759434,   49.385132,   772.999390,   75.832886,   205.548050,   0.345308,   819.396057,   818.860596
-0.144915,   0.336893,   0.339789,   0.000000,   830.503235,   0.535738,   25.759434,   48.692539,   776.432556,   87.234032,   200.472076,   0.353486,   814.428101,   812.906860
-0.137022,   0.328002,   0.330790,   0.000000,   831.703430,   0.535738,   25.759434,   47.999950,   779.884033,   98.755493,   194.886902,   0.361912,   809.256836,   806.185913
-0.129491,   0.318866,   0.321610,   0.000000,   832.502686,   0.535738,   25.759434,   47.307358,   783.031982,   110.083900,   189.046524,   0.370321,   803.911743,   798.746460
-0.122336,   0.309507,   0.312254,   0.000000,   832.794556,   0.535738,   25.759434,   46.614769,   785.648438,   121.004158,   183.188904,   0.378514,   798.431763,   790.691406
-0.115581,   0.299975,   0.302755,   0.000000,   832.530151,   0.535738,   25.759434,   45.922176,   787.605591,   131.368134,   177.480728,   0.386359,   792.850586,   782.143188
-0.109234,   0.290332,   0.293159,   0.000000,   831.691711,   0.535738,   25.759434,   45.229588,   788.838013,   141.061310,   172.035065,   0.393760,   787.195923,   773.233459
-0.103298,   0.280635,   0.283513,   0.000000,   830.274597,   0.535738,   25.759434,   44.536995,   789.301025,   149.986420,   166.954636,   0.400639,   781.491577,   764.104614
-0.097763,   0.270935,   0.273854,   0.000000,   828.291626,   0.535738,   25.759434,   43.844406,   789.015137,   158.082977,   162.245010,   0.406964,   775.741943,   754.865967
-0.092620,   0.261283,   0.264227,   0.000000,   825.763794,   0.535738,   25.759434,   43.151814,   787.974792,   165.303879,   157.981445,   0.412693,   769.966736,   745.654175
-0.087871,   0.251736,   0.254684,   0.000000,   822.733459,   0.535739,   25.759434,   42.459225,   786.248901,   171.638107,   154.126312,   0.417831,   764.173706,   736.560730
-0.083509,   0.242354,   0.245279,   0.000000,   819.245972,   0.535737,   25.759434,   41.766632,   783.896118,   177.080368,   150.666687,   0.422382,   758.379395,   727.682495
-0.079525,   0.233195,   0.236071,   0.000000,   815.359070,   0.535738,   25.759434,   41.074043,   780.988220,   181.651077,   147.584213,   0.426358,   752.605896,   719.102783
-0.075909,   0.224319,   0.227119,   0.000000,   811.135132,   0.535738,   25.759434,   40.381451,   777.600647,   185.374985,   144.860367,   0.429776,   746.881836,   710.900391
-0.072646,   0.215782,   0.218480,   0.000000,   806.646667,   0.535738,   25.759434,   39.688862,   773.808594,   188.309052,   142.495651,   0.432660,   741.242126,   703.140137
-0.069718,   0.207624,   0.210196,   0.000000,   801.933716,   0.535738,   25.759434,   38.996269,   769.678528,   190.438049,   140.441833,   0.435008,   735.708740,   695.887817
-0.067044,   0.199833,   0.202280,   0.000000,   797.106995,   0.535738,   25.759434,   38.303680,   765.213745,   192.010483,   138.919052,   0.436889,   730.333191,   689.162292
-0.064675,   0.192445,   0.194732,   0.000000,   792.076721,   0.535738,   25.759434,   37.611088,   760.573730,   192.698807,   137.412445,   0.438259,   725.044922,   682.959961
-0.062603,   0.185517,   0.187620,   0.000000,   786.966492,   0.535738,   25.759434,   36.918499,   755.809448,   192.676102,   136.074722,   0.439158,   719.926758,   677.336670
-0.060736,   0.178993,   0.180906,   0.000000,   781.793152,   0.535738,   25.759434,   36.225906,   750.933655,   192.020020,   134.907806,   0.439625,   714.967834,   672.253601
-0.059043,   0.172853,   0.174573,   0.000000,   776.606934,   0.535738,   25.759434,   35.533318,   746.002380,   190.869553,   133.888870,   0.439741,   710.169189,   667.638184
-0.057514,   0.167080,   0.168601,   0.000000,   771.386169,   0.535738,   25.759434,   34.840725,   741.027039,   189.156509,   132.951065,   0.439479,   705.520447,   663.500122
-0.056122,   0.161654,   0.162974,   0.000000,   766.167175,   0.535738,   25.759434,   34.148136,   736.046021,   186.989517,   132.081482,   0.438900,   701.022461,   659.776428
-0.054846,   0.156549,   0.157668,   0.000000,   760.945740,   0.535738,   25.759434,   33.455544,   731.071289,   184.374863,   131.243118,   0.438013,   696.665222,   656.438049
-0.053667,   0.151738,   0.152657,   0.000000,   755.719788,   0.535738,   25.759434,   32.762955,   726.114136,   181.338120,   130.403000,   0.436840,   692.436218,   653.442566
-0.052568,   0.147194,   0.147916,   0.000000,   750.490662,   0.535738,   25.759434,   32.070362,   721.179504,   177.920090,   129.548019,   0.435405,   688.324890,   650.745605
-0.051535,   0.142888,   0.143415,   0.000000,   745.256226,   0.535738,   25.759434,   31.377773,   716.277588,   174.143677,   128.647049,   0.433725,   684.320496,   648.306335
-0.050553,   0.138792,   0.139129,   0.000000,   739.999207,   0.535738,   25.759434,   30.685183,   711.398132,   170.049362,   127.676086,   0.431832,   680.393188,   646.058167
-0.049613,   0.134879,   0.135030,   0.000000,   734.717896,   0.535739,   25.759434,   29.992590,   706.546631,   165.665634,   126.613243,   0.429747,   676.531921,   643.961304
-0.048704,   0.131122,   0.131092,   0.000000,   729.404907,   0.535738,   25.759434,   29.299999,   701.726135,   161.027023,   125.427277,   0.427497,   672.717163,   641.963562
-0.047819,   0.127499,   0.127292,   0.000000,   724.055237,   0.535737,   25.759434,   28.607409,   696.940430,   156.177658,   124.088219,   0.425117,   668.927917,   640.009766
-0.046949,   0.123982,   0.123602,   0.000000,   718.654175,   0.535738,   25.759434,   27.914818,   692.177795,   151.141907,   122.579208,   0.422626,   665.141968,   638.058105
-0.046087,   0.120549,   0.120001,   0.000000,   713.195618,   0.535738,   25.759434,   27.222227,   687.445557,   145.961349,   120.856537,   0.420063,   661.335388,   636.054321
-0.045231,   0.117185,   0.116474,   0.000000,   707.666809,   0.535738,   25.759434,   26.529636,   682.735413,   140.643845,   118.897743,   0.417434,   657.492065,   633.973999
-0.044378,   0.113871,   0.113001,   0.000000,   702.058167,   0.535738,   25.759434,   25.837046,   678.021057,   135.219101,   116.726921,   0.414750,   653.598450,   631.795593
-0.043515,   0.110582,   0.109558,   0.000000,   696.334534,   0.535738,   25.759434,   25.144455,   673.288147,   129.665878,   114.278938,   0.412012,   649.620422,   629.482727
-0.042641,   0.107304,   0.106130,   0.000000,   690.475769,   0.535738,   25.759434,   24.451864,   668.507507,   123.987816,   111.556061,   0.409215,   645.540649,   627.018250
-0.041756,   0.104032,   0.102712,   0.000000,   684.476807,   0.535738,   25.759434,   23.759274,   663.666443,   118.193039,   108.556763,   0.406358,   641.354614,   624.395569
-0.040856,   0.100754,   0.099295,   0.000000,   678.362854,   0.535738,   25.759434,   23.066683,   658.742493,   112.400444,   105.377411,   0.403490,   637.060242,   621.587341
-0.039927,   0.097432,   0.095839,   0.000000,   671.956726,   0.535738,   25.759434,   22.374092,   653.631653,   106.282326,   101.813622,   0.400430,   632.581055,   618.598877
-0.038915,   0.094061,   0.092346,   0.000000,   665.427490,   0.535739,   25.759434,   21.681501,   648.392334,   100.312714,   98.116318,   0.397437,   627.944031,   615.336304
-0.037901,   0.090589,   0.088750,   0.000000,   658.460632,   0.535738,   25.759434,   20.988911,   642.797729,   93.918831,   94.033760,   0.394158,   623.029602,   611.825928
-0.036838,   0.087013,   0.085055,   0.000000,   651.084351,   0.535738,   25.759434,   20.296320,   636.831970,   87.231262,   89.645172,   0.390645,   617.836060,   608.025574
-0.035699,   0.083403,   0.081342,   0.000000,   643.514954,   0.535737,   25.759434,   19.603729,   630.678467,   80.587738,   85.005859,   0.387111,   612.456360,   603.939087
-0.034519,   0.079769,   0.077619,   0.000000,   635.723694,   0.535738,   25.759434,   18.911140,   624.289551,   73.930801,   80.147476,   0.383494,   606.893555,   599.589905
-0.033327,   0.075949,   0.073708,   0.000000,   627.028198,   0.535738,   25.759434,   18.218550,   617.082397,   66.255424,   74.681450,   0.379092,   600.855530,   594.875732
-0.031951,   0.072003,   0.069693,   0.000000,   618.132019,   0.535738,   25.759434,   17.525959,   609.536011,   59.141705,   69.318604,   0.374941,   594.472961,   589.609253
-0.030522,   0.067753,   0.065379,   0.000000,   607.955627,   0.535738,   25.759434,   16.833368,   600.759216,   50.836388,   63.318626,   0.369792,   587.352783,   583.688477
-0.028890,   0.063291,   0.060872,   0.000000,   596.951721,   0.535738,   25.759434,   16.140778,   591.102905,   42.276749,   56.957909,   0.364264,   579.596985,   577.013000
-0.027100,   0.058579,   0.056133,   0.000000,   585.036804,   0.535738,   25.759434,   15.448186,   580.421204,   33.687298,   50.446033,   0.358464,   571.056213,   569.387695
-0.025133,   0.053551,   0.051094,   0.000000,   571.711426,   0.535738,   25.759434,   14.755594,   568.235718,   24.566490,   43.608696,   0.351939,   561.463257,   560.570984
-0.022937,   0.048146,   0.045699,   0.000000,   556.552917,   0.535738,   25.759434,   14.063004,   554.159790,   14.749338,   36.008282,   0.344494,   550.478821,   550.166687
-0.020482,   0.042337,   0.039920,   0.000000,   539.567871,   0.535738,   25.759434,   13.370413,   538.130798,   5.186276,   27.712059,   0.336814,   537.703125,   537.673706
-0.017661,   0.036168,   0.033806,   -4.101374,   520.686890,   0.535738,   25.759434,   12.677823,   520.001099,   -3.415578,   18.958569,   0.329403,   522.749634,   522.713440
-0.014629,   0.029624,   0.027335,   -12.699837,   498.375122,   0.535738,   25.759434,   11.985232,   498.204590,   -12.529289,   9.334522,   0.320676,   504.844818,   504.485260
-0.011325,   0.022775,   0.020581,   -23.019848,   471.066040,   0.535738,   25.759434,   11.292642,   471.052673,   -23.006479,   2.570096,   0.309219,   482.987549,   481.750946
-0.007732,   0.015593,   0.013517,   -30.948378,   438.165161,   0.535738,   25.759434,   10.600051,   438.148193,   -30.931423,   2.820135,   0.298701,   454.430420,   452.050262
-0.004129,   0.008557,   0.006624,   -21.595701,   404.854340,   0.535738,   25.759434,   9.907460,   404.122223,   -20.863598,   17.654158,   0.307045,   416.072723,   414.808960
-0.000314,   0.000861,   0.000000,   -12.778739,   177.019318,   0.535738,   25.759434,   9.214869,   176.644226,   -12.403650,   8.429143,   0.297955,   183.742264,   182.738495
-0.142313,   0.322068,   0.326780,   0.000000,   820.127197,   0.536220,   26.719685,   49.684025,   747.061096,   82.787628,   232.108826,   0.339277,   815.309875,   815.179443
-0.134210,   0.312683,   0.317028,   0.000000,   819.928223,   0.536219,   26.719685,   48.981129,   748.117859,   91.994469,   228.633255,   0.345715,   810.024780,   809.458618
-0.126545,   0.303423,   0.307490,   0.000000,   819.896057,   0.536220,   26.719685,   48.278233,   749.855896,   101.652519,   224.289795,   0.352786,   804.555847,   803.156677
-0.119279,   0.294199,   0.298058,   0.000000,   819.867737,   0.536220,   26.719685,   47.575333,   752.023499,   111.597137,   219.207825,   0.360342,   798.890381,   796.188049
-0.112399,   0.284965,   0.288670,   0.000000,   819.688599,   0.536220,   26.719685,   46.872437,   754.344116,   121.628052,   213.575302,   0.368189,   793.046204,   788.533813
-0.105908,   0.275714,   0.279306,   0.000000,   819.211243,   0.536219,   26.719685,   46.169540,   756.548523,   131.491989,   207.591843,   0.376102,   787.057068,   780.242798
-0.099808,   0.266461,   0.269969,   0.000000,   818.359741,   0.536220,   26.719685,   45.466640,   758.443176,   141.044678,   201.450714,   0.383923,   780.962524,   771.396606
-0.094101,   0.257240,   0.260678,   0.000000,   817.073669,   0.536220,   26.719685,   44.763744,   759.880981,   150.126450,   195.306213,   0.391503,   774.798279,   762.107666
-0.088785,   0.248085,   0.251460,   0.000000,   815.320007,   0.536220,   26.719685,   44.060844,   760.771606,   158.606018,   189.268860,   0.398728,   768.592529,   752.499939
-0.083850,   0.239034,   0.242344,   0.000000,   813.097107,   0.536219,   26.719685,   43.357948,   761.057678,   166.410812,   183.447998,   0.405518,   762.373047,   742.703430
-0.079290,   0.230125,   0.233360,   0.000000,   810.405273,   0.536220,   26.719685,   42.655052,   760.719421,   173.451218,   177.897736,   0.411806,   756.157715,   732.848511
-0.075095,   0.221392,   0.224539,   0.000000,   807.268066,   0.536219,   26.719685,   41.952156,   759.774841,   179.689514,   172.643311,   0.417562,   749.959839,   723.046265
-0.071252,   0.212869,   0.215912,   0.000000,   803.715088,   0.536220,   26.719685,   41.249256,   758.253662,   185.098007,   167.699768,   0.422766,   743.793213,   713.403687
-0.067751,   0.204592,   0.207511,   0.000000,   799.786926,   0.536219,   26.719685,   40.546360,   756.199402,   189.671616,   163.074905,   0.427411,   737.674438,   704.018127
-0.064578,   0.196598,   0.199374,   0.000000,   795.534424,   0.536220,   26.719685,   39.843464,   753.663086,   193.424652,   158.780167,   0.431499,   731.626648,   694.981140
-0.061720,   0.188921,   0.191536,   0.000000,   791.002625,   0.536220,   26.719685,   39.140564,   750.703308,   196.354218,   154.802841,   0.435026,   725.671021,   686.377563
-0.059118,   0.181624,   0.184090,   0.000000,   786.370728,   0.536219,   26.719685,   38.437668,   747.361633,   198.729065,   151.404694,   0.438051,   719.923828,   678.320129
-0.056866,   0.174695,   0.176963,   0.000000,   781.444214,   0.536220,   26.719685,   37.734772,   743.753357,   200.045486,   148.031815,   0.440466,   714.242981,   670.814514
-0.054852,   0.168117,   0.170179,   0.000000,   776.353577,   0.536220,   26.719685,   37.031872,   739.860657,   200.579025,   144.954086,   0.442329,   708.703247,   663.915527
-0.053039,   0.161887,   0.163737,   0.000000,   771.147461,   0.536220,   26.719685,   36.328976,   735.740601,   200.419617,   142.153778,   0.443691,   703.312561,   657.608337
-0.051417,   0.156007,   0.157642,   0.000000,   765.867310,   0.536219,   26.719685,   35.626076,   731.447388,   199.629227,   139.606110,   0.444588,   698.081970,   651.883545
-0.049961,   0.150468,   0.151884,   0.000000,   760.522583,   0.536220,   26.719685,   34.923180,   727.020264,   198.202698,   137.255356,   0.445026,   693.009766,   646.738708
-0.048652,   0.145255,   0.146451,   0.000000,   755.141785,   0.536220,   26.719685,   34.220284,   722.497375,   196.196259,   135.079391,   0.445038,   688.101318,   642.147461
-0.047466,   0.140347,   0.141325,   0.000000,   749.725403,   0.536220,   26.719685,   33.517384,   717.897034,   193.653610,   133.037018,   0.444656,   683.338135,   638.053467
-0.046383,   0.135722,   0.136485,   0.000000,   744.287964,   0.536219,   26.719685,   32.814487,   713.245361,   190.618042,   131.100601,   0.443907,   678.718567,   634.418213
-0.045386,   0.131357,   0.131907,   0.000000,   738.830261,   0.536220,   26.719685,   32.111591,   708.553772,   187.121323,   129.243240,   0.442812,   674.231995,   631.197205
-0.044459,   0.127226,   0.127570,   0.000000,   733.352539,   0.536220,   26.719685,   31.408693,   703.833557,   183.204453,   127.435532,   0.441401,   669.865356,   628.335205
-0.043587,   0.123305,   0.123448,   0.000000,   727.851685,   0.536220,   26.719685,   30.705795,   699.090210,   178.906952,   125.652077,   0.439700,   665.603516,   625.776062
-0.042758,   0.119568,   0.119516,   0.000000,   722.317505,   0.536220,   26.719685,   30.002897,   694.325378,   174.257401,   123.860313,   0.437731,   661.427368,   623.463379
-0.041959,   0.115990,   0.115750,   0.000000,   716.739929,   0.536220,   26.719685,   29.299999,   689.532471,   169.287064,   122.044235,   0.435516,   657.319214,   621.345703
-0.041184,   0.112550,   0.112128,   0.000000,   711.117554,   0.536220,   26.719685,   28.597103,   684.729736,   164.045868,   120.149986,   0.433098,   653.258667,   619.351562
-0.040426,   0.109225,   0.108628,   0.000000,   705.438232,   0.536220,   26.719685,   27.894205,   679.895996,   158.566360,   118.187630,   0.430491,   649.228882,   617.439941
-0.039670,   0.105986,   0.105221,   0.000000,   699.674683,   0.536220,   26.719685,   27.191309,   675.039001,   152.857040,   116.065575,   0.427726,   645.191528,   615.538635
-0.038916,   0.102820,   0.101892,   0.000000,   693.828125,   0.536220,   26.719685,   26.488411,   670.160950,   146.970566,   113.765427,   0.424838,   641.131653,   613.598511
-0.038160,   0.099713,   0.098630,   0.000000,   687.933228,   0.536220,   26.719685,   25.785513,   665.267456,   141.047638,   111.335503,   0.421903,   637.046021,   611.559998
-0.037399,   0.096636,   0.095403,   0.000000,   681.878235,   0.536220,   26.719685,   25.082615,   660.307983,   134.878632,   108.622772,   0.418821,   632.877686,   609.427124
-0.036626,   0.093575,   0.092199,   0.000000,   675.691101,   0.536220,   26.719685,   24.379717,   655.292419,   128.600647,   105.640488,   0.415673,   628.613525,   607.130005
-0.035828,   0.090512,   0.088997,   0.000000,   669.339111,   0.536220,   26.719685,   23.676821,   650.180542,   122.205154,   102.383163,   0.412449,   624.227783,   604.646667
-0.034960,   0.087432,   0.085795,   0.000000,   662.929810,   0.536220,   26.719685,   22.973923,   645.003479,   116.024223,   99.015160,   0.409332,   619.731445,   601.891174
-0.034093,   0.084259,   0.082495,   0.000000,   656.084290,   0.536220,   26.719685,   22.271025,   639.505371,   109.396706,   95.202301,   0.405941,   614.951538,   598.887573
-0.033186,   0.081092,   0.079213,   0.000000,   649.087830,   0.536220,   26.719685,   21.568127,   633.877991,   102.722450,   91.159889,   0.402476,   610.057434,   595.689941
-0.032245,   0.077924,   0.075939,   0.000000,   641.924683,   0.536220,   26.719685,   20.865231,   628.132935,   96.018120,   86.769913,   0.398970,   605.016846,   592.250122
-0.031260,   0.074709,   0.072632,   0.000000,   634.531006,   0.536220,   26.719685,   20.162333,   622.146179,   89.309586,   82.173492,   0.395398,   599.779907,   588.528137
-0.030270,   0.071363,   0.069192,   0.000000,   626.395447,   0.536219,   26.719685,   19.459436,   615.521423,   81.720543,   76.959801,   0.391171,   594.148621,   584.532410
-0.029135,   0.067944,   0.065699,   0.000000,   618.182617,   0.536220,   26.719685,   18.756538,   608.707520,   74.743065,   71.757591,   0.387265,   588.270508,   580.040771
-0.027971,   0.064332,   0.062016,   0.000000,   609.027466,   0.536220,   26.719685,   18.053640,   601.010315,   66.842934,   65.930099,   0.382604,   581.849182,   575.101868
-0.026706,   0.060608,   0.058236,   0.000000,   599.294189,   0.536220,   26.719685,   17.350744,   592.701416,   58.715595,   59.698521,   0.377628,   575.007324,   569.655945
-0.025271,   0.056799,   0.054393,   0.000000,   589.323303,   0.536220,   26.719685,   16.647846,   584.012634,   51.182625,   53.459118,   0.372912,   567.778809,   563.587097
-0.023810,   0.052656,   0.050220,   0.000000,   577.666931,   0.536220,   26.719685,   15.944948,   573.637207,   42.160976,   46.453568,   0.366824,   559.576538,   556.642273
-0.022154,   0.048372,   0.045928,   0.000000,   565.102295,   0.536220,   26.719685,   15.242051,   562.220032,   32.919952,   39.165001,   0.360234,   550.698242,   548.850464
-0.020371,   0.043868,   0.041433,   0.000000,   551.489197,   0.536220,   26.719685,   14.539153,   549.550110,   23.901278,   31.985109,   0.353431,   540.842651,   539.838013
-0.018368,   0.039074,   0.036666,   0.000000,   535.935364,   0.536220,   26.719685,   13.836256,   534.814819,   13.978293,   24.184040,   0.345398,   529.623535,   529.272217
-0.016185,   0.033979,   0.031618,   0.000000,   518.452271,   0.536220,   26.719685,   13.133358,   517.902344,   4.103258,   16.817987,   0.336766,   516.684753,   516.657166
-0.013778,   0.028663,   0.026365,   -4.496722,   499.393951,   0.536220,   26.719685,   12.430461,   499.199127,   -4.301887,   9.906447,   0.328841,   501.657471,   501.612122
-0.011228,   0.023150,   0.020927,   -10.822547,   478.320892,   0.536220,   26.719685,   11.727564,   478.301331,   -10.802973,   3.094220,   0.322086,   483.822998,   483.550537
-0.008488,   0.017646,   0.015507,   -9.130932,   457.943115,   0.536220,   26.719685,   11.024666,   457.942322,   -9.130142,   -0.607383,   0.323415,   462.576172,   462.373322
-0.005919,   0.012378,   0.010339,   -9.404655,   432.964844,   0.536220,   26.719685,   10.321769,   432.960815,   -9.400622,   1.335674,   0.322533,   437.742981,   437.515625
-0.003320,   0.006792,   0.004924,   -33.294460,   386.444733,   0.536220,   26.719685,   9.618871,   386.384338,   -33.234070,   5.034349,   0.291290,   404.121918,   401.018768
-0.000407,   0.000298,   0.000000,   -73.353813,   40.552185,   0.536220,   26.719685,   8.915974,   6.276206,   -39.077835,   52.243629,   -0.109339,   99.999596,   -77.990250
-0.126810,   0.288616,   0.294611,   0.000000,   807.522461,   0.536501,   27.665697,   50.023975,   715.922485,   95.091064,   255.457840,   0.335497,   805.782593,   805.765564
-0.119235,   0.279289,   0.284742,   0.000000,   806.121033,   0.536499,   27.665697,   49.309357,   715.553223,   102.631699,   252.415314,   0.340843,   800.157288,   799.952698
-0.112194,   0.270362,   0.275379,   0.000000,   804.909729,   0.536501,   27.665697,   48.594734,   715.861816,   110.288635,   248.705765,   0.346611,   794.502380,   793.863159
-0.105618,   0.261736,   0.266399,   0.000000,   803.894836,   0.536501,   27.665697,   47.880116,   716.908020,   118.213997,   244.223618,   0.352933,   788.744934,   787.352356
-0.099451,   0.253325,   0.257701,   0.000000,   802.998901,   0.536499,   27.665697,   47.165497,   718.593933,   126.399689,   238.973495,   0.359795,   782.846741,   780.306396
-0.093672,   0.245074,   0.249211,   0.000000,   802.095093,   0.536499,   27.665697,   46.450878,   720.733704,   134.704147,   233.023270,   0.367078,   776.798523,   772.661621
-0.088256,   0.236945,   0.240885,   0.000000,   801.085938,   0.536501,   27.665697,   45.736256,   723.063049,   143.044266,   226.588425,   0.374629,   770.635254,   764.427368
-0.083192,   0.228922,   0.232691,   0.000000,   799.855042,   0.536501,   27.665697,   45.021637,   725.368225,   151.231476,   219.804230,   0.382272,   764.377686,   755.636963
-0.078473,   0.221008,   0.224624,   0.000000,   798.320374,   0.536501,   27.665697,   44.307014,   727.454102,   159.106812,   212.834915,   0.389837,   758.061768,   746.376282
-0.074091,   0.213214,   0.216688,   0.000000,   796.440186,   0.536499,   27.665697,   43.592396,   729.174988,   166.568542,   205.835922,   0.397195,   751.723938,   736.750610
-0.070035,   0.205558,   0.208892,   0.000000,   794.179993,   0.536501,   27.665697,   42.877777,   730.425110,   173.497757,   198.925964,   0.404227,   745.392395,   726.883301
-0.066296,   0.198056,   0.201249,   0.000000,   791.529846,   0.536499,   27.665697,   42.163158,   731.149292,   179.811096,   192.187210,   0.410849,   739.087463,   716.894348
-0.062861,   0.190726,   0.193773,   0.000000,   788.495483,   0.536501,   27.665697,   41.448536,   731.323425,   185.452072,   185.680511,   0.417005,   732.825134,   706.899902
-0.059718,   0.183586,   0.186476,   0.000000,   785.091614,   0.536499,   27.665697,   40.733917,   730.947632,   190.377472,   179.444168,   0.422655,   726.617310,   697.009644
-0.056853,   0.176653,   0.179376,   0.000000,   781.342163,   0.536501,   27.665697,   40.019299,   730.039978,   194.561462,   173.502487,   0.427774,   720.474976,   687.325562
-0.054252,   0.169946,   0.172490,   0.000000,   777.279541,   0.536501,   27.665697,   39.304676,   728.633240,   197.994247,   167.869263,   0.432350,   714.411072,   677.940430
-0.051910,   0.163535,   0.165901,   0.000000,   773.050537,   0.536499,   27.665697,   38.590057,   726.768188,   200.839111,   162.736893,   0.436400,   708.530029,   669.006165
-0.049850,   0.157405,   0.159564,   0.000000,   768.506775,   0.536501,   27.665697,   37.875439,   724.513306,   202.711807,   157.769745,   0.439826,   702.721924,   660.562378
-0.047986,   0.151523,   0.153470,   0.000000,   763.744873,   0.536499,   27.665697,   37.160820,   721.863403,   203.844971,   153.132034,   0.442697,   697.021973,   652.638000
-0.046311,   0.145905,   0.147635,   0.000000,   758.818481,   0.536501,   27.665697,   36.446198,   718.871948,   204.297836,   148.832672,   0.445040,   691.450623,   645.270996
-0.044811,   0.140557,   0.142066,   0.000000,   753.753479,   0.536499,   27.665697,   35.731579,   715.582520,   204.077209,   144.850510,   0.446861,   686.015137,   638.494812
-0.043465,   0.135477,   0.136762,   0.000000,   748.572144,   0.536501,   27.665697,   35.016960,   712.040955,   203.198608,   141.149414,   0.448174,   680.717102,   632.318909
-0.042256,   0.130658,   0.131718,   0.000000,   743.296875,   0.536501,   27.665697,   34.302338,   708.282532,   201.696564,   137.709045,   0.449001,   675.558167,   626.738159
-0.041165,   0.126089,   0.126926,   0.000000,   737.943848,   0.536501,   27.665697,   33.587719,   704.342285,   199.604156,   134.495590,   0.449366,   670.535156,   621.730530
-0.040172,   0.121756,   0.122372,   0.000000,   732.524841,   0.536498,   27.665697,   32.873100,   700.248108,   196.957138,   131.477631,   0.449293,   665.642395,   617.262695
-0.039262,   0.117643,   0.118041,   0.000000,   727.045166,   0.536502,   27.665697,   32.158482,   696.020874,   193.787415,   128.623260,   0.448806,   660.870911,   613.295227
-0.038418,   0.113731,   0.113918,   0.000000,   721.508423,   0.536500,   27.665697,   31.443859,   691.677490,   190.132095,   125.902527,   0.447930,   656.210510,   609.779236
-0.037627,   0.110004,   0.109985,   0.000000,   715.916748,   0.536500,   27.665697,   30.729240,   687.229553,   186.032166,   123.291901,   0.446692,   651.650391,   606.661865
-0.036878,   0.106441,   0.106224,   0.000000,   710.264648,   0.536501,   27.665697,   30.014620,   682.696228,   181.513351,   120.734528,   0.445120,   647.173279,   603.880920
-0.036158,   0.103022,   0.102613,   0.000000,   704.543213,   0.536499,   27.665697,   29.299999,   678.056580,   176.611115,   118.250343,   0.443223,   642.766907,   601.393982
-0.035456,   0.099727,   0.099135,   0.000000,   698.733521,   0.536501,   27.665697,   28.585381,   673.337708,   171.326965,   115.732155,   0.441031,   638.402283,   599.126038
-0.034770,   0.096548,   0.095780,   0.000000,   692.876038,   0.536500,   27.665697,   27.870760,   668.539673,   165.809326,   113.255836,   0.438608,   634.088806,   597.010254
-0.034094,   0.093454,   0.092518,   0.000000,   686.880310,   0.536501,   27.665697,   27.156141,   663.642883,   159.898590,   110.660233,   0.435895,   629.770508,   595.020752
-0.033419,   0.090435,   0.089338,   0.000000,   680.778687,   0.536499,   27.665697,   26.441521,   658.669495,   153.734558,   107.946762,   0.432976,   625.441467,   593.065735
-0.032704,   0.087471,   0.086229,   0.000000,   674.642029,   0.536501,   27.665697,   25.726900,   653.646301,   147.574860,   105.195847,   0.429999,   621.102722,   591.028381
-0.031996,   0.084516,   0.083127,   0.000000,   668.264465,   0.536500,   27.665697,   25.012281,   648.452942,   141.069855,   102.198517,   0.426786,   616.642822,   588.915955
-0.031269,   0.081572,   0.080045,   0.000000,   661.708191,   0.536500,   27.665697,   24.297661,   643.139343,   134.380692,   98.953773,   0.423434,   612.075500,   586.660278
-0.030513,   0.078598,   0.076939,   0.000000,   654.897339,   0.536500,   27.665697,   23.583042,   637.616028,   127.488693,   95.468971,   0.419921,   607.339844,   584.204712
-0.029718,   0.075662,   0.073885,   0.000000,   648.018799,   0.536501,   27.665697,   22.868422,   632.057617,   120.644745,   91.747063,   0.416408,   602.536377,   581.546692
-0.028910,   0.072774,   0.070891,   0.000000,   641.040955,   0.536499,   27.665697,   22.153801,   626.448975,   113.732376,   87.718109,   0.412815,   597.669861,   578.735291
-0.028120,   0.069830,   0.067840,   0.000000,   633.670776,   0.536501,   27.665697,   21.439182,   620.495361,   106.459572,   83.344109,   0.408934,   592.561584,   575.693542
-0.027243,   0.066822,   0.064739,   0.000000,   625.975464,   0.536500,   27.665697,   20.724562,   614.251404,   99.049614,   78.598312,   0.404915,   587.202942,   572.320374
-0.026279,   0.063769,   0.061608,   0.000000,   618.172424,   0.536501,   27.665697,   20.009941,   607.830505,   92.052094,   73.763878,   0.401099,   581.638000,   568.510132
-0.025297,   0.060565,   0.058327,   0.000000,   609.564209,   0.536499,   27.665697,   19.295322,   600.685425,   84.235115,   68.295547,   0.396643,   575.597595,   564.339783
-0.024242,   0.057304,   0.055003,   0.000000,   600.563171,   0.536501,   27.665697,   18.580702,   593.134216,   76.326561,   62.406235,   0.392013,   569.250122,   559.754517
-0.023070,   0.053999,   0.051655,   0.000000,   591.375732,   0.536500,   27.665697,   17.866083,   585.290771,   68.855110,   56.387184,   0.387557,   562.622925,   554.663086
-0.021880,   0.050465,   0.048079,   0.000000,   580.945435,   0.536500,   27.665697,   17.151463,   576.216614,   60.292725,   49.619198,   0.382114,   555.252441,   548.945374
-0.020580,   0.046879,   0.044470,   0.000000,   570.061340,   0.536500,   27.665697,   16.436844,   566.552856,   51.887978,   42.638020,   0.376540,   547.477112,   542.636597
-0.019150,   0.043264,   0.040853,   0.000000,   558.950073,   0.536500,   27.665697,   15.722223,   556.483643,   44.210976,   35.630917,   0.371287,   539.290833,   535.637695
-0.017708,   0.039364,   0.036955,   0.000000,   545.812073,   0.536501,   27.665697,   15.007604,   544.300720,   34.732502,   27.792662,   0.364184,   529.983032,   527.632812
-0.016039,   0.035394,   0.033010,   0.000000,   532.321960,   0.536500,   27.665697,   14.292984,   531.496643,   26.558506,   20.430496,   0.357774,   519.933167,   518.497498
-0.014378,   0.031228,   0.028879,   0.000000,   516.671631,   0.536501,   27.665697,   13.578364,   516.338745,   16.876051,   12.898094,   0.349464,   508.601807,   507.995911
-0.012525,   0.027070,   0.024770,   0.000000,   500.977325,   0.536500,   27.665697,   12.863744,   500.893555,   9.733301,   6.415158,   0.343009,   496.222931,   496.011780
-0.010679,   0.022844,   0.020602,   0.000000,   483.474548,   0.536500,   27.665697,   12.149125,   483.469513,   2.460758,   1.556762,   0.335876,   482.251373,   482.237274
-0.008657,   0.018464,   0.016293,   -2.743623,   464.331177,   0.536500,   27.665697,   11.434505,   464.331146,   -2.743596,   0.111769,   0.330383,   465.709045,   465.690887
-0.006593,   0.013883,   0.011805,   -9.611967,   440.508911,   0.536500,   27.665697,   10.719885,   440.505066,   -9.608117,   -1.316471,   0.322485,   445.392700,   445.159241
-0.004297,   0.009013,   0.007067,   -15.591976,   410.627625,   0.536500,   27.665697,   10.005265,   410.335754,   -15.300114,   -11.149541,   0.314538,   418.641449,   417.987427
-0.001849,   0.004110,   0.002321,   -17.996958,   372.137360,   0.536500,   27.665697,   9.290645,   371.802917,   -17.662523,   -11.417648,   0.309465,   381.454407,   380.497437
-0.001031,   0.000347,   0.000000,   -213.917709,   8.796014,   0.536500,   27.665697,   8.576026,   -156.739288,   -48.382408,   97.288475,   -0.312998,   218.448578,   -218.049591
-0.109957,   0.252350,   0.259253,   0.000000,   793.860718,   0.536478,   28.595657,   50.404324,   681.847412,   113.176498,   276.126251,   0.334066,   793.279785,   793.277893
-0.103203,   0.243877,   0.250083,   0.000000,   791.985229,   0.536478,   28.595657,   49.676586,   681.904785,   119.651802,   272.049164,   0.339394,   787.243164,   787.112244
-0.097024,   0.235891,   0.241526,   0.000000,   790.065979,   0.536478,   28.595657,   48.948853,   682.101807,   125.634331,   267.833557,   0.344576,   781.380737,   780.931030
-0.091337,   0.228328,   0.233492,   0.000000,   788.254028,   0.536478,   28.595657,   48.221115,   682.720154,   131.485138,   263.270477,   0.349923,   775.604004,   774.626282
-0.086070,   0.221104,   0.225877,   0.000000,   786.603271,   0.536477,   28.595657,   47.493382,   683.936035,   137.391815,   258.171906,   0.355632,   769.828552,   768.063477
-0.081178,   0.214155,   0.218594,   0.000000,   785.075500,   0.536478,   28.595657,   46.765648,   685.823059,   143.396362,   252.365265,   0.361807,   763.960693,   761.083313
-0.076612,   0.207413,   0.211572,   0.000000,   783.677185,   0.536478,   28.595657,   46.037910,   688.237671,   149.676163,   245.985291,   0.368468,   758.015564,   753.631470
-0.072349,   0.200821,   0.204736,   0.000000,   782.265503,   0.536478,   28.595657,   45.310177,   691.007263,   156.045197,   239.056015,   0.375482,   751.968140,   745.650208
-0.068372,   0.194352,   0.198050,   0.000000,   780.741821,   0.536478,   28.595657,   44.582439,   693.923889,   162.385208,   231.699051,   0.382707,   745.834900,   737.148376
-0.064669,   0.187992,   0.191492,   0.000000,   779.033630,   0.536478,   28.595657,   43.854706,   696.771973,   168.605652,   224.086655,   0.389994,   739.651184,   728.183350
-0.061229,   0.181736,   0.185050,   0.000000,   777.073914,   0.536478,   28.595657,   43.126968,   699.379700,   174.581207,   216.356628,   0.397194,   733.445679,   718.836914
-0.058044,   0.175589,   0.178723,   0.000000,   774.818604,   0.536477,   28.595657,   42.399235,   701.611633,   180.203690,   208.638351,   0.404179,   727.247620,   709.214722
-0.055104,   0.169557,   0.172514,   0.000000,   772.246277,   0.536478,   28.595657,   41.671501,   703.380676,   185.391785,   201.032532,   0.410853,   721.079590,   699.425049
-0.052397,   0.163649,   0.166427,   0.000000,   769.345825,   0.536478,   28.595657,   40.943764,   704.633850,   190.070816,   193.613068,   0.417137,   714.956970,   689.577942
-0.049914,   0.157872,   0.160468,   0.000000,   766.121399,   0.536478,   28.595657,   40.216030,   705.349304,   194.193863,   186.432968,   0.422982,   708.890808,   679.775513
-0.047640,   0.152238,   0.154646,   0.000000,   762.586609,   0.536478,   28.595657,   39.488293,   705.526733,   197.726059,   179.529587,   0.428352,   702.890564,   670.115601
-0.045597,   0.146799,   0.149010,   0.000000,   758.795715,   0.536478,   28.595657,   38.760559,   705.197205,   200.649445,   172.961853,   0.433210,   697.003052,   660.735779
-0.043760,   0.141548,   0.143555,   0.000000,   754.747314,   0.536478,   28.595657,   38.032822,   704.369751,   202.899811,   166.735535,   0.437518,   691.224182,   651.729919
-0.042086,   0.136451,   0.138249,   0.000000,   750.434021,   0.536477,   28.595657,   37.305088,   703.066284,   204.485413,   160.811584,   0.441299,   685.514954,   643.104309
-0.040573,   0.131530,   0.133113,   0.000000,   745.910583,   0.536478,   28.595657,   36.577354,   701.318726,   205.456070,   155.241364,   0.444560,   679.904114,   634.934021
-0.039208,   0.126792,   0.128157,   0.000000,   741.196960,   0.536478,   28.595657,   35.849617,   699.166565,   205.796402,   150.010345,   0.447296,   674.395569,   627.273987
-0.037976,   0.122239,   0.123384,   0.000000,   736.313171,   0.536478,   28.595657,   35.121883,   696.646729,   205.506699,   145.104156,   0.449509,   668.991577,   620.162292
-0.036863,   0.117871,   0.118794,   0.000000,   731.279541,   0.536478,   28.595657,   34.394146,   693.795227,   204.600937,   140.506927,   0.451211,   663.693298,   613.619385
-0.035853,   0.113686,   0.114388,   0.000000,   726.112793,   0.536478,   28.595657,   33.666412,   690.647888,   203.095337,   136.193893,   0.452414,   658.499207,   607.650452
-0.034932,   0.109676,   0.110160,   0.000000,   720.826904,   0.536477,   28.595657,   32.938675,   687.237244,   201.012817,   132.137726,   0.453139,   653.405579,   602.244629
-0.034086,   0.105835,   0.106103,   0.000000,   715.433594,   0.536479,   28.595657,   32.210941,   683.593811,   198.384125,   128.307175,   0.453408,   648.406311,   597.374939
-0.033300,   0.102151,   0.102208,   0.000000,   709.938538,   0.536478,   28.595657,   31.483206,   679.739380,   195.236740,   124.673836,   0.453243,   643.493286,   593.007996
-0.032561,   0.098611,   0.098463,   0.000000,   704.342957,   0.536479,   28.595657,   30.755470,   675.684814,   191.601089,   121.219734,   0.452662,   638.656128,   589.104614
-0.031859,   0.095207,   0.094860,   0.000000,   698.635437,   0.536478,   28.595657,   30.027735,   671.464050,   187.456650,   117.853508,   0.451675,   633.878479,   585.622864
-0.031190,   0.091928,   0.091391,   0.000000,   692.852844,   0.536478,   28.595657,   29.299999,   667.075195,   182.938705,   114.648941,   0.450336,   629.170227,   582.500061
-0.030540,   0.088750,   0.088028,   0.000000,   686.906128,   0.536478,   28.595657,   28.572264,   662.514343,   177.879776,   111.427391,   0.448588,   624.473206,   579.709839
-0.029875,   0.085671,   0.084780,   0.000000,   680.911682,   0.536478,   28.595657,   27.844528,   657.827759,   172.601654,   108.322685,   0.446591,   619.828979,   577.124023
-0.029231,   0.082644,   0.081584,   0.000000,   674.685974,   0.536478,   28.595657,   27.116795,   652.908020,   166.804855,   105.169403,   0.444194,   615.131165,   574.746094
-0.028578,   0.079658,   0.078437,   0.000000,   668.267029,   0.536478,   28.595657,   26.389059,   647.793152,   160.643860,   101.946106,   0.441498,   610.374878,   572.457458
-0.027913,   0.076751,   0.075382,   0.000000,   661.756348,   0.536478,   28.595657,   25.661324,   642.561890,   154.258316,   98.697266,   0.438565,   605.627197,   570.245422
-0.027243,   0.073915,   0.072409,   0.000000,   655.135803,   0.536478,   28.595657,   24.933588,   637.237488,   147.638382,   95.306610,   0.435415,   600.864441,   568.052734
-0.026553,   0.071115,   0.069482,   0.000000,   648.355957,   0.536478,   28.595657,   24.205853,   631.771057,   140.814743,   91.747124,   0.432072,   596.031372,   565.791992
-0.025842,   0.068346,   0.066598,   0.000000,   641.460388,   0.536478,   28.595657,   23.478117,   626.175964,   133.941147,   88.074623,   0.428622,   591.132202,   563.395996
-0.025143,   0.065541,   0.063677,   0.000000,   634.094421,   0.536478,   28.595657,   22.750381,   620.228149,   126.396194,   83.903915,   0.424708,   585.989868,   560.902405
-0.024387,   0.062740,   0.060774,   0.000000,   626.600464,   0.536478,   28.595657,   22.022648,   614.123230,   118.955666,   79.586349,   0.420781,   580.729126,   558.129639
-0.023559,   0.059909,   0.057856,   0.000000,   618.888855,   0.536478,   28.595657,   21.294912,   607.799133,   111.569000,   75.007004,   0.416830,   575.268677,   555.008789
-0.022708,   0.056965,   0.054827,   0.000000,   610.616577,   0.536478,   28.595657,   20.567177,   600.942627,   103.816879,   70.019699,   0.412566,   569.412170,   551.493896
-0.021805,   0.054005,   0.051797,   0.000000,   602.006775,   0.536478,   28.595657,   19.839441,   593.768982,   95.871506,   64.571114,   0.408077,   563.325562,   547.674316
-0.020813,   0.051041,   0.048782,   0.000000,   593.308350,   0.536478,   28.595657,   19.111706,   586.419922,   88.377663,   58.976192,   0.403791,   557.052124,   543.399353
-0.019815,   0.047911,   0.045599,   0.000000,   583.563721,   0.536478,   28.595657,   18.383970,   578.070007,   79.869942,   52.603577,   0.398636,   550.159180,   538.674133
-0.018747,   0.044774,   0.042428,   0.000000,   573.629272,   0.536478,   28.595657,   17.656237,   569.391113,   71.810638,   46.117195,   0.393613,   543.005554,   533.423401
-0.017567,   0.041625,   0.039265,   0.000000,   563.439331,   0.536478,   28.595657,   16.928501,   560.331238,   64.131393,   39.394146,   0.388680,   535.541626,   527.634583
-0.016397,   0.038291,   0.035918,   0.000000,   551.852600,   0.536479,   28.595657,   16.200766,   549.803284,   55.287071,   31.899986,   0.382542,   527.253357,   521.154968
-0.015125,   0.034944,   0.032576,   0.000000,   539.873718,   0.536478,   28.595657,   15.473030,   538.666809,   46.958912,   24.390478,   0.376477,   518.513794,   513.943054
-0.013757,   0.031611,   0.029266,   0.000000,   527.860535,   0.536478,   28.595657,   14.745295,   527.251282,   40.008663,   17.240240,   0.371264,   509.305054,   505.859283
-0.012432,   0.028208,   0.025887,   0.000000,   514.229492,   0.536478,   28.595657,   14.017559,   514.038696,   31.612955,   9.595719,   0.364307,   499.260559,   497.028442
-0.011002,   0.024903,   0.022624,   0.000000,   501.161377,   0.536478,   28.595657,   13.289824,   501.133545,   25.907822,   3.636614,   0.359459,   488.735535,   487.190216
-0.009600,   0.021427,   0.019191,   0.000000,   485.290894,   0.536478,   28.595657,   12.562089,   485.274200,   17.797033,   -2.793756,   0.351811,   476.649536,   475.902527
-0.008097,   0.017976,   0.015800,   0.000000,   468.975739,   0.536478,   28.595657,   11.834353,   468.869232,   11.741275,   -6.978063,   0.345812,   463.267914,   462.938995
-0.006582,   0.014461,   0.012358,   0.000000,   449.367554,   0.536478,   28.595657,   11.106618,   449.040283,   3.314591,   -12.082156,   0.336663,   447.881348,   447.858917
-0.004934,   0.010677,   0.008675,   -12.229580,   422.398071,   0.536478,   28.595657,   10.378882,   421.774231,   -11.605727,   -16.454615,   0.318966,   428.643738,   428.250916
-0.002943,   0.006319,   0.004457,   -28.366835,   385.467133,   0.536478,   28.595657,   9.651148,   385.160461,   -28.060154,   -11.261460,   0.297283,   400.404877,   398.134705
-0.000677,   0.001615,   0.000000,   -44.384224,   325.899994,   0.536478,   28.595657,   8.923412,   324.624756,   -43.108974,   -21.692822,   0.267951,   350.207916,   343.794800
-0.002334,   0.000778,   0.000717,   -349.153076,   0.000000,   0.536478,   28.595657,   8.195677,   -281.387970,   -70.586983,   137.393829,   -0.337382,   347.750732,   -347.724976
-0.093916,   0.217725,   0.225191,   0.000000,   780.177307,   0.536039,   29.507784,   50.824341,   645.833557,   135.513840,   294.289856,   0.334083,   779.592957,   779.591003
-0.088114,   0.210611,   0.217268,   0.000000,   778.374634,   0.536039,   29.507784,   50.082123,   648.059326,   140.934814,   288.215515,   0.340178,   773.119629,   772.955505
-0.082889,   0.203943,   0.209926,   0.000000,   776.270264,   0.536040,   29.507784,   49.339905,   649.698853,   145.435791,   282.569641,   0.345555,   767.012085,   766.489807
-0.078129,   0.197672,   0.203097,   0.000000,   774.076660,   0.536039,   29.507784,   48.597683,   651.101074,   149.445984,   277.153961,   0.350570,   761.186707,   760.150085
-0.073757,   0.191729,   0.196688,   0.000000,   771.907410,   0.536039,   29.507784,   47.855469,   652.596375,   153.224915,   271.690338,   0.355525,   755.521545,   753.806152
-0.069739,   0.186078,   0.190635,   0.000000,   769.775024,   0.536040,   29.507784,   47.113247,   654.465210,   156.777191,   265.865906,   0.360599,   749.901733,   747.315613
-0.065983,   0.180651,   0.184873,   0.000000,   767.872131,   0.536039,   29.507784,   46.371029,   656.833435,   160.676437,   259.657928,   0.366122,   744.295715,   740.557983
-0.062483,   0.175382,   0.179312,   0.000000,   766.075439,   0.536039,   29.507784,   45.628811,   659.689026,   164.767441,   252.924881,   0.372072,   738.617432,   733.399475
-0.059219,   0.170236,   0.173907,   0.000000,   764.321045,   0.536040,   29.507784,   44.886593,   662.948242,   169.013992,   245.658188,   0.378416,   732.845398,   725.772461
-0.056172,   0.165185,   0.168621,   0.000000,   762.554016,   0.536039,   29.507784,   44.144371,   666.417419,   173.418976,   237.986206,   0.385069,   727.000122,   717.671387
-0.053329,   0.160207,   0.163425,   0.000000,   760.680969,   0.536039,   29.507784,   43.402153,   669.909424,   177.856384,   230.008469,   0.391889,   721.093262,   709.117920
-0.050682,   0.155292,   0.158306,   0.000000,   758.635193,   0.536040,   29.507784,   42.659935,   673.242676,   182.224869,   221.858322,   0.398734,   715.152710,   700.175903
-0.048223,   0.150440,   0.153256,   0.000000,   756.367859,   0.536039,   29.507784,   41.917717,   676.269104,   186.429352,   213.661774,   0.405476,   709.206238,   690.930969
-0.045943,   0.145653,   0.148275,   0.000000,   753.844482,   0.536039,   29.507784,   41.175499,   678.879517,   190.379181,   205.524139,   0.412004,   703.276367,   681.479858
-0.043836,   0.140934,   0.143365,   0.000000,   751.046814,   0.536040,   29.507784,   40.433281,   681.000366,   194.002853,   197.532120,   0.418233,   697.380371,   671.921509
-0.041891,   0.136287,   0.138525,   0.000000,   747.964783,   0.536039,   29.507784,   39.691059,   682.587952,   197.238525,   189.749146,   0.424098,   691.527954,   662.351196
-0.040135,   0.131748,   0.133780,   0.000000,   744.569031,   0.536039,   29.507784,   38.948841,   683.685486,   199.886734,   182.104919,   0.429513,   685.716797,   652.879517
-0.038513,   0.127317,   0.129154,   0.000000,   740.995483,   0.536040,   29.507784,   38.206623,   684.187988,   202.252151,   174.941879,   0.434504,   680.040161,   643.634766
-0.037033,   0.122963,   0.124597,   0.000000,   737.115906,   0.536039,   29.507784,   37.464405,   684.159485,   204.031693,   168.018585,   0.439009,   674.391296,   634.620605
-0.035680,   0.118712,   0.120139,   0.000000,   732.999023,   0.536039,   29.507784,   36.722187,   683.619263,   205.300858,   161.423660,   0.443035,   668.811584,   625.928101
-0.034447,   0.114569,   0.115785,   0.000000,   728.656128,   0.536040,   29.507784,   35.979969,   682.591858,   206.034164,   155.158676,   0.446568,   663.300171,   617.620789
-0.033322,   0.110536,   0.111541,   0.000000,   724.102234,   0.536039,   29.507784,   35.237751,   681.105408,   206.217880,   149.222565,   0.449603,   657.857422,   609.752747
-0.032295,   0.106619,   0.107411,   0.000000,   719.352234,   0.536039,   29.507784,   34.495529,   679.191162,   205.844437,   143.607239,   0.452137,   652.482910,   602.366272
-0.031355,   0.102820,   0.103398,   0.000000,   714.421143,   0.536039,   29.507784,   33.753311,   676.881470,   204.911545,   138.299789,   0.454175,   647.176147,   595.492371
-0.030491,   0.099138,   0.099505,   0.000000,   709.321228,   0.536040,   29.507784,   33.011093,   674.208313,   203.420410,   133.280380,   0.455721,   641.934509,   589.148315
-0.029691,   0.095573,   0.095731,   0.000000,   704.066528,   0.536039,   29.507784,   32.268875,   671.200500,   201.392563,   128.533691,   0.456792,   636.755066,   583.332153
-0.028945,   0.092120,   0.092073,   0.000000,   698.666382,   0.536040,   29.507784,   31.526657,   667.889526,   198.848343,   124.027550,   0.457408,   631.630310,   578.024170
-0.028239,   0.088769,   0.088522,   0.000000,   693.125610,   0.536040,   29.507784,   30.784437,   664.298096,   195.823944,   119.732849,   0.457599,   626.547180,   573.182678
-0.027569,   0.085512,   0.085068,   0.000000,   687.393127,   0.536039,   29.507784,   30.042219,   660.438538,   192.190781,   115.533463,   0.457316,   621.474182,   568.820557
-0.026903,   0.082355,   0.081730,   0.000000,   681.581848,   0.536040,   29.507784,   29.299999,   656.354736,   188.230957,   111.560867,   0.456685,   616.460571,   564.842896
-0.026264,   0.079240,   0.078430,   0.000000,   675.494324,   0.536040,   29.507784,   28.557781,   651.939453,   183.645615,   107.635666,   0.455576,   611.376526,   561.240112
-0.025630,   0.076220,   0.075239,   0.000000,   669.296143,   0.536039,   29.507784,   27.815563,   647.336548,   178.673264,   103.797363,   0.454108,   606.323914,   557.963806
-0.025007,   0.073303,   0.072160,   0.000000,   662.991272,   0.536040,   29.507784,   27.073343,   642.556885,   173.299866,   100.032745,   0.452264,   601.312561,   555.013306
-0.024373,   0.070447,   0.069156,   0.000000,   656.520935,   0.536040,   29.507784,   26.331125,   637.577026,   167.531067,   96.246437,   0.450074,   596.277893,   552.272583
-0.023763,   0.067627,   0.066187,   0.000000,   649.771484,   0.536039,   29.507784,   25.588907,   632.288208,   161.213074,   92.420822,   0.447426,   591.159668,   549.746704
-0.023121,   0.064844,   0.063270,   0.000000,   642.831604,   0.536040,   29.507784,   24.846687,   626.794373,   154.587814,   88.487671,   0.444493,   585.972717,   547.268188
-0.022462,   0.062091,   0.060393,   0.000000,   635.666748,   0.536040,   29.507784,   24.104469,   621.055298,   147.633759,   84.444550,   0.441245,   580.697327,   544.811829
-0.021752,   0.059374,   0.057570,   0.000000,   628.443970,   0.536039,   29.507784,   23.362249,   615.188660,   140.814697,   80.396904,   0.437982,   575.368835,   542.167847
-0.021041,   0.056619,   0.054708,   0.000000,   620.677979,   0.536040,   29.507784,   22.620031,   608.880615,   133.205765,   75.834656,   0.434152,   569.759277,   539.491821
-0.020300,   0.053825,   0.051817,   0.000000,   612.566895,   0.536039,   29.507784,   21.877813,   602.174988,   125.445198,   71.148544,   0.430102,   563.912781,   536.543823
-0.019502,   0.051045,   0.048958,   0.000000,   604.217957,   0.536040,   29.507784,   21.135595,   595.256653,   117.569084,   66.037903,   0.425898,   557.899841,   533.331482
-0.018651,   0.048312,   0.046165,   0.000000,   595.870850,   0.536040,   29.507784,   20.393375,   588.224976,   110.097389,   60.943844,   0.421826,   551.824707,   529.789734
-0.017800,   0.045447,   0.043235,   0.000000,   586.575317,   0.536039,   29.507784,   19.651157,   580.322388,   101.625160,   55.066792,   0.416954,   545.182007,   525.920349
-0.016893,   0.042602,   0.040345,   0.000000,   577.186829,   0.536040,   29.507784,   18.908939,   572.198059,   93.626396,   49.115841,   0.412248,   538.368652,   521.572205
-0.015934,   0.039771,   0.037484,   0.000000,   567.406128,   0.536040,   29.507784,   18.166719,   563.635071,   85.413185,   42.633568,   0.407200,   531.310608,   516.915161
-0.014927,   0.036861,   0.034555,   0.000000,   557.103882,   0.536039,   29.507784,   17.424501,   554.411621,   77.402237,   35.937241,   0.402101,   523.760559,   511.566559
-0.013891,   0.033916,   0.031599,   0.000000,   546.217651,   0.536040,   29.507784,   16.682283,   544.460205,   69.343987,   28.949453,   0.396702,   515.756409,   505.649414
-0.012763,   0.031023,   0.028715,   0.000000,   535.362305,   0.536040,   29.507784,   15.940063,   534.343506,   62.291206,   21.953871,   0.391872,   507.507812,   499.084564
-0.011690,   0.028035,   0.025737,   0.000000,   523.007324,   0.536039,   29.507784,   15.197845,   522.567932,   53.784809,   14.358889,   0.385407,   498.480072,   491.996765
-0.010533,   0.025146,   0.022872,   0.000000,   511.061920,   0.536039,   29.507784,   14.455626,   510.949219,   47.270351,   7.229375,   0.380369,   489.190796,   484.037415
-0.009426,   0.022277,   0.020033,   0.000000,   497.995483,   0.536039,   29.507784,   13.713408,   497.995483,   39.875462,   0.012487,   0.374064,   479.303406,   475.550018
-0.008272,   0.019459,   0.017253,   0.000000,   484.841797,   0.536040,   29.507784,   12.971189,   484.755646,   34.093590,   -6.231124,   0.368948,   468.764160,   465.976654
-0.007120,   0.016644,   0.014488,   0.000000,   469.999268,   0.536040,   29.507784,   12.228970,   469.628113,   26.964895,   -12.823315,   0.361988,   457.282745,   455.538025
-0.005936,   0.013783,   0.011688,   0.000000,   452.864197,   0.536039,   29.507784,   11.486752,   452.046692,   18.400349,   -18.846222,   0.352923,   444.333771,   443.550018
-0.004696,   0.010764,   0.008746,   0.000000,   431.512878,   0.536040,   29.507784,   10.744533,   429.987366,   6.894967,   -25.451010,   0.339574,   428.853333,   428.777740
-0.003323,   0.007677,   0.005746,   0.000000,   410.067902,   0.536039,   29.507784,   10.002314,   408.206360,   2.664969,   -27.538935,   0.334313,   409.666779,   409.665009
-0.001977,   0.004676,   0.002846,   -2.936738,   384.635101,   0.536039,   29.507784,   9.260096,   383.660492,   -1.962121,   -19.410938,   0.329523,   386.111847,   386.086700
-0.000297,   0.000795,   0.000000,   -13.522171,   162.878769,   0.536039,   29.507784,   8.517877,   162.852341,   -13.495748,   -2.158819,   0.292781,   170.043564,   168.827545
-0.003037,   0.001052,   0.001301,   -380.593231,   0.000000,   0.536039,   29.507784,   7.775658,   -308.428986,   -74.850815,   148.538467,   -0.336869,   379.257111,   -379.235718
-0.079717,   0.186760,   0.194498,   0.000000,   766.668884,   0.535065,   30.400322,   51.283226,   608.392395,   160.208649,   309.819977,   0.334594,   765.704651,   765.699219
-0.074822,   0.181137,   0.188003,   0.000000,   765.183167,   0.535064,   30.400322,   50.525185,   613.980896,   164.087799,   301.474670,   0.341788,   758.822449,   758.576233
-0.070492,   0.175867,   0.181998,   0.000000,   763.267334,   0.535065,   30.400322,   49.767139,   618.263062,   167.093155,   294.020050,   0.347903,   752.466064,   751.736084
-0.066553,   0.170879,   0.176397,   0.000000,   761.100403,   0.535064,   30.400322,   49.009098,   621.599121,   169.553421,   287.265656,   0.353259,   746.528137,   745.165405
-0.062950,   0.166136,   0.171139,   0.000000,   758.768677,   0.535064,   30.400322,   48.251057,   624.321655,   171.581268,   280.972565,   0.358079,   740.899780,   738.801636
-0.059736,   0.161628,   0.166176,   0.000000,   756.256775,   0.535065,   30.400322,   47.493015,   626.767456,   173.031860,   274.811584,   0.362497,   735.452881,   732.544434
-0.056676,   0.157307,   0.161482,   0.000000,   753.915588,   0.535064,   30.400322,   46.734970,   629.363464,   174.708527,   268.591614,   0.367090,   730.130554,   726.239319
-0.053832,   0.153137,   0.156988,   0.000000,   751.684753,   0.535064,   30.400322,   45.976933,   632.259155,   176.523209,   262.085846,   0.371944,   724.824585,   719.738770
-0.051187,   0.149087,   0.152650,   0.000000,   749.548218,   0.535066,   30.400322,   45.218887,   635.556152,   178.497543,   255.137711,   0.377156,   719.467529,   712.918213
-0.048712,   0.145126,   0.148433,   0.000000,   747.534119,   0.535064,   30.400322,   44.460846,   639.211975,   180.821304,   247.765106,   0.382808,   714.050293,   705.698547
-0.046396,   0.141221,   0.144292,   0.000000,   745.548523,   0.535064,   30.400322,   43.702801,   643.103394,   183.392792,   239.979416,   0.388820,   708.551147,   698.034546
-0.044229,   0.137352,   0.140204,   0.000000,   743.521667,   0.535065,   30.400322,   42.944759,   647.064392,   186.147736,   231.868042,   0.395085,   702.980896,   689.932129
-0.042201,   0.133508,   0.136152,   0.000000,   741.389038,   0.535064,   30.400322,   42.186718,   650.918335,   189.006973,   223.549545,   0.401478,   697.361755,   681.435486
-0.040308,   0.129684,   0.132127,   0.000000,   739.092407,   0.535064,   30.400322,   41.428677,   654.513916,   191.870651,   215.135254,   0.407867,   691.715515,   672.611694
-0.038542,   0.125877,   0.128124,   0.000000,   736.591919,   0.535065,   30.400322,   40.670635,   657.727234,   194.656265,   206.735504,   0.414142,   686.064270,   663.544006
-0.036899,   0.122088,   0.124143,   0.000000,   733.857300,   0.535065,   30.400322,   39.912590,   660.473206,   197.282166,   198.434113,   0.420208,   680.421814,   654.316956
-0.035405,   0.118333,   0.120179,   0.000000,   730.785706,   0.535064,   30.400322,   39.154549,   662.776794,   199.422958,   190.098389,   0.425938,   674.745789,   645.004089
-0.033976,   0.114616,   0.116280,   0.000000,   727.604309,   0.535065,   30.400322,   38.396507,   664.439697,   201.620911,   182.273254,   0.431387,   669.206116,   635.770996
-0.032673,   0.110927,   0.112396,   0.000000,   724.111145,   0.535064,   30.400322,   37.638466,   665.554932,   203.366638,   174.621948,   0.436427,   663.662720,   626.619751
-0.031469,   0.107278,   0.108550,   0.000000,   720.364441,   0.535064,   30.400322,   36.880424,   666.114380,   204.733719,   167.251266,   0.441056,   658.154358,   617.641846
-0.030357,   0.103676,   0.104749,   0.000000,   716.369385,   0.535065,   30.400322,   36.122379,   666.130493,   205.684021,   160.175720,   0.445248,   652.680786,   608.907227
-0.029330,   0.100126,   0.100998,   0.000000,   712.133911,   0.535064,   30.400322,   35.364338,   665.621826,   206.187469,   153.403503,   0.448988,   647.240845,   600.479675
-0.028381,   0.096634,   0.097304,   0.000000,   707.667358,   0.535064,   30.400322,   34.606297,   664.611694,   206.219864,   146.935883,   0.452263,   641.833069,   592.415283
-0.027503,   0.093203,   0.093672,   0.000000,   702.979736,   0.535065,   30.400322,   33.848255,   663.126648,   205.761581,   140.768173,   0.455066,   636.455627,   584.762146
-0.026687,   0.089841,   0.090108,   0.000000,   698.081177,   0.535065,   30.400322,   33.090210,   661.195557,   204.797073,   134.889130,   0.457394,   631.106750,   577.559143
-0.025925,   0.086546,   0.086614,   0.000000,   692.987366,   0.535064,   30.400322,   32.332169,   658.835083,   203.347504,   129.314819,   0.459253,   625.786194,   570.828186
-0.025204,   0.083316,   0.083189,   0.000000,   687.700500,   0.535064,   30.400322,   31.574127,   656.090088,   201.417984,   123.982216,   0.460673,   620.475464,   564.544617
-0.024501,   0.080146,   0.079831,   0.000000,   682.225281,   0.535064,   30.400322,   30.816084,   652.979309,   199.013123,   118.878166,   0.461658,   615.168945,   558.710876
-0.023837,   0.077006,   0.076499,   0.000000,   676.451050,   0.535064,   30.400322,   30.058043,   649.447998,   195.969574,   113.905510,   0.462139,   609.785339,   553.329285
-0.023191,   0.073952,   0.073264,   0.000000,   670.542603,   0.535065,   30.400322,   29.300001,   645.630493,   192.496063,   109.129051,   0.462211,   604.433289,   548.400513
-0.022565,   0.070998,   0.070140,   0.000000,   664.519348,   0.535064,   30.400322,   28.541958,   641.570251,   188.585709,   104.509575,   0.461870,   599.126648,   543.928162
-0.021967,   0.068086,   0.067057,   0.000000,   658.203369,   0.535064,   30.400322,   27.783916,   637.159912,   184.005203,   99.893814,   0.461013,   593.739197,   539.884033
-0.021357,   0.065230,   0.064044,   0.000000,   651.749695,   0.535065,   30.400322,   27.025873,   632.472473,   179.137024,   95.449760,   0.459830,   588.340271,   536.119080
-0.020745,   0.062425,   0.061090,   0.000000,   645.070618,   0.535064,   30.400322,   26.267830,   627.507935,   173.771591,   90.979507,   0.458228,   582.882080,   532.652710
-0.020113,   0.059657,   0.058185,   0.000000,   638.154602,   0.535064,   30.400322,   25.509789,   622.227539,   167.953522,   86.538536,   0.456209,   577.353394,   529.440247
-0.019469,   0.056895,   0.055293,   0.000000,   630.919739,   0.535064,   30.400322,   24.751747,   616.593384,   161.675323,   81.991203,   0.453799,   571.669495,   526.341125
-0.018809,   0.054135,   0.052411,   0.000000,   623.354309,   0.535065,   30.400322,   23.993704,   610.559753,   154.976654,   77.412361,   0.450986,   565.823730,   523.318848
-0.018130,   0.051415,   0.049583,   0.000000,   615.528320,   0.535064,   30.400322,   23.235661,   604.230896,   147.877655,   72.686005,   0.447783,   559.875244,   520.375366
-0.017430,   0.048753,   0.046826,   0.000000,   607.528687,   0.535064,   30.400322,   22.477619,   597.719177,   140.577103,   67.679962,   0.444345,   553.846741,   517.374146
-0.016673,   0.046119,   0.044120,   0.000000,   599.415222,   0.535064,   30.400322,   21.719578,   590.951538,   133.418274,   62.801601,   0.440828,   547.734009,   514.177429
-0.015927,   0.043384,   0.041305,   0.000000,   590.428833,   0.535065,   30.400322,   20.961535,   583.393127,   125.241287,   57.209385,   0.436541,   541.097717,   510.821747
-0.015142,   0.040714,   0.038576,   0.000000,   581.419312,   0.535064,   30.400322,   20.203493,   575.664185,   117.418777,   51.675606,   0.432304,   534.409729,   507.156036
-0.014323,   0.038097,   0.035916,   0.000000,   572.134216,   0.535064,   30.400322,   19.445450,   567.635193,   109.345169,   45.629967,   0.427724,   527.583374,   503.337036
-0.013472,   0.035450,   0.033236,   0.000000,   562.452209,   0.535064,   30.400322,   18.687408,   559.078613,   101.394554,   39.438686,   0.423045,   520.411804,   499.004700
-0.012588,   0.032712,   0.030472,   0.000000,   551.987427,   0.535065,   30.400322,   17.929365,   549.644592,   93.140694,   32.787033,   0.417945,   512.654907,   494.076385
-0.011657,   0.030041,   0.027792,   0.000000,   541.296631,   0.535064,   30.400322,   17.171324,   539.827209,   85.037033,   25.892776,   0.412674,   504.728363,   488.799133
-0.010729,   0.027414,   0.025166,   0.000000,   530.399109,   0.535065,   30.400322,   16.413282,   529.610901,   77.450150,   18.895082,   0.407538,   496.526764,   482.942230
-0.009798,   0.024795,   0.022554,   0.000000,   518.874634,   0.535064,   30.400322,   15.655239,   518.568115,   69.740135,   11.733029,   0.401951,   487.877625,   476.571442
-0.008813,   0.022298,   0.020081,   0.000000,   507.884949,   0.535064,   30.400322,   14.897197,   507.825958,   63.973282,   5.117350,   0.397799,   479.135712,   469.401184
-0.007914,   0.019754,   0.017557,   0.000000,   494.928925,   0.535064,   30.400322,   14.139154,   494.912842,   55.646034,   -2.658247,   0.390807,   469.591766,   462.091217
-0.006938,   0.017322,   0.015162,   0.000000,   482.665588,   0.535064,   30.400322,   13.381112,   482.464813,   50.053909,   -9.319884,   0.386076,   459.770599,   453.630005
-0.006016,   0.014893,   0.012774,   0.000000,   468.413452,   0.535064,   30.400322,   12.623070,   467.711487,   42.070686,   -17.299704,   0.378322,   449.160217,   444.843842
-0.005049,   0.012520,   0.010454,   0.000000,   453.850220,   0.535064,   30.400322,   11.865027,   452.504211,   35.610008,   -23.726622,   0.371705,   437.725159,   434.692627
-0.004086,   0.010083,   0.008076,   0.000000,   436.645081,   0.535064,   30.400322,   11.106986,   434.225342,   27.518585,   -31.463964,   0.362449,   424.652313,   422.978699
-0.003085,   0.007699,   0.005759,   0.000000,   419.033356,   0.535065,   30.400322,   10.348944,   416.130096,   22.394241,   -33.934483,   0.356841,   409.635834,   408.590546
-0.002081,   0.005224,   0.003365,   0.000000,   395.299500,   0.535064,   30.400322,   9.590901,   392.313538,   11.462739,   -33.854488,   0.344111,   391.130005,   390.923248
-0.000991,   0.002548,   0.000817,   -13.539409,   360.433380,   0.535064,   30.400322,   8.832859,   354.839172,   -7.945214,   -45.395828,   0.314737,   367.390228,   366.828278
-0.000238,   0.000167,   0.000000,   -43.438980,   22.045893,   0.535064,   30.400322,   8.074817,   4.921303,   -26.314388,   28.777596,   -0.123563,   57.711502,   -46.720669
-0.002521,   0.000812,   0.000754,   -383.216187,   0.000000,   0.535064,   30.400322,   7.316774,   -305.075836,   -85.501984,   152.523758,   -0.342983,   379.588928,   -379.428253
-0.067093,   0.159098,   0.166805,   0.000000,   752.723328,   0.533428,   31.271563,   51.780094,   569.798523,   186.050949,   321.960266,   0.335412,   751.165100,   751.150452
-0.063213,   0.155029,   0.161841,   0.000000,   751.531189,   0.533425,   31.271563,   51.004917,   579.088379,   187.427719,   311.890381,   0.343351,   744.151978,   743.812317
-0.059778,   0.151194,   0.157263,   0.000000,   749.994324,   0.533425,   31.271563,   50.229740,   586.597168,   188.513779,   302.893219,   0.350211,   737.756714,   736.793762
-0.056650,   0.147541,   0.152988,   0.000000,   748.179077,   0.533425,   31.271563,   49.454567,   592.672485,   189.328400,   294.796448,   0.356173,   731.854553,   730.093018
-0.053790,   0.144064,   0.148986,   0.000000,   746.137390,   0.533425,   31.271563,   48.679390,   597.601807,   189.822998,   287.458679,   0.361349,   726.374268,   723.727112
-0.051150,   0.140664,   0.145128,   0.000000,   743.841858,   0.533425,   31.271563,   47.904217,   601.674194,   189.981903,   280.608246,   0.365936,   721.124634,   717.545166
-0.048664,   0.137301,   0.141369,   0.000000,   741.390076,   0.533425,   31.271563,   47.129040,   605.170410,   190.007492,   274.060455,   0.370188,   716.013000,   711.446289
-0.046365,   0.134036,   0.137758,   0.000000,   738.899475,   0.533426,   31.271563,   46.353867,   608.448486,   189.962402,   267.599274,   0.374306,   711.014099,   705.378113
-0.044257,   0.130869,   0.134280,   0.000000,   736.427368,   0.533426,   31.271563,   45.578690,   611.831665,   189.912567,   260.947113,   0.378518,   706.038513,   699.192688
-0.042261,   0.127780,   0.130919,   0.000000,   734.114990,   0.533425,   31.271563,   44.803513,   615.510803,   190.230545,   253.982193,   0.383111,   701.051453,   692.747559
-0.040390,   0.124739,   0.127634,   0.000000,   731.904846,   0.533425,   31.271563,   44.028336,   619.477234,   190.880707,   246.629349,   0.388101,   696.002380,   685.948914
-0.038631,   0.121722,   0.124391,   0.000000,   729.760315,   0.533425,   31.271563,   43.253162,   623.665039,   191.892456,   238.883347,   0.393494,   690.868958,   678.727966
-0.036974,   0.118707,   0.121164,   0.000000,   727.621216,   0.533425,   31.271563,   42.477985,   627.931335,   193.230179,   230.810303,   0.399211,   685.653381,   671.072937
-0.035413,   0.115681,   0.117937,   0.000000,   725.417847,   0.533426,   31.271563,   41.702808,   632.124512,   194.806366,   222.491608,   0.405141,   680.365051,   663.005432
-0.033942,   0.112637,   0.114701,   0.000000,   723.097290,   0.533425,   31.271563,   40.927635,   636.090210,   196.547897,   214.040985,   0.411163,   675.026123,   654.580505
-0.032559,   0.109575,   0.111450,   0.000000,   720.610107,   0.533426,   31.271563,   40.152458,   639.705933,   198.357086,   205.554016,   0.417162,   669.653931,   645.867493
-0.031271,   0.106452,   0.108126,   0.000000,   717.768005,   0.533425,   31.271563,   39.377281,   642.888184,   199.869843,   196.926651,   0.422974,   664.153259,   636.880615
-0.030025,   0.103303,   0.104797,   0.000000,   714.805176,   0.533425,   31.271563,   38.602108,   645.452515,   201.600174,   188.658783,   0.428639,   658.714355,   627.795044
-0.028877,   0.100180,   0.101490,   0.000000,   711.619568,   0.533425,   31.271563,   37.826931,   647.533875,   203.110291,   180.521957,   0.434026,   653.297485,   618.687988
-0.027804,   0.097054,   0.098180,   0.000000,   708.182739,   0.533425,   31.271563,   37.051758,   649.051453,   204.389435,   172.597656,   0.439092,   647.883789,   609.609497
-0.026800,   0.093929,   0.094869,   0.000000,   704.488586,   0.533426,   31.271563,   36.276581,   649.997620,   205.383774,   164.914276,   0.443797,   642.472229,   600.631592
-0.025861,   0.090809,   0.091562,   0.000000,   700.535583,   0.533425,   31.271563,   35.501404,   650.376404,   206.048325,   157.489929,   0.448113,   637.060120,   591.820740
-0.024982,   0.087700,   0.088265,   0.000000,   696.324585,   0.533425,   31.271563,   34.726231,   650.199219,   206.343918,   150.334763,   0.452018,   631.643738,   583.239014
-0.024157,   0.084607,   0.084982,   0.000000,   691.857849,   0.533426,   31.271563,   33.951054,   649.483704,   206.237122,   143.449539,   0.455497,   626.217590,   574.940369
-0.023380,   0.081534,   0.081720,   0.000000,   687.140320,   0.533425,   31.271563,   33.175877,   648.252930,   205.702240,   136.827850,   0.458541,   620.776733,   566.970886
-0.022641,   0.078482,   0.078481,   0.000000,   682.186829,   0.533425,   31.271563,   32.400703,   646.498108,   204.769302,   130.531296,   0.461149,   615.323120,   559.371643
-0.021920,   0.075436,   0.075253,   0.000000,   676.958801,   0.533426,   31.271563,   31.625526,   644.256592,   203.364899,   124.448997,   0.463326,   609.809265,   552.126282
-0.021242,   0.072439,   0.072073,   0.000000,   671.497864,   0.533425,   31.271563,   30.850351,   641.587158,   201.445190,   118.573257,   0.465038,   604.275146,   545.332336
-0.020592,   0.069512,   0.068971,   0.000000,   665.873230,   0.533425,   31.271563,   30.075176,   638.562317,   199.084518,   112.908989,   0.466323,   598.760315,   539.003296
-0.019980,   0.066609,   0.065890,   0.000000,   659.942139,   0.533426,   31.271563,   29.300001,   635.087463,   196.103363,   107.371208,   0.467100,   593.157288,   533.139038
-0.019365,   0.063752,   0.062868,   0.000000,   653.855469,   0.533425,   31.271563,   28.524824,   631.268433,   192.824585,   102.045647,   0.467543,   587.534668,   527.618225
-0.018762,   0.060923,   0.059875,   0.000000,   647.434326,   0.533425,   31.271563,   27.749649,   627.043518,   188.824387,   96.702744,   0.467439,   581.800110,   522.577271
-0.018141,   0.058131,   0.056935,   0.000000,   640.853027,   0.533426,   31.271563,   26.974474,   622.476990,   184.589981,   91.565895,   0.467035,   576.021667,   517.803955
-0.017524,   0.055338,   0.053994,   0.000000,   633.879395,   0.533425,   31.271563,   26.199297,   617.453613,   179.699081,   86.372917,   0.466124,   570.057617,   513.365784
-0.016898,   0.052593,   0.051115,   0.000000,   626.695007,   0.533425,   31.271563,   25.424122,   612.101929,   174.426712,   81.240303,   0.464829,   564.027039,   509.214905
-0.016269,   0.049907,   0.048305,   0.000000,   619.270691,   0.533426,   31.271563,   24.648947,   606.433350,   168.653030,   76.057457,   0.463075,   557.927063,   505.390228
-0.015603,   0.047266,   0.045561,   0.000000,   611.714722,   0.533426,   31.271563,   23.873770,   600.487061,   162.795639,   70.995071,   0.461111,   551.771118,   501.633667
-0.014952,   0.044596,   0.042783,   0.000000,   603.511719,   0.533425,   31.271563,   23.098595,   593.902405,   155.916931,   65.582657,   0.458367,   545.283447,   498.173462
-0.014254,   0.041910,   0.040005,   0.000000,   594.921631,   0.533425,   31.271563,   22.323420,   586.858276,   148.770920,   59.978943,   0.455327,   538.535461,   494.579102
-0.013552,   0.039308,   0.037328,   0.000000,   586.250793,   0.533426,   31.271563,   21.548244,   579.561523,   141.660294,   54.534203,   0.452088,   531.770874,   490.964722
-0.012831,   0.036787,   0.034747,   0.000000,   577.339355,   0.533426,   31.271563,   20.773067,   571.998047,   134.119476,   48.655632,   0.448385,   524.934143,   487.456512
-0.012093,   0.034261,   0.032171,   0.000000,   568.039612,   0.533425,   31.271563,   19.997892,   563.915649,   126.489845,   42.672272,   0.444434,   517.816223,   483.654358
-0.011327,   0.031674,   0.029541,   0.000000,   558.046936,   0.533426,   31.271563,   19.222717,   555.046326,   118.492859,   36.316978,   0.440049,   510.200684,   479.448059
-0.010536,   0.029162,   0.027003,   0.000000,   547.805603,   0.533425,   31.271563,   18.447540,   545.788757,   110.397148,   29.701572,   0.435316,   502.459869,   475.080841
-0.009717,   0.026772,   0.024606,   0.000000,   537.899963,   0.533426,   31.271563,   17.672365,   536.643921,   103.497078,   23.358635,   0.431275,   494.766754,   470.109436
-0.008943,   0.024314,   0.022135,   0.000000,   526.691040,   0.533425,   31.271563,   16.897190,   526.083679,   95.119919,   16.189993,   0.425740,   486.371399,   465.032745
-0.008119,   0.021970,   0.019799,   0.000000,   515.688965,   0.533426,   31.271563,   16.122015,   515.493347,   87.796310,   9.149496,   0.420750,   477.947998,   459.362549
-0.007332,   0.019701,   0.017543,   0.000000,   504.343872,   0.533425,   31.271563,   15.346839,   504.331665,   80.563469,   2.275498,   0.415454,   469.282166,   453.335663
-0.006529,   0.017459,   0.015321,   0.000000,   492.464722,   0.533426,   31.271563,   14.571663,   492.406403,   73.567696,   -4.943121,   0.410006,   460.135162,   446.637390
-0.005730,   0.015313,   0.013206,   0.000000,   480.315613,   0.533425,   31.271563,   13.796487,   479.960602,   66.869659,   -12.115367,   0.404382,   450.754120,   439.509338
-0.004941,   0.013176,   0.011105,   0.000000,   467.080841,   0.533426,   31.271563,   13.021312,   466.130432,   59.720669,   -19.676247,   0.397789,   440.644958,   431.695435
-0.004140,   0.011071,   0.009045,   0.000000,   453.022583,   0.533425,   31.271563,   12.246136,   451.172607,   52.940212,   -27.205523,   0.391002,   429.761169,   422.847961
-0.003361,   0.009043,   0.007066,   0.000000,   438.538330,   0.533426,   31.271563,   11.470961,   435.607361,   47.403400,   -33.858574,   0.385102,   418.079865,   412.708008
-0.002585,   0.007063,   0.005139,   0.000000,   422.767334,   0.533425,   31.271563,   10.695785,   418.807007,   41.967846,   -38.834141,   0.379142,   405.102997,   401.062225
-0.001828,   0.005149,   0.003287,   0.000000,   405.594666,   0.533425,   31.271563,   9.920609,   400.481873,   36.926991,   -43.415691,   0.373222,   390.660339,   387.729736
-0.001070,   0.003271,   0.001478,   0.000000,   386.170044,   0.533425,   31.271563,   9.145433,   380.749268,   32.178902,   -43.805279,   0.368511,   373.510498,   371.344910
-0.000280,   0.001174,   0.000000,   0.000000,   251.504929,   0.533425,   31.271563,   8.370258,   240.351212,   27.723356,   -49.959930,   0.366759,   243.643036,   242.370529
-0.000487,   0.000154,   0.000000,   -101.769516,   1.779189,   0.533425,   31.271563,   7.595082,   -87.235420,   -12.754910,   35.968697,   -0.324631,   102.670677,   -102.635986
-0.001718,   0.000511,   0.000000,   -361.032837,   0.000000,   0.533425,   31.271563,   6.819907,   -277.571869,   -84.449440,   151.933914,   -0.334703,   360.539612,   -360.536560
-0.056243,   0.134862,   0.142289,   0.000000,   737.964600,   0.530986,   32.119831,   52.313992,   530.133179,   211.553268,   330.763977,   0.335858,   736.110718,   736.089539
-0.053382,   0.132332,   0.138897,   0.000000,   737.334839,   0.530986,   32.119831,   51.520405,   543.653076,   209.981888,   319.591400,   0.344446,   729.321411,   728.911377
-0.050674,   0.129838,   0.135685,   0.000000,   736.448975,   0.530985,   32.119831,   50.726818,   554.882751,   209.071259,   309.441406,   0.352172,   723.088928,   721.910583
-0.048196,   0.127333,   0.132570,   0.000000,   735.126282,   0.530985,   32.119831,   49.933235,   564.085999,   208.180756,   300.214783,   0.358888,   717.277588,   715.109375
-0.045913,   0.124832,   0.129547,   0.000000,   733.435303,   0.530986,   32.119831,   49.139648,   571.577148,   207.216888,   291.843719,   0.364686,   711.840637,   708.578247
-0.043736,   0.122354,   0.126634,   0.000000,   731.515991,   0.530985,   32.119831,   48.346062,   577.717834,   206.257736,   284.224792,   0.369757,   706.747925,   702.347412
-0.041805,   0.119945,   0.123832,   0.000000,   729.296997,   0.530986,   32.119831,   47.552475,   582.767456,   204.902924,   277.198853,   0.374048,   701.933044,   696.440796
-0.040004,   0.117603,   0.121147,   0.000000,   726.990356,   0.530986,   32.119831,   46.758888,   587.170288,   203.504486,   270.543549,   0.377952,   697.332520,   690.744568
-0.038317,   0.115268,   0.118505,   0.000000,   724.581360,   0.530986,   32.119831,   45.965305,   591.195068,   202.076431,   263.998108,   0.381677,   692.794983,   685.070862
-0.036716,   0.112906,   0.115868,   0.000000,   722.130676,   0.530985,   32.119831,   45.171719,   595.066467,   200.804199,   257.375061,   0.385467,   688.229858,   679.256897
-0.035214,   0.110545,   0.113255,   0.000000,   719.712097,   0.530985,   32.119831,   44.378132,   599.017029,   199.779709,   250.506027,   0.389500,   683.609314,   673.202087
-0.033790,   0.108191,   0.110672,   0.000000,   717.392090,   0.530986,   32.119831,   43.584549,   603.190430,   199.161514,   243.275116,   0.393941,   678.910950,   666.793579
-0.032438,   0.105824,   0.108094,   0.000000,   715.141968,   0.530985,   32.119831,   42.790962,   607.532715,   198.978134,   235.677750,   0.398798,   674.117615,   659.971069
-0.031151,   0.103427,   0.105498,   0.000000,   712.906311,   0.530987,   32.119831,   41.997375,   611.951904,   199.198639,   227.730225,   0.404031,   669.214783,   652.694397
-0.029925,   0.100988,   0.102871,   0.000000,   710.632202,   0.530985,   32.119831,   41.203789,   616.298950,   199.781998,   219.522598,   0.409546,   664.215576,   644.979553
-0.028756,   0.098500,   0.100201,   0.000000,   708.258179,   0.530986,   32.119831,   40.410202,   620.437561,   200.638992,   211.138397,   0.415232,   659.130554,   636.862610
-0.027638,   0.095937,   0.097456,   0.000000,   705.648254,   0.530985,   32.119831,   39.616615,   624.271240,   201.513260,   202.546295,   0.420947,   653.909973,   628.357605
-0.026568,   0.093316,   0.094659,   0.000000,   702.882751,   0.530985,   32.119831,   38.823032,   627.606628,   202.617569,   194.056717,   0.426639,   648.655457,   619.589417
-0.025555,   0.090665,   0.091836,   0.000000,   699.923584,   0.530986,   32.119831,   38.029446,   630.453491,   203.745514,   185.659775,   0.432195,   643.382019,   610.651062
-0.024593,   0.087971,   0.088970,   0.000000,   696.715149,   0.530985,   32.119831,   37.235859,   632.745422,   204.788818,   177.393341,   0.437536,   638.068359,   601.597290
-0.023680,   0.085241,   0.086069,   0.000000,   693.247925,   0.530987,   32.119831,   36.442272,   634.463928,   205.686600,   169.295044,   0.442614,   632.718872,   592.498108
-0.022814,   0.082482,   0.083136,   0.000000,   689.512512,   0.530985,   32.119831,   35.648685,   635.598511,   206.380844,   161.392609,   0.447386,   627.332397,   583.420471
-0.021992,   0.079698,   0.080177,   0.000000,   685.502136,   0.530986,   32.119831,   34.855103,   636.147156,   206.819809,   153.705399,   0.451820,   621.905029,   574.428345
-0.021209,   0.076893,   0.077198,   0.000000,   681.212036,   0.530985,   32.119831,   34.061516,   636.114441,   206.957886,   146.245392,   0.455889,   616.431152,   565.581543
-0.020461,   0.074074,   0.074203,   0.000000,   676.636902,   0.530985,   32.119831,   33.267929,   635.508972,   206.751755,   139.015854,   0.459572,   610.902283,   556.935181
-0.019731,   0.071232,   0.071191,   0.000000,   671.793274,   0.530986,   32.119831,   32.474346,   634.304932,   206.260284,   132.106277,   0.462878,   605.318420,   548.521790
-0.019039,   0.068402,   0.068188,   0.000000,   666.655701,   0.530985,   32.119831,   31.680758,   632.602295,   205.270355,   125.346542,   0.465742,   599.668518,   540.435486
-0.018397,   0.065603,   0.065212,   0.000000,   661.246887,   0.530985,   32.119831,   30.887173,   630.416199,   203.760803,   118.762848,   0.468135,   593.972046,   532.764038
-0.017762,   0.062824,   0.062266,   0.000000,   655.633667,   0.530985,   32.119831,   30.093586,   627.762634,   201.950104,   112.448311,   0.470166,   588.240540,   525.428345
-0.017145,   0.060051,   0.059327,   0.000000,   649.695312,   0.530986,   32.119831,   29.299999,   624.623352,   199.571655,   106.233162,   0.471728,   582.393799,   518.496765
-0.016525,   0.057289,   0.056407,   0.000000,   643.510498,   0.530985,   32.119831,   28.506414,   621.029358,   196.847794,   100.207214,   0.472933,   576.457031,   511.883087
-0.015913,   0.054516,   0.053477,   0.000000,   636.933838,   0.530985,   32.119831,   27.712828,   616.918274,   193.508087,   94.209389,   0.473656,   570.334167,   505.648254
-0.015301,   0.051779,   0.050594,   0.000000,   630.137756,   0.530986,   32.119831,   26.919241,   612.404480,   189.821335,   88.364349,   0.474015,   564.135376,   499.757629
-0.014689,   0.049097,   0.047776,   0.000000,   623.094727,   0.530985,   32.119831,   26.125656,   607.531982,   185.602234,   82.514114,   0.473913,   557.861755,   494.310669
-0.014075,   0.046432,   0.044984,   0.000000,   615.746521,   0.530985,   32.119831,   25.332071,   602.225830,   180.963074,   76.671837,   0.473426,   551.433289,   489.136963
-0.013448,   0.043747,   0.042177,   0.000000,   607.921936,   0.530986,   32.119831,   24.538485,   596.325317,   175.692932,   70.798340,   0.472410,   544.737488,   484.264221
-0.012808,   0.041119,   0.039442,   0.000000,   599.915283,   0.530985,   32.119831,   23.744898,   590.081055,   170.228836,   65.004982,   0.471106,   537.960632,   479.571075
-0.012169,   0.038552,   0.036780,   0.000000,   591.583435,   0.530985,   32.119831,   22.951313,   583.434204,   164.114517,   59.021587,   0.469214,   531.064636,   475.293060
-0.011513,   0.036042,   0.034191,   0.000000,   583.048523,   0.530985,   32.119831,   22.157726,   576.436523,   157.816116,   53.024906,   0.467020,   524.069580,   471.116913
-0.010852,   0.033550,   0.031627,   0.000000,   574.097046,   0.530986,   32.119831,   21.364141,   568.894287,   151.095657,   46.912441,   0.464361,   516.832153,   467.025940
-0.010168,   0.031021,   0.029035,   0.000000,   564.514160,   0.530985,   32.119831,   20.570555,   560.604431,   143.915726,   40.551552,   0.461232,   509.158691,   462.791229
-0.009472,   0.028579,   0.026548,   0.000000,   554.689148,   0.530985,   32.119831,   19.776970,   551.930664,   136.429504,   33.966904,   0.457625,   501.400146,   458.673920
-0.008762,   0.026268,   0.024211,   0.000000,   545.071655,   0.530986,   32.119831,   18.983383,   543.229370,   129.645782,   27.664865,   0.454275,   493.735565,   454.230530
-0.008081,   0.023919,   0.021833,   0.000000,   534.404175,   0.530985,   32.119831,   18.189796,   533.379211,   121.601593,   20.569582,   0.449714,   485.479034,   449.901459
-0.007392,   0.021689,   0.019591,   0.000000,   523.789673,   0.530985,   32.119831,   17.396212,   523.323120,   114.076790,   13.826134,   0.445202,   477.236938,   445.259949
-0.006675,   0.019591,   0.017500,   0.000000,   513.575317,   0.530985,   32.119831,   16.602625,   513.447998,   107.870316,   7.186741,   0.441518,   469.077850,   439.925995
-0.006018,   0.017452,   0.015360,   0.000000,   501.744537,   0.530985,   32.119831,   15.809039,   501.744171,   99.393646,   -0.378840,   0.435446,   460.170135,   435.024384
-0.005315,   0.015456,   0.013385,   0.000000,   490.630707,   0.530986,   32.119831,   15.015453,   490.503723,   93.181778,   -7.104007,   0.431061,   451.355865,   428.969849
-0.004661,   0.013491,   0.011441,   0.000000,   478.234467,   0.530985,   32.119831,   14.221868,   477.661560,   85.198677,   -15.005721,   0.424442,   442.039337,   423.234619
-0.003980,   0.011580,   0.009562,   0.000000,   465.724915,   0.530985,   32.119831,   13.428282,   464.441437,   78.684616,   -22.287933,   0.418833,   432.253357,   416.231720
-0.003324,   0.009734,   0.007752,   0.000000,   452.386017,   0.530986,   32.119831,   12.634696,   450.102417,   71.811699,   -29.480091,   0.412313,   421.940399,   408.753387
-0.002678,   0.007969,   0.006029,   0.000000,   438.901398,   0.530985,   32.119831,   11.841109,   435.438782,   66.505852,   -35.909149,   0.407070,   411.022064,   399.927185
-0.002066,   0.006305,   0.004409,   0.000000,   424.653564,   0.530985,   32.119831,   11.047523,   420.000824,   61.032928,   -41.131947,   0.401405,   399.458832,   390.356659
-0.001468,   0.004734,   0.002887,   0.000000,   410.434509,   0.530986,   32.119831,   10.253938,   404.262299,   57.972950,   -46.641880,   0.397989,   387.142059,   379.227661
-0.000872,   0.003157,   0.001364,   0.000000,   393.424194,   0.530985,   32.119831,   9.460352,   387.216675,   53.041149,   -45.966717,   0.394259,   372.223724,   365.506927
-0.000360,   0.001609,   0.000000,   0.000000,   346.484558,   0.530985,   32.119831,   8.666766,   333.773987,   41.144756,   -62.297981,   0.375093,   333.178680,   330.432404
-0.000050,   0.000453,   0.000000,   0.000000,   101.138084,   0.530986,   32.119831,   7.873180,   83.915222,   37.034477,   -33.227211,   0.434298,   92.831589,   87.884262
-0.000582,   0.000210,   0.000000,   -119.789124,   8.160113,   0.530986,   32.119831,   7.079594,   -109.496338,   -2.132673,   34.799606,   -0.299907,   124.070602,   -123.464684
-0.001477,   0.000433,   0.000000,   -310.829407,   0.000000,   0.530985,   32.119831,   6.286008,   -236.608902,   -76.633873,   131.841232,   -0.337223,   309.629761,   -309.608612
-0.047305,   0.114291,   0.121253,   0.000000,   722.839355,   0.527611,   32.943504,   52.883896,   490.325287,   236.260559,   336.357544,   0.335928,   720.973389,   720.951538
-0.045067,   0.113039,   0.119234,   0.000000,   723.209961,   0.527612,   32.943504,   52.070660,   508.473846,   232.146133,   324.729309,   0.345440,   714.664001,   714.186584
-0.042962,   0.111555,   0.117093,   0.000000,   722.988708,   0.527612,   32.943504,   51.257420,   523.371948,   229.153717,   313.970917,   0.353955,   708.682068,   707.295166
-0.040980,   0.109947,   0.114911,   0.000000,   722.154419,   0.527611,   32.943504,   50.444183,   535.744141,   226.400208,   303.996185,   0.361370,   703.013000,   700.447144
-0.039155,   0.108279,   0.112741,   0.000000,   720.888672,   0.527613,   32.943504,   49.630943,   545.978699,   223.875931,   294.843170,   0.367808,   697.695618,   693.813965
-0.037488,   0.106580,   0.110608,   0.000000,   719.289368,   0.527611,   32.943504,   48.817707,   554.324280,   221.511887,   286.558746,   0.373313,   692.749084,   687.527893
-0.035948,   0.104898,   0.108542,   0.000000,   717.396423,   0.527612,   32.943504,   48.004471,   561.354187,   218.983231,   278.879028,   0.378022,   688.088379,   681.566711
-0.034521,   0.103222,   0.106529,   0.000000,   715.299866,   0.527612,   32.943504,   47.191231,   567.234619,   216.428528,   271.782104,   0.382077,   683.686462,   675.932739
-0.033172,   0.101547,   0.104561,   0.000000,   713.086487,   0.527612,   32.943504,   46.377995,   572.283691,   213.938354,   265.106476,   0.385700,   679.477112,   670.536194
-0.031923,   0.099874,   0.102622,   0.000000,   710.773193,   0.527612,   32.943504,   45.564754,   576.799011,   211.464951,   258.639557,   0.389053,   675.370300,   665.258301
-0.030735,   0.098178,   0.100685,   0.000000,   708.447327,   0.527611,   32.943504,   44.751518,   581.102173,   209.217041,   252.139954,   0.392452,   671.266541,   659.893433
-0.029594,   0.096424,   0.098711,   0.000000,   706.116089,   0.527612,   32.943504,   43.938282,   585.353516,   207.295151,   245.436172,   0.396083,   667.072571,   654.266846
-0.028497,   0.094605,   0.096688,   0.000000,   703.800476,   0.527612,   32.943504,   43.125042,   589.657593,   205.789749,   238.420593,   0.400076,   662.746643,   648.260437
-0.027440,   0.092731,   0.094623,   0.000000,   701.523438,   0.527612,   32.943504,   42.311806,   594.083496,   204.761414,   231.023972,   0.404511,   658.280579,   641.795410
-0.026418,   0.090795,   0.092509,   0.000000,   699.259399,   0.527612,   32.943504,   41.498566,   598.554260,   204.221924,   223.277481,   0.409364,   653.677551,   634.843201
-0.025427,   0.088786,   0.090329,   0.000000,   696.947266,   0.527612,   32.943504,   40.685329,   602.948608,   204.110992,   215.234650,   0.414555,   648.935852,   627.399597
-0.024457,   0.086682,   0.088061,   0.000000,   694.496948,   0.527611,   32.943504,   39.872089,   607.155945,   204.304596,   206.915192,   0.419991,   644.030762,   619.455444
-0.023529,   0.084491,   0.085704,   0.000000,   691.862244,   0.527612,   32.943504,   39.058853,   611.008911,   204.733093,   198.459122,   0.425535,   638.992859,   611.093628
-0.022624,   0.082228,   0.083282,   0.000000,   689.064941,   0.527612,   32.943504,   38.245617,   614.412048,   205.406586,   190.017090,   0.431109,   633.884216,   602.411621
-0.021751,   0.079892,   0.080789,   0.000000,   686.033142,   0.527612,   32.943504,   37.432377,   617.313538,   206.153229,   181.596161,   0.436608,   628.685547,   593.458435
-0.020912,   0.077490,   0.078229,   0.000000,   682.739746,   0.527612,   32.943504,   36.619141,   619.659912,   206.888306,   173.253098,   0.441955,   623.402527,   584.307556
-0.020104,   0.075027,   0.075608,   0.000000,   679.166931,   0.527611,   32.943504,   35.805901,   621.419739,   207.539474,   165.030746,   0.447092,   618.038391,   575.029663
-0.019327,   0.072510,   0.072931,   0.000000,   675.300659,   0.527613,   32.943504,   34.992664,   622.576294,   208.041763,   156.958359,   0.451969,   612.591675,   565.690857
-0.018578,   0.069946,   0.070205,   0.000000,   671.132080,   0.527611,   32.943504,   34.179428,   623.122681,   208.341354,   149.058105,   0.456553,   607.059082,   556.354431
-0.017855,   0.067341,   0.067438,   0.000000,   666.654724,   0.527612,   32.943504,   33.366188,   623.062561,   208.386200,   141.339737,   0.460813,   601.435669,   547.081421
-0.017151,   0.064727,   0.064668,   0.000000,   661.947754,   0.527612,   32.943504,   32.552952,   622.429993,   208.246521,   133.900131,   0.464755,   595.780640,   537.959229
-0.016498,   0.062102,   0.061876,   0.000000,   656.885620,   0.527611,   32.943504,   31.739714,   621.236328,   207.598618,   126.557358,   0.468259,   590.012085,   529.079407
-0.015859,   0.059456,   0.059067,   0.000000,   651.495850,   0.527611,   32.943504,   30.926476,   619.468811,   206.533127,   119.376823,   0.471356,   584.131165,   520.454773
-0.015233,   0.056797,   0.056248,   0.000000,   645.821350,   0.527612,   32.943504,   30.113239,   617.124573,   205.173370,   112.450722,   0.474098,   578.149475,   512.078857
-0.014605,   0.054116,   0.053411,   0.000000,   639.793701,   0.527612,   32.943504,   29.299999,   614.232727,   203.370911,   105.619041,   0.476454,   572.005798,   503.960968
-0.013995,   0.051444,   0.050586,   0.000000,   633.452942,   0.527612,   32.943504,   28.486761,   610.809692,   201.107895,   98.942879,   0.478380,   565.741394,   496.218628
-0.013391,   0.048805,   0.047804,   0.000000,   626.884949,   0.527612,   32.943504,   27.673523,   606.969055,   198.514130,   92.365555,   0.479974,   559.393921,   488.789978
-0.012791,   0.046162,   0.045020,   0.000000,   619.927368,   0.527611,   32.943504,   26.860287,   602.579895,   195.366699,   85.819824,   0.481112,   552.848755,   481.734039
-0.012187,   0.043505,   0.042228,   0.000000,   612.561951,   0.527611,   32.943504,   26.047049,   597.609436,   191.739853,   79.324249,   0.481836,   546.070190,   474.977234
-0.011580,   0.040891,   0.039490,   0.000000,   604.903076,   0.527612,   32.943504,   25.233810,   592.212097,   187.631271,   72.770706,   0.482138,   539.156616,   468.611847
-0.010979,   0.038356,   0.036845,   0.000000,   597.106995,   0.527612,   32.943504,   24.420572,   586.455811,   183.286835,   66.390244,   0.482096,   532.219727,   462.630981
-0.010379,   0.035835,   0.034221,   0.000000,   588.869141,   0.527612,   32.943504,   23.607334,   580.147034,   178.303299,   59.841431,   0.481522,   525.036682,   457.037567
-0.009766,   0.033330,   0.031623,   0.000000,   580.213013,   0.527611,   32.943504,   22.794098,   573.265686,   172.843933,   53.198891,   0.480490,   517.603577,   451.709106
-0.009145,   0.030832,   0.029041,   0.000000,   571.117615,   0.527612,   32.943504,   21.980860,   565.744995,   167.066727,   46.591949,   0.479078,   509.876404,   446.479889
-0.008517,   0.028412,   0.026554,   0.000000,   561.724365,   0.527612,   32.943504,   21.167622,   557.783813,   160.778366,   39.748436,   0.477106,   502.028595,   441.645905
-0.007884,   0.026120,   0.024216,   0.000000,   552.431702,   0.527611,   32.943504,   20.354383,   549.657532,   154.816925,   33.212250,   0.475093,   494.271729,   436.818756
-0.007273,   0.023811,   0.021857,   0.000000,   542.246277,   0.527611,   32.943504,   19.541147,   540.535034,   147.718369,   25.983135,   0.472072,   485.980743,   432.344147
-0.006669,   0.021625,   0.019638,   0.000000,   532.076782,   0.527612,   32.943504,   18.727909,   531.143372,   140.860672,   19.109446,   0.468879,   477.737701,   427.859589
-0.006053,   0.019564,   0.017563,   0.000000,   521.983948,   0.527612,   32.943504,   17.914671,   521.605286,   134.366714,   12.114846,   0.465671,   469.553375,   423.231506
-0.005469,   0.017517,   0.015503,   0.000000,   511.004364,   0.527612,   32.943504,   17.101433,   510.940552,   126.769821,   4.951667,   0.461203,   460.904022,   418.953094
-0.004870,   0.015541,   0.013525,   0.000000,   499.791229,   0.527612,   32.943504,   16.288195,   499.774994,   119.571678,   -2.484227,   0.456714,   452.030975,   414.161163
-0.004281,   0.013713,   0.011710,   0.000000,   488.813477,   0.527612,   32.943504,   15.474957,   488.574768,   113.072014,   -9.470622,   0.452399,   443.300720,   409.079193
-0.003724,   0.011894,   0.009904,   0.000000,   476.566010,   0.527612,   32.943504,   14.661719,   475.761841,   105.006180,   -17.285583,   0.446108,   433.951691,   404.340454
-0.003153,   0.010195,   0.008231,   0.000000,   464.726532,   0.527612,   32.943504,   13.848482,   463.084900,   98.807381,   -24.509302,   0.441150,   424.566193,   398.380768
-0.002617,   0.008587,   0.006653,   0.000000,   452.438934,   0.527612,   32.943504,   13.035244,   449.700684,   92.521774,   -31.393379,   0.435627,   414.898193,   392.137177
-0.002096,   0.007072,   0.005171,   0.000000,   440.094269,   0.527612,   32.943504,   12.222006,   436.075409,   87.394661,   -37.649010,   0.430950,   404.896637,   384.865051
-0.001608,   0.005640,   0.003775,   0.000000,   426.953674,   0.527612,   32.943504,   11.408768,   421.517822,   81.666618,   -43.323574,   0.425271,   394.402832,   377.290100
-0.001139,   0.004280,   0.002453,   0.000000,   413.247803,   0.527611,   32.943504,   10.595531,   406.146942,   76.580238,   -48.894043,   0.419842,   383.260925,   368.690399
-0.000674,   0.002935,   0.001151,   0.000000,   397.856293,   0.527612,   32.943504,   9.782292,   390.503357,   71.118301,   -49.015110,   0.415745,   370.116455,   357.443726
-0.000316,   0.001794,   0.000050,   0.000000,   382.169952,   0.527612,   32.943504,   8.969054,   369.682190,   64.649223,   -62.969257,   0.403343,   358.943115,   350.263824
-0.000123,   0.000969,   0.000000,   0.000000,   215.057281,   0.527611,   32.943504,   8.155817,   189.632202,   64.017273,   -61.969376,   0.425743,   198.593689,   189.880249
-0.000115,   0.000291,   0.000000,   -6.333827,   59.286983,   0.527612,   32.943504,   7.342579,   12.558134,   40.395023,   -29.711945,   0.281542,   62.694317,   61.968369
-0.000615,   0.000219,   0.000000,   -126.716576,   7.962698,   0.527612,   32.943504,   6.529341,   -117.794106,   -0.959768,   33.497177,   -0.302450,   130.879715,   -130.333054
-0.001192,   0.000349,   0.000000,   -250.825317,   0.000000,   0.527612,   32.943504,   5.716104,   -186.391357,   -66.387238,   109.014107,   -0.337235,   249.854401,   -249.837234
-0.039249,   0.095636,   0.101869,   0.000000,   705.877197,   0.523154,   33.740997,   53.488712,   449.965240,   259.921875,   337.824371,   0.336178,   703.880798,   703.855103
-0.037689,   0.095572,   0.101199,   0.000000,   707.639160,   0.523154,   33.740997,   52.654621,   472.506805,   253.476273,   326.784943,   0.346375,   698.647888,   698.105713
-0.036135,   0.095185,   0.100270,   0.000000,   708.529907,   0.523154,   33.740997,   51.820526,   491.312347,   248.355255,   316.161346,   0.355531,   693.485474,   691.910095
-0.034759,   0.094604,   0.099193,   0.000000,   708.501709,   0.523154,   33.740997,   50.986435,   506.945312,   243.438217,   306.164215,   0.363285,   688.516846,   685.642029
-0.033458,   0.093898,   0.098043,   0.000000,   708.059143,   0.523155,   33.740997,   50.152340,   520.231384,   239.278091,   296.732361,   0.370246,   683.787292,   679.411865
-0.032218,   0.093084,   0.096836,   0.000000,   707.241089,   0.523154,   33.740997,   49.318245,   531.376892,   235.641296,   287.988770,   0.376361,   679.327942,   673.372681
-0.031041,   0.092144,   0.095540,   0.000000,   705.972534,   0.523154,   33.740997,   48.484154,   540.762756,   232.088989,   279.803833,   0.381643,   675.022339,   667.507385
-0.029940,   0.091084,   0.094159,   0.000000,   704.269348,   0.523155,   33.740997,   47.650059,   548.444946,   228.506073,   272.278412,   0.386031,   670.887817,   661.943359
-0.028886,   0.089966,   0.092758,   0.000000,   702.384155,   0.523154,   33.740997,   46.815964,   554.891357,   225.162338,   265.305084,   0.389861,   666.949951,   656.659546
-0.027896,   0.088811,   0.091348,   0.000000,   700.317200,   0.523155,   33.740997,   45.981869,   560.399048,   221.846436,   258.740723,   0.393191,   663.159607,   651.627869
-0.026946,   0.087605,   0.089913,   0.000000,   698.158142,   0.523152,   33.740997,   45.147778,   565.277039,   218.734329,   252.401199,   0.396304,   659.436462,   646.683655
-0.026029,   0.086338,   0.088439,   0.000000,   695.941284,   0.523154,   33.740997,   44.313686,   569.792114,   215.878860,   246.088348,   0.399407,   655.697388,   641.666382
-0.025133,   0.085001,   0.086914,   0.000000,   693.724854,   0.523155,   33.740997,   43.479591,   574.203918,   213.421188,   239.596176,   0.402754,   651.866882,   636.384094
-0.024253,   0.083568,   0.085305,   0.000000,   691.492310,   0.523154,   33.740997,   42.645496,   578.603394,   211.425766,   232.796463,   0.406476,   647.868530,   630.678650
-0.023383,   0.082022,   0.083594,   0.000000,   689.221802,   0.523155,   33.740997,   41.811405,   583.009888,   209.925430,   225.625732,   0.410637,   643.662598,   624.447632
-0.022525,   0.080371,   0.081785,   0.000000,   686.903870,   0.523154,   33.740997,   40.977310,   587.401550,   208.929840,   218.081497,   0.415240,   639.253601,   617.652466
-0.021678,   0.078628,   0.079893,   0.000000,   684.527710,   0.523154,   33.740997,   40.143215,   591.738037,   208.415207,   210.186401,   0.420250,   634.664124,   610.289001
-0.020853,   0.076786,   0.077899,   0.000000,   681.997192,   0.523154,   33.740997,   39.309124,   595.886902,   208.227203,   201.981323,   0.425538,   629.880371,   602.377197
-0.020031,   0.074828,   0.075798,   0.000000,   679.298401,   0.523154,   33.740997,   38.475029,   599.639648,   208.435135,   193.670837,   0.431013,   624.941711,   593.979370
-0.019227,   0.072774,   0.073601,   0.000000,   676.376526,   0.523155,   33.740997,   37.640938,   602.963013,   208.854477,   185.263123,   0.436563,   619.855103,   585.156128
-0.018442,   0.070631,   0.071315,   0.000000,   673.196655,   0.523154,   33.740997,   36.806843,   605.779236,   209.390305,   176.829407,   0.442090,   614.633545,   575.981567
-0.017678,   0.068407,   0.068946,   0.000000,   669.733459,   0.523154,   33.740997,   35.972748,   608.034607,   209.960098,   168.426529,   0.447516,   609.285461,   566.526978
-0.016937,   0.066109,   0.066503,   0.000000,   665.966309,   0.523155,   33.740997,   35.138653,   609.694885,   210.485443,   160.095413,   0.452777,   603.814270,   556.862244
-0.016216,   0.063745,   0.063991,   0.000000,   661.880981,   0.523154,   33.740997,   34.304562,   610.736572,   210.902878,   151.871674,   0.457824,   598.220764,   547.055298
-0.015515,   0.061325,   0.061421,   0.000000,   657.467285,   0.523154,   33.740997,   33.470467,   611.155945,   211.150208,   143.769058,   0.462618,   592.502258,   537.168884
-0.014845,   0.058876,   0.058822,   0.000000,   652.758728,   0.523154,   33.740997,   32.636375,   610.963196,   211.191742,   135.851151,   0.467109,   586.697693,   527.323608
-0.014202,   0.056397,   0.056187,   0.000000,   647.690552,   0.523154,   33.740997,   31.802280,   610.177063,   210.855286,   128.012527,   0.471243,   580.756897,   517.572937
-0.013569,   0.053876,   0.053513,   0.000000,   642.268677,   0.523154,   33.740997,   30.968187,   608.756104,   210.221207,   120.328766,   0.475046,   574.665588,   507.921143
-0.012939,   0.051317,   0.050805,   0.000000,   636.497314,   0.523154,   33.740997,   30.134094,   606.686340,   209.305084,   112.849541,   0.478516,   568.418335,   498.406677
-0.012328,   0.048750,   0.048089,   0.000000,   630.369812,   0.523154,   33.740997,   29.300001,   604.047058,   207.957626,   105.446976,   0.481604,   562.014465,   489.127472
-0.011739,   0.046188,   0.045378,   0.000000,   623.895569,   0.523154,   33.740997,   28.465906,   600.839600,   206.153122,   98.140022,   0.484278,   555.460876,   480.168457
-0.011137,   0.043612,   0.042664,   0.000000,   617.095886,   0.523154,   33.740997,   27.631813,   597.055664,   204.088699,   90.976662,   0.486665,   548.730896,   471.384796
-0.010552,   0.041046,   0.039962,   0.000000,   609.890503,   0.523154,   33.740997,   26.797718,   592.692627,   201.427231,   83.813507,   0.488569,   541.799927,   463.028137
-0.009973,   0.038527,   0.037318,   0.000000,   602.472412,   0.523154,   33.740997,   25.963625,   587.887207,   198.527115,   76.756958,   0.490181,   534.778198,   454.972565
-0.009408,   0.036011,   0.034677,   0.000000,   594.538269,   0.523154,   33.740997,   25.129532,   582.460754,   194.841583,   69.478996,   0.491220,   527.463928,   447.420319
-0.008824,   0.033524,   0.032083,   0.000000,   586.383911,   0.523154,   33.740997,   24.295439,   576.509216,   191.144974,   62.472980,   0.492076,   520.010620,   440.004700
-0.008248,   0.031064,   0.029520,   0.000000,   577.744995,   0.523154,   33.740997,   23.461344,   569.956482,   186.718445,   55.186298,   0.492359,   512.278625,   433.103302
-0.007686,   0.028691,   0.027059,   0.000000,   568.945007,   0.523153,   33.740997,   22.627251,   562.974121,   182.078796,   48.061726,   0.492275,   504.496490,   426.629059
-0.007105,   0.026386,   0.024684,   0.000000,   559.951721,   0.523154,   33.740997,   21.793158,   555.556946,   177.308807,   41.007641,   0.491912,   496.610168,   420.405212
-0.006551,   0.024078,   0.022304,   0.000000,   550.158813,   0.523154,   33.740997,   20.959064,   547.208191,   171.394470,   33.430279,   0.490609,   488.238800,   414.873688
-0.006007,   0.021888,   0.020058,   0.000000,   540.367615,   0.523154,   33.740997,   20.124969,   538.529480,   165.683868,   26.243305,   0.489137,   479.901703,   409.483673
-0.005458,   0.019814,   0.017947,   0.000000,   530.491150,   0.523154,   33.740997,   19.290876,   529.533875,   159.816803,   18.837006,   0.487268,   471.575684,   404.448700
-0.004934,   0.017812,   0.015914,   0.000000,   520.239197,   0.523154,   33.740997,   18.456783,   519.880188,   153.552673,   11.473830,   0.484775,   463.054840,   399.773102
-0.004418,   0.015847,   0.013924,   0.000000,   509.341980,   0.523154,   33.740997,   17.622690,   509.304199,   146.625977,   3.702374,   0.481432,   454.151825,   395.420837
-0.003900,   0.014047,   0.012119,   0.000000,   498.873016,   0.523154,   33.740997,   16.788595,   498.840576,   140.670441,   -3.408984,   0.478470,   445.525330,   390.692902
-0.003423,   0.012281,   0.010348,   0.000000,   487.289825,   0.523154,   33.740997,   15.954503,   486.912018,   132.760986,   -11.573293,   0.473294,   436.426056,   387.234406
-0.002931,   0.010628,   0.008705,   0.000000,   476.020416,   0.523154,   33.740997,   15.120409,   474.995514,   126.449181,   -18.928177,   0.469135,   427.343170,   382.526276
-0.002469,   0.009091,   0.007184,   0.000000,   464.516235,   0.523154,   33.740997,   14.286316,   462.517395,   119.838799,   -26.248055,   0.464135,   418.238007,   378.096466
-0.002028,   0.007622,   0.005735,   0.000000,   452.502563,   0.523154,   33.740997,   13.452222,   449.196472,   113.144516,   -33.495476,   0.458525,   408.804169,   373.381561
-0.001607,   0.006281,   0.004418,   0.000000,   440.704071,   0.523154,   33.740997,   12.618128,   435.970886,   107.435158,   -39.716831,   0.453538,   399.382782,   367.871979
-0.001221,   0.005037,   0.003202,   0.000000,   428.486755,   0.523154,   33.740997,   11.784035,   422.079926,   101.320671,   -45.783123,   0.447586,   389.795074,   362.401825
-0.000858,   0.003895,   0.002087,   0.000000,   416.375031,   0.523154,   33.740997,   10.949941,   408.281006,   96.401489,   -50.890804,   0.442708,   379.996521,   355.794159
-0.000510,   0.002797,   0.001019,   0.000000,   403.597839,   0.523154,   33.740997,   10.115848,   394.732635,   92.156723,   -52.545151,   0.439745,   369.069672,   346.964996
-0.000265,   0.001953,   0.000198,   0.000000,   392.245575,   0.523154,   33.740997,   9.281754,   380.289764,   87.552330,   -60.356106,   0.432655,   360.442841,   341.917175
-0.000146,   0.001278,   0.000000,   0.000000,   284.871460,   0.523154,   33.740997,   8.447660,   256.941437,   82.625778,   -75.157997,   0.432277,   261.843689,   248.498306
-0.000126,   0.000677,   0.000000,   0.000000,   147.414673,   0.523154,   33.740997,   7.613567,   97.729523,   67.499199,   -63.012791,   0.395197,   139.364166,   136.767502
-0.000244,   0.000305,   0.000000,   -35.101894,   53.502895,   0.523154,   33.740997,   6.779473,   -27.734526,   46.135529,   -24.464382,   0.079366,   77.283607,   54.484634
-0.000575,   0.000232,   0.000000,   -116.712814,   13.693936,   0.523154,   33.740997,   5.945380,   -109.532867,   6.513989,   29.744949,   -0.276648,   124.127609,   -122.410873
-0.000899,   0.000267,   0.000000,   -189.014008,   0.000000,   0.523154,   33.740997,   5.111286,   -137.589874,   -51.980053,   83.945534,   -0.334805,   188.736679,   -188.734833
-0.032491,   0.079370,   0.084709,   0.000000,   686.937622,   0.517472,   34.510784,   54.127285,   409.858154,   280.175323,   335.716339,   0.335589,   685.394897,   685.379150
-0.031451,   0.080431,   0.085369,   0.000000,   690.841125,   0.517472,   34.510784,   53.271168,   436.794128,   272.302399,   326.080505,   0.346629,   681.896729,   681.346497
-0.030443,   0.080964,   0.085497,   0.000000,   692.933655,   0.517471,   34.510784,   52.415058,   459.080872,   264.932983,   316.368683,   0.355993,   677.928101,   676.322327
-0.029509,   0.081263,   0.085391,   0.000000,   694.183899,   0.517472,   34.510784,   51.558945,   478.347382,   258.514191,   306.648712,   0.364498,   673.859436,   670.808655
-0.028578,   0.081354,   0.085113,   0.000000,   694.809692,   0.517472,   34.510784,   50.702831,   494.774139,   253.074005,   297.258911,   0.372138,   669.867126,   665.118469
-0.027684,   0.081205,   0.084626,   0.000000,   694.732910,   0.517472,   34.510784,   49.846718,   508.505066,   248.154068,   288.384155,   0.378746,   665.932800,   659.408142
-0.026860,   0.080934,   0.084041,   0.000000,   694.162048,   0.517472,   34.510784,   48.990604,   520.112610,   243.511398,   280.063354,   0.384405,   662.169189,   653.897095
-0.026060,   0.080559,   0.083381,   0.000000,   693.263367,   0.517472,   34.510784,   48.134491,   530.026794,   239.213913,   272.245239,   0.389349,   658.569885,   648.599854
-0.025279,   0.080042,   0.082608,   0.000000,   692.033875,   0.517472,   34.510784,   47.278378,   538.265991,   235.260010,   265.022919,   0.393592,   655.100403,   643.548645
-0.024519,   0.079393,   0.081725,   0.000000,   690.473450,   0.517472,   34.510784,   46.422264,   545.150391,   231.426926,   258.282898,   0.397205,   651.701660,   638.716492
-0.023764,   0.078632,   0.080754,   0.000000,   688.702881,   0.517471,   34.510784,   45.566151,   550.975220,   227.833221,   251.941498,   0.400397,   648.363159,   634.047119
-0.023016,   0.077765,   0.079698,   0.000000,   686.765015,   0.517472,   34.510784,   44.710037,   556.058899,   224.463074,   245.816360,   0.403360,   645.017456,   629.413025
-0.022272,   0.076792,   0.078552,   0.000000,   684.720276,   0.517472,   34.510784,   43.853924,   560.698486,   221.407501,   239.710022,   0.406334,   641.594788,   624.641418
-0.021522,   0.075704,   0.077307,   0.000000,   682.607971,   0.517472,   34.510784,   42.997814,   565.107666,   218.775040,   233.453445,   0.409534,   638.027649,   619.556274
-0.020767,   0.074497,   0.075953,   0.000000,   680.440308,   0.517472,   34.510784,   42.141701,   569.466370,   216.620407,   226.874222,   0.413131,   634.250793,   613.985535
-0.020008,   0.073162,   0.074481,   0.000000,   678.209106,   0.517472,   34.510784,   41.285587,   573.809753,   214.993179,   219.907791,   0.417202,   630.232361,   607.823242
-0.019251,   0.071701,   0.072885,   0.000000,   675.880798,   0.517472,   34.510784,   40.429474,   578.113464,   213.871262,   212.531067,   0.421746,   625.957336,   601.011353
-0.018491,   0.070105,   0.071156,   0.000000,   673.393127,   0.517471,   34.510784,   39.573360,   582.306641,   213.178741,   204.742035,   0.426711,   621.408691,   593.516479
-0.017725,   0.068377,   0.069300,   0.000000,   670.741943,   0.517472,   34.510784,   38.717247,   586.211975,   212.977310,   196.710052,   0.432017,   616.634827,   585.389038
-0.016967,   0.066535,   0.067330,   0.000000,   667.873291,   0.517472,   34.510784,   37.861134,   589.777954,   213.099121,   188.456238,   0.437547,   611.649719,   576.680420
-0.016220,   0.064587,   0.065252,   0.000000,   664.746399,   0.517472,   34.510784,   37.005020,   592.907715,   213.446136,   180.057816,   0.443194,   606.471252,   567.457642
-0.015488,   0.062542,   0.063077,   0.000000,   661.331299,   0.517473,   34.510784,   36.148907,   595.522217,   213.930786,   171.589691,   0.448860,   601.117004,   557.796509
-0.014772,   0.060412,   0.060812,   0.000000,   657.603210,   0.517472,   34.510784,   35.292793,   597.569580,   214.465439,   163.104736,   0.454465,   595.597412,   547.769592
-0.014074,   0.058204,   0.058468,   0.000000,   653.544556,   0.517472,   34.510784,   34.436680,   599.005188,   214.983643,   154.657196,   0.459943,   589.919861,   537.449402
-0.013393,   0.055927,   0.056053,   0.000000,   649.137573,   0.517471,   34.510784,   33.580566,   599.814148,   215.413803,   146.262589,   0.465249,   584.080566,   526.892700
-0.012743,   0.053601,   0.053582,   0.000000,   644.351196,   0.517472,   34.510784,   32.724453,   599.980469,   215.583817,   137.930115,   0.470269,   578.083923,   516.246216
-0.012108,   0.051230,   0.051066,   0.000000,   639.211426,   0.517471,   34.510784,   31.868340,   599.521606,   215.557724,   129.671646,   0.475046,   571.930054,   505.502930
-0.011483,   0.048807,   0.048497,   0.000000,   633.681885,   0.517472,   34.510784,   31.012226,   598.372925,   215.292343,   121.543762,   0.479536,   565.592163,   494.726593
-0.010869,   0.046368,   0.045917,   0.000000,   627.826904,   0.517473,   34.510784,   30.156113,   596.607666,   214.776443,   113.556686,   0.483725,   559.122253,   484.020905
-0.010286,   0.043915,   0.043319,   0.000000,   621.577637,   0.517471,   34.510784,   29.299999,   594.202271,   213.852554,   105.648598,   0.487541,   552.469421,   473.476562
-0.009697,   0.041426,   0.040690,   0.000000,   614.888550,   0.517472,   34.510784,   28.443888,   591.126160,   212.532089,   97.780060,   0.491018,   545.572693,   463.049683
-0.009126,   0.038949,   0.038077,   0.000000,   607.857544,   0.517472,   34.510784,   27.587774,   587.437378,   210.838135,   90.039993,   0.494118,   538.519043,   452.911438
-0.008580,   0.036501,   0.035493,   0.000000,   600.468079,   0.517472,   34.510784,   26.731661,   583.198181,   208.661591,   82.258507,   0.496817,   531.289124,   443.122620
-0.008024,   0.034068,   0.032940,   0.000000,   592.782715,   0.517471,   34.510784,   25.875547,   578.382324,   206.298492,   74.602478,   0.499264,   523.891541,   433.518341
-0.007478,   0.031615,   0.030365,   0.000000,   584.486389,   0.517472,   34.510784,   25.019434,   572.793579,   203.180466,   66.772209,   0.501168,   516.110352,   424.367401
-0.006941,   0.029229,   0.027871,   0.000000,   575.984375,   0.517472,   34.510784,   24.163321,   566.695251,   199.881775,   59.107220,   0.502768,   508.237305,   415.593353
-0.006426,   0.026914,   0.025454,   0.000000,   567.130920,   0.517472,   34.510784,   23.307207,   560.085510,   195.920807,   51.140186,   0.503808,   500.194275,   407.517487
-0.005902,   0.024646,   0.023102,   0.000000,   558.018921,   0.517471,   34.510784,   22.451094,   552.867004,   191.889236,   43.431229,   0.504589,   491.988831,   399.711853
-0.005401,   0.022447,   0.020824,   0.000000,   548.565430,   0.517472,   34.510784,   21.594982,   545.047668,   187.412384,   35.643459,   0.504873,   483.593872,   392.487671
-0.004913,   0.020367,   0.018680,   0.000000,   538.997131,   0.517472,   34.510784,   20.738867,   536.829712,   182.557846,   27.794857,   0.504606,   475.214386,   386.060242
-0.004442,   0.018361,   0.016621,   0.000000,   529.142822,   0.517471,   34.510784,   19.882755,   528.010010,   177.394745,   19.961391,   0.503843,   466.682587,   380.167664
-0.003979,   0.016372,   0.014583,   0.000000,   518.555908,   0.517472,   34.510784,   19.026642,   518.154419,   171.403763,   11.806214,   0.502217,   457.676514,   374.968689
-0.003521,   0.014515,   0.012696,   0.000000,   508.010315,   0.517473,   34.510784,   18.170528,   507.967987,   165.538330,   3.806958,   0.500267,   448.764679,   370.116852
-0.003093,   0.012804,   0.010965,   0.000000,   497.531982,   0.517472,   34.510784,   17.314415,   497.483490,   159.586578,   -4.047942,   0.497761,   440.017273,   365.895813
-0.002689,   0.011167,   0.009313,   0.000000,   486.556183,   0.517471,   34.510784,   16.458302,   486.109436,   152.867981,   -12.209437,   0.494120,   431.054108,   362.527466
-0.002285,   0.009653,   0.007800,   0.000000,   475.783203,   0.517472,   34.510784,   15.602188,   474.583649,   146.921448,   -19.861664,   0.490661,   422.223297,   358.724762
-0.001911,   0.008206,   0.006355,   0.000000,   464.305878,   0.517472,   34.510784,   14.746075,   461.918884,   139.791580,   -27.831905,   0.485509,   413.112854,   355.972626
-0.001552,   0.006888,   0.005048,   0.000000,   453.101959,   0.517472,   34.510784,   13.889962,   449.261719,   133.589172,   -35.028576,   0.480708,   404.161652,   352.521881
-0.001218,   0.005690,   0.003865,   0.000000,   441.941803,   0.517472,   34.510784,   13.033849,   436.403503,   127.486244,   -41.731899,   0.475453,   395.335266,   349.099670
-0.000914,   0.004594,   0.002786,   0.000000,   430.608093,   0.517472,   34.510784,   12.177735,   423.183685,   121.134140,   -47.933968,   0.469431,   386.508606,   345.763428
-0.000637,   0.003601,   0.001812,   0.000000,   419.375061,   0.517472,   34.510784,   11.321622,   410.029053,   115.305351,   -53.308907,   0.463611,   377.711700,   341.799103
-0.000386,   0.002699,   0.000927,   0.000000,   408.133423,   0.517472,   34.510784,   10.465509,   397.598145,   109.948708,   -56.048752,   0.458959,   368.621735,   336.423615
-0.000214,   0.002025,   0.000267,   0.000000,   398.413055,   0.517472,   34.510784,   9.609395,   385.547089,   103.979233,   -61.548180,   0.451295,   361.571411,   334.247101
-0.000153,   0.001460,   0.000000,   0.000000,   326.244720,   0.517472,   34.510784,   8.753282,   298.850830,   93.206467,   -79.898849,   0.437333,   298.824219,   281.817719
-0.000137,   0.000952,   0.000000,   0.000000,   210.155624,   0.517472,   34.510784,   7.897169,   159.760101,   84.768272,   -79.491898,   0.417458,   195.251755,   188.263428
-0.000179,   0.000564,   0.000000,   -2.191609,   117.720444,   0.517472,   34.510784,   7.041056,   41.449062,   74.079773,   -57.693451,   0.324069,   118.831406,   118.785919
-0.000319,   0.000333,   0.000000,   -50.515411,   54.680420,   0.517472,   34.510784,   6.184943,   -46.810768,   50.975777,   -19.390425,   0.015235,   91.126060,   37.287506
-0.000493,   0.000231,   0.000000,   -97.745369,   19.196400,   0.517472,   34.510784,   5.328829,   -93.066994,   14.518026,   22.917461,   -0.241044,   108.623276,   -104.704521
-0.000614,   0.000188,   0.000000,   -128.594406,   0.906537,   0.517472,   34.510784,   4.472716,   -93.624138,   -34.063736,   57.495770,   -0.329815,   129.050064,   -129.042892
-0.025442,   0.061950,   0.065944,   0.000000,   659.983032,   0.522564,   35.259705,   54.819710,   364.921661,   296.353027,   327.556366,   0.334312,   659.338135,   659.335388
-0.025337,   0.064891,   0.068806,   0.000000,   667.984497,   0.522564,   35.259705,   53.939720,   397.624359,   286.702728,   321.066010,   0.345638,   659.964966,   659.509460
-0.025101,   0.067004,   0.070727,   0.000000,   673.200928,   0.522564,   35.259705,   53.059731,   425.226898,   277.568970,   313.219513,   0.355539,   658.902161,   657.404236
-0.024734,   0.068615,   0.072112,   0.000000,   676.984680,   0.522564,   35.259705,   52.179741,   448.750885,   270.023407,   304.766022,   0.364626,   657.087341,   654.087463
-0.024303,   0.069664,   0.072914,   0.000000,   679.152893,   0.522564,   35.259705,   51.299751,   468.107025,   263.179535,   296.292847,   0.372358,   654.644836,   649.949768
-0.023823,   0.070466,   0.073466,   0.000000,   680.652893,   0.522565,   35.259705,   50.419762,   484.979828,   257.312347,   287.813019,   0.379482,   652.022034,   645.418274
-0.023334,   0.071010,   0.073772,   0.000000,   681.437622,   0.522564,   35.259705,   49.539768,   499.260315,   252.055557,   279.684967,   0.385691,   649.324707,   640.783508
-0.022828,   0.071315,   0.073845,   0.000000,   681.648560,   0.522564,   35.259705,   48.659779,   511.450409,   247.338837,   271.879974,   0.391206,   646.538940,   636.061890
-0.022292,   0.071421,   0.073742,   0.000000,   681.436584,   0.522564,   35.259705,   47.779793,   521.669373,   243.179031,   264.611420,   0.396010,   643.796204,   631.467651
-0.021727,   0.071328,   0.073456,   0.000000,   680.814087,   0.522564,   35.259705,   46.899803,   530.294861,   239.369385,   257.771027,   0.400226,   641.023926,   626.945862
-0.021130,   0.071024,   0.072975,   0.000000,   679.790955,   0.522564,   35.259705,   46.019814,   537.451416,   235.849030,   251.377151,   0.403900,   638.194946,   622.502197
-0.020513,   0.070543,   0.072332,   0.000000,   678.432739,   0.522565,   35.259705,   45.139820,   543.477234,   232.517059,   245.313599,   0.407157,   635.295410,   618.103882
-0.019874,   0.069898,   0.071540,   0.000000,   676.815857,   0.522564,   35.259705,   44.259830,   548.674683,   229.428772,   239.434174,   0.410206,   632.286194,   613.634766
-0.019206,   0.069088,   0.070595,   0.000000,   674.989746,   0.522564,   35.259705,   43.379841,   553.310974,   226.662292,   233.563553,   0.413273,   629.102478,   608.925171
-0.018521,   0.068123,   0.069505,   0.000000,   672.992310,   0.522564,   35.259705,   42.499851,   557.661316,   224.251480,   227.494415,   0.416565,   625.683350,   603.798523
-0.017819,   0.067007,   0.068270,   0.000000,   670.859741,   0.522564,   35.259705,   41.619862,   561.875183,   222.300095,   221.101944,   0.420249,   621.992249,   598.104370
-0.017106,   0.065741,   0.066888,   0.000000,   668.578979,   0.522565,   35.259705,   40.739872,   566.029541,   220.816605,   214.284332,   0.424410,   617.991882,   591.722046
-0.016381,   0.064322,   0.065355,   0.000000,   666.125183,   0.522564,   35.259705,   39.859882,   570.118042,   219.812622,   207.000473,   0.429080,   613.661621,   584.563965
-0.015647,   0.062758,   0.063679,   0.000000,   663.491333,   0.522564,   35.259705,   38.979893,   574.022766,   219.328873,   199.345413,   0.434213,   609.034729,   576.637817
-0.014915,   0.061065,   0.061872,   0.000000,   660.628357,   0.522564,   35.259705,   38.099903,   577.671143,   219.236374,   191.354813,   0.439700,   604.129150,   567.979614
-0.014190,   0.059253,   0.059944,   0.000000,   657.498413,   0.522564,   35.259705,   37.219910,   580.967834,   219.445633,   183.096771,   0.445440,   598.967773,   558.640808
-0.013477,   0.057335,   0.057907,   0.000000,   654.070679,   0.522565,   35.259705,   36.339920,   583.812195,   219.875519,   174.659363,   0.451325,   593.576965,   548.694092
-0.012778,   0.055324,   0.055772,   0.000000,   650.317566,   0.522565,   35.259705,   35.459930,   586.137695,   220.434708,   166.101898,   0.457261,   587.973877,   538.209412
-0.012097,   0.053230,   0.053552,   0.000000,   646.224548,   0.522564,   35.259705,   34.579941,   587.877930,   221.060547,   157.501968,   0.463167,   582.178833,   527.267090
-0.011431,   0.051057,   0.051249,   0.000000,   641.749512,   0.522564,   35.259705,   33.699951,   588.989380,   221.653839,   148.876816,   0.468978,   576.177124,   515.917419
-0.010793,   0.048819,   0.048872,   0.000000,   636.830139,   0.522564,   35.259705,   32.819962,   589.457153,   221.994293,   140.185608,   0.474576,   569.948303,   504.280182
-0.010170,   0.046536,   0.046451,   0.000000,   631.560852,   0.522564,   35.259705,   31.939970,   589.271423,   222.253616,   131.565109,   0.480001,   563.558228,   492.396729
-0.009559,   0.044201,   0.043977,   0.000000,   625.877625,   0.522564,   35.259705,   31.059980,   588.374634,   222.322586,   123.022461,   0.485190,   556.961975,   480.327148
-0.008976,   0.041838,   0.041471,   0.000000,   619.761475,   0.522564,   35.259705,   30.179991,   586.778687,   222.039734,   114.533730,   0.490050,   550.160522,   468.232819
-0.008401,   0.039453,   0.038947,   0.000000,   613.249512,   0.522564,   35.259705,   29.299999,   584.507874,   221.490204,   106.112175,   0.494634,   543.161133,   456.100800
-0.007844,   0.037065,   0.036420,   0.000000,   606.329834,   0.522564,   35.259705,   28.420010,   581.591858,   220.552551,   97.690048,   0.498885,   535.958008,   444.055145
-0.007320,   0.034699,   0.033916,   0.000000,   599.042114,   0.522564,   35.259705,   27.540020,   578.015381,   219.192886,   89.370003,   0.502723,   528.593811,   432.308472
-0.006788,   0.032316,   0.031403,   0.000000,   591.286011,   0.522564,   35.259705,   26.660030,   573.737427,   217.450348,   80.995667,   0.506254,   520.942200,   420.657776
-0.006279,   0.029965,   0.028926,   0.000000,   583.148743,   0.522564,   35.259705,   25.780041,   568.785950,   215.267502,   72.689781,   0.509361,   513.096313,   409.421387
-0.005784,   0.027688,   0.026535,   0.000000,   574.815308,   0.522564,   35.259705,   24.900049,   563.364502,   212.872955,   64.377983,   0.512189,   505.176147,   398.511780
-0.005307,   0.025442,   0.024180,   0.000000,   566.039246,   0.522564,   35.259705,   24.020060,   557.223511,   209.904007,   56.032024,   0.514501,   497.004059,   388.228638
-0.004836,   0.023201,   0.021835,   0.000000,   556.668518,   0.522564,   35.259705,   23.140070,   550.241821,   206.304520,   47.451958,   0.516310,   488.431458,   378.487091
-0.004382,   0.021071,   0.019616,   0.000000,   547.226501,   0.522564,   35.259705,   22.260080,   542.789062,   202.615952,   39.104755,   0.517774,   479.878143,   369.375641
-0.003965,   0.019058,   0.017523,   0.000000,   537.577698,   0.522564,   35.259705,   21.380089,   534.832458,   198.194794,   30.523470,   0.518447,   471.297119,   361.630280
-0.003545,   0.017085,   0.015481,   0.000000,   527.550049,   0.522564,   35.259705,   20.500099,   526.085632,   193.683807,   22.111576,   0.518819,   462.441345,   354.211487
-0.003137,   0.015197,   0.013536,   0.000000,   517.187378,   0.522564,   35.259705,   19.620110,   516.635071,   188.531784,   13.472972,   0.518395,   453.429688,   348.005280
-0.002762,   0.013484,   0.011780,   0.000000,   507.125092,   0.522564,   35.259705,   18.740120,   507.040405,   183.495834,   5.234974,   0.517546,   444.750610,   342.699219
-0.002409,   0.011806,   0.010062,   0.000000,   496.294067,   0.522564,   35.259705,   17.860130,   496.250671,   177.119659,   -3.721663,   0.515235,   435.639648,   339.201996
-0.002062,   0.010260,   0.008492,   0.000000,   485.693542,   0.522564,   35.259705,   16.980139,   485.238495,   171.414200,   -11.958825,   0.512944,   426.721771,   335.560364
-0.001743,   0.008825,   0.007040,   0.000000,   474.872864,   0.522563,   35.259705,   16.100149,   473.504181,   164.858582,   -20.598736,   0.509247,   417.847168,   333.566925
-0.001447,   0.007524,   0.005731,   0.000000,   464.261292,   0.522564,   35.259705,   15.220160,   461.589783,   158.568726,   -28.577316,   0.505148,   409.225433,   331.796967
-0.001166,   0.006335,   0.004543,   0.000000,   453.757965,   0.522564,   35.259705,   14.340169,   449.407166,   152.457870,   -36.206333,   0.500574,   400.783295,   330.203766
-0.000911,   0.005242,   0.003453,   0.000000,   443.007935,   0.522564,   35.259705,   13.460179,   436.573486,   145.537521,   -43.749958,   0.494481,   392.405304,   329.662262
-0.000679,   0.004266,   0.002483,   0.000000,   432.479065,   0.522564,   35.259705,   12.580190,   423.779114,   138.853287,   -50.542358,   0.488010,   384.303833,   328.935028
-0.000475,   0.003404,   0.001629,   0.000000,   422.059662,   0.522564,   35.259705,   11.700199,   411.123932,   131.735718,   -56.346272,   0.480636,   376.486633,   328.439972
-0.000300,   0.002653,   0.000886,   0.000000,   411.957733,   0.522564,   35.259705,   10.820210,   399.160980,   124.703384,   -60.629360,   0.473280,   368.959961,   327.382294
-0.000185,   0.002080,   0.000319,   0.000000,   402.664337,   0.522564,   35.259705,   9.940220,   387.486969,   115.759903,   -65.988312,   0.462144,   362.979950,   329.371307
-0.000152,   0.001580,   0.000000,   0.000000,   354.087769,   0.522564,   35.259705,   9.060229,   326.473236,   101.879913,   -83.454208,   0.441490,   323.414642,   303.326752
-0.000138,   0.001138,   0.000000,   0.000000,   253.166336,   0.522564,   35.259705,   8.180239,   205.313751,   94.889458,   -87.028496,   0.429047,   233.232742,   222.182190
-0.000165,   0.000776,   0.000000,   0.000000,   167.568390,   0.522564,   35.259705,   7.300249,   94.834946,   88.345833,   -75.908699,   0.380833,   160.333313,   158.609650
-0.000242,   0.000507,   0.000000,   -20.627634,   100.350754,   0.522564,   35.259705,   6.420259,   4.563426,   75.159691,   -49.122135,   0.237066,   112.097153,   107.702271
-0.000342,   0.000341,   0.000000,   -55.368469,   55.055073,   0.522564,   35.259705,   5.540269,   -53.020981,   52.707584,   -15.928191,   -0.001092,   95.629723,   -16.260166
-0.000391,   0.000219,   0.000000,   -75.108627,   23.351933,   0.522564,   35.259705,   4.660279,   -72.925140,   21.168449,   14.498945,   -0.193607,   89.109764,   -81.790031
-0.000345,   0.000114,   0.000000,   -71.729118,   2.454220,   0.522564,   35.259705,   3.780289,   -54.568462,   -14.706434,   31.281729,   -0.316379,   72.987183,   -72.894257
-0.019762,   0.047947,   0.050623,   0.000000,   631.864319,   0.537509,   36.001991,   55.549416,   328.871124,   303.409058,   315.467468,   0.333662,   631.656555,   631.656250
-0.020717,   0.052054,   0.054903,   0.000000,   642.165527,   0.537508,   36.001991,   54.644264,   361.363251,   291.016418,   314.011902,   0.341317,   637.119873,   636.935669
-0.021036,   0.055318,   0.058181,   0.000000,   650.898865,   0.537508,   36.001991,   53.739113,   392.532715,   281.775970,   308.818512,   0.351469,   639.515442,   638.550293
-0.021043,   0.057667,   0.060460,   0.000000,   656.882996,   0.537509,   36.001991,   52.833961,   418.738617,   273.714325,   302.075256,   0.360743,   639.839966,   637.609802
-0.020926,   0.059613,   0.062284,   0.000000,   661.594177,   0.537508,   36.001991,   51.928806,   441.706238,   267.064331,   294.537506,   0.369548,   639.312744,   635.378845
-0.020788,   0.061197,   0.063722,   0.000000,   665.015259,   0.537509,   36.001991,   51.023655,   461.455688,   260.990509,   286.780609,   0.377311,   638.240723,   632.388184
-0.020565,   0.062452,   0.064821,   0.000000,   667.567932,   0.537509,   36.001991,   50.118504,   478.327393,   255.971985,   279.088928,   0.384351,   636.829834,   628.891663
-0.020274,   0.063425,   0.065639,   0.000000,   669.426636,   0.537508,   36.001991,   49.213352,   492.863098,   251.742676,   271.565399,   0.390757,   635.182678,   625.055664
-0.019912,   0.064072,   0.066136,   0.000000,   670.559998,   0.537508,   36.001991,   48.308201,   505.126740,   248.116226,   264.360077,   0.396477,   633.279785,   620.961853
-0.019487,   0.064459,   0.066381,   0.000000,   671.138306,   0.537509,   36.001991,   47.403046,   515.496521,   244.981430,   257.541870,   0.401586,   631.228088,   616.763428
-0.018996,   0.064586,   0.066379,   0.000000,   671.199463,   0.537508,   36.001991,   46.497894,   524.192810,   242.220795,   251.122925,   0.406141,   629.020508,   612.492615
-0.018451,   0.064459,   0.066129,   0.000000,   670.736694,   0.537509,   36.001991,   45.592743,   531.458130,   239.637207,   245.036545,   0.410191,   626.614136,   608.137695
-0.017856,   0.064084,   0.065641,   0.000000,   669.792480,   0.537508,   36.001991,   44.687592,   537.496094,   237.199310,   239.228989,   0.413840,   623.989868,   603.671143
-0.017223,   0.063491,   0.064943,   0.000000,   668.448792,   0.537509,   36.001991,   43.782436,   542.606689,   234.914764,   233.574036,   0.417257,   621.136963,   599.020020
-0.016562,   0.062709,   0.064060,   0.000000,   666.784790,   0.537508,   36.001991,   42.877285,   547.137268,   232.821716,   227.865356,   0.420677,   618.019043,   594.030212
-0.015875,   0.061743,   0.062999,   0.000000,   664.855164,   0.537508,   36.001991,   41.972134,   551.308777,   231.029449,   221.944458,   0.424312,   614.593750,   588.529602
-0.015169,   0.060600,   0.061763,   0.000000,   662.675659,   0.537510,   36.001991,   41.066982,   555.297302,   229.584869,   215.649200,   0.428328,   610.811096,   582.345093
-0.014448,   0.059290,   0.060358,   0.000000,   660.261230,   0.537508,   36.001991,   40.161827,   559.182678,   228.554886,   208.892899,   0.432833,   606.652649,   575.349182
-0.013721,   0.057825,   0.058797,   0.000000,   657.618469,   0.537508,   36.001991,   39.256676,   562.947876,   227.989532,   201.676041,   0.437854,   602.132080,   567.481323
-0.012994,   0.056220,   0.057093,   0.000000,   654.715088,   0.537509,   36.001991,   38.351524,   566.532410,   227.824371,   194.021530,   0.443330,   597.265503,   558.737610
-0.012276,   0.054488,   0.055257,   0.000000,   651.518677,   0.537508,   36.001991,   37.446369,   569.853210,   227.989456,   185.977753,   0.449178,   592.076477,   549.140808
-0.011569,   0.052644,   0.053304,   0.000000,   648.003845,   0.537508,   36.001991,   36.541222,   572.795044,   228.427109,   177.639709,   0.455292,   586.599365,   538.751404
-0.010880,   0.050700,   0.051244,   0.000000,   644.132751,   0.537511,   36.001991,   35.636066,   575.270508,   229.035767,   169.069504,   0.461567,   580.852417,   527.632080
-0.010206,   0.048663,   0.049087,   0.000000,   639.878540,   0.537508,   36.001991,   34.730915,   577.176880,   229.757874,   160.359741,   0.467907,   574.853577,   515.852356
-0.009557,   0.046556,   0.046855,   0.000000,   635.227173,   0.537508,   36.001991,   33.825764,   578.497253,   230.474869,   151.530746,   0.474228,   568.624084,   503.497223
-0.008933,   0.044386,   0.044550,   0.000000,   630.117859,   0.537509,   36.001991,   32.920609,   579.208191,   231.020035,   142.541031,   0.480446,   562.136597,   490.625305
-0.008326,   0.042157,   0.042185,   0.000000,   624.583130,   0.537509,   36.001991,   32.015457,   579.185242,   231.493668,   133.586777,   0.486517,   555.430847,   477.329865
-0.007742,   0.039898,   0.039790,   0.000000,   618.650391,   0.537509,   36.001991,   31.110304,   578.488647,   231.818024,   124.642982,   0.492405,   548.536438,   463.694397
-0.007186,   0.037609,   0.037357,   0.000000,   612.224365,   0.537508,   36.001991,   30.205153,   577.050720,   231.770142,   115.680412,   0.497986,   541.394226,   449.869354
-0.006644,   0.035315,   0.034926,   0.000000,   605.421631,   0.537509,   36.001991,   29.300001,   574.953918,   231.508652,   106.734550,   0.503337,   534.077026,   435.850494
-0.006137,   0.033026,   0.032494,   0.000000,   598.161926,   0.537509,   36.001991,   28.394848,   572.137939,   230.797211,   97.776779,   0.508311,   526.537964,   421.872223
-0.005639,   0.030725,   0.030055,   0.000000,   590.426453,   0.537508,   36.001991,   27.489697,   568.528809,   229.715851,   88.874695,   0.512939,   518.739258,   407.928192
-0.005160,   0.028449,   0.027646,   0.000000,   582.273926,   0.537509,   36.001991,   26.584543,   564.238953,   228.195633,   79.911118,   0.517197,   510.724335,   394.168488
-0.004715,   0.026225,   0.025290,   0.000000,   573.748901,   0.537508,   36.001991,   25.679390,   559.275146,   226.153610,   70.929550,   0.520974,   502.538605,   380.915039
-0.004271,   0.024029,   0.022975,   0.000000,   564.854858,   0.537509,   36.001991,   24.774239,   553.591858,   223.910645,   61.968170,   0.524492,   494.130524,   367.798523
-0.003855,   0.021891,   0.020721,   0.000000,   555.534912,   0.537509,   36.001991,   23.869085,   547.169250,   220.946030,   52.906181,   0.527367,   485.503510,   355.658966
-0.003460,   0.019869,   0.018599,   0.000000,   546.174988,   0.537508,   36.001991,   22.963934,   540.313965,   217.870102,   43.865631,   0.529907,   476.928589,   344.168396
-0.003089,   0.017905,   0.016540,   0.000000,   536.408752,   0.537509,   36.001991,   22.058783,   532.661072,   214.177856,   34.750904,   0.531797,   468.122467,   333.852509
-0.002733,   0.015986,   0.014533,   0.000000,   526.135925,   0.537509,   36.001991,   21.153629,   524.086487,   209.721619,   25.465252,   0.532901,   459.002106,   325.014954
-0.002392,   0.014215,   0.012694,   0.000000,   516.057434,   0.537508,   36.001991,   20.248476,   515.174316,   205.408112,   16.563133,   0.533634,   450.110077,   317.171539
-0.002085,   0.012527,   0.010940,   0.000000,   505.552948,   0.537509,   36.001991,   19.343325,   505.394806,   199.897018,   6.952246,   0.533073,   441.022461,   311.929688
-0.001797,   0.010978,   0.009341,   0.000000,   495.266663,   0.537509,   36.001991,   18.438171,   495.252747,   194.564423,   -2.045637,   0.532037,   432.185822,   307.749573
-0.001524,   0.009534,   0.007858,   0.000000,   484.911743,   0.537508,   36.001991,   17.533020,   484.495819,   188.815155,   -11.097265,   0.530069,   423.410767,   305.246399
-0.001277,   0.008190,   0.006482,   0.000000,   474.376801,   0.537509,   36.001991,   16.627869,   472.989746,   182.282501,   -20.128300,   0.526753,   414.661194,   304.826233
-0.001049,   0.006970,   0.005239,   0.000000,   464.034607,   0.537508,   36.001991,   15.722715,   461.093262,   175.748444,   -29.119520,   0.522596,   406.204285,   305.380920
-0.000848,   0.005880,   0.004133,   0.000000,   453.835449,   0.537509,   36.001991,   14.817563,   448.909943,   168.555298,   -37.485271,   0.517016,   398.095856,   307.498840
-0.000667,   0.004901,   0.003145,   0.000000,   443.741425,   0.537509,   36.001991,   13.912411,   436.389099,   160.907166,   -45.601395,   0.510096,   390.316406,   310.542908
-0.000503,   0.004038,   0.002277,   0.000000,   433.923370,   0.537508,   36.001991,   13.007258,   423.850800,   153.069046,   -53.187630,   0.502108,   382.998657,   313.904114
-0.000362,   0.003289,   0.001526,   0.000000,   424.408356,   0.537509,   36.001991,   12.102106,   411.604340,   144.994232,   -59.813244,   0.493233,   376.156982,   317.200317
-0.000245,   0.002652,   0.000888,   0.000000,   415.355652,   0.537509,   36.001991,   11.196954,   399.616089,   136.744751,   -66.220963,   0.483204,   370.003235,   320.729767
-0.000177,   0.002145,   0.000380,   0.000000,   406.046021,   0.537509,   36.001991,   10.291800,   387.512726,   124.442009,   -72.243004,   0.467782,   364.809845,   327.449310
-0.000163,   0.001688,   0.000000,   0.000000,   378.207184,   0.537508,   36.001991,   9.386649,   349.082123,   108.356102,   -88.653427,   0.441362,   345.474304,   324.072845
-0.000151,   0.001294,   0.000000,   0.000000,   288.277924,   0.537509,   36.001991,   8.481497,   243.165955,   99.952919,   -92.172188,   0.431359,   265.145721,   251.906799
-0.000170,   0.000946,   0.000000,   0.000000,   206.556992,   0.537509,   36.001991,   7.576344,   139.135254,   93.774155,   -87.201004,   0.398703,   194.722794,   190.649063
-0.000215,   0.000662,   0.000000,   -3.675766,   137.913757,   0.537509,   36.001991,   6.671192,   48.758923,   85.479065,   -68.372551,   0.320099,   139.787888,   139.679077
-0.000284,   0.000467,   0.000000,   -33.258041,   88.142097,   0.537509,   36.001991,   5.766040,   -16.226332,   71.110390,   -42.161270,   0.168369,   108.657997,   96.165703
-0.000321,   0.000322,   0.000000,   -51.827911,   52.152596,   0.537509,   36.001991,   4.860888,   -49.561752,   49.886436,   -15.182258,   0.001202,   90.049911,   15.806690
-0.000275,   0.000190,   0.000000,   -50.341923,   24.857138,   0.537509,   36.001991,   3.955735,   -50.049076,   24.564289,   4.683601,   -0.128014,   66.359200,   -54.295040
-0.000138,   0.000062,   0.000000,   -27.486586,   4.784246,   0.537509,   36.001991,   3.050583,   -24.397120,   1.694780,   9.494990,   -0.250872,   30.164616,   -29.292746
-0.016100,   0.038920,   0.040621,   -0.842996,   608.285950,   0.552449,   36.744282,   56.279121,   310.313324,   297.129639,   304.493134,   0.332641,   608.707886,   608.706543
-0.017421,   0.042589,   0.044528,   0.000000,   617.078979,   0.552447,   36.744282,   55.348808,   334.479767,   284.661591,   306.497803,   0.335006,   616.050415,   616.042664
-0.018110,   0.045940,   0.048014,   0.000000,   626.613586,   0.552447,   36.744282,   54.418495,   362.575867,   275.791626,   304.352173,   0.342755,   620.820129,   620.569702
-0.018427,   0.048912,   0.051022,   0.000000,   635.237366,   0.552449,   36.744282,   53.488178,   390.972321,   268.387146,   299.347107,   0.352489,   623.526367,   622.475220
-0.018629,   0.051516,   0.053612,   0.000000,   642.544312,   0.552447,   36.744282,   52.557865,   416.394012,   262.703247,   293.088989,   0.362145,   625.069885,   622.658386
-0.018688,   0.053734,   0.055777,   0.000000,   648.402100,   0.552448,   36.744282,   51.627552,   438.844452,   257.801819,   286.100098,   0.371143,   625.676514,   621.471191
-0.018650,   0.055605,   0.057582,   0.000000,   653.240417,   0.552448,   36.744282,   50.697235,   458.215179,   254.242462,   278.952789,   0.379530,   625.736816,   619.385681
-0.018489,   0.057067,   0.058966,   0.000000,   657.002014,   0.552448,   36.744282,   49.766922,   474.711090,   251.604446,   271.846069,   0.387224,   625.233459,   616.500671
-0.018216,   0.058200,   0.060019,   0.000000,   659.931458,   0.552447,   36.744282,   48.836605,   489.011322,   249.589523,   264.831451,   0.394346,   624.325195,   613.025452
-0.017845,   0.058987,   0.060727,   0.000000,   662.051941,   0.552449,   36.744282,   47.906292,   501.156647,   248.082260,   258.080963,   0.400844,   623.050598,   609.099243
-0.017381,   0.059435,   0.061100,   0.000000,   663.406067,   0.552447,   36.744282,   46.975975,   511.362305,   246.893845,   251.650711,   0.406724,   621.433838,   604.826233
-0.016839,   0.059573,   0.061166,   0.000000,   664.049072,   0.552448,   36.744282,   46.045662,   519.904419,   245.824997,   245.529572,   0.412015,   619.499268,   600.293518
-0.016229,   0.059417,   0.060942,   0.000000,   664.037048,   0.552447,   36.744282,   45.115349,   526.986328,   244.811157,   239.698181,   0.416792,   617.252441,   595.535461
-0.015568,   0.058989,   0.060447,   0.000000,   663.421753,   0.552450,   36.744282,   44.185036,   532.852539,   243.786469,   234.075760,   0.421159,   614.683533,   590.537781
-0.014869,   0.058307,   0.059698,   0.000000,   662.252075,   0.552447,   36.744282,   43.254719,   537.771973,   242.729706,   228.521729,   0.425277,   611.759521,   585.212280
-0.014142,   0.057396,   0.058718,   0.000000,   660.604492,   0.552448,   36.744282,   42.324406,   542.015198,   241.713928,   222.881012,   0.429353,   608.458130,   579.427063
-0.013398,   0.056287,   0.057538,   0.000000,   658.563782,   0.552448,   36.744282,   41.394089,   545.871826,   240.826920,   216.969116,   0.433612,   604.764221,   573.016357
-0.012648,   0.055000,   0.056178,   0.000000,   656.184387,   0.552447,   36.744282,   40.463776,   549.515869,   240.176147,   210.653702,   0.438233,   600.663452,   565.817322
-0.011898,   0.053556,   0.054653,   0.000000,   653.492615,   0.552448,   36.744282,   39.533463,   553.029602,   239.833344,   203.856445,   0.443321,   596.153687,   557.704224
-0.011156,   0.051968,   0.052979,   0.000000,   650.483521,   0.552448,   36.744282,   38.603146,   556.408325,   239.810593,   196.555649,   0.448895,   591.243713,   548.605835
-0.010428,   0.050254,   0.051170,   0.000000,   647.135071,   0.552448,   36.744282,   37.672832,   559.596680,   240.069794,   188.769241,   0.454909,   585.953247,   538.502502
-0.009718,   0.048427,   0.049242,   0.000000,   643.434570,   0.552447,   36.744282,   36.742519,   562.483276,   240.606720,   180.580826,   0.461292,   580.318970,   527.412537
-0.009030,   0.046500,   0.047205,   0.000000,   639.335083,   0.552450,   36.744282,   35.812202,   564.967651,   241.317276,   172.045258,   0.467936,   574.355957,   515.376404
-0.008367,   0.044493,   0.045081,   0.000000,   634.838562,   0.552447,   36.744282,   34.881889,   566.959351,   242.161636,   163.262375,   0.474741,   568.113708,   502.471985
-0.007736,   0.042422,   0.042884,   0.000000,   629.899353,   0.552448,   36.744282,   33.951572,   568.401672,   242.986176,   154.253891,   0.481595,   561.597534,   488.775085
-0.007130,   0.040288,   0.040617,   0.000000,   624.476440,   0.552448,   36.744282,   33.021259,   569.244324,   243.713226,   145.018509,   0.488446,   554.791809,   474.291992
-0.006547,   0.038104,   0.038296,   0.000000,   618.585510,   0.552448,   36.744282,   32.090942,   569.346436,   244.358109,   135.744690,   0.495187,   547.742371,   459.170746
-0.006001,   0.035895,   0.035944,   0.000000,   612.220276,   0.552448,   36.744282,   31.160629,   568.755859,   244.780258,   126.374695,   0.501760,   540.455444,   443.487091
-0.005477,   0.033667,   0.033572,   0.000000,   605.373047,   0.552448,   36.744282,   30.230314,   567.429138,   244.924316,   116.948029,   0.508103,   532.932556,   427.338867
-0.004990,   0.031434,   0.031188,   0.000000,   598.016968,   0.552448,   36.744282,   29.299999,   565.347046,   244.668671,   107.442413,   0.514143,   525.156128,   410.856964
-0.004527,   0.029216,   0.028822,   0.000000,   590.219727,   0.552448,   36.744282,   28.369686,   562.528137,   244.039978,   97.909508,   0.519852,   517.177795,   394.176697
-0.004085,   0.027031,   0.026496,   0.000000,   582.050415,   0.552448,   36.744282,   27.439371,   558.998535,   243.094025,   88.394417,   0.525228,   509.043762,   377.392059
-0.003681,   0.024884,   0.024205,   0.000000,   573.424622,   0.552448,   36.744282,   26.509056,   554.707336,   241.589371,   78.810181,   0.530136,   500.686920,   360.808563
-0.003287,   0.022754,   0.021940,   0.000000,   564.313904,   0.552448,   36.744282,   25.578741,   549.569458,   239.602112,   69.193245,   0.534606,   492.057770,   344.450104
-0.002923,   0.020700,   0.019756,   0.000000,   554.901794,   0.552448,   36.744282,   24.648426,   543.743958,   237.164719,   59.542095,   0.538590,   483.304749,   328.671906
-0.002592,   0.018733,   0.017666,   0.000000,   545.213806,   0.552448,   36.744282,   23.718113,   537.261658,   234.119141,   49.738018,   0.541950,   474.447296,   314.003845
-0.002273,   0.016818,   0.015638,   0.000000,   535.173950,   0.552448,   36.744282,   22.787798,   529.921204,   230.760437,   39.987614,   0.544846,   465.380524,   300.157135
-0.001980,   0.015004,   0.013721,   0.000000,   524.929077,   0.552448,   36.744282,   21.857483,   521.895935,   226.684082,   30.076866,   0.546901,   456.255829,   288.472015
-0.001709,   0.013317,   0.011946,   0.000000,   514.756653,   0.552448,   36.744282,   20.927168,   513.348450,   222.416168,   20.289986,   0.548333,   447.273560,   278.648376
-0.001470,   0.011725,   0.010272,   0.000000,   504.378174,   0.552448,   36.744282,   19.996855,   504.003326,   217.295395,   10.373520,   0.548651,   438.225830,   272.090027
-0.001244,   0.010240,   0.008718,   0.000000,   494.004547,   0.552448,   36.744282,   19.066540,   494.004272,   211.805893,   0.279283,   0.548075,   429.265839,   268.156342
-0.001045,   0.008866,   0.007285,   0.000000,   483.600281,   0.552448,   36.744282,   18.136225,   483.265137,   205.406906,   -9.655953,   0.546022,   420.417542,   268.131256
-0.000868,   0.007635,   0.006005,   0.000000,   473.556793,   0.552448,   36.744282,   17.205910,   472.203613,   198.871872,   -19.279381,   0.542958,   411.987061,   270.301361
-0.000714,   0.006525,   0.004856,   0.000000,   463.675781,   0.552448,   36.744282,   16.275597,   460.589691,   191.458450,   -28.984295,   0.538126,   403.900574,   275.646393
-0.000579,   0.005530,   0.003830,   0.000000,   454.006805,   0.552448,   36.744282,   15.345281,   448.516327,   183.462860,   -38.541077,   0.531665,   396.226807,   282.817993
-0.000465,   0.004663,   0.002940,   0.000000,   444.704193,   0.552448,   36.744282,   14.414967,   436.326080,   174.879425,   -47.546005,   0.523534,   389.153778,   291.138519
-0.000372,   0.003919,   0.002179,   0.000000,   435.770538,   0.552448,   36.744282,   13.484652,   424.086975,   165.587158,   -56.184578,   0.513510,   382.773590,   300.278564
-0.000294,   0.003266,   0.001512,   0.000000,   426.853729,   0.552448,   36.744282,   12.554337,   411.638885,   155.225784,   -64.286659,   0.501358,   376.885895,   309.690369
-0.000232,   0.002703,   0.000939,   0.000000,   417.823425,   0.552448,   36.744282,   11.624022,   399.188904,   143.306107,   -71.522743,   0.486732,   371.522156,   319.097321
-0.000188,   0.002205,   0.000435,   0.000000,   408.228424,   0.552448,   36.744282,   10.693707,   385.701813,   129.187820,   -79.283272,   0.468011,   366.721863,   329.013855
-0.000182,   0.001796,   0.000017,   0.000000,   398.576111,   0.552448,   36.744282,   9.763393,   366.643402,   114.274582,   -95.281258,   0.439858,   364.449738,   342.570007
-0.000185,   0.001463,   0.000000,   0.000000,   324.857727,   0.552448,   36.744282,   8.833078,   281.388000,   102.166771,   -98.388596,   0.426386,   299.849457,   286.492645
-0.000197,   0.001113,   0.000000,   0.000000,   243.266266,   0.552448,   36.744282,   7.902764,   181.671097,   93.114288,   -96.169838,   0.399737,   229.138382,   224.183365
-0.000218,   0.000808,   0.000000,   0.000000,   171.408539,   0.552448,   36.744282,   6.972449,   91.613495,   85.465416,   -82.812050,   0.350004,   168.644867,   168.430176
-0.000259,   0.000577,   0.000000,   -19.886284,   115.298767,   0.552448,   36.744282,   6.042135,   20.657515,   74.754967,   -61.944458,   0.251574,   126.420464,   122.827454
-0.000289,   0.000409,   0.000000,   -38.315453,   74.495346,   0.552448,   36.744282,   5.111820,   -23.446941,   59.626835,   -38.160923,   0.121379,   99.357704,   80.003639
-0.000263,   0.000272,   0.000000,   -41.844917,   44.524376,   0.552448,   36.744282,   4.181505,   -38.285191,   40.964649,   -17.169144,   0.011939,   74.809998,   28.224318
-0.000169,   0.000149,   0.000000,   -28.588058,   22.806347,   0.552448,   36.744282,   3.251191,   -28.135105,   22.353394,   -4.803551,   -0.043209,   44.602642,   -25.791496
-0.000046,   0.000063,   0.000000,   -6.218034,   11.460735,   0.552448,   36.744282,   2.320876,   -4.909229,   10.151931,   -4.628725,   0.112506,   15.533051,   12.221253
-0.012814,   0.030619,   0.031368,   -6.422531,   579.263489,   0.567390,   37.486568,   57.008831,   299.001740,   273.839233,   292.572632,   0.327805,   582.501343,   582.421692
-0.014289,   0.034123,   0.035167,   -7.452450,   588.613953,   0.567390,   37.486568,   56.053352,   315.391022,   265.770477,   296.998718,   0.327023,   592.375366,   592.269836
-0.015552,   0.037742,   0.039022,   -2.853464,   599.026978,   0.567390,   37.486568,   55.097878,   338.438995,   257.734528,   298.222595,   0.330954,   600.458801,   600.443542
-0.016553,   0.041448,   0.042873,   0.000000,   610.029114,   0.567390,   37.486568,   54.142399,   365.945465,   250.614609,   296.187805,   0.338700,   606.790039,   606.710938
-0.017147,   0.044812,   0.046335,   0.000000,   620.559326,   0.567390,   37.486568,   53.186924,   392.272491,   247.101471,   291.985443,   0.348602,   611.369141,   610.717285
-0.017509,   0.047783,   0.049350,   0.000000,   629.826660,   0.567390,   37.486568,   52.231445,   416.901886,   245.021057,   286.242279,   0.359112,   614.407593,   612.517090
-0.017649,   0.050330,   0.051925,   0.000000,   637.857971,   0.567390,   37.486568,   51.275970,   438.548004,   244.642303,   279.949646,   0.369426,   616.443176,   612.676208
-0.017567,   0.052402,   0.054016,   0.000000,   644.572205,   0.567391,   37.486568,   50.320492,   457.309418,   245.361206,   273.417908,   0.379263,   617.575989,   611.382263
-0.017318,   0.053970,   0.055582,   0.000000,   649.854248,   0.567389,   37.486568,   49.365013,   473.498413,   246.438339,   266.729736,   0.388440,   617.801514,   608.762085
-0.016911,   0.055094,   0.056702,   0.000000,   653.967834,   0.567391,   37.486568,   48.409538,   487.303192,   247.870865,   260.157623,   0.396930,   617.383240,   605.192810
-0.016375,   0.055795,   0.057394,   0.000000,   657.003174,   0.567390,   37.486568,   47.454060,   499.045319,   249.447510,   253.725510,   0.404784,   616.372131,   600.810608
-0.015736,   0.056095,   0.057682,   0.000000,   659.009766,   0.567390,   37.486568,   46.498585,   508.896637,   250.960098,   247.494705,   0.411966,   614.821045,   595.785706
-0.015018,   0.056029,   0.057598,   0.000000,   660.073242,   0.567390,   37.486568,   45.543106,   517.039001,   252.301102,   241.506500,   0.418490,   612.790222,   590.273193
-0.014246,   0.055639,   0.057187,   0.000000,   660.291382,   0.567390,   37.486568,   44.587631,   523.716492,   253.387833,   235.738831,   0.424419,   610.327271,   584.377441
-0.013441,   0.054963,   0.056484,   0.000000,   659.748474,   0.567390,   37.486568,   43.632153,   529.172729,   254.184921,   230.123398,   0.429861,   607.450684,   578.129883
-0.012619,   0.054037,   0.055523,   0.000000,   658.541687,   0.567391,   37.486568,   42.676678,   533.695923,   254.737961,   224.528778,   0.435003,   604.160278,   571.463013
-0.011794,   0.052890,   0.054333,   0.000000,   656.750427,   0.567389,   37.486568,   41.721199,   537.566467,   255.109924,   218.790100,   0.440053,   600.439514,   564.243958
-0.010976,   0.051553,   0.052942,   0.000000,   654.453918,   0.567390,   37.486568,   40.765724,   541.030090,   255.420273,   212.743805,   0.445237,   596.274109,   556.292297
-0.010172,   0.050050,   0.051376,   0.000000,   651.707520,   0.567390,   37.486568,   39.810246,   544.262878,   255.773712,   206.254578,   0.450733,   591.656128,   547.428711
-0.009389,   0.048405,   0.049656,   0.000000,   648.540222,   0.567390,   37.486568,   38.854771,   547.345947,   256.249420,   199.242554,   0.456648,   586.589355,   537.506897
-0.008636,   0.046639,   0.047802,   0.000000,   644.952026,   0.567391,   37.486568,   37.899292,   550.275024,   256.854614,   191.686996,   0.462996,   581.092041,   526.451965
-0.007912,   0.044770,   0.045835,   0.000000,   640.959290,   0.567389,   37.486568,   36.943813,   552.980164,   257.659485,   183.636551,   0.469768,   575.206055,   514.211304
-0.007220,   0.042812,   0.043769,   0.000000,   636.521423,   0.567391,   37.486568,   35.988338,   555.362488,   258.585571,   175.136688,   0.476872,   568.949768,   500.788422
-0.006565,   0.040780,   0.041617,   0.000000,   631.612976,   0.567389,   37.486568,   35.032864,   557.301880,   259.578033,   166.271805,   0.484203,   562.353760,   486.221497
-0.005949,   0.038687,   0.039392,   0.000000,   626.184326,   0.567391,   37.486568,   34.077385,   558.717529,   260.490570,   157.073822,   0.491641,   555.424622,   470.565521
-0.005368,   0.036545,   0.037108,   0.000000,   620.222717,   0.567390,   37.486568,   33.121906,   559.544373,   261.286743,   147.579300,   0.499128,   548.177063,   453.817932
-0.004824,   0.034379,   0.034795,   0.000000,   613.774414,   0.567390,   37.486568,   32.166431,   559.688660,   261.963470,   137.941833,   0.506548,   540.686707,   436.122284
-0.004320,   0.032203,   0.032465,   0.000000,   606.798523,   0.567390,   37.486568,   31.210953,   559.146729,   262.334015,   128.118530,   0.513805,   532.939087,   417.552460
-0.003853,   0.030037,   0.030144,   0.000000,   599.362488,   0.567390,   37.486568,   30.255476,   557.890686,   262.455963,   118.203773,   0.520860,   524.995056,   398.162231
-0.003425,   0.027882,   0.027827,   0.000000,   591.378479,   0.567390,   37.486568,   29.299999,   555.872498,   262.073334,   108.130997,   0.527579,   516.792297,   378.118835
-0.003022,   0.025740,   0.025526,   0.000000,   582.899597,   0.567390,   37.486568,   28.344522,   553.042664,   261.348907,   97.982285,   0.534005,   508.354156,   357.319153
-0.002660,   0.023636,   0.023261,   0.000000,   573.930847,   0.567391,   37.486568,   27.389046,   549.385986,   260.047241,   87.773743,   0.539951,   499.695801,   336.212769
-0.002322,   0.021582,   0.021051,   0.000000,   564.556641,   0.567390,   37.486568,   26.433569,   544.943176,   258.296570,   77.503708,   0.545464,   490.860199,   314.746857
-0.002014,   0.019595,   0.018915,   0.000000,   554.836426,   0.567390,   37.486568,   25.478092,   539.734680,   256.037750,   67.174301,   0.550458,   481.885437,   293.260010
-0.001744,   0.017693,   0.016867,   0.000000,   544.818115,   0.567390,   37.486568,   24.522615,   533.786987,   253.125809,   56.724689,   0.554790,   472.799103,   272.423981
-0.001491,   0.015856,   0.014894,   0.000000,   534.484314,   0.567391,   37.486568,   23.567139,   526.971130,   249.723862,   46.254238,   0.558508,   463.553284,   252.370209
-0.001265,   0.014126,   0.013040,   0.000000,   524.058899,   0.567390,   37.486568,   22.611660,   519.463257,   245.776398,   35.761543,   0.561446,   454.326935,   234.371765
-0.001068,   0.012490,   0.011287,   0.000000,   513.461182,   0.567390,   37.486568,   21.656183,   511.169983,   241.101532,   24.980459,   0.563460,   445.031372,   219.837906
-0.000890,   0.010965,   0.009658,   0.000000,   502.920898,   0.567390,   37.486568,   20.700708,   502.142120,   236.028076,   14.416874,   0.564553,   435.843842,   209.699951
-0.000744,   0.009569,   0.008168,   0.000000,   492.514160,   0.567390,   37.486568,   19.745232,   492.467896,   229.904114,   3.486116,   0.564117,   426.844940,   207.591721
-0.000613,   0.008296,   0.006816,   0.000000,   482.401489,   0.567391,   37.486568,   18.789755,   482.194580,   223.420013,   -7.320129,   0.562477,   418.158997,   211.138840
-0.000502,   0.007136,   0.005587,   0.000000,   472.469635,   0.567390,   37.486568,   17.834278,   471.176331,   215.797104,   -18.219736,   0.558859,   409.747375,   221.751862
-0.000418,   0.006121,   0.004514,   0.000000,   463.027954,   0.567390,   37.486568,   16.878801,   459.761688,   207.124130,   -28.911131,   0.553047,   401.946533,   237.046204
-0.000352,   0.005239,   0.003585,   0.000000,   454.069031,   0.567390,   37.486568,   15.923324,   447.982666,   197.563385,   -39.511890,   0.544986,   394.839661,   254.326111
-0.000300,   0.004474,   0.002783,   0.000000,   445.476746,   0.567390,   37.486568,   14.967846,   435.928223,   187.196167,   -49.660812,   0.534751,   388.420288,   271.630920
-0.000264,   0.003818,   0.002096,   0.000000,   437.144012,   0.567390,   37.486568,   14.012369,   423.622925,   175.833847,   -59.440701,   0.522081,   382.735229,   288.495392
-0.000240,   0.003263,   0.001519,   0.000000,   429.092468,   0.567390,   37.486568,   13.056892,   411.273529,   163.908630,   -68.740753,   0.507406,   377.857849,   303.798889
-0.000226,   0.002797,   0.001034,   0.000000,   421.166718,   0.567390,   37.486568,   12.101416,   398.827423,   151.282883,   -77.646744,   0.490601,   373.766113,   317.609039
-0.000225,   0.002393,   0.000617,   0.000000,   412.751312,   0.567390,   37.486568,   11.145939,   385.298553,   136.697693,   -87.054199,   0.469740,   370.414795,   331.154877
-0.000240,   0.002042,   0.000257,   0.000000,   403.391785,   0.567390,   37.486568,   10.190462,   369.467102,   119.748878,   -98.094315,   0.443055,   368.062408,   344.452698
-0.000244,   0.001669,   0.000000,   0.000000,   368.184204,   0.567390,   37.486568,   9.234985,   321.336731,   106.089333,   -110.808319,   0.416073,   342.428497,   330.602966
-0.000259,   0.001304,   0.000000,   0.000000,   283.006073,   0.567390,   37.486568,   8.279508,   224.560776,   89.048386,   -106.470245,   0.388592,   269.013245,   265.054565
-0.000268,   0.000977,   0.000000,   0.000000,   206.811874,   0.567390,   37.486568,   7.324031,   135.090485,   77.436180,   -96.327591,   0.347241,   204.014511,   203.834305
-0.000280,   0.000696,   0.000000,   -16.342632,   141.309280,   0.567390,   37.486568,   6.368554,   59.118435,   65.848213,   -78.754105,   0.277428,   150.149124,   148.128357
-0.000285,   0.000482,   0.000000,   -32.386482,   91.419571,   0.567390,   37.486568,   5.413077,   5.813616,   53.219475,   -57.185276,   0.176945,   111.207825,   99.740891
-0.000259,   0.000320,   0.000000,   -37.668041,   55.947262,   0.567390,   37.486568,   4.457601,   -20.993471,   39.272690,   -35.818344,   0.074682,   81.586777,   56.405327
-0.000188,   0.000195,   0.000000,   -29.958580,   32.011742,   0.567390,   37.486568,   3.502124,   -23.266552,   25.319714,   -19.233406,   0.012750,   53.677689,   20.699669
-0.000092,   0.000107,   0.000000,   -13.744819,   18.340277,   0.567390,   37.486568,   2.546647,   -9.734649,   14.330106,   -10.610619,   0.054941,   27.881348,   17.446123
-0.000036,   0.000092,   0.000000,   -2.055456,   18.659592,   0.567390,   37.486568,   1.591170,   6.141790,   10.462345,   -10.129733,   0.279989,   19.767630,   19.525034
-0.008530,   0.019568,   0.019061,   -21.011555,   525.289185,   0.582331,   38.228855,   57.738537,   289.558197,   214.719452,   270.575165,   0.313545,   536.103882,   535.176270
-0.011085,   0.024680,   0.024642,   -30.117014,   541.931641,   0.582333,   38.228855,   56.757896,   302.063782,   209.750854,   282.275574,   0.305963,   557.600525,   555.766174
-0.013627,   0.030068,   0.030475,   -32.231030,   558.951721,   0.582333,   38.228855,   55.777256,   320.843536,   205.877167,   289.948181,   0.304951,   575.744263,   573.709229
-0.015689,   0.035252,   0.036011,   -26.030582,   576.112793,   0.582332,   38.228855,   54.796619,   344.970764,   205.111420,   292.837830,   0.311013,   589.559204,   588.264221
-0.017032,   0.039976,   0.040989,   -12.846639,   593.168091,   0.582332,   38.228855,   53.815979,   371.065704,   209.255753,   292.006592,   0.322565,   599.694641,   599.384888
-0.017786,   0.044081,   0.045270,   0.000000,   608.480652,   0.582332,   38.228855,   52.835342,   396.727783,   215.141968,   288.601074,   0.336122,   606.793152,   606.771851
-0.018023,   0.047386,   0.048704,   0.000000,   621.504089,   0.582333,   38.228855,   51.854702,   420.126495,   222.210663,   283.564362,   0.350227,   611.353821,   610.554443
-0.017913,   0.049985,   0.051410,   0.000000,   632.233521,   0.582333,   38.228855,   50.874062,   440.692139,   229.430313,   277.765167,   0.363703,   614.166199,   611.528442
-0.017507,   0.051951,   0.053464,   0.000000,   640.968933,   0.582331,   38.228855,   49.893421,   458.853241,   236.487869,   271.408112,   0.376520,   615.586426,   610.148926
-0.016896,   0.053279,   0.054864,   0.000000,   647.717834,   0.582333,   38.228855,   48.912785,   474.336304,   243.076355,   264.872375,   0.388314,   615.835388,   606.867676
-0.016134,   0.054062,   0.055709,   0.000000,   652.767761,   0.582333,   38.228855,   47.932144,   487.448242,   249.065338,   258.340637,   0.399074,   615.184937,   602.160217
-0.015263,   0.054372,   0.056071,   0.000000,   656.370117,   0.582332,   38.228855,   46.951504,   498.514923,   254.460403,   251.879990,   0.408917,   613.795959,   596.331482
-0.014324,   0.054270,   0.056011,   0.000000,   658.702698,   0.582332,   38.228855,   45.970867,   507.741089,   259.240936,   245.567505,   0.417888,   611.792297,   589.653442
-0.013347,   0.053805,   0.055577,   0.000000,   659.898438,   0.582332,   38.228855,   44.990227,   515.301270,   263.379578,   239.448303,   0.426029,   609.254333,   582.341553
-0.012356,   0.053025,   0.054815,   0.000000,   660.091125,   0.582333,   38.228855,   44.009590,   521.408875,   266.896942,   233.514572,   0.433441,   606.239136,   574.533875
-0.011370,   0.051974,   0.053768,   0.000000,   659.408081,   0.582333,   38.228855,   43.028946,   526.323608,   269.863922,   227.688980,   0.440292,   602.772034,   566.253967
-0.010404,   0.050689,   0.052472,   0.000000,   657.951843,   0.582331,   38.228855,   42.048309,   530.316040,   272.361511,   221.844833,   0.446787,   598.851929,   557.430481
-0.009467,   0.049206,   0.050959,   0.000000,   655.820129,   0.582333,   38.228855,   41.067673,   533.673645,   274.512482,   215.813309,   0.453171,   594.466797,   547.891479
-0.008568,   0.047555,   0.049261,   0.000000,   653.084045,   0.582332,   38.228855,   40.087032,   536.640442,   276.425568,   209.426498,   0.459669,   589.602661,   537.424194
-0.007712,   0.045765,   0.047406,   0.000000,   649.788025,   0.582333,   38.228855,   39.106392,   539.382324,   278.187256,   202.550812,   0.466447,   584.253906,   525.816528
-0.006905,   0.043853,   0.045410,   0.000000,   645.922424,   0.582332,   38.228855,   38.125751,   541.946716,   279.819763,   195.104538,   0.473580,   578.407532,   512.891418
-0.006146,   0.041843,   0.043298,   0.000000,   641.497192,   0.582332,   38.228855,   37.145115,   544.314392,   281.367249,   187.078720,   0.481089,   572.091553,   498.529327
-0.005440,   0.039761,   0.041098,   0.000000,   636.509399,   0.582333,   38.228855,   36.164474,   546.420898,   282.789276,   178.510834,   0.488906,   565.351196,   482.705353
-0.004788,   0.037632,   0.038836,   0.000000,   630.962097,   0.582332,   38.228855,   35.183834,   548.175781,   284.049500,   169.468643,   0.496935,   558.238831,   465.425934
-0.004191,   0.035471,   0.036528,   0.000000,   624.830566,   0.582332,   38.228855,   34.203197,   549.485413,   285.061157,   159.999908,   0.505071,   550.778564,   446.693268
-0.003644,   0.033289,   0.034188,   0.000000,   618.102600,   0.582333,   38.228855,   33.222557,   550.245605,   285.783264,   150.167221,   0.513222,   542.993469,   426.489716
-0.003149,   0.031104,   0.031835,   0.000000,   610.794739,   0.582332,   38.228855,   32.241917,   550.354919,   286.185791,   140.068970,   0.521280,   534.927124,   404.846741
-0.002701,   0.028925,   0.029481,   0.000000,   602.894714,   0.582332,   38.228855,   31.261278,   549.761780,   286.166138,   129.725510,   0.529150,   526.585205,   381.744507
-0.002302,   0.026774,   0.027149,   0.000000,   594.458435,   0.582332,   38.228855,   30.280640,   548.427917,   285.750641,   119.205605,   0.536776,   518.018250,   357.095001
-0.001942,   0.024654,   0.024846,   0.000000,   585.472290,   0.582332,   38.228855,   29.300001,   546.315796,   284.833984,   108.498611,   0.544075,   509.213013,   330.772003
-0.001622,   0.022591,   0.022601,   0.000000,   576.058838,   0.582333,   38.228855,   28.319361,   543.428406,   283.519440,   97.702065,   0.551010,   500.262207,   302.496246
-0.001345,   0.020583,   0.020409,   0.000000,   566.161316,   0.582332,   38.228855,   27.338722,   539.699402,   281.579712,   86.778831,   0.557434,   491.106781,   272.097321
-0.001097,   0.018650,   0.018300,   0.000000,   555.937073,   0.582332,   38.228855,   26.358082,   535.193542,   279.231049,   75.761803,   0.563402,   481.849548,   238.343185
-0.000890,   0.016797,   0.016271,   0.000000,   545.382141,   0.582332,   38.228855,   25.377443,   529.841064,   276.280304,   64.669418,   0.568733,   472.466003,   199.975037
-0.000710,   0.015010,   0.014316,   0.000000,   534.467468,   0.582332,   38.228855,   24.396805,   523.567627,   272.612640,   53.424507,   0.573334,   462.895325,   152.524216
-0.000557,   0.013330,   0.012479,   0.000000,   523.478516,   0.582332,   38.228855,   23.416164,   516.516968,   268.430176,   42.136974,   0.577151,   453.345764,   55.049770
-0.000437,   0.011751,   0.010748,   0.000000,   512.401367,   0.582333,   38.228855,   22.435526,   508.619080,   263.437469,   30.686264,   0.579928,   443.766052,   -126.840958
-0.000336,   0.010287,   0.009149,   0.000000,   501.467590,   0.582332,   38.228855,   21.454885,   499.969299,   257.747742,   19.109190,   0.581537,   434.318695,   -146.132736
-0.000265,   0.008955,   0.007692,   0.000000,   490.839722,   0.582332,   38.228855,   20.474247,   490.611176,   250.977615,   7.404115,   0.581484,   425.113068,   -142.419052
-0.000213,   0.007746,   0.006372,   0.000000,   480.599518,   0.582332,   38.228855,   19.493608,   480.506653,   243.055786,   -4.696657,   0.579471,   416.219910,   -111.441689
-0.000178,   0.006682,   0.005214,   0.000000,   471.031158,   0.582333,   38.228855,   18.512968,   469.850128,   234.045380,   -16.729767,   0.575172,   407.933563,   109.792847
-0.000159,   0.005760,   0.004214,   0.000000,   462.178589,   0.582332,   38.228855,   17.532330,   458.688904,   223.767136,   -28.844133,   0.568139,   400.404419,   173.193726
-0.000156,   0.004966,   0.003354,   0.000000,   453.860382,   0.582333,   38.228855,   16.551691,   446.977203,   211.979828,   -40.803314,   0.557974,   393.660583,   216.222855
-0.000162,   0.004298,   0.002634,   0.000000,   446.075348,   0.582333,   38.228855,   15.571051,   435.016815,   199.349442,   -52.234379,   0.545168,   387.872070,   249.409775
-0.000175,   0.003744,   0.002040,   0.000000,   438.688843,   0.582332,   38.228855,   14.590412,   422.967041,   186.113724,   -63.015362,   0.530018,   383.056488,   276.240204
-0.000194,   0.003282,   0.001546,   0.000000,   431.503143,   0.582332,   38.228855,   13.609773,   410.821289,   172.554749,   -73.181519,   0.512931,   379.113068,   298.138824
-0.000216,   0.002885,   0.001125,   0.000000,   424.256256,   0.582332,   38.228855,   12.629134,   398.312927,   158.677872,   -83.005966,   0.493922,   375.896759,   316.327789
-0.000243,   0.002532,   0.000754,   0.000000,   416.446777,   0.582332,   38.228855,   11.648495,   384.610870,   143.609665,   -93.198799,   0.471633,   373.327576,   332.435822
-0.000278,   0.002202,   0.000409,   0.000000,   407.454529,   0.582332,   38.228855,   10.667855,   368.268951,   126.766975,   -104.875648,   0.444190,   371.489227,   347.101776
-0.000324,   0.001877,   0.000076,   0.000000,   395.828278,   0.582332,   38.228855,   9.687216,   345.200745,   106.400703,   -121.049576,   0.405644,   371.098450,   361.488525
-0.000358,   0.001544,   0.000000,   0.000000,   331.457520,   0.582332,   38.228855,   8.706576,   270.270538,   85.389534,   -122.703545,   0.370429,   320.043365,   317.974670
-0.000380,   0.001199,   0.000000,   -4.782551,   250.305649,   0.582332,   38.228855,   7.725937,   180.901642,   64.621460,   -113.521927,   0.323827,   252.730881,   252.629028
-0.000377,   0.000868,   0.000000,   -26.983841,   174.247238,   0.582332,   38.228855,   6.745298,   101.156670,   46.106731,   -96.777390,   0.259466,   189.187973,   184.784088
-0.000347,   0.000583,   0.000000,   -39.639774,   110.594978,   0.582332,   38.228855,   5.764659,   39.770359,   31.184843,   -74.994614,   0.175383,   134.857407,   120.668159
-0.000289,   0.000362,   0.000000,   -41.548874,   63.480053,   0.582332,   38.228855,   4.784020,   1.966139,   19.965040,   -51.737595,   0.079794,   91.616318,   64.700516
-0.000208,   0.000210,   0.000000,   -33.533489,   33.938179,   0.582332,   38.228855,   3.803381,   -11.966082,   12.370772,   -31.464836,   0.002309,   58.432529,   12.749849
-0.000119,   0.000120,   0.000000,   -19.260876,   19.404964,   0.582332,   38.228855,   2.822742,   -7.775141,   7.919229,   -17.668715,   0.001434,   33.485676,   6.234644
-0.000053,   0.000086,   0.000000,   -6.263640,   16.146196,   0.582332,   38.228855,   1.842103,   3.890456,   5.992100,   -11.155536,   0.164490,   20.026653,   17.611811
-0.000031,   0.000083,   0.000000,   -1.430601,   16.913801,   0.582332,   38.228855,   0.861463,   9.574702,   5.908497,   -8.987158,   0.292038,   17.672583,   17.541597
