MinPrincipalStrain,MaxPrincipalStrain,EqPlasticStrain,MinPrincipalStress,MaxPrincipalStress,ElemVolume,IntegrationPoint_CoordX,IntegrationPoint_CoordY,Stress_xx,Stress_yy,Stress_xy,StressTriaxility,MisesStress,ThirdInvStress
-0.000207,   0.000067,   0.000000,   -43.166912,   1.128830,   0.582331,   0.371144,   57.738537,   -0.042390,   -41.995693,   7.106920,   -0.320347,   43.742252,   -43.709461
-0.000326,   0.000092,   0.000000,   -68.854553,   0.000000,   0.582334,   0.371144,   56.757896,   -9.139883,   -60.958530,   21.714243,   -0.342406,   68.241119,   -68.215614
-0.000415,   0.000102,   0.000000,   -88.795021,   0.000000,   0.582334,   0.371144,   55.777256,   -29.615654,   -64.324257,   38.054752,   -0.362684,   86.337616,   -85.991714
-0.000429,   0.000137,   0.000000,   -89.575722,   1.987277,   0.582333,   0.371144,   54.796619,   -51.046440,   -36.542007,   45.203442,   -0.322304,   90.585709,   -90.536644
-0.000398,   0.000293,   0.000000,   -71.643562,   39.943352,   0.582333,   0.371144,   53.815979,   -60.022915,   28.322704,   34.083321,   -0.107903,   97.928322,   -76.063507
-0.000384,   0.000663,   0.000000,   -42.612957,   126.433517,   0.582333,   0.371144,   52.835342,   -42.603065,   126.423622,   1.293118,   0.183480,   152.279373,   137.878143
-0.000380,   0.001202,   0.000000,   -4.436072,   251.190552,   0.582334,   0.371144,   51.854702,   5.997564,   240.756912,   -50.579189,   0.324543,   253.437714,   253.350372
-0.000361,   0.001853,   0.000000,   0.000000,   402.660828,   0.582334,   0.371144,   50.874062,   82.781357,   364.892365,   -109.915237,   0.390489,   382.147858,   376.114288
-0.000338,   0.002608,   0.000715,   0.000000,   447.375702,   0.582331,   0.371144,   49.893421,   161.112915,   387.027283,   -131.436325,   0.449511,   406.471313,   376.801971
-0.000300,   0.003469,   0.001691,   0.000000,   468.706055,   0.582334,   0.371144,   48.912785,   210.728256,   395.335876,   -137.578629,   0.484070,   417.339233,   360.962738
-0.000279,   0.004510,   0.002909,   0.000000,   486.439819,   0.582334,   0.371144,   47.932144,   246.728470,   401.748230,   -142.483444,   0.503843,   429.020325,   349.487885
-0.000266,   0.005777,   0.004408,   0.000000,   503.319824,   0.582333,   0.371144,   46.951504,   277.104584,   406.657593,   -147.873154,   0.516046,   441.667389,   342.656219
-0.000265,   0.007288,   0.006205,   0.000000,   519.901184,   0.582333,   0.371144,   45.970867,   304.267609,   410.360260,   -153.690292,   0.523597,   454.947357,   340.246918
-0.000279,   0.009036,   0.008287,   0.000000,   536.097961,   0.582333,   0.371144,   44.990227,   328.960114,   413.141083,   -159.590164,   0.528108,   468.402008,   341.661865
-0.000313,   0.010993,   0.010613,   0.000000,   551.648132,   0.582334,   0.371144,   44.009590,   351.506744,   415.239044,   -165.230438,   0.530710,   481.585358,   345.816986
-0.000372,   0.013129,   0.013143,   0.000000,   566.374512,   0.582334,   0.371144,   43.028946,   372.190643,   416.738525,   -170.460831,   0.532095,   494.228058,   351.797424
-0.000460,   0.015413,   0.015835,   0.000000,   580.170532,   0.582331,   0.371144,   42.048309,   391.306824,   417.617401,   -175.215271,   0.532707,   506.171875,   358.871277
-0.000580,   0.017815,   0.018652,   0.000000,   592.997986,   0.582334,   0.371144,   41.067673,   409.000366,   417.872162,   -179.506943,   0.532756,   517.355591,   366.683807
-0.000735,   0.020318,   0.021568,   0.000000,   604.896118,   0.582333,   0.371144,   40.087032,   425.475616,   417.492584,   -183.368561,   0.532383,   527.796082,   374.994812
-0.000926,   0.022896,   0.024552,   0.000000,   615.885498,   0.582334,   0.371144,   39.106392,   440.833710,   416.470612,   -186.836624,   0.531657,   537.505005,   383.678528
-0.001153,   0.025525,   0.027575,   0.000000,   625.985107,   0.582333,   0.371144,   38.125751,   455.145386,   414.793243,   -189.947281,   0.530615,   546.497437,   392.660522
-0.001417,   0.028185,   0.030613,   0.000000,   635.242859,   0.582333,   0.371144,   37.145115,   468.490967,   412.471710,   -192.736923,   0.529283,   554.815308,   401.889954
-0.001716,   0.030863,   0.033650,   0.000000,   643.716431,   0.582334,   0.371144,   36.164474,   480.963257,   409.516083,   -195.235397,   0.527682,   562.509949,   411.323303
-0.002051,   0.033537,   0.036661,   0.000000,   651.422363,   0.582333,   0.371144,   35.183834,   492.601471,   405.918549,   -197.461700,   0.525820,   569.599304,   420.915405
-0.002421,   0.036193,   0.039629,   0.000000,   658.402588,   0.582333,   0.371144,   34.203197,   503.459686,   401.682861,   -199.441467,   0.523695,   576.125305,   430.651276
-0.002826,   0.038820,   0.042541,   0.000000,   664.689941,   0.582334,   0.371144,   33.222557,   513.600037,   396.807739,   -201.182220,   0.521317,   582.120056,   440.481628
-0.003265,   0.041399,   0.045377,   0.000000,   670.296082,   0.582333,   0.371144,   32.241917,   523.046021,   391.282227,   -202.693848,   0.518679,   587.600830,   450.376892
-0.003738,   0.043920,   0.048123,   0.000000,   675.243958,   0.582333,   0.371144,   31.261278,   531.830933,   385.105804,   -203.984299,   0.515775,   592.594482,   460.306488
-0.004246,   0.046371,   0.050767,   0.000000,   679.549866,   0.582333,   0.371144,   30.280640,   539.986694,   378.277679,   -205.052444,   0.512606,   597.121643,   470.224640
-0.004789,   0.048739,   0.053290,   0.000000,   683.216797,   0.582333,   0.371144,   29.300001,   547.521729,   370.796783,   -205.897705,   0.509165,   601.192627,   480.087219
-0.005367,   0.051011,   0.055680,   0.000000,   686.251404,   0.582333,   0.371144,   28.319361,   554.446838,   362.668243,   -206.518112,   0.505447,   604.821045,   489.848419
-0.005982,   0.053174,   0.057920,   0.000000,   688.655762,   0.582333,   0.371144,   27.338722,   560.767761,   353.902863,   -206.907883,   0.501451,   608.015625,   499.453125
-0.006635,   0.055214,   0.059993,   0.000000,   690.423767,   0.582333,   0.371144,   26.358082,   566.478271,   344.514557,   -207.060120,   0.497176,   610.777832,   508.840332
-0.007326,   0.057115,   0.061879,   0.000000,   691.547058,   0.582333,   0.371144,   25.377443,   571.567383,   334.523926,   -206.967468,   0.492623,   613.106140,   517.944702
-0.008055,   0.058859,   0.063559,   0.000000,   692.016052,   0.582333,   0.371144,   24.396805,   576.019897,   323.958496,   -206.623459,   0.487796,   614.996948,   526.699158
-0.008824,   0.060429,   0.065011,   0.000000,   691.817444,   0.582333,   0.371144,   23.416164,   579.819275,   312.846527,   -206.019501,   0.482698,   616.442200,   535.033875
-0.009631,   0.061803,   0.066213,   0.000000,   690.932129,   0.582333,   0.371144,   22.435526,   582.943481,   301.215027,   -205.146378,   0.477334,   617.428040,   542.878357
-0.010474,   0.062961,   0.067142,   0.000000,   689.338745,   0.582333,   0.371144,   21.454885,   585.369995,   289.088501,   -203.993912,   0.471708,   617.937683,   550.164795
-0.011349,   0.063879,   0.067774,   0.000000,   687.011047,   0.582333,   0.371144,   20.474247,   587.075378,   276.482910,   -202.549728,   0.465818,   617.950745,   556.829224
-0.012251,   0.064536,   0.068087,   0.000000,   683.916016,   0.582333,   0.371144,   19.493608,   588.034668,   263.398987,   -200.797760,   0.459656,   617.442566,   562.813232
-0.013174,   0.064907,   0.068061,   0.000000,   680.012024,   0.582334,   0.371144,   18.512968,   588.221313,   249.815262,   -198.716080,   0.453200,   616.384277,   568.065247
-0.014107,   0.064969,   0.067678,   0.000000,   675.245544,   0.582333,   0.371144,   17.532330,   587.605042,   235.682190,   -196.274155,   0.446413,   614.742554,   572.538086
-0.015038,   0.064701,   0.066921,   0.000000,   669.548767,   0.582333,   0.371144,   16.551691,   586.150024,   220.918121,   -193.430191,   0.439235,   612.479553,   576.187012
-0.015950,   0.064081,   0.065780,   0.000000,   662.836914,   0.582333,   0.371144,   15.571051,   583.811646,   205.407257,   -190.127563,   0.431584,   609.552734,   578.963379
-0.016822,   0.063089,   0.064246,   0.000000,   655.011047,   0.582333,   0.371144,   14.590412,   580.534851,   189.012207,   -186.295013,   0.423351,   605.917175,   580.807739
-0.017631,   0.061711,   0.062321,   0.000000,   645.960327,   0.582333,   0.371144,   13.609773,   576.252441,   171.586029,   -181.845047,   0.414411,   601.526917,   581.640076
-0.018347,   0.059935,   0.060008,   0.000000,   635.566101,   0.582333,   0.371144,   12.629134,   570.882874,   152.992981,   -176.675934,   0.404624,   596.335632,   581.351257
-0.018935,   0.057755,   0.057320,   0.000000,   623.713074,   0.582333,   0.371144,   11.648495,   564.333313,   133.137772,   -170.675827,   0.393851,   590.300232,   579.797180
-0.019357,   0.055171,   0.054275,   0.000000,   610.295532,   0.582333,   0.371144,   10.667855,   556.501160,   111.991692,   -163.725220,   0.381967,   583.378113,   576.793030
-0.019570,   0.052190,   0.050896,   0.000000,   595.236328,   0.582333,   0.371144,   9.687216,   547.284058,   89.634933,   -155.707184,   0.368890,   575.528198,   572.117371
-0.019529,   0.048832,   0.047216,   0.000000,   578.514404,   0.582333,   0.371144,   8.706576,   536.601379,   66.302605,   -146.520859,   0.354620,   566.713379,   565.530701
-0.019192,   0.045124,   0.043268,   0.000000,   560.194763,   0.582333,   0.371144,   7.725937,   524.417847,   42.443340,   -136.101273,   0.339301,   556.891479,   556.801697
-0.018519,   0.041107,   0.039093,   -10.857286,   540.502747,   0.582333,   0.371144,   6.745298,   510.807922,   18.837545,   -124.461884,   0.323342,   546.012390,   545.769470
-0.017479,   0.036837,   0.034739,   -27.166058,   519.905457,   0.582333,   0.371144,   5.764659,   496.039612,   -3.300240,   -111.744041,   0.307574,   534.006958,   532.448914
-0.016048,   0.032391,   0.030266,   -40.744267,   499.217773,   0.582333,   0.371144,   4.784020,   480.689392,   -22.215893,   -98.292000,   0.293449,   520.786621,   517.182495
-0.014218,   0.027867,   0.025746,   -49.723389,   479.523315,   0.582333,   0.371144,   3.803381,   465.631531,   -35.831589,   -84.612099,   0.283013,   506.219849,   500.681488
-0.012024,   0.023373,   0.021262,   -52.024113,   462.037140,   0.582333,   0.371144,   2.822742,   451.962219,   -41.949207,   -71.257385,   0.278850,   490.124359,   483.854034
-0.009593,   0.019010,   0.016909,   -45.353096,   447.992126,   0.582333,   0.371144,   1.842103,   440.869415,   -38.230370,   -58.849209,   0.284166,   472.304657,   467.367950
-0.007154,   0.014817,   0.012739,   -30.344021,   436.526550,   0.582333,   0.371144,   0.861463,   431.632263,   -25.449730,   -47.550465,   0.299239,   452.462311,   450.164551
-0.000313,   0.000087,   0.000000,   -66.185349,   0.000000,   0.567391,   1.113431,   57.008831,   -3.292162,   -64.417519,   10.544407,   -0.344913,   65.436501,   -65.396538
-0.000472,   0.000158,   0.000000,   -97.862671,   3.871838,   0.567391,   1.113431,   56.053352,   -14.273658,   -79.717178,   38.945656,   -0.313758,   99.854912,   -99.685806
-0.000573,   0.000260,   0.000000,   -114.242355,   20.421618,   0.567391,   1.113431,   55.097878,   -29.102814,   -64.717926,   64.934486,   -0.248788,   125.703506,   -121.887383
-0.000538,   0.000372,   0.000000,   -98.357613,   48.562489,   0.567391,   1.113431,   54.142399,   -37.717960,   -12.077168,   72.332680,   -0.128025,   129.649628,   -106.081841
-0.000368,   0.000530,   0.000000,   -48.130642,   96.920090,   0.567391,   1.113431,   53.186924,   -26.163851,   74.953300,   51.997684,   0.127091,   127.964409,   104.473953
-0.000213,   0.000861,   0.000000,   0.000000,   183.945206,   0.567391,   1.113431,   52.231445,   10.594872,   183.853241,   3.992659,   0.362252,   178.925095,   178.229538
-0.000166,   0.001456,   0.000000,   0.000000,   324.537781,   0.567391,   1.113431,   51.275970,   82.074974,   304.987457,   -68.849327,   0.432619,   298.232300,   282.916443
-0.000193,   0.002211,   0.000294,   0.000000,   442.983582,   0.567392,   1.113431,   50.320492,   165.202972,   384.022430,   -127.977600,   0.457034,   400.572601,   366.812714
-0.000222,   0.003127,   0.001317,   0.000000,   464.230743,   0.567390,   1.113431,   49.365013,   214.709427,   387.811890,   -138.087402,   0.486487,   412.838623,   354.816406
-0.000294,   0.004271,   0.002625,   0.000000,   482.574951,   0.567392,   1.113431,   48.409538,   245.071884,   394.353546,   -144.750992,   0.499903,   426.366669,   352.072144
-0.000391,   0.005636,   0.004200,   0.000000,   500.114899,   0.567391,   1.113431,   47.454060,   270.353668,   398.878204,   -152.513184,   0.506291,   440.610443,   355.741211
-0.000512,   0.007230,   0.006046,   0.000000,   517.198486,   0.567391,   1.113431,   46.498585,   293.601959,   401.798767,   -160.633057,   0.509378,   455.065277,   363.091309
-0.000658,   0.009044,   0.008152,   0.000000,   533.730957,   0.567391,   1.113431,   45.543106,   315.509796,   403.825531,   -168.368973,   0.510913,   469.313232,   372.166687
-0.000829,   0.011062,   0.010493,   0.000000,   549.543274,   0.567391,   1.113431,   44.587631,   336.229919,   405.290955,   -175.416519,   0.511676,   483.066498,   381.880371
-0.001026,   0.013257,   0.013036,   0.000000,   564.518127,   0.567391,   1.113431,   43.632153,   355.751617,   406.429321,   -181.669052,   0.512061,   496.152222,   391.601501
-0.001248,   0.015601,   0.015747,   0.000000,   578.570496,   0.567392,   1.113431,   42.676678,   374.070587,   407.242065,   -187.180786,   0.512193,   508.475739,   401.109070
-0.001494,   0.018069,   0.018595,   0.000000,   591.695801,   0.567390,   1.113431,   41.721199,   391.340637,   407.699921,   -192.001343,   0.512195,   520.010315,   410.203583
-0.001763,   0.020629,   0.021537,   0.000000,   603.858704,   0.567391,   1.113431,   40.765724,   407.494324,   407.773224,   -196.224899,   0.512038,   530.733459,   418.935333
-0.002055,   0.023261,   0.024553,   0.000000,   615.114929,   0.567391,   1.113431,   39.810246,   422.681488,   407.392090,   -199.932053,   0.511734,   540.693420,   427.334595
-0.002367,   0.025940,   0.027610,   0.000000,   625.477722,   0.567391,   1.113431,   38.854771,   436.936890,   406.499023,   -203.190643,   0.511258,   549.909302,   435.468903
-0.002702,   0.028649,   0.030688,   0.000000,   635.002441,   0.567392,   1.113431,   37.899292,   450.311279,   405.080719,   -206.069214,   0.510587,   558.436890,   443.427277
-0.003058,   0.031367,   0.033763,   0.000000,   643.727051,   0.567390,   1.113431,   36.943813,   462.847687,   403.120026,   -208.616531,   0.509709,   566.315369,   451.265869
-0.003435,   0.034078,   0.036815,   0.000000,   651.684265,   0.567392,   1.113431,   35.988338,   474.603760,   400.585144,   -210.866669,   0.508613,   573.578430,   459.023712
-0.003833,   0.036768,   0.039826,   0.000000,   658.914673,   0.567390,   1.113431,   35.032864,   485.625641,   397.471191,   -212.850388,   0.507294,   580.266541,   466.735199
-0.004253,   0.039421,   0.042779,   0.000000,   665.445557,   0.567392,   1.113431,   34.077385,   495.935669,   393.766022,   -214.598145,   0.505732,   586.411438,   474.440399
-0.004695,   0.042027,   0.045662,   0.000000,   671.312439,   0.567391,   1.113431,   33.121906,   505.606659,   389.457733,   -216.113266,   0.503939,   592.045471,   482.125946
-0.005158,   0.044572,   0.048457,   0.000000,   676.526062,   0.567391,   1.113431,   32.166431,   514.652771,   384.532776,   -217.407272,   0.501902,   597.184937,   489.797607
-0.005645,   0.047042,   0.051150,   0.000000,   681.106323,   0.567391,   1.113431,   31.210953,   523.102051,   378.989105,   -218.485245,   0.499620,   601.852112,   497.446381
-0.006156,   0.049431,   0.053730,   0.000000,   685.071045,   0.567391,   1.113431,   30.255476,   530.999268,   372.822510,   -219.336914,   0.497099,   606.064697,   505.038330
-0.006690,   0.051724,   0.056182,   0.000000,   688.426758,   0.567391,   1.113431,   29.299999,   538.356812,   366.035767,   -219.957291,   0.494339,   609.832764,   512.545105
-0.007250,   0.053910,   0.058492,   0.000000,   691.178223,   0.567391,   1.113431,   28.344522,   545.192078,   358.630341,   -220.334686,   0.491344,   613.163818,   519.929626
-0.007834,   0.055977,   0.060646,   0.000000,   693.329041,   0.567391,   1.113431,   27.389046,   551.521362,   350.616852,   -220.452332,   0.488121,   616.062500,   527.143433
-0.008445,   0.057914,   0.062630,   0.000000,   694.881714,   0.567391,   1.113431,   26.433569,   557.353210,   342.012268,   -220.294342,   0.484677,   618.532227,   534.138977
-0.009081,   0.059709,   0.064429,   0.000000,   695.835449,   0.567391,   1.113431,   25.478092,   562.690186,   332.840515,   -219.843246,   0.481024,   620.572388,   540.863037
-0.009744,   0.061346,   0.066026,   0.000000,   696.186157,   0.567391,   1.113431,   24.522615,   567.526306,   323.129456,   -219.083099,   0.477170,   622.178833,   547.263245
-0.010433,   0.062811,   0.067404,   0.000000,   695.928162,   0.567391,   1.113431,   23.567139,   571.857300,   312.907867,   -217.994644,   0.473128,   623.344543,   553.284180
-0.011144,   0.064089,   0.068545,   0.000000,   695.054138,   0.567391,   1.113431,   22.611660,   575.670959,   302.209320,   -216.561935,   0.468908,   624.060608,   558.873413
-0.011878,   0.065162,   0.069431,   0.000000,   693.553345,   0.567391,   1.113431,   21.656183,   578.950623,   291.067108,   -214.769684,   0.464519,   624.314392,   563.979553
-0.012629,   0.066013,   0.070043,   0.000000,   691.411377,   0.567390,   1.113431,   20.700708,   581.675964,   279.509064,   -212.603531,   0.459968,   624.090820,   568.555969
-0.013393,   0.066623,   0.070362,   0.000000,   688.608765,   0.567391,   1.113431,   19.745232,   583.823303,   267.552490,   -210.048950,   0.455253,   623.371704,   572.561768
-0.014164,   0.066975,   0.070372,   0.000000,   685.119141,   0.567391,   1.113431,   18.789755,   585.365967,   255.198120,   -207.089294,   0.450365,   622.135864,   575.961792
-0.014935,   0.067049,   0.070056,   0.000000,   680.907227,   0.567391,   1.113431,   17.834278,   586.274719,   242.424225,   -203.702591,   0.445280,   620.358398,   578.726135
-0.015694,   0.066828,   0.069401,   0.000000,   675.926819,   0.567391,   1.113431,   16.878801,   586.517700,   229.181732,   -199.857681,   0.439960,   618.010864,   580.829224
-0.016432,   0.066296,   0.068396,   0.000000,   670.116821,   0.567391,   1.113431,   15.923324,   586.059998,   215.386276,   -195.507584,   0.434346,   615.059326,   582.245789
-0.017132,   0.065439,   0.067035,   0.000000,   663.406372,   0.567391,   1.113431,   14.967846,   584.862549,   200.933044,   -190.589645,   0.428365,   611.468140,   582.946899
-0.017779,   0.064245,   0.065318,   0.000000,   655.714478,   0.567391,   1.113431,   14.012369,   582.884827,   185.697159,   -185.016754,   0.421927,   607.199890,   582.893738
-0.018354,   0.062710,   0.063252,   0.000000,   646.955444,   0.567391,   1.113431,   13.056892,   580.080750,   169.551865,   -178.679108,   0.414929,   602.217896,   582.034180
-0.018834,   0.060831,   0.060848,   0.000000,   637.047791,   0.567391,   1.113431,   12.101416,   576.399963,   152.393814,   -171.444458,   0.407268,   596.490234,   580.297119
-0.019198,   0.058615,   0.058129,   0.000000,   625.923706,   0.567391,   1.113431,   11.145939,   571.789917,   134.161774,   -163.159286,   0.398846,   589.994568,   577.594238
-0.019419,   0.056078,   0.055126,   0.000000,   613.546631,   0.567391,   1.113431,   10.190462,   566.199402,   114.876991,   -153.657471,   0.389594,   582.723816,   573.821594
-0.019474,   0.053242,   0.051877,   0.000000,   599.923950,   0.567391,   1.113431,   9.234985,   559.580383,   94.670769,   -142.771530,   0.379481,   574.689453,   568.869141
-0.019339,   0.050143,   0.048430,   0.000000,   585.133667,   0.567391,   1.113431,   8.279508,   551.904114,   73.817574,   -130.348724,   0.368549,   565.932251,   562.643616
-0.018997,   0.046826,   0.044839,   0.000000,   569.357544,   0.567391,   1.113431,   7.324031,   543.176331,   52.803734,   -116.292717,   0.356966,   556.524048,   555.088562
-0.018432,   0.043343,   0.041160,   0.000000,   552.914856,   0.567391,   1.113431,   6.368554,   533.472656,   32.379662,   -100.599998,   0.345099,   546.560974,   546.216370
-0.017635,   0.039750,   0.037445,   0.000000,   536.355408,   0.567391,   1.113431,   5.413077,   523.017029,   13.723171,   -83.492859,   0.333692,   536.163086,   536.162781
-0.016589,   0.036119,   0.033756,   -9.750360,   520.528503,   0.567391,   1.113431,   4.457601,   512.310608,   -1.532486,   -65.499855,   0.324013,   525.471558,   525.267883
-0.015286,   0.032541,   0.030168,   -15.808140,   506.555634,   0.567391,   1.113431,   3.502124,   502.201965,   -11.454475,   -47.489391,   0.317857,   514.641785,   514.095093
-0.013735,   0.029119,   0.026762,   -16.252840,   495.506989,   0.567391,   1.113431,   2.546647,   493.669952,   -14.415803,   -30.606327,   0.317074,   503.830078,   503.239746
-0.012077,   0.025955,   0.023624,   -10.218691,   488.058807,   0.567391,   1.113431,   1.591170,   487.503021,   -9.662904,   -16.632114,   0.322921,   493.247528,   493.009247
-0.000516,   0.000157,   0.000000,   -108.156860,   0.480251,   0.552450,   1.855719,   56.279121,   -3.331306,   -104.345306,   19.988710,   -0.331116,   108.397789,   -108.395386
-0.000690,   0.000278,   0.000000,   -139.968887,   16.471954,   0.552448,   1.855719,   55.348808,   -11.990111,   -111.506821,   60.353462,   -0.276484,   148.889801,   -146.818878
-0.000714,   0.000401,   0.000000,   -137.047729,   42.999699,   0.552448,   1.855719,   54.418495,   -21.928946,   -72.119087,   86.455231,   -0.192490,   162.862106,   -149.268677
-0.000537,   0.000510,   0.000000,   -88.613762,   80.449364,   0.552450,   1.855719,   53.488178,   -17.481056,   9.316662,   83.462898,   -0.018580,   146.469864,   -64.025627
-0.000243,   0.000668,   0.000000,   -9.933404,   137.334930,   0.552448,   1.855719,   52.557865,   6.729401,   120.672119,   46.650341,   0.297887,   142.561417,   141.779648
-0.000055,   0.001074,   0.000000,   0.000000,   244.002121,   0.552449,   1.855719,   51.627552,   65.239868,   240.455643,   -25.178894,   0.463703,   219.749390,   198.821228
-0.000096,   0.001827,   0.000000,   0.000000,   415.032379,   0.552449,   1.855719,   50.697235,   154.102432,   365.344604,   -113.864098,   0.463060,   373.923584,   338.722961
-0.000194,   0.002871,   0.001030,   0.000000,   459.594299,   0.552449,   1.855719,   49.766922,   215.049332,   377.498108,   -141.690536,   0.482178,   409.632690,   355.999603
-0.000352,   0.004115,   0.002430,   0.000000,   478.729675,   0.552448,   1.855719,   48.836605,   238.725403,   385.629303,   -149.480728,   0.489624,   425.057343,   362.193726
-0.000565,   0.005602,   0.004109,   0.000000,   497.181000,   0.552450,   1.855719,   47.906292,   259.668427,   390.587769,   -159.113907,   0.491458,   441.038422,   373.852661
-0.000808,   0.007307,   0.006045,   0.000000,   515.010925,   0.552448,   1.855719,   46.975975,   280.540222,   393.826538,   -168.565094,   0.492220,   456.684296,   386.259186
-0.001074,   0.009211,   0.008214,   0.000000,   531.985779,   0.552449,   1.855719,   46.045662,   301.193939,   395.819611,   -177.273895,   0.492610,   471.646667,   398.457214
-0.001364,   0.011299,   0.010597,   0.000000,   548.031311,   0.552448,   1.855719,   45.115349,   321.176208,   397.078033,   -185.052780,   0.492806,   485.825806,   410.198120
-0.001678,   0.013560,   0.013178,   0.000000,   563.175781,   0.552450,   1.855719,   44.185036,   340.314087,   397.979767,   -191.874603,   0.492974,   499.210419,   421.289856
-0.002015,   0.015969,   0.015927,   0.000000,   577.388611,   0.552448,   1.855719,   43.254719,   358.409485,   398.667480,   -197.828690,   0.493104,   511.776794,   431.729218
-0.002373,   0.018501,   0.018811,   0.000000,   590.665771,   0.552449,   1.855719,   42.324406,   375.483185,   399.155853,   -203.001465,   0.493232,   523.512634,   441.461395
-0.002749,   0.021133,   0.021805,   0.000000,   603.050110,   0.552449,   1.855719,   41.394089,   391.622284,   399.431671,   -207.486374,   0.493374,   534.452148,   450.495636
-0.003138,   0.023834,   0.024873,   0.000000,   614.536255,   0.552448,   1.855719,   40.463776,   406.803253,   399.469757,   -211.367966,   0.493496,   544.599487,   458.881500
-0.003538,   0.026579,   0.027983,   0.000000,   625.143616,   0.552449,   1.855719,   39.533463,   421.107788,   399.167389,   -214.725983,   0.493563,   553.981628,   466.692780
-0.003948,   0.029352,   0.031118,   0.000000,   634.930481,   0.552449,   1.855719,   38.603146,   434.577972,   398.481659,   -217.653656,   0.493519,   562.666565,   474.072357
-0.004368,   0.032134,   0.034253,   0.000000,   643.930908,   0.552449,   1.855719,   37.672832,   447.254700,   397.373383,   -220.208984,   0.493334,   570.693665,   481.100708
-0.004795,   0.034905,   0.037366,   0.000000,   652.173523,   0.552448,   1.855719,   36.742519,   459.172394,   395.800293,   -222.441727,   0.492980,   578.098206,   487.856110
-0.005232,   0.037652,   0.040441,   0.000000,   659.695984,   0.552450,   1.855719,   35.812202,   470.381805,   393.714600,   -224.397095,   0.492426,   584.924133,   494.423065
-0.005678,   0.040364,   0.043465,   0.000000,   666.542419,   0.552448,   1.855719,   34.881889,   480.930878,   391.112030,   -226.104065,   0.491668,   591.214355,   500.848083
-0.006134,   0.043025,   0.046420,   0.000000,   672.728088,   0.552449,   1.855719,   33.951572,   490.837555,   387.964447,   -227.586945,   0.490684,   596.990662,   507.174500
-0.006601,   0.045626,   0.049293,   0.000000,   678.277954,   0.552449,   1.855719,   33.021259,   500.164215,   384.237854,   -228.850586,   0.489476,   602.277954,   513.417053
-0.007080,   0.048157,   0.052073,   0.000000,   683.217346,   0.552448,   1.855719,   32.090942,   508.936218,   379.928864,   -229.907532,   0.488036,   607.103699,   519.598083
-0.007573,   0.050607,   0.054746,   0.000000,   687.560242,   0.552449,   1.855719,   31.160629,   517.178589,   375.028015,   -230.759109,   0.486361,   611.483887,   525.718567
-0.008080,   0.052965,   0.057301,   0.000000,   691.315796,   0.552448,   1.855719,   30.230314,   524.931030,   369.515961,   -231.392700,   0.484458,   615.428284,   531.760681
-0.008603,   0.055224,   0.059725,   0.000000,   694.497131,   0.552449,   1.855719,   29.299999,   532.210632,   363.397644,   -231.803772,   0.482326,   618.951416,   537.713684
-0.009142,   0.057373,   0.062009,   0.000000,   697.110596,   0.552449,   1.855719,   28.369686,   539.041626,   356.669006,   -231.976807,   0.479970,   622.060242,   543.551758
-0.009699,   0.059402,   0.064138,   0.000000,   699.158142,   0.552448,   1.855719,   27.439371,   545.439636,   349.333954,   -231.893158,   0.477398,   624.757019,   549.241028
-0.010275,   0.061301,   0.066101,   0.000000,   700.642944,   0.552449,   1.855719,   26.509056,   551.416870,   341.405518,   -231.533142,   0.474620,   627.044128,   554.743652
-0.010869,   0.063059,   0.067884,   0.000000,   701.567322,   0.552448,   1.855719,   25.578741,   556.980896,   332.905670,   -230.875443,   0.471647,   628.921448,   560.016724
-0.011483,   0.064666,   0.069475,   0.000000,   701.929077,   0.552449,   1.855719,   24.648426,   562.131287,   323.857574,   -229.899048,   0.468491,   630.385254,   565.017273
-0.012114,   0.066108,   0.070858,   0.000000,   701.725464,   0.552449,   1.855719,   23.718113,   566.870056,   314.289093,   -228.577988,   0.465167,   631.428467,   569.694580
-0.012762,   0.067373,   0.072018,   0.000000,   700.954285,   0.552448,   1.855719,   22.787798,   571.192017,   304.237030,   -226.889709,   0.461692,   632.043945,   574.000854
-0.013425,   0.068448,   0.072941,   0.000000,   699.611267,   0.552449,   1.855719,   21.857483,   575.087524,   293.740723,   -224.812195,   0.458082,   632.221619,   577.888245
-0.014100,   0.069317,   0.073609,   0.000000,   697.689941,   0.552448,   1.855719,   20.927168,   578.542969,   282.838928,   -222.324600,   0.454352,   631.949402,   581.311707
-0.014781,   0.069966,   0.074008,   0.000000,   695.181030,   0.552448,   1.855719,   19.996855,   581.541443,   271.565704,   -219.407089,   0.450512,   631.213196,   584.231018
-0.015465,   0.070379,   0.074122,   0.000000,   692.070923,   0.552449,   1.855719,   19.066540,   584.062683,   259.944489,   -216.039841,   0.446567,   629.996887,   586.612122
-0.016146,   0.070543,   0.073938,   0.000000,   688.340088,   0.552449,   1.855719,   18.136225,   586.084106,   247.982101,   -212.200912,   0.442511,   628.282593,   588.428040
-0.016815,   0.070443,   0.073444,   0.000000,   683.961243,   0.552448,   1.855719,   17.205910,   587.581116,   235.662994,   -207.863068,   0.438327,   626.050049,   589.658691
-0.017465,   0.070067,   0.072632,   0.000000,   678.894104,   0.552449,   1.855719,   16.275597,   588.527405,   222.936035,   -202.986282,   0.433979,   623.274658,   590.289978
-0.018087,   0.069405,   0.071495,   0.000000,   673.090881,   0.552449,   1.855719,   15.345281,   588.892029,   209.728180,   -197.521118,   0.429412,   619.932495,   590.313293
-0.018668,   0.068449,   0.070035,   0.000000,   666.492432,   0.552449,   1.855719,   14.414967,   588.646545,   195.934097,   -191.392334,   0.424559,   615.996826,   589.718567
-0.019199,   0.067195,   0.068256,   0.000000,   659.033203,   0.552449,   1.855719,   13.484652,   587.758423,   181.433731,   -184.501526,   0.419332,   611.442078,   588.491943
-0.019666,   0.065645,   0.066171,   0.000000,   650.649536,   0.552449,   1.855719,   12.554337,   586.193237,   166.112106,   -176.724350,   0.413640,   606.247864,   586.611633
-0.020055,   0.063804,   0.063799,   0.000000,   641.282837,   0.552449,   1.855719,   11.624022,   583.910278,   149.871567,   -167.909256,   0.407384,   600.401306,   584.047424
-0.020352,   0.061685,   0.061168,   0.000000,   630.898376,   0.552449,   1.855719,   10.693707,   580.865173,   132.669083,   -157.886063,   0.400474,   593.907898,   580.762573
-0.020543,   0.059310,   0.058315,   0.000000,   619.492188,   0.552449,   1.855719,   9.763393,   577.002563,   114.535545,   -146.476715,   0.392833,   586.795837,   576.719421
-0.020613,   0.056704,   0.055281,   0.000000,   607.105286,   0.552449,   1.855719,   8.833078,   572.256409,   95.612099,   -133.510193,   0.384416,   579.119446,   571.881653
-0.020548,   0.053902,   0.052114,   0.000000,   593.838745,   0.552449,   1.855719,   7.902764,   566.545959,   76.163422,   -118.864685,   0.375212,   570.974182,   566.240112
-0.020336,   0.050942,   0.048862,   0.000000,   579.874695,   0.552449,   1.855719,   6.972449,   559.799805,   56.632946,   -102.489143,   0.365302,   562.487366,   559.805115
-0.019965,   0.047859,   0.045568,   0.000000,   565.483704,   0.552449,   1.855719,   6.042135,   551.956604,   37.667854,   -84.497353,   0.354891,   553.808044,   552.622314
-0.019418,   0.044683,   0.042259,   0.000000,   551.100220,   0.552449,   1.855719,   5.111820,   543.082764,   20.273651,   -65.237213,   0.344513,   545.075500,   544.765381
-0.018653,   0.041442,   0.038957,   0.000000,   537.426514,   0.552449,   1.855719,   4.181505,   533.546021,   5.971182,   -45.412663,   0.335280,   536.384277,   536.375061
-0.017596,   0.038183,   0.035694,   -4.516546,   525.503418,   0.552449,   1.855719,   3.251191,   524.205261,   -3.218404,   -26.198393,   0.329045,   527.776184,   527.732666
-0.016202,   0.035028,   0.032562,   -5.207442,   516.710815,   0.552449,   1.855719,   2.320876,   516.550598,   -5.047200,   -9.143704,   0.328307,   519.334167,   519.275391
-0.000852,   0.000263,   0.000000,   -178.324814,   1.778833,   0.537507,   2.598006,   55.549416,   -2.960250,   -173.585724,   28.828236,   -0.328358,   179.220840,   -179.200974
-0.000928,   0.000374,   0.000000,   -188.357391,   21.967627,   0.537506,   2.598006,   54.644264,   -11.176907,   -155.212860,   76.632660,   -0.276974,   200.246979,   -197.508774
-0.000781,   0.000474,   0.000000,   -147.523911,   55.217632,   0.537506,   2.598006,   53.739113,   -12.093870,   -80.212410,   95.477745,   -0.169484,   181.543976,   -160.959457
-0.000434,   0.000553,   0.000000,   -61.908237,   97.467552,   0.537507,   2.598006,   52.833961,   -0.898160,   36.457474,   77.468056,   0.085174,   139.163925,   100.349205
-0.000065,   0.000773,   0.000000,   0.000000,   173.788010,   0.537506,   2.598006,   51.928806,   39.855801,   172.378723,   13.738602,   0.447440,   158.110291,   147.031113
-0.000058,   0.001563,   0.000000,   0.000000,   356.759705,   0.537507,   2.598006,   51.023655,   130.392044,   321.300201,   -89.592903,   0.470463,   320.033722,   285.683563
-0.000234,   0.002716,   0.000848,   0.000000,   454.711304,   0.537507,   2.598006,   50.118504,   207.026062,   367.689758,   -146.812637,   0.469353,   408.161774,   365.192841
-0.000478,   0.004044,   0.002320,   0.000000,   474.332031,   0.537506,   2.598006,   49.213352,   227.251724,   374.611389,   -156.968155,   0.471869,   425.162262,   378.401978
-0.000805,   0.005683,   0.004146,   0.000000,   493.924530,   0.537506,   2.598006,   48.308201,   245.420486,   380.144745,   -168.150925,   0.470678,   443.023865,   395.294556
-0.001168,   0.007537,   0.006222,   0.000000,   512.837952,   0.537507,   2.598006,   47.403046,   265.497955,   384.191742,   -178.379791,   0.470847,   459.943878,   410.246246
-0.001554,   0.009571,   0.008509,   0.000000,   530.622131,   0.537506,   2.598006,   46.497894,   286.069611,   387.017029,   -187.400604,   0.471677,   475.669159,   423.527588
-0.001958,   0.011765,   0.010983,   0.000000,   547.170654,   0.537507,   2.598006,   45.592743,   306.202393,   388.883789,   -195.300034,   0.472612,   490.244507,   435.630920
-0.002380,   0.014106,   0.013626,   0.000000,   562.550537,   0.537506,   2.598006,   44.687592,   325.488678,   390.073151,   -202.207367,   0.473457,   503.784668,   446.840759
-0.002820,   0.016579,   0.016420,   0.000000,   576.868530,   0.537507,   2.598006,   43.782436,   343.749359,   390.885925,   -208.221329,   0.474214,   516.388428,   457.258728
-0.003277,   0.019171,   0.019347,   0.000000,   590.232971,   0.537506,   2.598006,   42.877285,   360.986389,   391.498810,   -213.445862,   0.474926,   528.142212,   466.926300
-0.003746,   0.021863,   0.022385,   0.000000,   602.724304,   0.537506,   2.598006,   41.972134,   377.305145,   391.986725,   -217.954788,   0.475666,   539.098328,   475.820435
-0.004225,   0.024625,   0.025499,   0.000000,   614.331421,   0.537508,   2.598006,   41.066982,   392.672668,   392.292358,   -221.848831,   0.476372,   549.266174,   484.017395
-0.004707,   0.027432,   0.028660,   0.000000,   625.105530,   0.537506,   2.598006,   40.161827,   407.153473,   392.433807,   -225.191650,   0.477063,   558.687134,   491.538086
-0.005190,   0.030269,   0.031850,   0.000000,   635.096497,   0.537506,   2.598006,   39.256676,   420.819885,   392.339355,   -228.072754,   0.477693,   567.421265,   498.493774
-0.005674,   0.033113,   0.035042,   0.000000,   644.322327,   0.537507,   2.598006,   38.351524,   433.691742,   391.935394,   -230.565414,   0.478206,   575.503235,   504.987305
-0.006155,   0.035947,   0.038218,   0.000000,   652.821899,   0.537506,   2.598006,   37.446369,   445.824554,   391.181915,   -232.720383,   0.478583,   582.975708,   511.090057
-0.006635,   0.038759,   0.041361,   0.000000,   660.632141,   0.537506,   2.598006,   36.541222,   457.260590,   390.032074,   -234.589767,   0.478791,   589.883911,   516.892273
-0.007114,   0.041537,   0.044459,   0.000000,   667.784729,   0.537508,   2.598006,   35.636066,   468.051117,   388.432678,   -236.211746,   0.478804,   596.266235,   522.468384
-0.007592,   0.044266,   0.047493,   0.000000,   674.297729,   0.537506,   2.598006,   34.730915,   478.223328,   386.351685,   -237.610733,   0.478608,   602.145630,   527.864929
-0.008070,   0.046935,   0.050451,   0.000000,   680.197571,   0.537506,   2.598006,   33.825764,   487.814484,   383.763733,   -238.807144,   0.478192,   607.551331,   533.126160
-0.008551,   0.049539,   0.053326,   0.000000,   685.510925,   0.537507,   2.598006,   32.920609,   496.881042,   380.628418,   -239.812332,   0.477546,   612.512512,   538.291138
-0.009036,   0.052069,   0.056106,   0.000000,   690.257141,   0.537507,   2.598006,   32.015457,   505.449249,   376.937439,   -240.632385,   0.476670,   617.049316,   543.377319
-0.009527,   0.054513,   0.058778,   0.000000,   694.444458,   0.537507,   2.598006,   31.110304,   513.543335,   372.671600,   -241.265533,   0.475560,   621.172302,   548.391235
-0.010025,   0.056866,   0.061334,   0.000000,   698.084534,   0.537506,   2.598006,   30.205153,   521.201599,   367.805450,   -241.703812,   0.474217,   624.894653,   553.336121
-0.010533,   0.059120,   0.063763,   0.000000,   701.188171,   0.537507,   2.598006,   29.300001,   528.439758,   362.339020,   -241.941406,   0.472641,   628.228210,   558.208374
-0.011053,   0.061267,   0.066057,   0.000000,   703.761658,   0.537507,   2.598006,   28.394848,   535.286804,   356.262512,   -241.960464,   0.470838,   631.179016,   562.989807
-0.011586,   0.063299,   0.068205,   0.000000,   705.805786,   0.537506,   2.598006,   27.489697,   541.757141,   349.572845,   -241.742676,   0.468814,   633.748352,   567.657898
-0.012132,   0.065206,   0.070194,   0.000000,   707.322388,   0.537507,   2.598006,   26.584543,   547.863525,   342.276367,   -241.267136,   0.466576,   635.937378,   572.184021
-0.012694,   0.066980,   0.072016,   0.000000,   708.313904,   0.537506,   2.598006,   25.679390,   553.614746,   334.389496,   -240.511536,   0.464137,   637.746094,   576.534119
-0.013271,   0.068612,   0.073656,   0.000000,   708.778442,   0.537507,   2.598006,   24.774239,   559.015442,   325.927734,   -239.451172,   0.461506,   639.170654,   580.671631
-0.013864,   0.070091,   0.075103,   0.000000,   708.713623,   0.537507,   2.598006,   23.869085,   564.070129,   316.915405,   -238.056824,   0.458700,   640.203979,   584.550537
-0.014471,   0.071406,   0.076343,   0.000000,   708.118591,   0.537506,   2.598006,   22.963934,   568.777466,   307.386475,   -236.301605,   0.455738,   640.839355,   588.126404
-0.015092,   0.072546,   0.077364,   0.000000,   706.991699,   0.537507,   2.598006,   22.058783,   573.132568,   297.380493,   -234.158508,   0.452637,   641.068054,   591.353333
-0.015723,   0.073499,   0.078150,   0.000000,   705.330872,   0.537507,   2.598006,   21.153629,   577.127197,   286.940674,   -231.601318,   0.449417,   640.879883,   594.186218
-0.016362,   0.074251,   0.078688,   0.000000,   703.132812,   0.537506,   2.598006,   20.248476,   580.749939,   276.110870,   -228.604858,   0.446098,   640.263123,   596.582581
-0.017005,   0.074791,   0.078965,   0.000000,   700.392456,   0.537507,   2.598006,   19.343325,   583.986877,   264.931000,   -225.144699,   0.442694,   639.205200,   598.504822
-0.017647,   0.075106,   0.078968,   0.000000,   697.101379,   0.537507,   2.598006,   18.438171,   586.821899,   253.430893,   -221.196182,   0.439215,   637.692383,   599.921814
-0.018283,   0.075185,   0.078686,   0.000000,   693.246277,   0.537506,   2.598006,   17.533020,   589.237305,   241.624603,   -216.731888,   0.435661,   635.709778,   600.809509
-0.018908,   0.075016,   0.078111,   0.000000,   688.804138,   0.537507,   2.598006,   16.627869,   591.215576,   229.496750,   -211.714783,   0.432018,   633.239319,   601.151062
-0.019514,   0.074593,   0.077238,   0.000000,   683.746582,   0.537506,   2.598006,   15.722715,   592.731506,   217.009048,   -206.107132,   0.428253,   630.266541,   600.944580
-0.020095,   0.073909,   0.076066,   0.000000,   678.033020,   0.537507,   2.598006,   14.817563,   593.764893,   204.086166,   -199.846512,   0.424317,   626.773132,   600.189453
-0.020644,   0.072961,   0.074600,   0.000000,   671.615234,   0.537507,   2.598006,   13.912411,   594.290833,   190.628113,   -192.852341,   0.420141,   622.742493,   598.890198
-0.021154,   0.071749,   0.072848,   0.000000,   664.437988,   0.537506,   2.598006,   13.007258,   594.279419,   176.516266,   -185.018646,   0.415640,   618.159973,   597.052063
-0.021616,   0.070276,   0.070825,   0.000000,   656.444275,   0.537507,   2.598006,   12.102106,   593.692200,   161.629776,   -176.211899,   0.410714,   613.015625,   594.676758
-0.022022,   0.068549,   0.068550,   0.000000,   647.585022,   0.537507,   2.598006,   11.196954,   592.477478,   145.872391,   -166.277283,   0.405256,   607.310974,   591.762451
-0.022360,   0.066579,   0.066050,   0.000000,   637.829773,   0.537507,   2.598006,   10.291800,   590.566101,   129.195999,   -155.048019,   0.399158,   601.066406,   588.306213
-0.022618,   0.064383,   0.063357,   0.000000,   627.174988,   0.537506,   2.598006,   9.386649,   587.867554,   111.624458,   -142.355072,   0.392317,   594.325500,   584.303955
-0.022782,   0.061976,   0.060503,   0.000000,   615.648071,   0.537507,   2.598006,   8.481497,   584.252930,   93.279007,   -128.061890,   0.384640,   587.157104,   579.752014
-0.022832,   0.059379,   0.057525,   0.000000,   603.335205,   0.537507,   2.598006,   7.576344,   579.585083,   74.417435,   -112.079727,   0.376081,   579.664734,   574.651001
-0.022750,   0.056616,   0.054458,   0.000000,   590.382751,   0.537507,   2.598006,   6.671192,   573.712585,   55.445465,   -94.432442,   0.366654,   571.981689,   569.013306
-0.022511,   0.053701,   0.051322,   0.000000,   577.008972,   0.537507,   2.598006,   5.766040,   566.518921,   36.971306,   -75.266273,   0.356524,   564.234619,   562.833923
-0.022082,   0.050627,   0.048113,   0.000000,   563.488586,   0.537507,   2.598006,   4.860888,   557.949768,   19.802809,   -54.876049,   0.346067,   556.493774,   556.082214
-0.021410,   0.047391,   0.044819,   0.000000,   550.388611,   0.537507,   2.598006,   3.955735,   548.282227,   5.348035,   -33.882969,   0.336283,   548.774963,   548.753479
-0.020343,   0.044010,   0.041443,   -4.086500,   538.940491,   0.537507,   2.598006,   3.050583,   538.610535,   -3.756559,   -13.381244,   0.329549,   540.995300,   540.960510
-0.001305,   0.000399,   0.000000,   -273.530212,   1.704473,   0.522564,   3.340294,   54.819710,   -3.996079,   -267.829651,   39.198128,   -0.330223,   274.386414,   -274.374481
-0.001145,   0.000448,   0.000000,   -233.256927,   24.037552,   0.522564,   3.340294,   53.939720,   -8.104330,   -201.115051,   85.069550,   -0.283314,   246.157516,   -243.496033
-0.000769,   0.000465,   0.000000,   -145.398331,   53.959564,   0.522564,   3.340294,   53.059731,   -9.389877,   -82.048882,   92.822731,   -0.170658,   178.599945,   -158.644806
-0.000204,   0.000503,   0.000000,   -12.194525,   102.050247,   0.522564,   3.340294,   52.179741,   12.577435,   77.278290,   47.078838,   0.275643,   108.661926,   107.106239
-0.000028,   0.001215,   0.000000,   0.000000,   278.437347,   0.522564,   3.340294,   51.299751,   96.349838,   259.682007,   -58.438953,   0.476838,   248.883621,   219.083557
-0.000319,   0.002483,   0.000578,   0.000000,   445.131744,   0.522565,   3.340294,   50.419762,   185.110535,   354.500824,   -153.512085,   0.442793,   406.217651,   380.299988
-0.000679,   0.004027,   0.002266,   0.000000,   467.636993,   0.522564,   3.340294,   49.539768,   210.587067,   357.194214,   -168.491272,   0.443777,   426.476349,   398.713470
-0.001131,   0.005906,   0.004341,   0.000000,   489.889008,   0.522564,   3.340294,   48.659779,   228.756134,   366.035858,   -179.839188,   0.443770,   446.771820,   417.691864
-0.001616,   0.007956,   0.006617,   0.000000,   510.561035,   0.522564,   3.340294,   47.779793,   249.703522,   372.240021,   -189.952820,   0.445852,   464.985016,   433.418671
-0.002122,   0.010159,   0.009072,   0.000000,   529.493469,   0.522564,   3.340294,   46.899803,   271.063324,   376.484070,   -198.852310,   0.448334,   481.447052,   447.108643
-0.002641,   0.012491,   0.011680,   0.000000,   546.764282,   0.522564,   3.340294,   46.019814,   291.762360,   379.453918,   -206.553802,   0.450740,   496.380524,   459.269653
-0.003170,   0.014940,   0.014423,   0.000000,   562.558655,   0.522565,   3.340294,   45.139820,   311.460846,   381.510223,   -213.215546,   0.452909,   510.014740,   470.256134
-0.003707,   0.017497,   0.017291,   0.000000,   577.100464,   0.522564,   3.340294,   44.259830,   330.146210,   382.924133,   -218.981003,   0.454861,   522.555725,   480.277771
-0.004254,   0.020149,   0.020266,   0.000000,   590.535339,   0.522564,   3.340294,   43.379841,   347.720459,   383.929413,   -223.979874,   0.456585,   534.146179,   489.504669
-0.004807,   0.022888,   0.023337,   0.000000,   603.039429,   0.522564,   3.340294,   42.499851,   364.313141,   384.730988,   -228.289200,   0.458206,   544.910400,   497.972412
-0.005363,   0.025695,   0.026482,   0.000000,   614.687256,   0.522564,   3.340294,   41.619862,   379.998383,   385.386841,   -231.978973,   0.459771,   554.903748,   505.704102
-0.005919,   0.028551,   0.029681,   0.000000,   625.537476,   0.522565,   3.340294,   40.739872,   394.774292,   385.909851,   -235.153656,   0.461237,   564.196411,   512.812012
-0.006470,   0.031437,   0.032912,   0.000000,   635.644592,   0.522564,   3.340294,   39.859882,   408.712708,   386.308960,   -237.870132,   0.462625,   572.833252,   519.329285
-0.007013,   0.034330,   0.036147,   0.000000,   645.019653,   0.522564,   3.340294,   38.979893,   421.845490,   386.507263,   -240.194244,   0.463899,   580.839905,   525.327759
-0.007546,   0.037216,   0.039369,   0.000000,   653.702332,   0.522564,   3.340294,   38.099903,   434.223419,   386.452301,   -242.189484,   0.465026,   588.265198,   530.896240
-0.008069,   0.040082,   0.042567,   0.000000,   661.735229,   0.522564,   3.340294,   37.219910,   445.904175,   386.106750,   -243.904053,   0.465991,   595.155334,   536.107422
-0.008582,   0.042915,   0.045722,   0.000000,   669.138123,   0.522565,   3.340294,   36.339920,   456.930695,   385.409363,   -245.375946,   0.466770,   601.538635,   541.026733
-0.009084,   0.045704,   0.048823,   0.000000,   675.937012,   0.522565,   3.340294,   35.459930,   467.354584,   384.302277,   -246.637161,   0.467342,   607.447754,   545.720215
-0.009578,   0.048440,   0.051858,   0.000000,   682.157104,   0.522564,   3.340294,   34.579941,   477.208923,   382.752533,   -247.714401,   0.467691,   612.912903,   550.244873
-0.010066,   0.051115,   0.054820,   0.000000,   687.823730,   0.522564,   3.340294,   33.699951,   486.536407,   380.733765,   -248.622864,   0.467813,   617.960388,   554.639893
-0.010551,   0.053724,   0.057699,   0.000000,   692.952454,   0.522564,   3.340294,   32.819962,   495.382080,   378.195374,   -249.372559,   0.467696,   622.610596,   558.945374
-0.011033,   0.056258,   0.060485,   0.000000,   697.557434,   0.522564,   3.340294,   31.939970,   503.773804,   375.120636,   -249.965942,   0.467339,   626.878357,   563.179138
-0.011515,   0.058711,   0.063170,   0.000000,   701.650146,   0.522564,   3.340294,   31.059980,   511.738922,   371.486969,   -250.403030,   0.466739,   630.777283,   567.358154
-0.012002,   0.061077,   0.065748,   0.000000,   705.240967,   0.522565,   3.340294,   30.179991,   519.312927,   367.265106,   -250.677429,   0.465894,   634.319763,   571.494141
-0.012494,   0.063350,   0.068208,   0.000000,   708.336243,   0.522565,   3.340294,   29.299999,   526.511047,   362.447449,   -250.781387,   0.464805,   637.513428,   575.586609
-0.012995,   0.065523,   0.070542,   0.000000,   710.937927,   0.522564,   3.340294,   28.420010,   533.360474,   357.016144,   -250.696060,   0.463477,   640.360229,   579.622375
-0.013506,   0.067589,   0.072741,   0.000000,   713.047791,   0.522564,   3.340294,   27.540020,   539.877258,   350.963806,   -250.404236,   0.461914,   642.862732,   583.587952
-0.014029,   0.069540,   0.074795,   0.000000,   714.666016,   0.522565,   3.340294,   26.660030,   546.074158,   344.289368,   -249.884979,   0.460121,   645.021057,   587.461914
-0.014566,   0.071371,   0.076695,   0.000000,   715.793945,   0.522564,   3.340294,   25.780041,   551.959778,   337.002075,   -249.116547,   0.458108,   646.835022,   591.218445
-0.015120,   0.073072,   0.078430,   0.000000,   716.428772,   0.522565,   3.340294,   24.900049,   557.544312,   329.108643,   -248.070862,   0.455886,   648.300049,   594.824341
-0.015688,   0.074635,   0.079989,   0.000000,   716.567566,   0.522564,   3.340294,   24.020060,   562.832703,   320.627869,   -246.717911,   0.453469,   649.409119,   598.239380
-0.016273,   0.076051,   0.081360,   0.000000,   716.208618,   0.522564,   3.340294,   23.140070,   567.826172,   311.586853,   -245.028107,   0.450873,   650.155396,   601.422546
-0.016873,   0.077309,   0.082531,   0.000000,   715.350708,   0.522565,   3.340294,   22.260080,   572.523071,   302.020294,   -242.971176,   0.448118,   650.530823,   604.330444
-0.017487,   0.078400,   0.083489,   0.000000,   713.992981,   0.522564,   3.340294,   21.380089,   576.918945,   291.969696,   -240.517029,   0.445224,   650.526123,   606.918640
-0.018114,   0.079312,   0.084222,   0.000000,   712.135132,   0.522564,   3.340294,   20.500099,   581.006592,   281.481171,   -237.636322,   0.442212,   650.131470,   609.144043
-0.018751,   0.080036,   0.084717,   0.000000,   709.776611,   0.522565,   3.340294,   19.620110,   584.776367,   270.602570,   -234.300797,   0.439104,   649.336426,   610.966125
-0.019394,   0.080559,   0.084962,   0.000000,   706.916199,   0.522564,   3.340294,   18.740120,   588.216980,   259.378357,   -230.482986,   0.435918,   648.130249,   612.349487
-0.020041,   0.080872,   0.084948,   0.000000,   703.550232,   0.522565,   3.340294,   17.860130,   591.315857,   247.844070,   -226.154602,   0.432667,   646.501892,   613.264832
-0.020687,   0.080966,   0.084664,   0.000000,   699.669128,   0.522565,   3.340294,   16.980139,   594.062317,   236.016022,   -221.280182,   0.429355,   644.437866,   613.688171
-0.021329,   0.080834,   0.084106,   0.000000,   695.259460,   0.522564,   3.340294,   16.100149,   596.433777,   223.889557,   -215.831970,   0.425967,   641.930542,   613.616028
-0.021962,   0.080469,   0.083274,   0.000000,   690.297913,   0.522565,   3.340294,   15.220160,   598.417053,   211.425003,   -209.759979,   0.422474,   638.968628,   613.047058
-0.022582,   0.079870,   0.082167,   0.000000,   684.749756,   0.522565,   3.340294,   14.340169,   599.989929,   198.550171,   -203.002945,   0.418824,   635.541199,   611.989868
-0.023185,   0.079034,   0.080790,   0.000000,   678.567810,   0.522564,   3.340294,   13.460179,   601.123352,   185.159393,   -195.478287,   0.414945,   631.636719,   610.458252
-0.023767,   0.077960,   0.079154,   0.000000,   671.700195,   0.522565,   3.340294,   12.580190,   601.781250,   171.130127,   -187.081070,   0.410741,   627.248962,   608.470032
-0.024320,   0.076652,   0.077271,   0.000000,   664.087708,   0.522565,   3.340294,   11.700199,   601.910156,   156.330643,   -177.682571,   0.406100,   622.375610,   606.041809
-0.024838,   0.075110,   0.075155,   0.000000,   655.674377,   0.522565,   3.340294,   10.820210,   601.434570,   140.651978,   -167.136826,   0.400896,   617.023254,   603.184448
-0.025309,   0.073338,   0.072827,   0.000000,   646.412415,   0.522564,   3.340294,   9.940220,   600.252869,   124.021011,   -155.284698,   0.394993,   611.212524,   599.902771
-0.025717,   0.071344,   0.070311,   0.000000,   636.286560,   0.522565,   3.340294,   9.060229,   598.239807,   106.448853,   -141.981003,   0.388263,   604.992615,   596.199829
-0.026043,   0.069134,   0.067629,   0.000000,   625.304749,   0.522564,   3.340294,   8.180239,   595.240784,   88.036079,   -127.092232,   0.380595,   598.428406,   592.061462
-0.026262,   0.066717,   0.064811,   0.000000,   613.544922,   0.522565,   3.340294,   7.300249,   591.096863,   69.052361,   -110.556847,   0.371944,   591.621094,   587.469971
-0.026343,   0.064106,   0.061880,   0.000000,   601.144897,   0.522564,   3.340294,   6.420259,   585.659180,   49.917866,   -92.391273,   0.362344,   584.689697,   582.402100
-0.026255,   0.061313,   0.058857,   0.000000,   588.334778,   0.522565,   3.340294,   5.540269,   578.836182,   31.259352,   -72.742241,   0.351988,   577.761841,   576.838745
-0.025966,   0.058323,   0.055729,   0.000000,   575.313660,   0.522564,   3.340294,   4.660279,   570.529480,   13.728806,   -51.833454,   0.341137,   570.893860,   570.736206
-0.025446,   0.055065,   0.052416,   -3.880047,   562.043701,   0.522565,   3.340294,   3.780289,   560.468994,   -2.305341,   -29.810806,   0.329888,   563.993774,   563.963684
-0.001755,   0.000529,   0.000000,   -368.460449,   0.634615,   0.517473,   4.089216,   54.127285,   -5.338493,   -362.487335,   46.572166,   -0.332473,   368.778137,   -368.776917
-0.001351,   0.000436,   0.000000,   -281.638519,   7.126811,   0.517473,   4.089216,   53.271168,   -19.318138,   -255.193558,   83.288948,   -0.320764,   285.268707,   -285.068298
-0.000646,   0.000348,   0.000000,   -124.912193,   35.561810,   0.517472,   4.089216,   52.415058,   -15.744592,   -73.605789,   74.839806,   -0.204026,   145.978775,   -135.709915
-0.000012,   0.000660,   0.000000,   0.000000,   151.510300,   0.517473,   4.089216,   51.558945,   46.699932,   147.835922,   -19.624273,   0.479511,   135.232224,   118.295555
-0.000389,   0.002078,   0.000142,   0.000000,   427.043823,   0.517473,   4.089216,   50.702831,   147.393784,   335.285461,   -160.188110,   0.400109,   402.123077,   393.324371
-0.000910,   0.004020,   0.002232,   0.000000,   458.508575,   0.517473,   4.089216,   49.846718,   192.783707,   334.773376,   -181.327103,   0.410697,   428.180420,   415.377045
-0.001520,   0.006208,   0.004631,   0.000000,   484.637817,   0.517473,   4.089216,   48.990604,   212.113205,   348.829315,   -192.382843,   0.414271,   451.349182,   436.482666
-0.002149,   0.008509,   0.007170,   0.000000,   507.529602,   0.517473,   4.089216,   48.134491,   234.341431,   357.368713,   -202.539337,   0.418660,   471.114166,   453.728333
-0.002786,   0.010927,   0.009850,   0.000000,   527.976379,   0.517473,   4.089216,   47.278378,   256.698761,   363.522156,   -211.217300,   0.423274,   488.431335,   468.228180
-0.003427,   0.013440,   0.012644,   0.000000,   546.253540,   0.517473,   4.089216,   46.422264,   278.139740,   368.042084,   -218.588531,   0.427557,   503.778137,   480.715302
-0.004068,   0.016035,   0.015535,   0.000000,   562.693970,   0.517472,   4.089216,   45.566151,   298.394165,   371.333466,   -224.892319,   0.431348,   517.545715,   491.710205
-0.004705,   0.018702,   0.018508,   0.000000,   577.599121,   0.517473,   4.089216,   44.710037,   317.490906,   373.720337,   -230.283600,   0.434719,   530.005798,   501.498474
-0.005343,   0.021436,   0.021558,   0.000000,   591.236023,   0.517473,   4.089216,   43.853924,   335.495789,   375.461670,   -234.908905,   0.437731,   541.395996,   510.321838
-0.005976,   0.024233,   0.024678,   0.000000,   603.813110,   0.517473,   4.089216,   42.997814,   352.463593,   376.803406,   -238.869827,   0.440470,   551.886108,   518.326965
-0.006604,   0.027076,   0.027849,   0.000000,   615.460327,   0.517473,   4.089216,   42.141701,   368.454651,   377.896515,   -242.238770,   0.443011,   561.574341,   525.584045
-0.007224,   0.029963,   0.031066,   0.000000,   626.317017,   0.517473,   4.089216,   41.285587,   383.548279,   378.850281,   -245.106506,   0.445394,   570.579590,   532.199463
-0.007834,   0.032873,   0.034308,   0.000000,   636.427979,   0.517473,   4.089216,   40.429474,   397.758057,   379.682007,   -247.543015,   0.447616,   578.948120,   538.237488
-0.008430,   0.035792,   0.037558,   0.000000,   645.853882,   0.517472,   4.089216,   39.573360,   411.155975,   380.396118,   -249.604477,   0.449695,   586.732910,   543.751709
-0.009011,   0.038707,   0.040801,   0.000000,   654.635986,   0.517473,   4.089216,   38.717247,   423.783447,   380.955963,   -251.355804,   0.451606,   593.983398,   548.824951
-0.009573,   0.041604,   0.044023,   0.000000,   662.807190,   0.517473,   4.089216,   37.861134,   435.707672,   381.313843,   -252.837906,   0.453346,   600.733765,   553.510010
-0.010117,   0.044469,   0.047208,   0.000000,   670.384338,   0.517473,   4.089216,   37.005020,   446.958252,   381.412170,   -254.094299,   0.454890,   607.011841,   557.873840
-0.010643,   0.047296,   0.050347,   0.000000,   677.402405,   0.517474,   4.089216,   36.148907,   457.601257,   381.202271,   -255.157089,   0.456228,   612.854675,   561.977478
-0.011154,   0.050078,   0.053433,   0.000000,   683.884766,   0.517473,   4.089216,   35.292793,   467.683624,   380.627502,   -256.055786,   0.457341,   618.292603,   565.883911
-0.011651,   0.052810,   0.056459,   0.000000,   689.857605,   0.517473,   4.089216,   34.436680,   477.245697,   379.654022,   -256.813110,   0.458219,   623.354858,   569.646912
-0.012137,   0.055484,   0.059416,   0.000000,   695.335205,   0.517472,   4.089216,   33.580566,   486.326294,   378.242554,   -257.439667,   0.458858,   628.058044,   573.300964
-0.012615,   0.058096,   0.062298,   0.000000,   700.327087,   0.517473,   4.089216,   32.724453,   494.964813,   376.336548,   -257.944641,   0.459243,   632.417847,   576.887024
-0.013087,   0.060640,   0.065098,   0.000000,   704.848511,   0.517472,   4.089216,   31.868340,   503.192230,   373.914398,   -258.331055,   0.459375,   636.449829,   580.429932
-0.013557,   0.063113,   0.067810,   0.000000,   708.908752,   0.517473,   4.089216,   31.012226,   511.035400,   370.948303,   -258.598877,   0.459248,   640.165771,   583.950562
-0.014028,   0.065508,   0.070427,   0.000000,   712.511414,   0.517473,   4.089216,   30.156113,   518.524231,   367.402863,   -258.740448,   0.458859,   643.571899,   587.460938
-0.014503,   0.067820,   0.072939,   0.000000,   715.658142,   0.517472,   4.089216,   29.299999,   525.674194,   363.261597,   -258.746399,   0.458211,   646.671631,   590.963440
-0.014986,   0.070043,   0.075339,   0.000000,   718.349426,   0.517473,   4.089216,   28.443888,   532.510376,   358.500427,   -258.600067,   0.457304,   649.466431,   594.453064
-0.015478,   0.072171,   0.077619,   0.000000,   720.584290,   0.517473,   4.089216,   27.587774,   539.048035,   353.106598,   -258.283813,   0.456142,   651.956482,   597.919617
-0.015983,   0.074197,   0.079769,   0.000000,   722.359741,   0.517473,   4.089216,   26.731661,   545.299133,   347.070923,   -257.776764,   0.454730,   654.139526,   601.346680
-0.016502,   0.076115,   0.081781,   0.000000,   723.674133,   0.517472,   4.089216,   25.875547,   551.270691,   340.394226,   -257.057892,   0.453072,   656.014160,   604.714355
-0.017039,   0.077918,   0.083644,   0.000000,   724.523254,   0.517473,   4.089216,   25.019434,   556.978210,   333.075287,   -256.096039,   0.451180,   657.574158,   607.990967
-0.017595,   0.079597,   0.085347,   0.000000,   724.901978,   0.517473,   4.089216,   24.163321,   562.425171,   325.126068,   -254.861374,   0.449067,   658.811707,   611.140564
-0.018169,   0.081144,   0.086880,   0.000000,   724.807007,   0.517473,   4.089216,   23.307207,   567.614929,   316.565674,   -253.322510,   0.446746,   659.719666,   614.125610
-0.018764,   0.082550,   0.088231,   0.000000,   724.235901,   0.517472,   4.089216,   22.451094,   572.548340,   307.421936,   -251.446808,   0.444234,   660.289612,   616.904358
-0.019378,   0.083807,   0.089388,   0.000000,   723.187744,   0.517473,   4.089216,   21.594982,   577.223816,   297.731262,   -249.201340,   0.441553,   660.513123,   619.433716
-0.020011,   0.084906,   0.090341,   0.000000,   721.663147,   0.517473,   4.089216,   20.738867,   581.637695,   287.537384,   -246.553574,   0.438724,   660.381409,   621.670654
-0.020663,   0.085837,   0.091077,   0.000000,   719.664307,   0.517472,   4.089216,   19.882755,   585.784241,   276.890106,   -243.472046,   0.435769,   659.885864,   623.573181
-0.021330,   0.086592,   0.091587,   0.000000,   717.194458,   0.517473,   4.089216,   19.026642,   589.656006,   265.841461,   -239.926758,   0.432713,   659.018494,   625.103455
-0.022013,   0.087161,   0.091861,   0.000000,   714.256897,   0.517473,   4.089216,   18.170528,   593.244751,   254.440445,   -235.888474,   0.429574,   657.771973,   626.228882
-0.022709,   0.087538,   0.091890,   0.000000,   710.851990,   0.517473,   4.089216,   17.314415,   596.544312,   242.727417,   -231.322754,   0.426371,   656.136230,   626.919006
-0.023414,   0.087715,   0.091669,   0.000000,   706.978210,   0.517472,   4.089216,   16.458302,   599.533386,   230.727875,   -226.209259,   0.423100,   654.108887,   627.166138
-0.024129,   0.087689,   0.091196,   0.000000,   702.627197,   0.517473,   4.089216,   15.602188,   602.203186,   218.436951,   -220.509216,   0.419753,   651.684631,   626.964355
-0.024850,   0.087456,   0.090471,   0.000000,   697.779175,   0.517473,   4.089216,   14.746075,   604.533997,   205.817245,   -214.180023,   0.416296,   648.858826,   626.321106
-0.025576,   0.087014,   0.089496,   0.000000,   692.400574,   0.517473,   4.089216,   13.889962,   606.499146,   192.791656,   -207.164459,   0.412670,   645.626221,   625.252502
-0.026306,   0.086360,   0.088276,   0.000000,   686.443726,   0.517473,   4.089216,   13.033849,   608.060669,   179.248764,   -199.387833,   0.408791,   641.981506,   623.779907
-0.027035,   0.085493,   0.086819,   0.000000,   679.848694,   0.517473,   4.089216,   12.177735,   609.167175,   165.047195,   -190.753632,   0.404550,   637.922241,   621.928284
-0.027759,   0.084412,   0.085134,   0.000000,   672.548584,   0.517473,   4.089216,   11.321622,   609.748962,   150.039001,   -181.144745,   0.399814,   633.450623,   619.718994
-0.028469,   0.083113,   0.083232,   0.000000,   664.470581,   0.517473,   4.089216,   10.465509,   609.710693,   134.084549,   -170.422653,   0.394436,   628.573486,   617.161865
-0.029153,   0.081593,   0.081125,   0.000000,   655.555298,   0.517473,   4.089216,   9.609395,   608.932739,   117.097397,   -158.443298,   0.388264,   623.313110,   614.253662
-0.029793,   0.079852,   0.078833,   0.000000,   645.766418,   0.517473,   4.089216,   8.753282,   607.279968,   99.055077,   -145.055145,   0.381156,   617.713257,   610.979004
-0.030365,   0.077891,   0.076376,   0.000000,   635.108337,   0.517473,   4.089216,   7.897169,   604.599487,   80.059799,   -130.130295,   0.373006,   611.839539,   607.300598
-0.030840,   0.075711,   0.073772,   0.000000,   623.638489,   0.517473,   4.089216,   7.041056,   600.734863,   60.358688,   -113.583191,   0.363770,   605.779968,   603.166565
-0.031179,   0.073325,   0.071050,   0.000000,   611.535156,   0.517473,   4.089216,   6.184943,   595.580811,   40.451443,   -95.452888,   0.353550,   599.661987,   598.534607
-0.031346,   0.070746,   0.068234,   0.000000,   599.067017,   0.517473,   4.089216,   5.328829,   589.102478,   21.026108,   -75.894180,   0.342607,   593.613586,   593.381531
-0.031292,   0.067994,   0.065341,   -2.117228,   586.684692,   0.517473,   4.089216,   4.472716,   581.455750,   3.111708,   -55.240074,   0.331531,   587.746155,   587.737549
-0.002752,   0.001003,   0.000917,   -403.333771,   0.000000,   0.523154,   4.859001,   53.488712,   -14.611184,   -394.494415,   58.617882,   -0.340514,   400.479034,   -400.385437
-0.001689,   0.000465,   0.000000,   -357.640564,   0.000000,   0.523154,   4.859001,   52.654621,   -32.199120,   -335.143066,   85.566429,   -0.346985,   352.889771,   -352.589539
-0.000311,   0.000120,   0.000000,   -63.402763,   6.081635,   0.523154,   4.859001,   51.820526,   -10.355724,   -46.965405,   29.528854,   -0.286669,   66.652000,   -66.023438
-0.000396,   0.001606,   0.000000,   0.000000,   343.265442,   0.523154,   4.859001,   50.986435,   99.991425,   263.182587,   -139.578201,   0.362713,   333.756744,   332.416870
-0.001165,   0.004084,   0.002287,   0.000000,   450.225922,   0.523155,   4.859001,   50.152340,   178.908295,   313.967468,   -192.274063,   0.381641,   430.488464,   425.696289
-0.001958,   0.006541,   0.004966,   0.000000,   478.689880,   0.523154,   4.859001,   49.318245,   196.223007,   331.695251,   -203.767288,   0.385844,   456.072693,   450.037048
-0.002760,   0.009137,   0.007818,   0.000000,   503.548462,   0.523154,   4.859001,   48.484154,   219.557098,   340.810242,   -214.979645,   0.391034,   477.680206,   469.987427
-0.003551,   0.011824,   0.010785,   0.000000,   525.676514,   0.523155,   4.859001,   47.650059,   243.048340,   348.393127,   -223.842117,   0.397415,   496.074341,   486.121735
-0.004328,   0.014568,   0.013823,   0.000000,   545.178955,   0.523154,   4.859001,   46.815964,   265.293396,   354.423462,   -231.062149,   0.403465,   511.995636,   499.569794
-0.005094,   0.017358,   0.016919,   0.000000,   562.481934,   0.523155,   4.859001,   45.981869,   286.086304,   359.112183,   -237.087555,   0.408852,   526.024109,   511.084473
-0.005845,   0.020185,   0.020057,   0.000000,   578.005249,   0.523152,   4.859001,   45.147778,   305.644684,   362.755280,   -242.127258,   0.413720,   538.528259,   521.048157
-0.006581,   0.023045,   0.023234,   0.000000,   592.065796,   0.523154,   4.859001,   44.313686,   324.078522,   365.586884,   -246.360413,   0.418130,   549.801941,   529.783508
-0.007301,   0.025934,   0.026443,   0.000000,   604.900696,   0.523155,   4.859001,   43.479591,   341.456909,   367.806091,   -249.922195,   0.422135,   560.060242,   537.526794
-0.008002,   0.028845,   0.029674,   0.000000,   616.698181,   0.523154,   4.859001,   42.645496,   357.854584,   369.608093,   -252.898544,   0.425825,   569.453369,   544.419556
-0.008685,   0.031775,   0.032926,   0.000000,   627.621216,   0.523155,   4.859001,   41.811405,   373.316467,   371.148651,   -255.386337,   0.429242,   578.123840,   550.609619
-0.009349,   0.034713,   0.036185,   0.000000,   637.762390,   0.523154,   4.859001,   40.977310,   387.875763,   372.509979,   -257.454926,   0.432418,   586.150879,   556.183044
-0.009993,   0.037652,   0.039444,   0.000000,   647.217468,   0.523154,   4.859001,   40.143215,   401.586975,   373.755005,   -259.173126,   0.435377,   593.617615,   561.228455
-0.010614,   0.040586,   0.042695,   0.000000,   656.054138,   0.523154,   4.859001,   39.309124,   414.522614,   374.889709,   -260.595642,   0.438136,   600.584106,   565.814514
-0.011211,   0.043497,   0.045922,   0.000000,   664.295227,   0.523154,   4.859001,   38.475029,   426.705231,   375.878632,   -261.772614,   0.440679,   607.081055,   570.003906
-0.011783,   0.046383,   0.049119,   0.000000,   671.992249,   0.523155,   4.859001,   37.640938,   438.224182,   376.690063,   -262.739807,   0.443018,   613.153931,   573.852722
-0.012333,   0.049235,   0.052278,   0.000000,   679.166870,   0.523154,   4.859001,   36.806843,   449.105896,   377.274353,   -263.540680,   0.445127,   618.835205,   577.432983
-0.012860,   0.052050,   0.055394,   0.000000,   685.853821,   0.523154,   4.859001,   35.972748,   459.418457,   377.589722,   -264.200500,   0.447006,   624.158081,   580.796997
-0.013367,   0.054821,   0.058462,   0.000000,   692.070679,   0.523155,   4.859001,   35.138653,   469.205750,   377.578125,   -264.743927,   0.448642,   629.146606,   584.001038
-0.013857,   0.057545,   0.061475,   0.000000,   697.831116,   0.523154,   4.859001,   34.304562,   478.502655,   377.194489,   -265.188110,   0.450022,   633.818665,   587.090454
-0.014333,   0.060218,   0.064428,   0.000000,   703.151672,   0.523154,   4.859001,   33.470467,   487.351410,   376.396729,   -265.544342,   0.451143,   638.192627,   590.105713
-0.014798,   0.062837,   0.067318,   0.000000,   708.042175,   0.523154,   4.859001,   32.636375,   495.790985,   375.132812,   -265.820251,   0.451994,   642.282715,   593.085388
-0.015256,   0.065399,   0.070140,   0.000000,   712.515015,   0.523154,   4.859001,   31.802280,   503.852448,   373.373962,   -266.018860,   0.452574,   646.102234,   596.057861
-0.015711,   0.067901,   0.072889,   0.000000,   716.573120,   0.523154,   4.859001,   30.968187,   511.560211,   371.085144,   -266.138092,   0.452878,   649.656921,   599.042969
-0.016165,   0.070338,   0.075557,   0.000000,   720.217041,   0.523154,   4.859001,   30.134094,   518.942627,   368.227325,   -266.170074,   0.452904,   652.949829,   602.054199
-0.016624,   0.072705,   0.078138,   0.000000,   723.447754,   0.523154,   4.859001,   29.300001,   526.018127,   364.777710,   -266.105438,   0.452651,   655.983582,   605.097839
-0.017090,   0.074998,   0.080626,   0.000000,   726.262390,   0.523154,   4.859001,   28.465906,   532.808899,   360.705627,   -265.929016,   0.452121,   658.757446,   608.174683
-0.017567,   0.077211,   0.083010,   0.000000,   728.657715,   0.523154,   4.859001,   27.631813,   539.330444,   355.993286,   -265.622925,   0.451316,   661.269348,   611.276611
-0.018058,   0.079338,   0.085284,   0.000000,   730.627869,   0.523154,   4.859001,   26.797718,   545.594360,   350.623962,   -265.166840,   0.450238,   663.515076,   614.391602
-0.018567,   0.081372,   0.087438,   0.000000,   732.167847,   0.523154,   4.859001,   25.963625,   551.606567,   344.590302,   -264.540192,   0.448890,   665.491211,   617.503662
-0.019096,   0.083308,   0.089463,   0.000000,   733.271484,   0.523154,   4.859001,   25.129532,   557.386230,   337.882355,   -263.710266,   0.447283,   667.189819,   620.583313
-0.019648,   0.085138,   0.091348,   0.000000,   733.930603,   0.523154,   4.859001,   24.295439,   562.935059,   330.503815,   -262.648376,   0.445426,   668.602234,   623.599792
-0.020224,   0.086853,   0.093081,   0.000000,   734.138855,   0.523154,   4.859001,   23.461344,   568.257080,   322.463959,   -261.322327,   0.443330,   669.719910,   626.517944
-0.020826,   0.088446,   0.094652,   0.000000,   733.891296,   0.523153,   4.859001,   22.627251,   573.354309,   313.781006,   -259.698364,   0.441009,   670.533936,   629.299011
-0.021455,   0.089908,   0.096050,   0.000000,   733.184448,   0.523154,   4.859001,   21.793158,   578.226440,   304.482361,   -257.741760,   0.438481,   671.035034,   631.901184
-0.022113,   0.091232,   0.097263,   0.000000,   732.016846,   0.523154,   4.859001,   20.959064,   582.871033,   294.604889,   -255.417603,   0.435765,   671.214172,   634.281250
-0.022798,   0.092407,   0.098279,   0.000000,   730.389343,   0.523154,   4.859001,   20.124969,   587.283813,   284.193634,   -252.691666,   0.432884,   671.062744,   636.396362
-0.023511,   0.093427,   0.099089,   0.000000,   728.305115,   0.523154,   4.859001,   19.290876,   591.458862,   273.300629,   -249.530853,   0.429861,   670.572632,   638.204712
-0.024252,   0.094282,   0.099682,   0.000000,   725.768677,   0.523154,   4.859001,   18.456783,   595.389404,   261.980133,   -245.903229,   0.426720,   669.736572,   639.668884
-0.025019,   0.094964,   0.100047,   0.000000,   722.784485,   0.523154,   4.859001,   17.622690,   599.070190,   250.286514,   -241.774155,   0.423485,   668.545776,   640.751526
-0.025811,   0.095465,   0.100179,   0.000000,   719.358154,   0.523154,   4.859001,   16.788595,   602.480896,   238.269836,   -237.125076,   0.420166,   666.998962,   641.435669
-0.026628,   0.095781,   0.100071,   0.000000,   715.489990,   0.523154,   4.859001,   15.954503,   605.613342,   225.956223,   -231.923111,   0.416770,   665.091431,   641.704834
-0.027467,   0.095905,   0.099722,   0.000000,   711.172546,   0.523154,   4.859001,   15.120409,   608.449524,   213.347153,   -226.137390,   0.413283,   662.820618,   641.556519
-0.028330,   0.095834,   0.099129,   0.000000,   706.385620,   0.523154,   4.859001,   14.286316,   610.965149,   200.406311,   -219.728897,   0.409670,   660.183411,   640.998108
-0.029213,   0.095563,   0.098294,   0.000000,   701.093079,   0.523154,   4.859001,   13.452222,   613.125305,   187.055099,   -212.647064,   0.405868,   657.176086,   640.045593
-0.030115,   0.095086,   0.097217,   0.000000,   695.240234,   0.523154,   4.859001,   12.618128,   614.882751,   173.172485,   -204.822021,   0.401786,   653.792725,   638.718018
-0.031030,   0.094396,   0.095902,   0.000000,   688.755981,   0.523154,   4.859001,   11.784035,   616.174255,   158.604095,   -196.161499,   0.397305,   650.027832,   637.033325
-0.031953,   0.093487,   0.094354,   0.000000,   681.563416,   0.523154,   4.859001,   10.949941,   616.923340,   143.188614,   -186.549118,   0.392287,   645.881348,   635.002197
-0.032871,   0.092351,   0.092579,   0.000000,   673.578308,   0.523154,   4.859001,   10.115848,   617.028687,   126.772591,   -175.845566,   0.386577,   641.356628,   632.620728
-0.033769,   0.090975,   0.090583,   0.000000,   664.720764,   0.523154,   4.859001,   9.281754,   616.366577,   109.245934,   -163.888824,   0.380023,   636.463257,   629.859924
-0.034623,   0.089351,   0.088376,   0.000000,   654.940552,   0.523154,   4.859001,   8.447660,   614.799683,   90.581757,   -150.511948,   0.372488,   631.233398,   626.675171
-0.035401,   0.087477,   0.085979,   0.000000,   644.242554,   0.523154,   4.859001,   7.613567,   612.190552,   70.889671,   -135.562180,   0.363885,   625.728333,   623.007874
-0.036068,   0.085350,   0.083407,   0.000000,   632.680176,   0.523154,   4.859001,   6.779473,   608.384216,   50.423416,   -118.938957,   0.354181,   620.029419,   618.789001
-0.036574,   0.082970,   0.080678,   0.000000,   620.417542,   0.523154,   4.859001,   5.945380,   603.281738,   29.683580,   -100.611626,   0.343495,   614.239746,   613.951294
-0.036874,   0.080356,   0.077822,   -1.455206,   607.765259,   0.523154,   4.859001,   5.111286,   596.878662,   9.431401,   -80.708275,   0.332137,   608.494202,   608.490295
-0.004056,   0.001664,   0.002261,   -420.509247,   0.000000,   0.527610,   5.656495,   52.883896,   -22.360306,   -404.512024,   79.807762,   -0.340927,   417.364075,   -417.254944
-0.002171,   0.000639,   0.000299,   -403.505554,   0.000000,   0.527611,   5.656495,   52.070660,   -38.903637,   -380.134674,   92.309654,   -0.352755,   395.967743,   -395.281464
-0.000135,   0.000570,   0.000000,   0.000000,   122.131927,   0.527611,   5.656495,   51.257420,   54.780663,   75.597580,   -55.983456,   0.367600,   118.224663,   117.575005
-0.001309,   0.003716,   0.001900,   0.000000,   433.165649,   0.527610,   5.656495,   50.444183,   155.833771,   287.661926,   -200.880127,   0.345326,   428.094116,   427.813599
-0.002409,   0.006720,   0.005152,   0.000000,   467.904144,   0.527612,   5.656495,   49.630943,   178.566071,   306.255432,   -216.266342,   0.351565,   459.679016,   458.977814
-0.003440,   0.009796,   0.008518,   0.000000,   498.010132,   0.527610,   5.656495,   48.817707,   205.697388,   320.907990,   -227.528503,   0.362417,   484.346008,   482.441406
-0.004412,   0.012841,   0.011870,   0.000000,   522.925842,   0.527611,   5.656495,   48.004471,   231.126297,   331.744324,   -236.192032,   0.372164,   504.141693,   500.562775
-0.005349,   0.015878,   0.015223,   0.000000,   543.892395,   0.527611,   5.656495,   47.191231,   254.170898,   339.442291,   -243.379532,   0.379926,   520.815063,   515.434937
-0.006261,   0.018919,   0.018587,   0.000000,   562.152283,   0.527611,   5.656495,   46.377995,   275.379395,   345.394440,   -249.319626,   0.386591,   535.254578,   527.959961
-0.007146,   0.021964,   0.021957,   0.000000,   578.390869,   0.527611,   5.656495,   45.564754,   295.248352,   350.189575,   -254.191818,   0.392636,   547.952454,   538.607971
-0.008001,   0.025012,   0.025330,   0.000000,   593.030029,   0.527610,   5.656495,   44.751518,   314.027252,   354.126190,   -258.175995,   0.398233,   559.265320,   547.741394
-0.008823,   0.028053,   0.028695,   0.000000,   606.306702,   0.527611,   5.656495,   43.938282,   331.780060,   357.378601,   -261.414215,   0.403428,   569.419495,   555.615540
-0.009610,   0.031079,   0.032042,   0.000000,   618.409485,   0.527611,   5.656495,   43.125042,   348.543427,   360.083008,   -264.033203,   0.408242,   578.600342,   562.449158
-0.010363,   0.034087,   0.035367,   0.000000,   629.505676,   0.527611,   5.656495,   42.311806,   364.350800,   362.377106,   -266.139923,   0.412704,   586.964783,   568.425049
-0.011083,   0.037075,   0.038668,   0.000000,   639.738770,   0.527611,   5.656495,   41.498566,   379.242828,   364.382416,   -267.823090,   0.416848,   594.640991,   573.689087
-0.011771,   0.040044,   0.041947,   0.000000,   649.237854,   0.527611,   5.656495,   40.685329,   393.266327,   366.203247,   -269.163177,   0.420706,   601.742676,   578.368958
-0.012428,   0.042989,   0.045197,   0.000000,   658.084595,   0.527610,   5.656495,   39.872089,   406.469727,   367.894928,   -270.214783,   0.424307,   608.337280,   582.541748
-0.013054,   0.045907,   0.048418,   0.000000,   666.355347,   0.527611,   5.656495,   39.058853,   418.929901,   369.469666,   -271.029633,   0.427671,   614.491150,   586.285767
-0.013650,   0.048795,   0.051604,   0.000000,   674.093933,   0.527611,   5.656495,   38.245617,   430.674530,   370.918945,   -271.659088,   0.430789,   620.251587,   589.676331
-0.014218,   0.051652,   0.054758,   0.000000,   681.353821,   0.527611,   5.656495,   37.432377,   441.787903,   372.216461,   -272.137390,   0.433674,   625.665405,   592.775208
-0.014758,   0.054474,   0.057874,   0.000000,   688.160034,   0.527611,   5.656495,   36.619141,   452.305908,   373.322235,   -272.499146,   0.436312,   630.762756,   595.643494
-0.015273,   0.057258,   0.060948,   0.000000,   694.533020,   0.527610,   5.656495,   35.805901,   462.280365,   374.185455,   -272.766510,   0.438699,   635.565918,   598.329529
-0.015765,   0.060004,   0.063979,   0.000000,   700.494751,   0.527612,   5.656495,   34.992664,   471.760712,   374.754578,   -272.961273,   0.440824,   640.100159,   600.888000
-0.016239,   0.062710,   0.066967,   0.000000,   706.061646,   0.527610,   5.656495,   34.179428,   480.782532,   374.985596,   -273.101654,   0.442679,   644.385803,   603.368652
-0.016697,   0.065375,   0.069910,   0.000000,   711.248047,   0.527611,   5.656495,   33.366188,   489.387817,   374.834595,   -273.197296,   0.444258,   648.438293,   605.811035
-0.017143,   0.067999,   0.072804,   0.000000,   716.060242,   0.527611,   5.656495,   32.552952,   497.613403,   374.249359,   -273.253571,   0.445555,   652.267395,   608.250488
-0.017581,   0.070579,   0.075647,   0.000000,   720.503052,   0.527610,   5.656495,   31.739714,   505.486786,   373.189697,   -273.272766,   0.446563,   655.880310,   610.716064
-0.018016,   0.073112,   0.078434,   0.000000,   724.579163,   0.527610,   5.656495,   30.926476,   513.033752,   371.616974,   -273.253632,   0.447280,   659.282471,   613.231812
-0.018452,   0.075597,   0.081161,   0.000000,   728.288696,   0.527611,   5.656495,   30.113239,   520.282288,   369.490784,   -273.189087,   0.447701,   662.475952,   615.813782
-0.018892,   0.078029,   0.083822,   0.000000,   731.630188,   0.527611,   5.656495,   29.299999,   527.252380,   366.781403,   -273.069580,   0.447827,   665.460938,   618.471436
-0.019342,   0.080406,   0.086411,   0.000000,   734.597900,   0.527611,   5.656495,   28.486761,   533.964050,   363.453003,   -272.881348,   0.447656,   668.234619,   621.208984
-0.019805,   0.082722,   0.088921,   0.000000,   737.186523,   0.527611,   5.656495,   27.673523,   540.433289,   359.481934,   -272.607056,   0.447190,   670.792969,   624.021851
-0.020287,   0.084972,   0.091343,   0.000000,   739.389038,   0.527610,   5.656495,   26.860287,   546.672546,   354.845734,   -272.227539,   0.446430,   673.131104,   626.902100
-0.020790,   0.087150,   0.093669,   0.000000,   741.195740,   0.527610,   5.656495,   26.047049,   552.687805,   349.528107,   -271.721283,   0.445379,   675.241577,   629.834961
-0.021317,   0.089248,   0.095887,   0.000000,   742.595276,   0.527611,   5.656495,   25.233810,   558.497192,   343.508423,   -271.055603,   0.444045,   677.113037,   632.793335
-0.021873,   0.091261,   0.097989,   0.000000,   743.578674,   0.527611,   5.656495,   24.420572,   564.103027,   336.783051,   -270.203461,   0.442432,   678.737427,   635.751953
-0.022460,   0.093180,   0.099962,   0.000000,   744.136047,   0.527611,   5.656495,   23.607334,   569.509827,   329.350616,   -269.132721,   0.440550,   680.104492,   638.678955
-0.023080,   0.094997,   0.101795,   0.000000,   744.258789,   0.527610,   5.656495,   22.794098,   574.719910,   321.218658,   -267.809174,   0.438409,   681.203979,   641.537537
-0.023737,   0.096705,   0.103478,   0.000000,   743.939758,   0.527611,   5.656495,   21.980860,   579.733521,   312.403351,   -266.197235,   0.436023,   682.025635,   644.288269
-0.024432,   0.098295,   0.104997,   0.000000,   743.173645,   0.527611,   5.656495,   21.167622,   584.548523,   302.930603,   -264.260468,   0.433408,   682.559204,   646.888245
-0.025167,   0.099759,   0.106342,   0.000000,   741.957458,   0.527610,   5.656495,   20.354383,   589.160583,   292.836151,   -261.962433,   0.430582,   682.794739,   649.294006
-0.025942,   0.101087,   0.107501,   0.000000,   740.291077,   0.527610,   5.656495,   19.541147,   593.563660,   282.165283,   -259.267456,   0.427567,   682.723083,   651.461365
-0.026758,   0.102270,   0.108461,   0.000000,   738.176819,   0.527611,   5.656495,   18.727909,   597.751038,   270.969910,   -256.140350,   0.424386,   682.335754,   653.347595
-0.027617,   0.103300,   0.109212,   0.000000,   735.618408,   0.527611,   5.656495,   17.914671,   601.714600,   259.307159,   -252.546814,   0.421064,   681.624146,   654.911926
-0.028516,   0.104167,   0.109743,   0.000000,   732.623840,   0.527611,   5.656495,   17.101433,   605.435608,   247.242264,   -248.464966,   0.417620,   680.585205,   656.125183
-0.029456,   0.104863,   0.110047,   0.000000,   729.197571,   0.527610,   5.656495,   16.288195,   608.903992,   234.824463,   -243.864563,   0.414071,   679.213379,   656.959656
-0.030436,   0.105380,   0.110115,   0.000000,   725.341125,   0.527610,   5.656495,   15.474957,   612.102234,   222.089767,   -238.720795,   0.410423,   677.505920,   657.400085
-0.031455,   0.105711,   0.109943,   0.000000,   721.047058,   0.527610,   5.656495,   14.661719,   615.008484,   209.045166,   -233.006363,   0.406663,   675.460327,   657.441040
-0.032513,   0.105850,   0.109527,   0.000000,   716.294373,   0.527611,   5.656495,   13.848482,   617.592590,   195.658951,   -226.688400,   0.402755,   673.073853,   657.086731
-0.033606,   0.105787,   0.108865,   0.000000,   711.042847,   0.527611,   5.656495,   13.035244,   619.815247,   181.851501,   -219.719955,   0.398636,   670.341064,   656.346924
-0.034732,   0.105513,   0.107953,   0.000000,   705.231445,   0.527610,   5.656495,   12.222006,   621.624634,   167.494415,   -212.034119,   0.394212,   667.254333,   655.233154
-0.035884,   0.105016,   0.106791,   0.000000,   698.781250,   0.527611,   5.656495,   11.408768,   622.955505,   152.425400,   -203.538269,   0.389362,   663.804382,   653.750305
-0.037053,   0.104285,   0.105378,   0.000000,   691.598877,   0.527610,   5.656495,   10.595531,   623.726135,   136.460663,   -194.110168,   0.383942,   659.983337,   651.892883
-0.038223,   0.103305,   0.103719,   0.000000,   683.592224,   0.527611,   5.656495,   9.782292,   623.841553,   119.436607,   -183.599243,   0.377803,   655.789490,   649.636536
-0.039374,   0.102059,   0.101813,   0.000000,   674.666870,   0.527611,   5.656495,   8.969054,   623.180847,   101.220695,   -171.826874,   0.370789,   651.225464,   646.932007
-0.040478,   0.100529,   0.099664,   0.000000,   664.752014,   0.527610,   5.656495,   8.155817,   621.604309,   81.767097,   -158.601608,   0.362764,   646.308289,   643.704529
-0.041494,   0.098700,   0.097281,   0.000000,   653.819275,   0.527611,   5.656495,   7.342579,   618.957764,   61.148312,   -143.740753,   0.353625,   641.080200,   639.865967
-0.042369,   0.096563,   0.094676,   0.000000,   641.935608,   0.527611,   5.656495,   6.529341,   615.117798,   39.661297,   -127.089203,   0.343386,   635.611145,   635.319092
-0.043052,   0.094122,   0.091872,   -1.496253,   629.258118,   0.527611,   5.656495,   5.716104,   609.973022,   17.788847,   -108.592110,   0.332145,   630.007568,   630.003601
-0.005053,   0.002147,   0.003301,   -433.595306,   0.000000,   0.530988,   6.480167,   52.313992,   -33.259644,   -408.018097,   101.190262,   -0.342230,   429.805603,   -429.651093
-0.001995,   0.000610,   0.000140,   -393.556061,   0.000000,   0.530988,   6.480167,   51.520405,   -18.449760,   -379.265411,   73.215530,   -0.338631,   391.493073,   -391.443359
-0.000754,   0.001720,   0.000000,   -55.062622,   344.601501,   0.530986,   6.480167,   50.726818,   88.227997,   201.310898,   -191.666168,   0.257247,   375.175659,   365.919159
-0.002583,   0.006163,   0.004568,   -26.214844,   443.324738,   0.530986,   6.480167,   49.933235,   162.061935,   255.047958,   -230.120087,   0.304240,   456.996429,   455.300110
-0.004015,   0.010090,   0.008838,   -1.813114,   487.293915,   0.530988,   6.480167,   49.139648,   195.259445,   290.221344,   -239.899933,   0.331475,   488.202972,   488.195435
-0.005266,   0.013708,   0.012807,   0.000000,   517.661194,   0.530986,   6.480167,   48.346062,   221.970917,   309.512238,   -248.087921,   0.346769,   510.890442,   510.469513
-0.006425,   0.017180,   0.016633,   0.000000,   541.325195,   0.530988,   6.480167,   47.552475,   245.181290,   321.540649,   -255.123215,   0.357046,   529.084167,   527.710205
-0.007528,   0.020582,   0.020388,   0.000000,   561.176941,   0.530988,   6.480167,   46.758888,   266.442535,   329.983612,   -261.037598,   0.365183,   544.408875,   541.832458
-0.008584,   0.023940,   0.024097,   0.000000,   578.483459,   0.530988,   6.480167,   45.965305,   286.459503,   336.344025,   -265.914490,   0.372281,   557.645935,   553.662598
-0.009589,   0.027262,   0.027765,   0.000000,   593.922852,   0.530986,   6.480167,   45.171719,   305.512970,   341.448120,   -269.844788,   0.378832,   569.259888,   563.660828
-0.010542,   0.030532,   0.031373,   0.000000,   607.800537,   0.530986,   6.480167,   44.378132,   323.575836,   345.690826,   -272.943329,   0.384956,   579.517456,   572.114868
-0.011436,   0.033745,   0.034916,   0.000000,   620.369568,   0.530988,   6.480167,   43.584549,   340.670288,   349.314453,   -275.343262,   0.390711,   588.657349,   579.287720
-0.012276,   0.036896,   0.038386,   0.000000,   631.800903,   0.530986,   6.480167,   42.790962,   356.804962,   352.447693,   -277.165985,   0.396105,   596.855957,   585.389771
-0.013064,   0.039986,   0.041786,   0.000000,   642.249451,   0.530989,   6.480167,   41.997375,   371.998535,   355.188904,   -278.528961,   0.401135,   604.274353,   590.619934
-0.013802,   0.043019,   0.045122,   0.000000,   651.865295,   0.530986,   6.480167,   41.203789,   386.302643,   357.650116,   -279.522034,   0.405834,   611.048157,   595.135925
-0.014496,   0.045996,   0.048393,   0.000000,   660.755371,   0.530988,   6.480167,   40.410202,   399.756805,   359.904114,   -280.217316,   0.410223,   617.274292,   599.057190
-0.015148,   0.048923,   0.051609,   0.000000,   669.028320,   0.530986,   6.480167,   39.616615,   412.422394,   362.024414,   -280.675995,   0.414335,   623.044128,   602.487488
-0.015764,   0.051810,   0.054780,   0.000000,   676.775146,   0.530986,   6.480167,   38.823032,   424.379211,   364.038483,   -280.951019,   0.418190,   628.435974,   605.519043
-0.016344,   0.054655,   0.057907,   0.000000,   684.047974,   0.530988,   6.480167,   38.029446,   435.667206,   365.951691,   -281.085419,   0.421795,   633.498596,   608.221802
-0.016892,   0.057461,   0.060992,   0.000000,   690.886353,   0.530986,   6.480167,   37.235859,   446.346313,   367.731964,   -281.112427,   0.425148,   638.270020,   610.656860
-0.017410,   0.060231,   0.064038,   0.000000,   697.328674,   0.530989,   6.480167,   36.442272,   456.468353,   369.353394,   -281.062683,   0.428250,   642.787537,   612.885010
-0.017901,   0.062967,   0.067050,   0.000000,   703.400940,   0.530986,   6.480167,   35.648685,   466.079346,   370.771179,   -280.963043,   0.431090,   647.080444,   614.965637
-0.018369,   0.065673,   0.070030,   0.000000,   709.124390,   0.530988,   6.480167,   34.855103,   475.230743,   371.937744,   -280.830597,   0.433664,   651.170593,   616.946960
-0.018817,   0.068347,   0.072978,   0.000000,   714.509338,   0.530986,   6.480167,   34.061516,   483.952667,   372.805267,   -280.681610,   0.435961,   655.072754,   618.875549
-0.019249,   0.070991,   0.075894,   0.000000,   719.567078,   0.530986,   6.480167,   33.267929,   492.284332,   373.324860,   -280.526062,   0.437972,   658.800415,   620.792725
-0.019669,   0.073608,   0.078779,   0.000000,   724.304626,   0.530988,   6.480167,   32.474346,   500.263306,   373.444733,   -280.369629,   0.439692,   662.363220,   622.735962
-0.020083,   0.076197,   0.081633,   0.000000,   728.726074,   0.530987,   6.480167,   31.680758,   507.916870,   373.119781,   -280.216248,   0.441113,   665.768372,   624.738647
-0.020494,   0.078758,   0.084453,   0.000000,   732.832642,   0.530987,   6.480167,   30.887173,   515.271057,   372.307678,   -280.064972,   0.442229,   669.019470,   626.826721
-0.020907,   0.081290,   0.087238,   0.000000,   736.622681,   0.530987,   6.480167,   30.093586,   522.352661,   370.965393,   -279.909637,   0.443037,   672.116882,   629.019409
-0.021328,   0.083791,   0.089982,   0.000000,   740.092834,   0.530988,   6.480167,   29.299999,   529.182190,   369.056915,   -279.741699,   0.443536,   675.059021,   631.329102
-0.021761,   0.086258,   0.092680,   0.000000,   743.235657,   0.530987,   6.480167,   28.506414,   535.778992,   366.542542,   -279.548737,   0.443723,   677.841614,   633.763977
-0.022212,   0.088689,   0.095328,   0.000000,   746.044373,   0.530987,   6.480167,   27.712828,   542.159241,   363.391571,   -279.315643,   0.443597,   680.459900,   636.325012
-0.022685,   0.091077,   0.097915,   0.000000,   748.507690,   0.530988,   6.480167,   26.919241,   548.335144,   359.572968,   -279.023376,   0.443160,   682.905396,   639.006287
-0.023184,   0.093417,   0.100433,   0.000000,   750.612610,   0.530986,   6.480167,   26.125656,   554.314514,   355.061737,   -278.650116,   0.442410,   685.168030,   641.795044
-0.023714,   0.095702,   0.102873,   0.000000,   752.346191,   0.530987,   6.480167,   25.332071,   560.114136,   349.830444,   -278.166199,   0.441355,   687.236145,   644.670227
-0.024279,   0.097926,   0.105223,   0.000000,   753.696167,   0.530988,   6.480167,   24.538485,   565.736328,   343.866180,   -277.545624,   0.439995,   689.099915,   647.610107
-0.024884,   0.100081,   0.107473,   0.000000,   754.649048,   0.530987,   6.480167,   23.744898,   571.185791,   337.157196,   -276.756989,   0.438338,   690.747498,   650.585938
-0.025531,   0.102160,   0.109611,   0.000000,   755.191833,   0.530987,   6.480167,   22.951313,   576.464600,   329.698761,   -275.766541,   0.436390,   692.166626,   653.563965
-0.026225,   0.104154,   0.111624,   0.000000,   755.312622,   0.530987,   6.480167,   22.157726,   581.572693,   321.494568,   -274.538727,   0.434159,   693.345276,   656.506348
-0.026968,   0.106054,   0.113500,   0.000000,   755.001282,   0.530988,   6.480167,   21.364141,   586.507568,   312.557770,   -273.036530,   0.431659,   694.271484,   659.371887
-0.027764,   0.107851,   0.115227,   0.000000,   754.249451,   0.530986,   6.480167,   20.570555,   591.264465,   302.911041,   -271.222015,   0.428902,   694.933350,   662.116333
-0.028615,   0.109536,   0.116789,   0.000000,   753.051331,   0.530987,   6.480167,   19.776970,   595.836487,   292.587738,   -269.057068,   0.425907,   695.319580,   664.693665
-0.029523,   0.111097,   0.118175,   0.000000,   751.403442,   0.530988,   6.480167,   18.983383,   600.215576,   281.629913,   -266.503418,   0.422693,   695.419128,   667.056763
-0.030489,   0.112526,   0.119370,   0.000000,   749.306152,   0.530987,   6.480167,   18.189796,   604.389099,   270.090149,   -263.527191,   0.419280,   695.223022,   669.162476
-0.031514,   0.113810,   0.120362,   0.000000,   746.765076,   0.530987,   6.480167,   17.396212,   608.341614,   258.036224,   -260.099121,   0.415693,   694.724915,   670.969299
-0.032597,   0.114938,   0.121137,   0.000000,   743.783875,   0.530987,   6.480167,   16.602625,   612.058960,   245.528976,   -256.188599,   0.411955,   693.916565,   672.438843
-0.033738,   0.115900,   0.121684,   0.000000,   740.368347,   0.530987,   6.480167,   15.809039,   615.523315,   232.628647,   -251.771271,   0.408083,   692.793579,   673.542053
-0.034937,   0.116685,   0.121994,   0.000000,   736.521118,   0.530987,   6.480167,   15.015453,   618.714844,   219.380844,   -246.824585,   0.404085,   691.352966,   674.258545
-0.036191,   0.117283,   0.122059,   0.000000,   732.236084,   0.530987,   6.480167,   14.221868,   621.608154,   205.803040,   -241.325882,   0.399952,   689.592163,   674.578125
-0.037501,   0.117684,   0.121872,   0.000000,   727.492065,   0.530987,   6.480167,   13.428282,   624.172058,   191.870758,   -235.245422,   0.395653,   687.507141,   674.498230
-0.038863,   0.117877,   0.121426,   0.000000,   722.247559,   0.530987,   6.480167,   12.634696,   626.366577,   177.506927,   -228.539398,   0.391127,   685.091309,   674.020935
-0.040271,   0.117848,   0.120718,   0.000000,   716.437195,   0.530987,   6.480167,   11.841109,   628.140015,   162.580841,   -221.142410,   0.386282,   682.334778,   673.147522
-0.041719,   0.117580,   0.119739,   0.000000,   709.971252,   0.530987,   6.480167,   11.047523,   629.426758,   146.912170,   -212.958466,   0.380993,   679.223633,   671.870667
-0.043193,   0.117055,   0.118487,   0.000000,   702.746399,   0.530987,   6.480167,   10.253938,   630.147339,   130.304901,   -203.859558,   0.375119,   675.743958,   670.166870
-0.044676,   0.116253,   0.116959,   0.000000,   694.648132,   0.530987,   6.480167,   9.460352,   630.204651,   112.558136,   -193.679855,   0.368497,   671.884094,   667.991516
-0.046140,   0.115149,   0.115151,   0.000000,   685.566833,   0.530987,   6.480167,   8.666766,   629.479370,   93.517914,   -182.226547,   0.360972,   667.638977,   665.272156
-0.047550,   0.113717,   0.113059,   0.000000,   675.408508,   0.530987,   6.480167,   7.873180,   627.828613,   73.104424,   -169.285461,   0.352397,   663.014832,   661.908020
-0.048861,   0.111935,   0.110688,   0.000000,   664.124329,   0.530987,   6.480167,   7.079594,   625.102173,   51.362514,   -154.632782,   0.342666,   658.040955,   657.780579
-0.050010,   0.109787,   0.108047,   -2.054576,   651.749817,   0.530987,   6.480167,   6.286008,   621.152710,   28.542513,   -138.088120,   0.331758,   652.779541,   652.772278
-0.005979,   0.002572,   0.004279,   -445.334503,   0.000000,   0.533427,   7.328438,   51.780094,   -45.170994,   -409.483307,   119.776192,   -0.343850,   440.748505,   -440.526733
-0.001157,   0.000427,   0.000000,   -237.503159,   18.449934,   0.533425,   7.328438,   51.004917,   18.424055,   -237.477280,   -2.573536,   -0.295326,   247.244949,   -245.689011
-0.002102,   0.004600,   0.002899,   -33.841431,   423.446960,   0.533425,   7.328438,   50.229740,   155.033508,   234.572021,   -225.158997,   0.294258,   441.341827,   438.408478
-0.004101,   0.009415,   0.008106,   -20.004772,   473.675110,   0.533425,   7.328438,   49.454567,   191.214432,   262.455902,   -244.256256,   0.312453,   483.987671,   483.056152
-0.005817,   0.013835,   0.012944,   -10.456884,   507.436096,   0.533425,   7.328438,   48.679390,   216.197403,   280.781799,   -256.925079,   0.323084,   512.744507,   512.504517
-0.007351,   0.018016,   0.017543,   0.000000,   535.050476,   0.533425,   7.328438,   47.904217,   238.378296,   297.780792,   -265.313629,   0.334370,   534.497070,   534.494507
-0.008762,   0.022012,   0.021950,   0.000000,   557.850342,   0.533425,   7.328438,   47.129040,   259.123444,   310.660370,   -271.739410,   0.344085,   551.980408,   551.690063
-0.010074,   0.025874,   0.026211,   0.000000,   577.238770,   0.533426,   7.328438,   46.353867,   279.109192,   320.102295,   -276.875397,   0.352536,   566.572083,   565.612183
-0.011293,   0.029621,   0.030342,   0.000000,   594.126526,   0.533426,   7.328438,   45.578690,   298.384033,   327.245453,   -280.941406,   0.360167,   579.018127,   577.085205
-0.012423,   0.033249,   0.034338,   0.000000,   609.040955,   0.533425,   7.328438,   44.803513,   316.815063,   332.890228,   -284.074615,   0.367214,   589.761169,   586.594543
-0.013463,   0.036759,   0.038198,   0.000000,   622.353149,   0.533425,   7.328438,   44.028336,   334.282562,   337.559540,   -286.427399,   0.373779,   599.143555,   594.518982
-0.014420,   0.040146,   0.041918,   0.000000,   634.312256,   0.533425,   7.328438,   43.253162,   350.744171,   341.554810,   -288.126160,   0.379926,   607.398438,   601.123840
-0.015297,   0.043420,   0.045508,   0.000000,   645.142273,   0.533425,   7.328438,   42.477985,   366.238739,   345.061859,   -289.298248,   0.385693,   614.738892,   606.652039
-0.016103,   0.046580,   0.048970,   0.000000,   654.991333,   0.533426,   7.328438,   41.702808,   380.791199,   348.184021,   -290.045868,   0.391095,   621.311890,   611.283936
-0.016844,   0.049640,   0.052319,   0.000000,   664.013184,   0.533425,   7.328438,   40.927635,   394.462524,   351.019775,   -290.460999,   0.396159,   627.259277,   615.187439
-0.017530,   0.052614,   0.055571,   0.000000,   672.342224,   0.533426,   7.328438,   40.152458,   407.314392,   353.657257,   -290.620667,   0.400912,   632.700439,   618.502930
-0.018164,   0.055513,   0.058740,   0.000000,   680.086426,   0.533425,   7.328438,   39.377281,   419.412628,   356.163849,   -290.582367,   0.405387,   637.725891,   621.335938
-0.018755,   0.058348,   0.061839,   0.000000,   687.328186,   0.533425,   7.328438,   38.602108,   430.821838,   358.566895,   -290.395172,   0.409599,   642.407410,   623.775391
-0.019307,   0.061129,   0.064880,   0.000000,   694.140076,   0.533425,   7.328438,   37.826931,   441.601746,   360.891663,   -290.099976,   0.413567,   646.806396,   625.897400
-0.019823,   0.063867,   0.067876,   0.000000,   700.571777,   0.533425,   7.328438,   37.051758,   451.806915,   363.120636,   -289.734314,   0.417288,   650.971252,   627.773621
-0.020308,   0.066567,   0.070835,   0.000000,   706.663147,   0.533426,   7.328438,   36.276581,   461.493164,   365.232635,   -289.324249,   0.420765,   654.938171,   629.460449
-0.020766,   0.069235,   0.073762,   0.000000,   712.435486,   0.533425,   7.328438,   35.501404,   470.698059,   367.184570,   -288.894592,   0.423987,   658.732361,   631.012817
-0.021200,   0.071877,   0.076665,   0.000000,   717.913269,   0.533425,   7.328438,   34.726231,   479.474854,   368.931549,   -288.462555,   0.426949,   662.378418,   632.480896
-0.021614,   0.074499,   0.079548,   0.000000,   723.109131,   0.533426,   7.328438,   33.951054,   487.853485,   370.427521,   -288.045746,   0.429639,   665.893555,   633.913940
-0.022013,   0.077105,   0.082417,   0.000000,   728.034180,   0.533425,   7.328438,   33.175877,   495.871307,   371.621613,   -287.655609,   0.432045,   669.291992,   635.356323
-0.022402,   0.079699,   0.085275,   0.000000,   732.695007,   0.533425,   7.328438,   32.400703,   503.564575,   372.461884,   -287.298370,   0.434160,   672.582764,   636.846313
-0.022785,   0.082283,   0.088124,   0.000000,   737.094238,   0.533425,   7.328438,   31.625526,   510.959625,   372.900482,   -286.978790,   0.435975,   675.772095,   638.419128
-0.023169,   0.084859,   0.090963,   0.000000,   741.232239,   0.533425,   7.328438,   30.850351,   518.081970,   372.891235,   -286.697388,   0.437483,   678.862854,   640.104004
-0.023557,   0.087429,   0.093794,   0.000000,   745.106567,   0.533425,   7.328438,   30.075176,   524.957520,   372.387085,   -286.450439,   0.438678,   681.855347,   641.924500
-0.023956,   0.089992,   0.096614,   0.000000,   748.712830,   0.533426,   7.328438,   29.300001,   531.607056,   371.345551,   -286.231781,   0.439555,   684.747803,   643.899353
-0.024370,   0.092547,   0.099419,   0.000000,   752.042725,   0.533425,   7.328438,   28.524824,   538.050232,   369.723022,   -286.030701,   0.440110,   687.534912,   646.039917
-0.024807,   0.095092,   0.102203,   0.000000,   755.084778,   0.533425,   7.328438,   27.749649,   544.300720,   367.478638,   -285.834198,   0.440340,   690.209045,   648.352234
-0.025271,   0.097623,   0.104961,   0.000000,   757.826782,   0.533426,   7.328438,   26.974474,   550.372864,   364.574585,   -285.625092,   0.440242,   692.761169,   650.835388
-0.025766,   0.100134,   0.107684,   0.000000,   760.254700,   0.533425,   7.328438,   26.199297,   556.276550,   360.977814,   -285.383545,   0.439816,   695.180847,   653.482300
-0.026300,   0.102621,   0.110362,   0.000000,   762.353027,   0.533425,   7.328438,   25.424122,   562.026428,   356.653137,   -285.083313,   0.439062,   697.455505,   656.277954
-0.026877,   0.105078,   0.112986,   0.000000,   764.106689,   0.533425,   7.328438,   24.648947,   567.625366,   351.579590,   -284.699585,   0.437984,   699.573303,   659.203857
-0.027502,   0.107496,   0.115544,   0.000000,   765.498108,   0.533425,   7.328438,   23.873770,   573.076965,   345.734680,   -284.203003,   0.436581,   701.520630,   662.234985
-0.028181,   0.109869,   0.118024,   0.000000,   766.509705,   0.533425,   7.328438,   23.098595,   578.382690,   339.101135,   -283.561462,   0.434857,   703.283142,   665.341553
-0.028918,   0.112185,   0.120413,   0.000000,   767.124634,   0.533425,   7.328438,   22.323420,   583.542175,   331.669586,   -282.739990,   0.432818,   704.846619,   668.487915
-0.029717,   0.114437,   0.122695,   0.000000,   767.326843,   0.533425,   7.328438,   21.548244,   588.552429,   323.438660,   -281.701691,   0.430471,   706.196472,   671.634216
-0.030584,   0.116615,   0.124858,   0.000000,   767.101624,   0.533425,   7.328438,   20.773067,   593.407959,   314.415924,   -280.407990,   0.427824,   707.318420,   674.736450
-0.031520,   0.118706,   0.126885,   0.000000,   766.436462,   0.533425,   7.328438,   19.997892,   598.100769,   304.619537,   -278.819397,   0.424890,   708.198547,   677.747314
-0.032530,   0.120700,   0.128760,   0.000000,   765.319763,   0.533425,   7.328438,   19.222717,   602.620789,   294.075500,   -276.895203,   0.421684,   708.822327,   680.617004
-0.033617,   0.122584,   0.130468,   0.000000,   763.746033,   0.533425,   7.328438,   18.447540,   606.950256,   282.826538,   -274.601807,   0.418219,   709.179993,   683.300171
-0.034783,   0.124347,   0.131993,   0.000000,   761.714111,   0.533425,   7.328438,   17.672365,   611.077637,   270.928894,   -271.900970,   0.414519,   709.260315,   685.744507
-0.036027,   0.125971,   0.133316,   0.000000,   759.222412,   0.533425,   7.328438,   16.897190,   614.983826,   258.443298,   -268.759521,   0.410608,   709.051941,   687.901978
-0.037349,   0.127445,   0.134423,   0.000000,   756.275696,   0.533425,   7.328438,   16.122015,   618.650024,   245.440506,   -265.149048,   0.406508,   708.547241,   689.729858
-0.038749,   0.128753,   0.135298,   0.000000,   752.880005,   0.533425,   7.328438,   15.346839,   622.056580,   231.990005,   -261.045197,   0.402241,   707.740540,   691.192139
-0.040227,   0.129882,   0.135928,   0.000000,   749.039917,   0.533425,   7.328438,   14.571663,   625.181641,   218.150360,   -256.427490,   0.397820,   706.628052,   692.261841
-0.041780,   0.130821,   0.136303,   0.000000,   744.752747,   0.533425,   7.328438,   13.796487,   628.000854,   203.954407,   -251.275192,   0.393244,   705.206787,   692.921204
-0.043408,   0.131554,   0.136414,   0.000000,   740.000977,   0.533425,   7.328438,   13.021312,   630.484863,   189.391418,   -245.561813,   0.388490,   703.472595,   693.160339
-0.045106,   0.132070,   0.136251,   0.000000,   734.744751,   0.533425,   7.328438,   12.246136,   632.595337,   174.393066,   -239.248016,   0.383503,   701.418823,   692.974487
-0.046869,   0.132349,   0.135808,   0.000000,   728.916748,   0.533425,   7.328438,   11.470961,   634.283630,   158.826233,   -232.270172,   0.378193,   699.034302,   692.356384
-0.048688,   0.132374,   0.135075,   0.000000,   722.419250,   0.533425,   7.328438,   10.695785,   635.484680,   142.497086,   -224.533447,   0.372435,   696.302551,   691.288635
-0.050550,   0.132118,   0.134043,   0.000000,   715.130981,   0.533425,   7.328438,   9.920609,   636.118225,   125.174156,   -215.903015,   0.366074,   693.203979,   689.733276
-0.052435,   0.131557,   0.132704,   0.000000,   706.917786,   0.533425,   7.328438,   9.145433,   636.082947,   106.621468,   -206.208405,   0.358939,   689.721191,   687.627747
-0.054314,   0.130659,   0.131053,   0.000000,   697.642944,   0.533425,   7.328438,   8.370258,   635.256775,   86.633354,   -195.239761,   0.350854,   685.840881,   684.875488
-0.056142,   0.129388,   0.129078,   0.000000,   687.179871,   0.533425,   7.328438,   7.595082,   633.490906,   65.075516,   -182.757050,   0.341652,   681.557922,   681.343933
-0.057856,   0.127705,   0.126772,   -2.864596,   675.449585,   0.533425,   7.328438,   6.819907,   630.621460,   41.963524,   -168.517029,   0.331215,   676.886414,   676.872742
-0.006136,   0.002633,   0.004450,   -447.083435,   0.000000,   0.535065,   8.199678,   51.283226,   -46.552464,   -409.878815,   122.072105,   -0.343840,   442.483551,   -442.261322
-0.000576,   0.000760,   0.000000,   -80.373566,   135.413055,   0.535064,   8.199678,   50.525185,   81.733749,   -26.694267,   -93.283478,   0.097127,   188.892120,   141.984741
-0.003496,   0.007606,   0.006148,   -41.170612,   447.636505,   0.535065,   8.199678,   49.767139,   192.438507,   214.027390,   -244.165070,   0.288533,   469.577393,   465.490845
-0.005799,   0.012929,   0.011955,   -27.993784,   493.272858,   0.535064,   8.199678,   49.009098,   211.265594,   254.013489,   -259.755432,   0.305392,   507.848755,   506.108459
-0.007846,   0.017961,   0.017485,   -17.722126,   525.987305,   0.535064,   8.199678,   48.251057,   232.203278,   276.061920,   -270.968811,   0.316636,   535.068542,   534.407593
-0.009723,   0.022770,   0.022787,   -8.827600,   551.779175,   0.535065,   8.199678,   47.493015,   252.447311,   290.504272,   -279.656769,   0.325367,   556.245544,   556.087830
-0.011437,   0.027384,   0.027875,   0.000000,   573.779053,   0.535064,   8.199678,   46.734970,   272.572021,   302.012726,   -286.108246,   0.334036,   573.376648,   573.375366
-0.012984,   0.031787,   0.032727,   0.000000,   592.829712,   0.535064,   8.199678,   45.976933,   292.289368,   311.324677,   -290.867004,   0.342469,   587.511780,   587.289062
-0.014377,   0.035971,   0.037331,   0.000000,   609.406311,   0.535066,   8.199678,   45.218887,   311.237976,   318.806213,   -294.359924,   0.350402,   599.353943,   598.553772
-0.015627,   0.039944,   0.041694,   0.000000,   623.942688,   0.535064,   8.199678,   44.460846,   329.219391,   324.888458,   -296.880859,   0.357776,   609.420288,   607.737122
-0.016751,   0.043712,   0.045822,   0.000000,   636.784363,   0.535064,   8.199678,   43.702801,   346.138580,   329.949768,   -298.630524,   0.364623,   618.070374,   615.249207
-0.017757,   0.047283,   0.049729,   0.000000,   648.223145,   0.535065,   8.199678,   42.944759,   361.987610,   334.288147,   -299.765503,   0.371001,   625.582520,   621.409973
-0.018660,   0.050671,   0.053427,   0.000000,   658.483521,   0.535064,   8.199678,   42.186718,   376.812531,   338.094940,   -300.406647,   0.376964,   632.162903,   626.460083
-0.019471,   0.053897,   0.056943,   0.000000,   667.768677,   0.535064,   8.199678,   41.428677,   390.689636,   341.514252,   -300.663025,   0.382554,   637.996155,   630.613281
-0.020205,   0.056980,   0.060300,   0.000000,   676.241516,   0.535065,   8.199678,   40.670635,   403.691864,   344.648865,   -300.625092,   0.387804,   643.229614,   634.043091
-0.020870,   0.059939,   0.063519,   0.000000,   684.031433,   0.535065,   8.199678,   39.912590,   415.887939,   347.583679,   -300.360229,   0.392748,   647.973877,   636.880005
-0.021477,   0.062796,   0.066624,   0.000000,   691.258484,   0.535064,   8.199678,   39.154549,   427.358398,   350.388855,   -299.925873,   0.397421,   652.328552,   639.238220
-0.022034,   0.065569,   0.069640,   0.000000,   698.017151,   0.535065,   8.199678,   38.396507,   438.169708,   353.106689,   -299.372833,   0.401841,   656.375366,   641.215576
-0.022548,   0.068275,   0.072585,   0.000000,   704.383545,   0.535064,   8.199678,   37.638466,   448.387909,   355.768524,   -298.737244,   0.406031,   660.176086,   642.885132
-0.023025,   0.070925,   0.075472,   0.000000,   710.407288,   0.535064,   8.199678,   36.880424,   458.062653,   358.368134,   -298.052307,   0.409993,   663.776794,   644.312439
-0.023469,   0.073535,   0.078319,   0.000000,   716.135132,   0.535065,   8.199678,   36.122379,   467.252258,   360.892487,   -297.344574,   0.413729,   667.219299,   645.556702
-0.023885,   0.076115,   0.081138,   0.000000,   721.596130,   0.535064,   8.199678,   35.364338,   475.995667,   363.311646,   -296.639221,   0.417233,   670.534790,   646.673889
-0.024279,   0.078675,   0.083941,   0.000000,   726.815796,   0.535064,   8.199678,   34.606297,   484.344269,   365.583008,   -295.953796,   0.420496,   673.749390,   647.714294
-0.024654,   0.081224,   0.086736,   0.000000,   731.808655,   0.535065,   8.199678,   33.848255,   492.328461,   367.665161,   -295.305176,   0.423508,   676.881348,   648.724854
-0.025016,   0.083768,   0.089532,   0.000000,   736.585510,   0.535065,   8.199678,   33.090210,   499.982269,   369.508972,   -294.705811,   0.426255,   679.945374,   649.749878
-0.025369,   0.086316,   0.092336,   0.000000,   741.154236,   0.535064,   8.199678,   32.332169,   507.340515,   371.062408,   -294.164124,   0.428728,   682.952637,   650.830078
-0.025718,   0.088873,   0.095155,   0.000000,   745.518250,   0.535064,   8.199678,   31.574127,   514.429688,   372.274567,   -293.687469,   0.430913,   685.911194,   652.004883
-0.026070,   0.091444,   0.097990,   0.000000,   749.677063,   0.535064,   8.199678,   30.816084,   521.275208,   373.094482,   -293.278290,   0.432800,   688.824280,   653.306580
-0.026429,   0.094031,   0.100844,   0.000000,   753.626221,   0.535064,   8.199678,   30.058043,   527.899780,   373.469482,   -292.935883,   0.434379,   691.691772,   654.763489
-0.026801,   0.096637,   0.103718,   0.000000,   757.359375,   0.535065,   8.199678,   29.300001,   534.323242,   373.348297,   -292.657410,   0.435640,   694.511841,   656.400696
-0.027194,   0.099263,   0.106610,   0.000000,   760.868835,   0.535064,   8.199678,   28.541958,   540.566528,   372.682709,   -292.435150,   0.436577,   697.280212,   658.235535
-0.027613,   0.101909,   0.109518,   0.000000,   764.143677,   0.535064,   8.199678,   27.783916,   546.643494,   371.427307,   -292.259949,   0.437183,   699.990479,   660.281433
-0.028064,   0.104574,   0.112438,   0.000000,   767.171082,   0.535065,   8.199678,   27.025873,   552.568787,   369.537933,   -292.118103,   0.437452,   702.633911,   662.544189
-0.028554,   0.107255,   0.115363,   0.000000,   769.935669,   0.535064,   8.199678,   26.267830,   558.352478,   366.972992,   -291.993378,   0.437382,   705.199829,   665.024109
-0.029089,   0.109947,   0.118286,   0.000000,   772.419128,   0.535064,   8.199678,   25.509789,   564.007812,   363.687592,   -291.863464,   0.436969,   707.674866,   667.713196
-0.029677,   0.112646,   0.121196,   0.000000,   774.603210,   0.535064,   8.199678,   24.751747,   569.538025,   359.649261,   -291.706390,   0.436210,   710.045837,   670.599182
-0.030323,   0.115342,   0.124083,   0.000000,   776.467773,   0.535065,   8.199678,   23.993704,   574.946533,   354.827545,   -291.495239,   0.435106,   712.297424,   673.661194
-0.031033,   0.118030,   0.126933,   0.000000,   777.991577,   0.535064,   8.199678,   23.235661,   580.236450,   349.194519,   -291.198944,   0.433657,   714.413208,   676.871704
-0.031815,   0.120699,   0.129733,   0.000000,   779.152527,   0.535064,   8.199678,   22.477619,   585.406311,   342.726959,   -290.784821,   0.431865,   716.376465,   680.199402
-0.032673,   0.123340,   0.132467,   0.000000,   779.928467,   0.535064,   8.199678,   21.719578,   590.451843,   335.407684,   -290.217682,   0.429731,   718.170227,   683.607605
-0.033613,   0.125940,   0.135119,   0.000000,   780.298157,   0.535065,   8.199678,   20.961535,   595.366394,   327.228424,   -289.459839,   0.427259,   719.777588,   687.053772
-0.034640,   0.128488,   0.137671,   0.000000,   780.241089,   0.535064,   8.199678,   20.203493,   600.140259,   318.188782,   -288.471863,   0.424456,   721.181396,   690.491516
-0.035759,   0.130971,   0.140105,   0.000000,   779.737061,   0.535064,   8.199678,   19.445450,   604.761353,   308.295593,   -287.212128,   0.421328,   722.363953,   693.869873
-0.036976,   0.133374,   0.142402,   0.000000,   778.773010,   0.535064,   8.199678,   18.687408,   609.207092,   297.577667,   -285.647186,   0.417885,   723.313416,   697.141235
-0.038294,   0.135683,   0.144544,   0.000000,   777.336975,   0.535065,   8.199678,   17.929365,   613.469666,   286.067596,   -283.730469,   0.414144,   724.013000,   700.245667
-0.039713,   0.137880,   0.146507,   0.000000,   775.419128,   0.535064,   8.199678,   17.171324,   617.524780,   273.815552,   -281.425629,   0.410124,   724.448120,   703.127014
-0.041234,   0.139947,   0.148272,   0.000000,   773.016541,   0.535065,   8.199678,   16.413282,   621.351501,   260.885223,   -278.697693,   0.405846,   724.606506,   705.730530
-0.042858,   0.141866,   0.149817,   0.000000,   770.131897,   0.535064,   8.199678,   15.655239,   624.928711,   247.352753,   -275.516266,   0.401338,   724.478516,   708.004517
-0.044584,   0.143620,   0.151125,   0.000000,   766.772400,   0.535064,   8.199678,   14.897197,   628.235413,   233.299393,   -271.856140,   0.396624,   724.057068,   709.904724
-0.046413,   0.145193,   0.152178,   0.000000,   762.946106,   0.535064,   8.199678,   14.139154,   631.250854,   218.800339,   -267.696472,   0.391726,   723.337769,   711.394836
-0.048341,   0.146568,   0.152965,   0.000000,   758.655823,   0.535064,   8.199678,   13.381112,   633.953003,   203.908569,   -263.018158,   0.386654,   722.317322,   712.448914
-0.050369,   0.147730,   0.153471,   0.000000,   753.891052,   0.535064,   8.199678,   12.623070,   636.314636,   188.635498,   -257.799774,   0.381396,   720.992554,   713.050598
-0.052492,   0.148663,   0.153688,   0.000000,   748.617554,   0.535064,   8.199678,   11.865027,   638.302429,   172.928085,   -252.006500,   0.375905,   719.357727,   713.188416
-0.054706,   0.149348,   0.153606,   0.000000,   742.769409,   0.535064,   8.199678,   11.106986,   639.869812,   156.657394,   -245.582336,   0.370098,   717.402710,   712.850037
-0.057002,   0.149763,   0.153215,   0.000000,   736.241394,   0.535065,   8.199678,   10.348944,   640.954407,   139.610641,   -238.434799,   0.363844,   715.110535,   712.010193
-0.059368,   0.149877,   0.152503,   0.000000,   728.896362,   0.535064,   8.199678,   9.590901,   641.471008,   121.524055,   -230.433792,   0.356977,   712.459290,   710.619934
-0.061780,   0.149657,   0.151455,   0.000000,   720.574341,   0.535064,   8.199678,   8.832859,   641.315674,   102.112885,   -221.401093,   0.349311,   709.423401,   708.594421
-0.064205,   0.149061,   0.150058,   0.000000,   711.102173,   0.535064,   8.199678,   8.074817,   640.355164,   81.106033,   -211.116928,   0.340643,   705.979675,   705.808655
-0.066590,   0.148038,   0.148289,   -3.585320,   700.311951,   0.535064,   8.199678,   7.316774,   638.422607,   58.304020,   -199.332504,   0.330777,   702.111511,   702.090881
-0.004398,   0.001873,   0.002627,   -424.823944,   0.000000,   0.536039,   9.092217,   50.824341,   -34.071732,   -391.513123,   114.088882,   -0.334229,   424.443970,   -424.442444
-0.001046,   0.002087,   0.000269,   -80.962311,   365.138062,   0.536039,   9.092217,   50.082123,   129.363510,   154.812256,   -222.686951,   0.230120,   411.634705,   393.117706
-0.004679,   0.009650,   0.008400,   -60.659008,   453.200470,   0.536040,   9.092217,   49.339905,   198.202072,   194.339401,   -256.922485,   0.269025,   486.375244,   477.753998
-0.007601,   0.016340,   0.015715,   -41.510151,   505.471863,   0.536039,   9.092217,   48.597683,   224.204773,   239.756927,   -273.380432,   0.293209,   527.453430,   523.759583
-0.010161,   0.022405,   0.022397,   -29.611448,   540.186523,   0.536039,   9.092217,   47.855469,   244.924530,   265.650543,   -284.710449,   0.306329,   555.584412,   553.804749
-0.012446,   0.028077,   0.028656,   -19.037628,   567.146912,   0.536040,   9.092217,   47.113247,   265.688965,   282.420349,   -292.972870,   0.316697,   576.901367,   576.193970
-0.014471,   0.033408,   0.034530,   -8.525438,   589.476868,   0.536039,   9.092217,   46.371029,   286.398254,   294.553192,   -298.973358,   0.326129,   593.785522,   593.647827
-0.016251,   0.038393,   0.040012,   0.000000,   608.437195,   0.536039,   9.092217,   45.628811,   306.352539,   304.014832,   -303.251282,   0.334921,   607.474426,   607.467529
-0.017809,   0.043042,   0.045112,   0.000000,   624.738098,   0.536040,   9.092217,   44.886593,   325.192352,   311.656555,   -306.238892,   0.343072,   618.771606,   618.504883
-0.019172,   0.047368,   0.049846,   0.000000,   638.872314,   0.536039,   9.092217,   44.144371,   342.791870,   317.949005,   -308.251678,   0.350587,   628.223511,   627.366272
-0.020366,   0.051394,   0.054241,   0.000000,   651.233765,   0.536039,   9.092217,   43.402153,   359.154877,   323.232117,   -309.519562,   0.357516,   636.229431,   634.510010
-0.021412,   0.055145,   0.058325,   0.000000,   662.143921,   0.536040,   9.092217,   42.659935,   374.350189,   327.777435,   -310.207306,   0.363937,   643.084961,   640.279419
-0.022331,   0.058650,   0.062135,   0.000000,   671.865967,   0.536039,   9.092217,   41.917717,   388.464661,   331.787292,   -310.449249,   0.369914,   649.027100,   644.950439
-0.023142,   0.061939,   0.065701,   0.000000,   680.611267,   0.536039,   9.092217,   41.175499,   401.610718,   335.408447,   -310.341400,   0.375513,   654.233704,   648.728821
-0.023861,   0.065041,   0.069061,   0.000000,   688.550110,   0.536040,   9.092217,   40.433281,   413.882019,   338.739655,   -309.970581,   0.380773,   658.854980,   651.790649
-0.024502,   0.067985,   0.072246,   0.000000,   695.826721,   0.536039,   9.092217,   39.691059,   425.363831,   341.875793,   -309.403595,   0.385735,   663.010986,   654.274475
-0.025077,   0.070798,   0.075289,   0.000000,   702.559998,   0.536039,   9.092217,   38.948841,   436.146515,   344.881195,   -308.691528,   0.390437,   666.797913,   656.290100
-0.025597,   0.073503,   0.078214,   0.000000,   708.843140,   0.536040,   9.092217,   38.206623,   446.296875,   347.804413,   -307.878815,   0.394902,   670.293152,   657.928284
-0.026070,   0.076124,   0.081050,   0.000000,   714.759399,   0.536039,   9.092217,   37.464405,   455.885803,   350.684937,   -307.000458,   0.399156,   673.563171,   659.265015
-0.026503,   0.078679,   0.083819,   0.000000,   720.369873,   0.536039,   9.092217,   36.722187,   464.967560,   353.537933,   -306.087769,   0.403208,   676.660461,   660.365173
-0.026904,   0.081187,   0.086542,   0.000000,   725.724609,   0.536040,   9.092217,   35.979969,   473.599365,   356.361511,   -305.165161,   0.407066,   679.628296,   661.285095
-0.027277,   0.083663,   0.089235,   0.000000,   730.858276,   0.536039,   9.092217,   35.237751,   481.821228,   359.141602,   -304.255219,   0.410727,   682.499878,   662.074951
-0.027628,   0.086121,   0.091916,   0.000000,   735.798828,   0.536039,   9.092217,   34.495529,   489.681183,   361.843262,   -303.376099,   0.414183,   685.304016,   662.783936
-0.027962,   0.088576,   0.094600,   0.000000,   740.566223,   0.536039,   9.092217,   33.753311,   497.213379,   364.431641,   -302.544891,   0.417425,   688.063599,   663.457825
-0.028283,   0.091035,   0.097297,   0.000000,   745.170837,   0.536040,   9.092217,   33.011093,   504.448883,   366.859344,   -301.774567,   0.420438,   690.793945,   664.138855
-0.028596,   0.093510,   0.100018,   0.000000,   749.620178,   0.536039,   9.092217,   32.268875,   511.418396,   369.074402,   -301.075897,   0.423207,   693.507996,   664.868530
-0.028909,   0.096011,   0.102772,   0.000000,   753.917847,   0.536040,   9.092217,   31.526657,   518.147461,   371.022522,   -300.458618,   0.425716,   696.215698,   665.688171
-0.029225,   0.098545,   0.105567,   0.000000,   758.064880,   0.536040,   9.092217,   30.784437,   524.662170,   372.649567,   -299.928314,   0.427949,   698.923401,   666.634583
-0.029551,   0.101118,   0.108409,   0.000000,   762.058838,   0.536039,   9.092217,   30.042219,   530.984009,   373.901276,   -299.488617,   0.429894,   701.634460,   667.741943
-0.029893,   0.103737,   0.111303,   0.000000,   765.894592,   0.536040,   9.092217,   29.299999,   537.132141,   374.723938,   -299.140686,   0.431536,   704.349487,   669.040771
-0.030259,   0.106406,   0.114251,   0.000000,   769.564087,   0.536040,   9.092217,   28.557781,   543.126160,   375.061798,   -298.881714,   0.432863,   707.065979,   670.556946
-0.030655,   0.109128,   0.117254,   0.000000,   773.055725,   0.536039,   9.092217,   27.815563,   548.978516,   374.861450,   -298.707672,   0.433863,   709.779175,   672.312134
-0.031089,   0.111904,   0.120310,   0.000000,   776.357483,   0.536040,   9.092217,   27.073343,   554.704590,   374.074036,   -298.608948,   0.434528,   712.481506,   674.319519
-0.031567,   0.114733,   0.123417,   0.000000,   779.454041,   0.536040,   9.092217,   26.331125,   560.318298,   372.649933,   -298.572144,   0.434851,   715.162903,   676.585693
-0.032099,   0.117614,   0.126568,   0.000000,   782.326965,   0.536039,   9.092217,   25.588907,   565.831177,   370.539124,   -298.580536,   0.434827,   717.810974,   679.111450
-0.032691,   0.120544,   0.129756,   0.000000,   784.954529,   0.536040,   9.092217,   24.846687,   571.249084,   367.692200,   -298.615540,   0.434447,   720.411682,   681.893127
-0.033352,   0.123517,   0.132972,   0.000000,   787.315491,   0.536040,   9.092217,   24.104469,   576.573425,   364.072845,   -298.655365,   0.433708,   722.949707,   684.917480
-0.034089,   0.126525,   0.136202,   0.000000,   789.377014,   0.536039,   9.092217,   23.362249,   581.799622,   359.637970,   -298.670563,   0.432606,   725.400146,   688.157227
-0.034910,   0.129560,   0.139434,   0.000000,   791.126343,   0.536040,   9.092217,   22.620031,   586.938416,   354.349823,   -298.637756,   0.431136,   727.758545,   691.602783
-0.035823,   0.132611,   0.142650,   0.000000,   792.530212,   0.536039,   9.092217,   21.877813,   591.978516,   348.179138,   -298.521973,   0.429296,   729.999207,   695.213806
-0.036834,   0.135666,   0.145833,   0.000000,   793.560669,   0.536040,   9.092217,   21.135595,   596.912842,   341.099426,   -298.287659,   0.427086,   732.102234,   698.952087
-0.037951,   0.138713,   0.148965,   0.000000,   794.189514,   0.536040,   9.092217,   20.393375,   601.730103,   333.091370,   -297.897064,   0.424505,   734.047546,   702.773315
-0.039180,   0.141736,   0.152022,   0.000000,   794.388428,   0.536039,   9.092217,   19.651157,   606.416809,   324.142609,   -297.309387,   0.421555,   735.814453,   706.627136
-0.040530,   0.144719,   0.154987,   0.000000,   794.135742,   0.536040,   9.092217,   18.908939,   610.947144,   314.263458,   -296.491394,   0.418238,   737.387939,   710.465576
-0.042004,   0.147647,   0.157834,   0.000000,   793.406433,   0.536040,   9.092217,   18.166719,   615.315308,   303.455200,   -295.391205,   0.414563,   738.745728,   714.223877
-0.043606,   0.150497,   0.160539,   0.000000,   792.179810,   0.536039,   9.092217,   17.424501,   619.492310,   291.748566,   -293.969757,   0.410541,   739.869324,   717.840759
-0.045340,   0.153250,   0.163074,   0.000000,   790.440979,   0.536040,   9.092217,   16.682283,   623.454468,   279.187134,   -292.185730,   0.406188,   740.741516,   721.251343
-0.047205,   0.155882,   0.165413,   0.000000,   788.181702,   0.536040,   9.092217,   15.940063,   627.177368,   265.832520,   -290.000824,   0.401526,   741.347229,   724.391113
-0.049204,   0.158371,   0.167533,   0.000000,   785.401917,   0.536039,   9.092217,   15.197845,   630.637756,   251.764694,   -287.381134,   0.396581,   741.674377,   727.198120
-0.051337,   0.160697,   0.169409,   0.000000,   782.114990,   0.536039,   9.092217,   14.455626,   633.820557,   237.073349,   -284.300232,   0.391384,   741.721069,   729.624023
-0.053602,   0.162839,   0.171021,   0.000000,   778.321350,   0.536039,   9.092217,   13.713408,   636.693298,   221.860245,   -280.732056,   0.385970,   741.468018,   731.606384
-0.056001,   0.164779,   0.172353,   0.000000,   774.038269,   0.536040,   9.092217,   12.971189,   639.242432,   206.203308,   -276.661865,   0.380359,   740.919800,   733.118164
-0.058532,   0.166498,   0.173390,   0.000000,   769.265686,   0.536040,   9.092217,   12.228970,   641.446228,   190.143921,   -272.071747,   0.374553,   740.074280,   734.135254
-0.061193,   0.167977,   0.174121,   0.000000,   763.980957,   0.536039,   9.092217,   11.486752,   643.274231,   173.660034,   -266.937653,   0.368522,   738.928711,   734.641602
-0.063982,   0.169198,   0.174535,   0.000000,   758.120850,   0.536040,   9.092217,   10.744533,   644.682739,   156.627457,   -261.213074,   0.362186,   737.475281,   734.621826
-0.066891,   0.170133,   0.174622,   0.000000,   751.579590,   0.536039,   9.092217,   10.002314,   645.610352,   138.831345,   -254.818527,   0.355418,   735.699280,   734.045227
-0.069907,   0.170752,   0.174368,   0.000000,   744.205200,   0.536039,   9.092217,   9.260096,   645.972290,   119.971733,   -247.629303,   0.348041,   733.577393,   732.852112
-0.073011,   0.171011,   0.173754,   0.000000,   735.808472,   0.536039,   9.092217,   8.517877,   645.654907,   99.702133,   -239.472839,   0.339842,   731.080933,   730.940613
-0.076163,   0.170856,   0.172756,   -3.993967,   726.173584,   0.536039,   9.092217,   7.775658,   644.505432,   77.674179,   -230.134186,   0.330587,   728.178772,   728.154114
-0.001413,   0.000543,   0.000000,   -288.417389,   27.517597,   0.536478,   10.004342,   50.404324,   21.020351,   -281.920135,   44.838520,   -0.286910,   303.114441,   -300.284973
-0.002717,   0.006242,   0.004648,   -13.892708,   448.883331,   0.536478,   10.004342,   49.676586,   195.228897,   239.761719,   -230.314178,   0.317984,   455.988434,   455.511871
-0.006326,   0.013297,   0.012378,   -40.443192,   488.949066,   0.536478,   10.004342,   48.948853,   213.255356,   235.250504,   -264.467560,   0.292926,   510.373871,   506.749878
-0.009767,   0.020557,   0.020383,   -44.182854,   524.928467,   0.536478,   10.004342,   48.221115,   232.976242,   247.769348,   -284.459503,   0.292234,   548.356506,   544.330139
-0.012845,   0.027568,   0.028122,   -36.702911,   556.807739,   0.536476,   10.004342,   47.493382,   256.247040,   263.857788,   -296.730927,   0.300967,   576.036804,   573.397156
-0.015526,   0.034126,   0.035349,   -26.096678,   583.514832,   0.536478,   10.004342,   46.765648,   279.603088,   277.815063,   -304.804443,   0.311238,   596.991089,   595.705750
-0.017836,   0.040179,   0.042005,   -15.000786,   605.728333,   0.536478,   10.004342,   46.037910,   301.627350,   289.100220,   -310.301361,   0.321030,   613.366333,   612.953430
-0.019821,   0.045737,   0.048100,   -4.145794,   624.403198,   0.536478,   10.004342,   45.310177,   321.944000,   298.313385,   -314.052307,   0.330019,   626.486389,   626.455505
-0.021522,   0.050828,   0.053667,   0.000000,   640.278198,   0.536478,   10.004342,   44.582439,   340.575348,   305.926727,   -316.553467,   0.338205,   637.189087,   637.120667
-0.022982,   0.055486,   0.058746,   0.000000,   653.904480,   0.536478,   10.004342,   43.854706,   357.641235,   312.281616,   -318.135651,   0.345654,   646.044250,   645.597168
-0.024237,   0.059757,   0.063389,   0.000000,   665.725220,   0.536478,   10.004342,   43.126968,   373.305237,   317.659912,   -319.031769,   0.352459,   653.470947,   652.372925
-0.025318,   0.063684,   0.067647,   0.000000,   676.092529,   0.536476,   10.004342,   42.399235,   387.725983,   322.307098,   -319.405518,   0.358724,   659.777344,   657.808838
-0.026253,   0.067303,   0.071562,   0.000000,   685.268250,   0.536478,   10.004342,   41.671501,   401.026917,   326.408630,   -319.378693,   0.364526,   665.187805,   662.170715
-0.027063,   0.070659,   0.075185,   0.000000,   693.484436,   0.536478,   10.004342,   40.943764,   413.355957,   330.121368,   -319.042847,   0.369951,   669.888550,   665.672119
-0.027771,   0.073789,   0.078558,   0.000000,   700.911926,   0.536478,   10.004342,   40.216030,   424.825958,   333.540924,   -318.474426,   0.375045,   674.023499,   668.480835
-0.028390,   0.076724,   0.081718,   0.000000,   707.690430,   0.536478,   10.004342,   39.488293,   435.527893,   336.760162,   -317.731537,   0.379855,   677.704590,   670.725647
-0.028936,   0.079499,   0.084702,   0.000000,   713.941345,   0.536478,   10.004342,   38.760559,   445.559540,   339.844666,   -316.860748,   0.384421,   681.027832,   672.514709
-0.029422,   0.082142,   0.087547,   0.000000,   719.763855,   0.536478,   10.004342,   38.032822,   454.992584,   342.854034,   -315.903320,   0.388773,   684.072937,   673.937683
-0.029859,   0.084683,   0.090281,   0.000000,   725.242432,   0.536476,   10.004342,   37.305088,   463.899506,   345.833984,   -314.889984,   0.392938,   686.905212,   675.066101
-0.030254,   0.087144,   0.092934,   0.000000,   730.443237,   0.536478,   10.004342,   36.577354,   472.335632,   348.815552,   -313.848724,   0.396934,   689.578308,   675.960693
-0.030615,   0.089549,   0.095532,   0.000000,   735.420593,   0.536478,   10.004342,   35.849617,   480.357574,   351.808990,   -312.802094,   0.400771,   692.137512,   676.674438
-0.030947,   0.091915,   0.098094,   0.000000,   740.213623,   0.536478,   10.004342,   35.121883,   488.006042,   354.814667,   -311.769989,   0.404453,   694.617310,   677.252136
-0.031257,   0.094260,   0.100641,   0.000000,   744.851257,   0.536478,   10.004342,   34.394146,   495.323395,   357.808777,   -310.769836,   0.407974,   697.047363,   677.737427
-0.031550,   0.096601,   0.103192,   0.000000,   749.357727,   0.536478,   10.004342,   33.666412,   502.345734,   360.764618,   -309.817932,   0.411326,   699.453491,   678.173279
-0.031832,   0.098952,   0.105763,   0.000000,   753.747803,   0.536476,   10.004342,   32.938675,   509.103699,   363.642456,   -308.928772,   0.414494,   701.855835,   678.600891
-0.032107,   0.101328,   0.108369,   0.000000,   758.032715,   0.536479,   10.004342,   32.210941,   515.626221,   366.397766,   -308.115021,   0.417464,   704.271240,   679.060669
-0.032381,   0.103742,   0.111024,   0.000000,   762.219482,   0.536477,   10.004342,   31.483206,   521.938538,   368.981720,   -307.388275,   0.420217,   706.713684,   679.593506
-0.032660,   0.106205,   0.113740,   0.000000,   766.310608,   0.536479,   10.004342,   30.755470,   528.065186,   371.339905,   -306.757202,   0.422737,   709.192810,   680.237793
-0.032951,   0.108728,   0.116528,   0.000000,   770.304382,   0.536478,   10.004342,   30.027735,   534.024902,   373.415009,   -306.229980,   0.425001,   711.715393,   681.032104
-0.033260,   0.111319,   0.119396,   0.000000,   774.197021,   0.536477,   10.004342,   29.299999,   539.836304,   375.149536,   -305.812103,   0.426993,   714.285767,   682.012390
-0.033595,   0.113988,   0.122352,   0.000000,   777.983765,   0.536478,   10.004342,   28.572264,   545.518250,   376.489624,   -305.505371,   0.428698,   716.905334,   683.208984
-0.033962,   0.116742,   0.125400,   0.000000,   781.653870,   0.536478,   10.004342,   27.844528,   551.087769,   377.371643,   -305.309296,   0.430098,   719.571777,   684.651123
-0.034371,   0.119584,   0.128545,   0.000000,   785.196167,   0.536478,   10.004342,   27.116795,   556.556763,   377.742340,   -305.221252,   0.431180,   722.280884,   686.361633
-0.034830,   0.122519,   0.131786,   0.000000,   788.587646,   0.536477,   10.004342,   26.389059,   561.931946,   377.539917,   -305.231598,   0.431930,   725.018005,   688.350952
-0.035348,   0.125549,   0.135123,   0.000000,   791.823669,   0.536478,   10.004342,   25.661324,   567.236389,   376.704956,   -305.336487,   0.432334,   727.787109,   690.647095
-0.035934,   0.128675,   0.138553,   0.000000,   794.877869,   0.536478,   10.004342,   24.933588,   572.473694,   375.183441,   -305.518921,   0.432383,   730.569275,   693.246704
-0.036599,   0.131893,   0.142067,   0.000000,   797.727112,   0.536477,   10.004342,   24.205853,   577.647827,   372.923187,   -305.762238,   0.432068,   733.349915,   696.147217
-0.037350,   0.135198,   0.145657,   0.000000,   800.345276,   0.536478,   10.004342,   23.478117,   582.760071,   369.873596,   -306.046204,   0.431381,   736.112122,   699.339417
-0.038199,   0.138585,   0.149311,   0.000000,   802.703003,   0.536478,   10.004342,   22.750381,   587.809387,   365.984100,   -306.346405,   0.430313,   738.836731,   702.805969
-0.039154,   0.142044,   0.153013,   0.000000,   804.769165,   0.536477,   10.004342,   22.022648,   592.790405,   361.208862,   -306.635559,   0.428858,   741.503357,   706.522583
-0.040225,   0.145563,   0.156746,   0.000000,   806.511169,   0.536478,   10.004342,   21.294912,   597.695801,   355.506531,   -306.882202,   0.427010,   744.090393,   710.457092
-0.041422,   0.149129,   0.160489,   0.000000,   807.894104,   0.536478,   10.004342,   20.567177,   602.513794,   348.838593,   -307.052063,   0.424763,   746.574890,   714.570679
-0.042752,   0.152728,   0.164223,   0.000000,   808.885254,   0.536478,   10.004342,   19.839441,   607.230225,   341.175537,   -307.109161,   0.422112,   748.936096,   718.819946
-0.044227,   0.156341,   0.167921,   0.000000,   809.450195,   0.536477,   10.004342,   19.111706,   611.818237,   332.500488,   -307.018738,   0.419053,   751.152283,   723.155334
-0.045854,   0.159950,   0.171557,   0.000000,   809.549744,   0.536478,   10.004342,   18.383970,   616.269043,   322.783997,   -306.728607,   0.415587,   753.194885,   727.511841
-0.047638,   0.163531,   0.175101,   0.000000,   809.153687,   0.536478,   10.004342,   17.656237,   620.552307,   312.031647,   -306.199097,   0.411713,   755.043457,   731.827454
-0.049586,   0.167060,   0.178523,   0.000000,   808.232239,   0.536477,   10.004342,   16.928501,   624.641113,   300.256195,   -305.384827,   0.407439,   756.675354,   736.032288
-0.051701,   0.170512,   0.181791,   0.000000,   806.761169,   0.536478,   10.004342,   16.200766,   628.506531,   287.489441,   -304.240997,   0.402776,   758.069519,   740.052124
-0.053988,   0.173859,   0.184872,   0.000000,   804.724243,   0.536477,   10.004342,   15.473030,   632.119873,   273.785889,   -302.724762,   0.397742,   759.207214,   743.811218
-0.056447,   0.177072,   0.187735,   0.000000,   802.115906,   0.536478,   10.004342,   14.745295,   635.454468,   259.224915,   -300.797272,   0.392365,   760.073242,   747.234802
-0.059079,   0.180127,   0.190352,   0.000000,   798.942139,   0.536477,   10.004342,   14.017559,   638.487061,   243.908508,   -298.425842,   0.386682,   760.656677,   750.253540
-0.061887,   0.182999,   0.192698,   0.000000,   795.219055,   0.536478,   10.004342,   13.289824,   641.197266,   227.953644,   -295.586273,   0.380730,   760.951599,   752.807800
-0.064871,   0.185664,   0.194750,   0.000000,   790.967346,   0.536478,   10.004342,   12.562089,   643.568359,   211.475632,   -292.260986,   0.374549,   760.955078,   754.849548
-0.068032,   0.188101,   0.196493,   0.000000,   786.202087,   0.536478,   10.004342,   11.834353,   645.579407,   194.561951,   -288.440643,   0.368159,   760.668091,   756.347412
-0.071371,   0.190291,   0.197912,   0.000000,   780.915894,   0.536478,   10.004342,   11.106618,   647.205750,   177.229752,   -284.110840,   0.361551,   760.091064,   757.280396
-0.074887,   0.192210,   0.198998,   0.000000,   775.062927,   0.536478,   10.004342,   10.378882,   648.411133,   159.395355,   -279.240784,   0.354665,   759.220947,   757.629822
-0.078577,   0.193834,   0.199741,   0.000000,   768.541077,   0.536478,   10.004342,   9.651148,   649.134888,   140.847412,   -273.770935,   0.347376,   758.047974,   757.365295
-0.082433,   0.195127,   0.200127,   0.000000,   761.187561,   0.536478,   10.004342,   8.923412,   649.289185,   121.255424,   -267.595551,   0.339498,   756.552490,   756.422241
-0.086435,   0.196040,   0.200137,   -3.832885,   752.783264,   0.536478,   10.004342,   8.195677,   648.743713,   100.206657,   -260.564331,   0.330791,   754.706970,   754.685059
-0.000541,   0.000584,   0.000000,   -84.455170,   97.339638,   0.536501,   10.934303,   50.023975,   77.535904,   -64.651436,   -56.639454,   0.027256,   157.570663,   78.231171
-0.004706,   0.009639,   0.008392,   -58.590969,   454.709381,   0.536499,   10.934303,   49.309357,   193.925629,   202.192780,   -256.616882,   0.271319,   486.657349,   478.625763
-0.008757,   0.017945,   0.017538,   -56.507660,   506.692078,   0.536501,   10.934303,   48.594734,   214.487427,   235.696991,   -281.400116,   0.279351,   537.179626,   530.431091
-0.012589,   0.026142,   0.026588,   -48.937889,   545.749512,   0.536501,   10.934303,   47.880116,   243.613617,   253.198013,   -297.305084,   0.289623,   571.791321,   567.050903
-0.015997,   0.033933,   0.035176,   -38.594181,   577.061523,   0.536499,   10.934303,   47.165497,   271.511505,   266.955841,   -307.819427,   0.300504,   597.294495,   594.479431
-0.018939,   0.041163,   0.043124,   -27.604445,   602.549561,   0.536499,   10.934303,   46.450878,   296.704071,   278.241058,   -314.941742,   0.310706,   616.815247,   615.423157
-0.021453,   0.047776,   0.050372,   -16.784092,   623.581238,   0.536501,   10.934303,   45.736256,   319.155609,   287.641541,   -319.794708,   0.319970,   632.140442,   631.638855
-0.023589,   0.053788,   0.056943,   -6.407679,   641.201233,   0.536501,   10.934303,   45.021637,   339.187103,   295.606445,   -323.070435,   0.328349,   644.428955,   644.357239
-0.025405,   0.059242,   0.062885,   0.000000,   656.170593,   0.536501,   10.934303,   44.307014,   357.168610,   302.464172,   -325.205963,   0.335975,   654.446350,   654.425720
-0.026948,   0.064190,   0.068260,   0.000000,   669.031372,   0.536499,   10.934303,   43.592396,   373.409698,   308.411987,   -326.507111,   0.342937,   662.728760,   662.451050
-0.028262,   0.068684,   0.073128,   0.000000,   680.185852,   0.536501,   10.934303,   42.877777,   388.173248,   313.598175,   -327.182220,   0.349320,   669.653992,   668.870544
-0.029383,   0.072780,   0.077551,   0.000000,   689.955017,   0.536499,   10.934303,   42.163158,   401.675323,   318.156464,   -327.386597,   0.355203,   675.512329,   674.023438
-0.030341,   0.076522,   0.081585,   0.000000,   698.585999,   0.536501,   10.934303,   41.448536,   414.074402,   322.216095,   -327.233246,   0.360652,   680.517578,   678.161499
-0.031161,   0.079956,   0.085277,   0.000000,   706.283936,   0.536499,   10.934303,   40.733917,   425.519836,   325.894958,   -326.802002,   0.365740,   684.834656,   681.476868
-0.031867,   0.083128,   0.088681,   0.000000,   713.218689,   0.536501,   10.934303,   40.019299,   436.139526,   329.282532,   -326.160553,   0.370519,   688.602722,   684.129456
-0.032477,   0.086074,   0.091839,   0.000000,   719.530029,   0.536501,   10.934303,   39.304676,   446.027771,   332.473999,   -325.362396,   0.375038,   691.931458,   686.243408
-0.033009,   0.088833,   0.094793,   0.000000,   725.335205,   0.536499,   10.934303,   38.590057,   455.283142,   335.534271,   -324.448059,   0.379337,   694.911926,   687.919250
-0.033475,   0.091438,   0.097583,   0.000000,   730.730896,   0.536501,   10.934303,   37.875439,   463.976440,   338.524414,   -323.454529,   0.383447,   697.620300,   689.241089
-0.033886,   0.093919,   0.100241,   0.000000,   735.799072,   0.536499,   10.934303,   37.160820,   472.178802,   341.491425,   -322.408905,   0.387396,   700.119080,   690.275085
-0.034253,   0.096301,   0.102797,   0.000000,   740.605103,   0.536501,   10.934303,   36.446198,   479.942444,   344.474121,   -321.335571,   0.391205,   702.459290,   691.076416
-0.034584,   0.098612,   0.105281,   0.000000,   745.204346,   0.536499,   10.934303,   35.731579,   487.321594,   347.491821,   -320.254913,   0.394887,   704.685913,   691.693604
-0.034885,   0.100872,   0.107717,   0.000000,   749.641296,   0.536501,   10.934303,   35.016960,   494.357025,   350.558990,   -319.185577,   0.398450,   706.836243,   692.168884
-0.035162,   0.103102,   0.110129,   0.000000,   753.950867,   0.536501,   10.934303,   34.302338,   501.088898,   353.670319,   -318.144196,   0.401894,   708.942688,   692.542175
-0.035422,   0.105324,   0.112540,   0.000000,   758.163025,   0.536501,   10.934303,   33.587719,   507.554169,   356.815521,   -317.145477,   0.405217,   711.033813,   692.850708
-0.035669,   0.107554,   0.114970,   0.000000,   762.297180,   0.536498,   10.934303,   32.873100,   513.781982,   359.968231,   -316.203796,   0.408409,   713.132812,   693.131287
-0.035909,   0.109810,   0.117437,   0.000000,   766.366943,   0.536502,   10.934303,   32.158482,   519.798706,   363.092468,   -315.332672,   0.411455,   715.259338,   693.421265
-0.036149,   0.112108,   0.119960,   0.000000,   770.382935,   0.536500,   10.934303,   31.443859,   525.628540,   366.146149,   -314.545258,   0.414337,   717.431274,   693.759277
-0.036393,   0.114464,   0.122556,   0.000000,   774.353088,   0.536500,   10.934303,   30.729240,   531.296753,   369.084564,   -313.851990,   0.417038,   719.663452,   694.182129
-0.036648,   0.116893,   0.125240,   0.000000,   778.279846,   0.536501,   10.934303,   30.014620,   536.824158,   371.855316,   -313.262665,   0.419539,   721.966858,   694.727234
-0.036922,   0.119407,   0.128026,   0.000000,   782.161072,   0.536499,   10.934303,   29.299999,   542.229614,   374.397858,   -312.786255,   0.421816,   724.349976,   695.432983
-0.037221,   0.122021,   0.130926,   0.000000,   785.987610,   0.536501,   10.934303,   28.585381,   547.522400,   376.658234,   -312.427307,   0.423851,   726.812134,   696.327576
-0.037555,   0.124745,   0.133952,   0.000000,   789.764282,   0.536500,   10.934303,   27.870760,   552.731995,   378.569031,   -312.196350,   0.425619,   729.369324,   697.460876
-0.037932,   0.127589,   0.137113,   0.000000,   793.476990,   0.536501,   10.934303,   27.156141,   557.867920,   380.071777,   -312.092987,   0.427103,   732.015991,   698.856323
-0.038361,   0.130564,   0.140415,   0.000000,   797.113647,   0.536499,   10.934303,   26.441521,   562.942200,   381.104828,   -312.117584,   0.428285,   734.749634,   700.541443
-0.038853,   0.133675,   0.143863,   0.000000,   800.657654,   0.536501,   10.934303,   25.726900,   567.966919,   381.599854,   -312.267303,   0.429145,   737.564514,   702.539917
-0.039419,   0.136928,   0.147460,   0.000000,   804.090210,   0.536500,   10.934303,   25.012281,   572.950623,   381.492279,   -312.536591,   0.429667,   740.452515,   704.869629
-0.040069,   0.140326,   0.151205,   0.000000,   807.389282,   0.536500,   10.934303,   24.297661,   577.899231,   380.718903,   -312.916321,   0.429834,   743.402405,   707.541443
-0.040817,   0.143869,   0.155093,   0.000000,   810.529053,   0.536500,   10.934303,   23.583042,   582.817200,   379.216309,   -313.392792,   0.429633,   746.399536,   710.558228
-0.041672,   0.147555,   0.159116,   0.000000,   813.480774,   0.536501,   10.934303,   22.868422,   587.705322,   376.924377,   -313.948608,   0.429052,   749.426636,   713.914246
-0.042649,   0.151378,   0.163264,   0.000000,   816.211365,   0.536499,   10.934303,   22.153801,   592.559631,   373.782471,   -314.563202,   0.428079,   752.463867,   717.597229
-0.043757,   0.155330,   0.167521,   0.000000,   818.685364,   0.536501,   10.934303,   21.439182,   597.374329,   369.733704,   -315.210999,   0.426703,   755.488953,   721.584717
-0.045010,   0.159398,   0.171868,   0.000000,   820.864258,   0.536500,   10.934303,   20.724562,   602.137878,   364.723358,   -315.863953,   0.424913,   758.478394,   725.847900
-0.046420,   0.163569,   0.176285,   0.000000,   822.708923,   0.536501,   10.934303,   20.009941,   606.834412,   358.703583,   -316.491608,   0.422698,   761.408813,   730.351074
-0.047999,   0.167826,   0.180747,   0.000000,   824.176208,   0.536499,   10.934303,   19.295322,   611.441589,   351.628784,   -317.060272,   0.420048,   764.254395,   735.049805
-0.049757,   0.172148,   0.185223,   0.000000,   825.218872,   0.536501,   10.934303,   18.580702,   615.947510,   343.446442,   -317.523468,   0.416955,   766.984558,   739.885864
-0.051706,   0.176512,   0.189684,   0.000000,   825.794067,   0.536500,   10.934303,   17.866083,   620.320251,   334.130981,   -317.842529,   0.413411,   769.573975,   744.799927
-0.053854,   0.180892,   0.194093,   0.000000,   825.857361,   0.536500,   10.934303,   17.151463,   624.530334,   323.659729,   -317.971649,   0.409411,   771.995056,   749.722168
-0.056211,   0.185257,   0.198414,   0.000000,   825.366577,   0.536500,   10.934303,   16.436844,   628.544373,   312.024719,   -317.863312,   0.404953,   774.220459,   754.575500
-0.058782,   0.189576,   0.202606,   0.000000,   824.284607,   0.536500,   10.934303,   15.722223,   632.327209,   299.238098,   -317.468994,   0.400041,   776.224487,   759.276611
-0.061572,   0.193813,   0.206629,   0.000000,   822.582703,   0.536501,   10.934303,   15.007604,   635.843384,   285.338196,   -316.740723,   0.394688,   777.983521,   763.736938
-0.064585,   0.197935,   0.210445,   0.000000,   820.244995,   0.536500,   10.934303,   14.292984,   639.059753,   270.394562,   -315.633911,   0.388916,   779.478455,   767.867371
-0.067825,   0.201908,   0.214016,   0.000000,   817.271240,   0.536501,   10.934303,   13.578364,   641.947327,   254.511749,   -314.110168,   0.382761,   780.695251,   771.582092
-0.071295,   0.205702,   0.217311,   0.000000,   813.677429,   0.536500,   10.934303,   12.863744,   644.484070,   237.823669,   -312.138824,   0.376271,   781.625366,   774.803040
-0.074998,   0.209288,   0.220302,   0.000000,   809.493652,   0.536500,   10.934303,   12.149125,   646.651184,   220.486130,   -309.702209,   0.369498,   782.266357,   777.466492
-0.078939,   0.212640,   0.222967,   0.000000,   804.754639,   0.536500,   10.934303,   11.434505,   648.433167,   202.646683,   -306.793762,   0.362491,   782.620972,   779.527344
-0.083121,   0.215736,   0.225293,   0.000000,   799.479797,   0.536500,   10.934303,   10.719885,   649.814087,   184.393127,   -303.409607,   0.355272,   782.694092,   780.957947
-0.087548,   0.218552,   0.227269,   0.000000,   793.652100,   0.536500,   10.934303,   10.005265,   650.760254,   165.711823,   -299.545532,   0.347809,   782.491699,   781.742493
-0.092222,   0.221064,   0.228890,   0.000000,   787.188660,   0.536500,   10.934303,   9.290645,   651.216980,   146.427902,   -295.169983,   0.339996,   782.012939,   781.855652
-0.097143,   0.223236,   0.230149,   -2.641521,   779.925842,   0.536500,   10.934303,   8.576026,   651.084045,   126.200294,   -290.219208,   0.331641,   781.250000,   781.239868
-0.000948,   0.001613,   0.000000,   -107.183037,   306.564117,   0.536220,   11.880316,   49.684025,   68.121056,   131.260025,   -204.450592,   0.178693,   371.925018,   334.439758
-0.006654,   0.012759,   0.011898,   -92.880844,   457.670105,   0.536219,   11.880316,   48.981129,   179.761169,   185.028091,   -275.262878,   0.238197,   510.487579,   490.934387
-0.011578,   0.023155,   0.023335,   -67.977333,   523.901489,   0.536220,   11.880316,   48.278233,   228.113113,   227.811020,   -295.939362,   0.270906,   560.987610,   551.607483
-0.015797,   0.032606,   0.033750,   -52.108353,   565.958130,   0.536220,   11.880316,   47.575333,   263.841705,   250.008041,   -308.955811,   0.288487,   593.729736,   588.552185
-0.019418,   0.041198,   0.043197,   -38.866390,   597.036560,   0.536220,   11.880316,   46.872437,   292.792328,   265.377869,   -317.655884,   0.301361,   617.388000,   614.626526
-0.022520,   0.048986,   0.051732,   -26.896389,   621.549561,   0.536219,   11.880316,   46.169540,   317.331207,   277.321991,   -323.605255,   0.311945,   635.424866,   634.142212
-0.025161,   0.056027,   0.059426,   -16.028570,   641.470398,   0.536220,   11.880316,   45.466640,   338.632965,   286.808838,   -327.726685,   0.320921,   649.632935,   649.187866
-0.027409,   0.062385,   0.066350,   -6.084267,   658.005615,   0.536220,   11.880316,   44.763744,   357.426331,   294.495026,   -330.550690,   0.328721,   661.068787,   661.005737
-0.029318,   0.068127,   0.072585,   0.000000,   671.991943,   0.536220,   11.880316,   44.060844,   374.208618,   300.914459,   -332.416412,   0.335666,   670.431824,   670.415405
-0.030941,   0.073314,   0.078200,   0.000000,   683.994202,   0.536219,   11.880316,   43.357948,   389.316956,   306.429993,   -333.555969,   0.341961,   678.194214,   677.965027
-0.032319,   0.078010,   0.083270,   0.000000,   694.421936,   0.536220,   11.880316,   42.655052,   403.022400,   311.268494,   -334.141785,   0.347737,   684.703674,   684.054626
-0.033491,   0.082268,   0.087855,   0.000000,   703.564453,   0.536219,   11.880316,   41.952156,   415.529114,   315.562805,   -334.302551,   0.353076,   690.212585,   688.975830
-0.034489,   0.086141,   0.092016,   0.000000,   711.649109,   0.536220,   11.880316,   41.249256,   426.998047,   319.422760,   -334.137146,   0.358039,   694.915955,   692.954651
-0.035338,   0.089676,   0.095804,   0.000000,   718.858704,   0.536219,   11.880316,   40.546360,   437.562592,   322.943695,   -333.720459,   0.362682,   698.966125,   696.166260
-0.036065,   0.092919,   0.099274,   0.000000,   725.348328,   0.536220,   11.880316,   39.843464,   447.349609,   326.199036,   -333.111084,   0.367051,   702.489502,   698.754517
-0.036688,   0.095911,   0.102472,   0.000000,   731.246460,   0.536220,   11.880316,   39.140564,   456.449493,   329.271545,   -332.357452,   0.371190,   705.588074,   700.833496
-0.037225,   0.098689,   0.105439,   0.000000,   736.657410,   0.536219,   11.880316,   38.437668,   464.951202,   332.217682,   -331.494781,   0.375133,   708.342834,   702.492432
-0.037691,   0.101289,   0.108214,   0.000000,   741.669312,   0.536220,   11.880316,   37.734772,   472.921783,   335.090576,   -330.555634,   0.378909,   710.823608,   703.807617
-0.038098,   0.103740,   0.110831,   0.000000,   746.358948,   0.536220,   11.880316,   37.031872,   480.427765,   337.934753,   -329.564484,   0.382543,   713.088867,   704.840637
-0.038455,   0.106072,   0.113324,   0.000000,   750.792603,   0.536220,   11.880316,   36.328976,   487.519501,   340.794800,   -328.544342,   0.386058,   715.189758,   705.644531
-0.038773,   0.108314,   0.115723,   0.000000,   755.027832,   0.536219,   11.880316,   35.626076,   494.249512,   343.701721,   -327.513245,   0.389471,   717.170715,   706.264282
-0.039057,   0.110488,   0.118056,   0.000000,   759.111267,   0.536220,   11.880316,   34.923180,   500.656921,   346.681091,   -326.487915,   0.392794,   719.068787,   706.737793
-0.039315,   0.112616,   0.120348,   0.000000,   763.080017,   0.536220,   11.880316,   34.220284,   506.777588,   349.741638,   -325.483673,   0.396033,   720.916321,   707.100342
-0.039553,   0.114722,   0.122624,   0.000000,   766.967712,   0.536220,   11.880316,   33.517384,   512.647522,   352.885498,   -324.514191,   0.399189,   722.743530,   707.385315
-0.039777,   0.116827,   0.124908,   0.000000,   770.801819,   0.536219,   11.880316,   32.814487,   518.297058,   356.108643,   -323.592316,   0.402261,   724.576477,   707.624268
-0.039992,   0.118949,   0.127222,   0.000000,   774.602112,   0.536220,   11.880316,   32.111591,   523.755127,   359.391235,   -322.729584,   0.405241,   726.437683,   707.847778
-0.040203,   0.121109,   0.129588,   0.000000,   778.382324,   0.536220,   11.880316,   31.408693,   529.046204,   362.700958,   -321.938477,   0.408115,   728.347046,   708.089294
-0.040417,   0.123325,   0.132026,   0.000000,   782.155273,   0.536220,   11.880316,   30.705795,   534.192078,   366.005859,   -321.231567,   0.410867,   730.324036,   708.383301
-0.040640,   0.125616,   0.134556,   0.000000,   785.920044,   0.536220,   11.880316,   30.002897,   539.207764,   369.259766,   -320.616913,   0.413479,   732.376709,   708.757141
-0.040880,   0.128001,   0.137199,   0.000000,   789.694336,   0.536220,   11.880316,   29.299999,   544.126892,   372.411011,   -320.111237,   0.415928,   734.533020,   709.262329
-0.041143,   0.130495,   0.139972,   0.000000,   793.473999,   0.536220,   11.880316,   28.597103,   548.962036,   375.410187,   -319.721161,   0.418194,   736.797852,   709.927307
-0.041438,   0.133117,   0.142892,   0.000000,   797.256775,   0.536220,   11.880316,   27.894205,   553.727478,   378.198944,   -319.457123,   0.420252,   739.180603,   710.790161
-0.041776,   0.135881,   0.145976,   0.000000,   801.036804,   0.536220,   11.880316,   27.191309,   558.438599,   380.712433,   -319.327301,   0.422078,   741.687866,   711.888123
-0.042165,   0.138804,   0.149236,   0.000000,   804.806213,   0.536220,   11.880316,   26.488411,   563.109314,   382.886505,   -319.337891,   0.423649,   744.323364,   713.255798
-0.042617,   0.141897,   0.152686,   0.000000,   808.554382,   0.536220,   11.880316,   25.785513,   567.752441,   384.655792,   -319.492706,   0.424942,   747.087952,   714.924744
-0.043145,   0.145175,   0.156336,   0.000000,   812.265747,   0.536220,   11.880316,   25.082615,   572.379333,   385.948395,   -319.793304,   0.425935,   749.979065,   716.923340
-0.043760,   0.148645,   0.160192,   0.000000,   815.921387,   0.536220,   11.880316,   24.379717,   576.999023,   386.691162,   -320.238495,   0.426605,   752.991089,   719.276001
-0.044477,   0.152316,   0.164259,   0.000000,   819.499512,   0.536220,   11.880316,   23.676821,   581.618530,   386.814636,   -320.823181,   0.426934,   756.114868,   721.998779
-0.045310,   0.156193,   0.168537,   0.000000,   822.973816,   0.536220,   11.880316,   22.973923,   586.242371,   386.246368,   -321.538666,   0.426902,   759.337708,   725.101562
-0.046275,   0.160277,   0.173021,   0.000000,   826.312927,   0.536220,   11.880316,   22.271025,   590.870239,   384.913391,   -322.372894,   0.426492,   762.643372,   728.586853
-0.047385,   0.164565,   0.177705,   0.000000,   829.482300,   0.536220,   11.880316,   21.568127,   595.500122,   382.745148,   -323.308716,   0.425687,   766.012451,   732.447021
-0.048656,   0.169052,   0.182575,   0.000000,   832.443176,   0.536220,   11.880316,   20.865231,   600.123840,   379.671570,   -324.326385,   0.424472,   769.423157,   736.667786
-0.050106,   0.173727,   0.187614,   0.000000,   835.152161,   0.536220,   11.880316,   20.162333,   604.727173,   375.626221,   -325.401703,   0.422830,   772.850220,   741.224304
-0.051747,   0.178576,   0.192797,   0.000000,   837.560974,   0.536219,   11.880316,   19.459436,   609.292297,   370.540527,   -326.505951,   0.420746,   776.265625,   746.082397
-0.053595,   0.183581,   0.198098,   0.000000,   839.618225,   0.536220,   11.880316,   18.756538,   613.806641,   364.342743,   -327.601440,   0.418206,   779.638611,   751.196350
-0.055667,   0.188720,   0.203487,   0.000000,   841.271484,   0.536220,   11.880316,   18.053640,   618.239258,   356.976410,   -328.653931,   0.415194,   782.940186,   756.516052
-0.057975,   0.193966,   0.208926,   0.000000,   842.464417,   0.536220,   11.880316,   17.350744,   622.559998,   348.384613,   -329.621521,   0.411694,   786.138367,   761.979126
-0.060534,   0.199288,   0.214374,   0.000000,   843.139038,   0.536220,   11.880316,   16.647846,   626.732849,   338.517761,   -330.459045,   0.407691,   789.200684,   767.513977
-0.063355,   0.204650,   0.219787,   0.000000,   843.237854,   0.536220,   11.880316,   15.944948,   630.717773,   327.338898,   -331.117615,   0.403174,   792.094543,   773.039185
-0.066449,   0.210013,   0.225115,   0.000000,   842.706177,   0.536220,   11.880316,   15.242051,   634.470764,   314.829498,   -331.545807,   0.398135,   794.788330,   778.462952
-0.069823,   0.215334,   0.230307,   0.000000,   841.497070,   0.536220,   11.880316,   14.539153,   637.945862,   300.998230,   -331.691406,   0.392575,   797.252686,   783.686218
-0.073485,   0.220569,   0.235314,   0.000000,   839.576904,   0.536220,   11.880316,   13.836256,   641.097900,   285.891541,   -331.504059,   0.386505,   799.462830,   788.603943
-0.077442,   0.225677,   0.240089,   0.000000,   836.930359,   0.536220,   11.880316,   13.133358,   643.888000,   269.598022,   -330.936798,   0.379954,   801.399658,   793.110413
-0.081701,   0.230616,   0.244590,   0.000000,   833.565674,   0.536220,   11.880316,   12.430461,   646.281921,   252.259857,   -329.953247,   0.372970,   803.051575,   797.105286
-0.086268,   0.235350,   0.248780,   0.000000,   829.516663,   0.536220,   11.880316,   11.727564,   648.254395,   234.067429,   -328.530792,   0.365616,   804.415039,   800.501648
-0.091153,   0.239846,   0.252631,   0.000000,   824.834106,   0.536220,   11.880316,   11.024666,   649.791443,   215.229568,   -326.660095,   0.357968,   805.492920,   803.232727
-0.096363,   0.244075,   0.256124,   0.000000,   819.577209,   0.536220,   11.880316,   10.321769,   650.877197,   195.948944,   -324.354889,   0.350088,   806.298157,   805.261169
-0.101909,   0.248015,   0.259254,   0.000000,   813.775757,   0.536220,   11.880316,   9.618871,   651.491760,   176.325668,   -321.633270,   0.341997,   806.846558,   806.571594
-0.107802,   0.251644,   0.262021,   0.000000,   807.396973,   0.536220,   11.880316,   8.915974,   651.578857,   156.298233,   -318.516815,   0.333631,   807.156982,   807.156677
-0.004735,   0.009393,   0.008160,   -38.952732,   464.935822,   0.535738,   12.840565,   49.385132,   133.019440,   292.963654,   -238.915009,   0.292419,   485.585388,   482.051483
-0.009858,   0.019938,   0.019804,   -47.531128,   522.288940,   0.535738,   12.840565,   48.692539,   206.835922,   267.921875,   -283.268158,   0.288991,   547.603760,   542.933655
-0.014799,   0.030450,   0.031395,   -47.758194,   562.035461,   0.535738,   12.840565,   47.999950,   252.342392,   261.934875,   -304.859100,   0.291852,   587.372559,   582.980286
-0.019100,   0.040253,   0.042176,   -40.547329,   594.075134,   0.535738,   12.840565,   47.307358,   286.893463,   266.634338,   -317.149506,   0.299844,   615.351562,   612.335083
-0.022814,   0.049195,   0.051980,   -31.758307,   619.804077,   0.535738,   12.840565,   46.614769,   314.590668,   273.455109,   -325.131287,   0.308065,   636.277954,   634.491028
-0.026011,   0.057304,   0.060841,   -22.431540,   641.076538,   0.535738,   12.840565,   45.922176,   337.735687,   280.909302,   -330.535065,   0.315999,   652.581482,   651.713196
-0.028753,   0.064636,   0.068827,   -13.129623,   658.964172,   0.535738,   12.840565,   45.229588,   357.620850,   288.213715,   -334.250183,   0.323422,   665.626099,   665.334656
-0.031099,   0.071257,   0.076017,   -4.210834,   674.141602,   0.535738,   12.840565,   44.536995,   375.059326,   294.871429,   -336.798126,   0.330215,   676.256836,   676.227295
-0.033103,   0.077234,   0.082488,   0.000000,   687.120972,   0.535738,   12.840565,   43.844406,   390.568756,   300.738312,   -338.500580,   0.336384,   685.037537,   685.008789
-0.034812,   0.082634,   0.088318,   0.000000,   698.327026,   0.535738,   12.840565,   43.151814,   404.512543,   305.879333,   -339.568573,   0.342008,   692.373413,   692.136902
-0.036270,   0.087517,   0.093577,   0.000000,   708.087769,   0.535739,   12.840565,   42.459225,   417.148529,   310.409119,   -340.147491,   0.347172,   698.556335,   697.945496
-0.037513,   0.091943,   0.098332,   0.000000,   716.665222,   0.535737,   12.840565,   41.766632,   428.676575,   314.438751,   -340.347870,   0.351947,   703.813049,   702.693481
-0.038575,   0.095964,   0.102642,   0.000000,   724.266907,   0.535738,   12.840565,   41.074043,   439.251740,   318.070374,   -340.253113,   0.356395,   708.317993,   706.579468
-0.039482,   0.099627,   0.106563,   0.000000,   731.056641,   0.535738,   12.840565,   40.381451,   448.991150,   321.390015,   -339.930603,   0.360559,   712.209106,   709.760254
-0.040257,   0.102977,   0.110143,   0.000000,   737.165955,   0.535738,   12.840565,   39.688862,   458.003662,   324.458374,   -339.429504,   0.364481,   715.593933,   712.357788
-0.040922,   0.106053,   0.113425,   0.000000,   742.707703,   0.535738,   12.840565,   38.996269,   466.371826,   327.342712,   -338.792358,   0.368195,   718.563354,   714.473267
-0.041493,   0.108890,   0.116451,   0.000000,   747.775330,   0.535738,   12.840565,   38.303680,   474.170959,   330.096252,   -338.051483,   0.371731,   721.190674,   716.187317
-0.041985,   0.111525,   0.119258,   0.000000,   752.452148,   0.535738,   12.840565,   37.611088,   481.464417,   332.771271,   -337.236389,   0.375116,   723.541504,   717.570740
-0.042412,   0.113989,   0.121883,   0.000000,   756.809509,   0.535738,   12.840565,   36.918499,   488.312531,   335.410767,   -336.369263,   0.378374,   725.670105,   718.680054
-0.042783,   0.116309,   0.124356,   0.000000,   760.908142,   0.535738,   12.840565,   36.225906,   494.760132,   338.057983,   -335.470917,   0.381525,   727.623108,   719.563477
-0.043108,   0.118514,   0.126710,   0.000000,   764.803162,   0.535738,   12.840565,   35.533318,   500.855469,   340.745453,   -334.557983,   0.384586,   729.442627,   720.262939
-0.043396,   0.120630,   0.128973,   0.000000,   768.544495,   0.535738,   12.840565,   34.840725,   506.637360,   343.511475,   -333.645264,   0.387577,   731.165710,   720.813599
-0.043654,   0.122679,   0.131171,   0.000000,   772.172363,   0.535738,   12.840565,   34.148136,   512.142578,   346.377747,   -332.745087,   0.390508,   732.823730,   721.245483
-0.043887,   0.124685,   0.133331,   0.000000,   775.720825,   0.535738,   12.840565,   33.455544,   517.404968,   349.353912,   -331.869476,   0.393385,   734.445801,   721.587891
-0.044101,   0.126670,   0.135478,   0.000000,   779.221802,   0.535738,   12.840565,   32.762955,   522.451599,   352.452728,   -331.031097,   0.396211,   736.059692,   721.869202
-0.044303,   0.128656,   0.137635,   0.000000,   782.692322,   0.535738,   12.840565,   32.070362,   527.304077,   355.669098,   -330.237335,   0.398986,   737.681824,   722.107971
-0.044497,   0.130663,   0.139827,   0.000000,   786.166382,   0.535738,   12.840565,   31.377773,   532.001038,   358.988739,   -329.505341,   0.401700,   739.348999,   722.347107
-0.044690,   0.132714,   0.142078,   0.000000,   789.656006,   0.535738,   12.840565,   30.685183,   536.561707,   362.395416,   -328.842224,   0.404348,   741.075562,   722.606995
-0.044888,   0.134830,   0.144412,   0.000000,   793.174988,   0.535739,   12.840565,   29.992590,   541.007019,   365.862823,   -328.259705,   0.406915,   742.881653,   722.918274
-0.045097,   0.137031,   0.146852,   0.000000,   796.732300,   0.535738,   12.840565,   29.299999,   545.356628,   369.352051,   -327.769745,   0.409384,   744.785339,   723.314087
-0.045325,   0.139340,   0.149422,   0.000000,   800.334045,   0.535737,   12.840565,   28.607409,   549.628601,   372.818054,   -327.384460,   0.411731,   746.803284,   723.829468
-0.045581,   0.141778,   0.152143,   0.000000,   803.985474,   0.535738,   12.840565,   27.914818,   553.841064,   376.216339,   -327.114777,   0.413938,   748.950500,   724.498779
-0.045873,   0.144366,   0.155040,   0.000000,   807.687561,   0.535738,   12.840565,   27.222227,   558.011230,   379.491638,   -326.971527,   0.415980,   751.239624,   725.358704
-0.046212,   0.147125,   0.158131,   0.000000,   811.437683,   0.535738,   12.840565,   26.529636,   562.154480,   382.582733,   -326.965332,   0.417832,   753.681396,   726.446899
-0.046610,   0.150074,   0.161439,   0.000000,   815.230591,   0.535738,   12.840565,   25.837046,   566.286255,   385.424622,   -327.105103,   0.419468,   756.283569,   727.799683
-0.047080,   0.153234,   0.164982,   0.000000,   819.059082,   0.535738,   12.840565,   25.144455,   570.420105,   387.953583,   -327.398285,   0.420864,   759.051697,   729.451355
-0.047634,   0.156621,   0.168776,   0.000000,   822.910522,   0.535738,   12.840565,   24.451864,   574.567871,   390.095612,   -327.851166,   0.421994,   761.987915,   731.435486
-0.048290,   0.160254,   0.172837,   0.000000,   826.768005,   0.535738,   12.840565,   23.759274,   578.741272,   391.772430,   -328.466949,   0.422832,   765.090759,   733.781372
-0.049063,   0.164145,   0.177174,   0.000000,   830.611450,   0.535738,   12.840565,   23.066683,   582.950134,   392.906281,   -329.245575,   0.423353,   768.354980,   736.512390
-0.049970,   0.168306,   0.181797,   0.000000,   834.415527,   0.535738,   12.840565,   22.374092,   587.200684,   393.416260,   -330.184113,   0.423535,   771.771545,   739.646729
-0.051031,   0.172746,   0.186707,   0.000000,   838.150818,   0.535739,   12.840565,   21.681501,   591.497070,   393.221832,   -331.275391,   0.423356,   775.327515,   743.193787
-0.052264,   0.177467,   0.191904,   0.000000,   841.781555,   0.535738,   12.840565,   20.988911,   595.837769,   392.240631,   -332.508331,   0.422795,   779.005127,   747.154602
-0.053688,   0.182469,   0.197377,   0.000000,   845.266418,   0.535738,   12.840565,   20.296320,   600.215942,   390.390045,   -333.867737,   0.421831,   782.782410,   751.521179
-0.055323,   0.187744,   0.203114,   0.000000,   848.558655,   0.535737,   12.840565,   19.603729,   604.621277,   387.585754,   -335.333435,   0.420444,   786.633667,   756.275635
-0.057190,   0.193283,   0.209094,   0.000000,   851.606384,   0.535738,   12.840565,   18.911140,   609.043884,   383.739899,   -336.878113,   0.418616,   790.529480,   761.388916
-0.059307,   0.199068,   0.215291,   0.000000,   854.353210,   0.535738,   12.840565,   18.218550,   613.458252,   378.770935,   -338.475067,   0.416322,   794.439697,   766.826111
-0.061696,   0.205078,   0.221673,   0.000000,   856.736572,   0.535738,   12.840565,   17.525959,   617.837341,   372.593689,   -340.090240,   0.413543,   798.330078,   772.539490
-0.064376,   0.211285,   0.228200,   0.000000,   858.688599,   0.535738,   12.840565,   16.833368,   622.146606,   365.122955,   -341.685547,   0.410252,   802.164734,   778.471985
-0.067365,   0.217653,   0.234825,   0.000000,   860.136963,   0.535738,   12.840565,   16.140778,   626.345032,   356.276550,   -343.217865,   0.406425,   805.906006,   784.554504
-0.070682,   0.224142,   0.241497,   0.000000,   861.006348,   0.535738,   12.840565,   15.448186,   630.384583,   345.979065,   -344.639679,   0.402036,   809.515869,   790.706482
-0.074341,   0.230705,   0.248156,   0.000000,   861.221008,   0.535738,   12.840565,   14.755594,   634.210693,   334.168762,   -345.899231,   0.397061,   812.955994,   796.834351
-0.078357,   0.237288,   0.254740,   0.000000,   860.708862,   0.535738,   12.840565,   14.063004,   637.762451,   320.808685,   -346.942108,   0.391482,   816.189880,   802.831299
-0.082740,   0.243837,   0.261185,   0.000000,   859.407593,   0.535738,   12.840565,   13.370413,   640.977966,   305.894684,   -347.711945,   0.385291,   819.184570,   808.579224
-0.087503,   0.250296,   0.267430,   0.000000,   857.275635,   0.535738,   12.840565,   12.677823,   643.795532,   289.480957,   -348.156372,   0.378497,   821.914795,   813.953003
-0.092660,   0.256614,   0.273419,   0.000000,   854.300781,   0.535738,   12.840565,   11.985232,   646.160522,   271.691254,   -348.230530,   0.371135,   824.364563,   818.826050
-0.098225,   0.262741,   0.279103,   0.000000,   850.498535,   0.535738,   12.840565,   11.292642,   648.030762,   252.708160,   -347.898407,   0.363264,   826.524353,   823.078369
-0.104213,   0.268631,   0.284440,   0.000000,   845.933533,   0.535738,   12.840565,   10.600051,   649.370483,   232.820312,   -347.153259,   0.354978,   828.400208,   826.612122
-0.110641,   0.274248,   0.289405,   0.000000,   840.695007,   0.535738,   12.840565,   9.907460,   650.162598,   212.335388,   -346.009918,   0.346381,   830.008301,   829.363647
-0.117528,   0.279565,   0.293994,   0.000000,   834.895081,   0.535738,   12.840565,   9.214869,   650.384888,   191.576950,   -344.526886,   0.337574,   831.384277,   831.316650
-0.012124,   0.026029,   0.026584,   -29.533709,   557.921936,   0.535148,   13.813208,   49.127861,   184.452759,   343.935455,   -282.696564,   0.307242,   573.259644,   571.544189
-0.015492,   0.034415,   0.035902,   -18.855579,   591.487366,   0.535147,   13.813208,   48.444141,   240.986084,   331.645691,   -301.786072,   0.317527,   601.136963,   600.471069
-0.019290,   0.042916,   0.045252,   -16.951111,   615.043640,   0.535148,   13.813208,   47.760422,   279.673157,   318.419373,   -315.402954,   0.319652,   623.692017,   623.173340
-0.022990,   0.051275,   0.054392,   -15.901511,   634.179993,   0.535148,   13.813208,   47.076702,   309.504303,   308.774200,   -325.040558,   0.320878,   642.278442,   641.835327
-0.026405,   0.059313,   0.063146,   -13.534914,   650.883240,   0.535148,   13.813208,   46.392986,   334.156097,   303.192200,   -331.848114,   0.322992,   657.755127,   657.441711
-0.029475,   0.066911,   0.071393,   -9.637843,   665.867371,   0.535148,   13.813208,   45.709267,   355.271729,   300.957794,   -336.659058,   0.326123,   670.738220,   670.582397
-0.032193,   0.073994,   0.079062,   -4.475290,   679.437073,   0.535148,   13.813208,   45.025547,   373.706482,   301.255280,   -340.031952,   0.330045,   681.685730,   681.652649
-0.034575,   0.080537,   0.086130,   0.000000,   691.709412,   0.535147,   13.813208,   44.341827,   390.021912,   303.182587,   -342.364868,   0.334415,   690.963135,   690.959473
-0.036647,   0.086543,   0.092605,   0.000000,   702.741882,   0.535148,   13.813208,   43.658108,   404.584595,   305.982483,   -343.942902,   0.338916,   698.862183,   698.763550
-0.038441,   0.092035,   0.098514,   0.000000,   712.617004,   0.535148,   13.813208,   42.974388,   417.681885,   309.153076,   -344.957489,   0.343357,   705.615479,   705.293030
-0.039990,   0.097046,   0.103895,   0.000000,   721.441956,   0.535150,   13.813208,   42.290668,   429.528870,   312.409180,   -345.545959,   0.347635,   711.415344,   710.750610
-0.041327,   0.101616,   0.108795,   0.000000,   729.338257,   0.535148,   13.813208,   41.606945,   440.311432,   315.598785,   -345.806000,   0.351706,   716.421936,   715.311951
-0.042479,   0.105787,   0.113260,   0.000000,   736.420898,   0.535147,   13.813208,   40.923229,   450.178223,   318.652802,   -345.807861,   0.355564,   720.762573,   719.120361
-0.043471,   0.109594,   0.117331,   0.000000,   742.791870,   0.535148,   13.813208,   40.239510,   459.240051,   321.546112,   -345.608154,   0.359209,   724.542236,   722.295776
-0.044324,   0.113075,   0.121048,   0.000000,   748.544556,   0.535148,   13.813208,   39.555790,   467.597839,   324.277771,   -345.248230,   0.362657,   727.846985,   724.936523
-0.045059,   0.116266,   0.124451,   0.000000,   753.767212,   0.535148,   13.813208,   38.872070,   475.333649,   326.868896,   -344.764893,   0.365924,   730.754456,   727.129822
-0.045692,   0.119200,   0.127578,   0.000000,   758.536194,   0.535148,   13.813208,   38.188351,   482.516266,   329.348694,   -344.186462,   0.369032,   733.327576,   728.945679
-0.046238,   0.121908,   0.130462,   0.000000,   762.920410,   0.535147,   13.813208,   37.504631,   489.203491,   331.751282,   -343.537872,   0.372000,   735.622131,   730.445129
-0.046710,   0.124422,   0.133138,   0.000000,   766.985474,   0.535148,   13.813208,   36.820915,   495.451630,   334.117462,   -342.838623,   0.374851,   737.687378,   731.678894
-0.047120,   0.126767,   0.135636,   0.000000,   770.787415,   0.535148,   13.813208,   36.137192,   501.305969,   336.484802,   -342.105988,   0.377605,   739.565674,   732.690308
-0.047477,   0.128971,   0.137985,   0.000000,   774.375000,   0.535148,   13.813208,   35.453476,   506.809967,   338.881104,   -341.354553,   0.380277,   741.294312,   733.516785
-0.047790,   0.131058,   0.140214,   0.000000,   777.788269,   0.535148,   13.813208,   34.769756,   511.991302,   341.344879,   -340.595520,   0.382885,   742.900879,   734.183899
-0.048066,   0.133053,   0.142349,   0.000000,   781.079590,   0.535148,   13.813208,   34.086037,   516.894653,   343.899963,   -339.847443,   0.385438,   744.430054,   734.735718
-0.048312,   0.134978,   0.144415,   0.000000,   784.279175,   0.535147,   13.813208,   33.402317,   521.548096,   346.568420,   -339.116821,   0.387949,   745.902527,   735.190491
-0.048534,   0.136855,   0.146438,   0.000000,   787.421326,   0.535148,   13.813208,   32.718597,   525.980896,   349.373291,   -338.413147,   0.390429,   747.344849,   735.571350
-0.048737,   0.138707,   0.148443,   0.000000,   790.534973,   0.535148,   13.813208,   32.034878,   530.218567,   352.327057,   -337.746521,   0.392881,   748.781616,   735.901855
-0.048927,   0.140554,   0.150455,   0.000000,   793.644470,   0.535148,   13.813208,   31.351158,   534.285522,   355.431549,   -337.126770,   0.395305,   750.236023,   736.205811
-0.049109,   0.142420,   0.152497,   0.000000,   796.771179,   0.535147,   13.813208,   30.667439,   538.204834,   358.682037,   -336.563690,   0.397699,   751.730103,   736.507263
-0.049289,   0.144326,   0.154597,   0.000000,   799.934326,   0.535149,   13.813208,   29.983719,   541.998169,   362.069183,   -336.067322,   0.400055,   753.285461,   736.831055
-0.049474,   0.146297,   0.156779,   0.000000,   803.151001,   0.535147,   13.813208,   29.299999,   545.687378,   365.577606,   -335.647491,   0.402366,   754.922729,   737.203491
-0.049669,   0.148354,   0.159069,   0.000000,   806.433289,   0.535148,   13.813208,   28.616280,   549.292480,   369.177582,   -335.315186,   0.404615,   756.661560,   737.653748
-0.049884,   0.150523,   0.161495,   0.000000,   809.791138,   0.535148,   13.813208,   27.932560,   552.833069,   372.833649,   -335.081696,   0.406786,   758.520813,   738.213318
-0.050126,   0.152829,   0.164083,   0.000000,   813.233521,   0.535147,   13.813208,   27.248842,   556.327515,   376.509338,   -334.958282,   0.408860,   760.518372,   738.914062
-0.050406,   0.155296,   0.166860,   0.000000,   816.766174,   0.535148,   13.813208,   26.565123,   559.793823,   380.158997,   -334.956665,   0.410816,   762.671143,   739.790710
-0.050734,   0.157949,   0.169853,   0.000000,   820.391296,   0.535148,   13.813208,   25.881403,   563.249329,   383.728760,   -335.088470,   0.412630,   764.993774,   740.879028
-0.051124,   0.160816,   0.173090,   0.000000,   824.108154,   0.535147,   13.813208,   25.197683,   566.711365,   387.157440,   -335.365021,   0.414276,   767.499329,   742.216309
-0.051589,   0.163921,   0.176596,   0.000000,   827.913208,   0.535148,   13.813208,   24.513964,   570.195862,   390.381348,   -335.796906,   0.415727,   770.198486,   743.838989
-0.052146,   0.167289,   0.180396,   0.000000,   831.799744,   0.535147,   13.813208,   23.830246,   573.719910,   393.330261,   -336.392822,   0.416958,   773.099121,   745.782043
-0.052813,   0.170945,   0.184513,   0.000000,   835.756226,   0.535148,   13.813208,   23.146526,   577.298889,   395.927338,   -337.160217,   0.417942,   776.205566,   748.078735
-0.053608,   0.174912,   0.188969,   0.000000,   839.766907,   0.535148,   13.813208,   22.462807,   580.947266,   398.091156,   -338.104034,   0.418651,   779.518677,   750.758240
-0.054552,   0.179209,   0.193780,   0.000000,   843.809937,   0.535148,   13.813208,   21.779087,   584.677185,   399.734650,   -339.226227,   0.419059,   783.034363,   753.845154
-0.055669,   0.183854,   0.198960,   0.000000,   847.859070,   0.535148,   13.813208,   21.095367,   588.498291,   400.769470,   -340.525330,   0.419140,   786.744385,   757.356934
-0.056980,   0.188860,   0.204517,   0.000000,   851.882141,   0.535148,   13.813208,   20.411648,   592.415771,   401.105469,   -341.996185,   0.418870,   790.635864,   761.303162
-0.058510,   0.194233,   0.210451,   0.000000,   855.840088,   0.535147,   13.813208,   19.727928,   596.432495,   400.647217,   -343.628418,   0.418226,   794.690063,   765.684448
-0.060284,   0.199979,   0.216760,   0.000000,   859.687378,   0.535148,   13.813208,   19.044209,   600.547913,   399.296906,   -345.406036,   0.417184,   798.883545,   770.490723
-0.062330,   0.206091,   0.223429,   0.000000,   863.371582,   0.535147,   13.813208,   18.360491,   604.749268,   396.956879,   -347.311462,   0.415720,   803.189148,   775.705322
-0.064671,   0.212561,   0.230438,   0.000000,   866.832458,   0.535148,   13.813208,   17.676771,   609.020020,   393.523560,   -349.320679,   0.413808,   807.574951,   781.300232
-0.067334,   0.219369,   0.237759,   0.000000,   870.001648,   0.535148,   13.813208,   16.993052,   613.334900,   388.888733,   -351.405273,   0.411419,   812.005005,   787.237305
-0.070347,   0.226491,   0.245353,   0.000000,   872.802673,   0.535147,   13.813208,   16.309332,   617.660522,   382.939575,   -353.531799,   0.408521,   816.440308,   793.468445
-0.073735,   0.233891,   0.253172,   0.000000,   875.150940,   0.535149,   13.813208,   15.625613,   621.953430,   375.559021,   -355.661957,   0.405078,   820.839050,   799.933899
-0.077521,   0.241527,   0.261161,   0.000000,   876.954529,   0.535148,   13.813208,   14.941894,   626.160400,   366.628418,   -357.752411,   0.401050,   825.157776,   806.561768
-0.081730,   0.249348,   0.269256,   0.000000,   878.115784,   0.535148,   13.813208,   14.258174,   630.217163,   356.032928,   -359.754974,   0.396394,   829.352722,   813.265930
-0.086384,   0.257295,   0.277384,   0.000000,   878.533142,   0.535148,   13.813208,   13.574455,   634.048889,   343.668579,   -361.615784,   0.391065,   833.379456,   819.942993
-0.091502,   0.265301,   0.285468,   0.000000,   878.111206,   0.535148,   13.813208,   12.890736,   637.567932,   329.468506,   -363.279907,   0.385029,   837.198120,   826.472656
-0.097105,   0.273297,   0.293431,   0.000000,   876.767944,   0.535148,   13.813208,   12.207016,   640.682739,   313.413086,   -364.691284,   0.378260,   840.775208,   832.718384
-0.103218,   0.281215,   0.301197,   0.000000,   874.438660,   0.535148,   13.813208,   11.523296,   643.305054,   295.535126,   -365.792358,   0.370754,   844.082520,   838.528198
-0.109867,   0.288987,   0.308698,   0.000000,   871.107788,   0.535148,   13.813208,   10.839578,   645.340332,   276.001678,   -366.545471,   0.362544,   847.108459,   843.747559
-0.117085,   0.296549,   0.315872,   0.000000,   866.797546,   0.535148,   13.813208,   10.155858,   646.710510,   255.058044,   -366.927673,   0.353696,   849.851807,   848.230713
-0.124902,   0.303847,   0.322680,   0.000000,   861.614380,   0.535148,   13.813208,   9.472138,   647.339783,   233.137894,   -366.969391,   0.344338,   852.339294,   851.869446
-0.022081,   0.049590,   0.052994,   -17.771086,   634.383606,   0.534530,   14.796378,   48.912712,   235.712921,   380.899597,   -317.894073,   0.319429,   643.453247,   642.900635
-0.023563,   0.055227,   0.059214,   -6.603389,   651.304810,   0.534527,   14.796378,   48.236412,   276.656799,   368.044617,   -325.765045,   0.328277,   654.631470,   654.556580
-0.025750,   0.061102,   0.065602,   -1.017346,   664.437866,   0.534530,   14.796378,   47.560112,   308.050140,   355.370392,   -331.885315,   0.332568,   664.947144,   664.945374
-0.028269,   0.067166,   0.072139,   0.000000,   675.622986,   0.534529,   14.796378,   46.883808,   333.407593,   344.198364,   -336.776794,   0.334802,   674.633667,   674.627136
-0.030874,   0.073322,   0.078742,   0.000000,   685.816345,   0.534529,   14.796378,   46.207512,   354.745575,   335.312195,   -340.648926,   0.336430,   683.705505,   683.675964
-0.033423,   0.079448,   0.085297,   0.000000,   695.307007,   0.534530,   14.796378,   45.531208,   373.185791,   328.550873,   -343.714874,   0.337967,   692.114563,   692.047302
-0.035830,   0.085448,   0.091708,   0.000000,   704.280334,   0.534529,   14.796378,   44.854908,   389.453064,   323.801544,   -346.099823,   0.339724,   699.836365,   699.706787
-0.038049,   0.091238,   0.097892,   0.000000,   712.830017,   0.534527,   14.796378,   44.178608,   404.030365,   320.890350,   -347.894836,   0.341849,   706.862183,   706.629456
-0.040061,   0.096758,   0.103784,   0.000000,   720.957214,   0.534530,   14.796378,   43.502308,   417.215973,   319.508942,   -349.193939,   0.344326,   713.204102,   712.811829
-0.041863,   0.101967,   0.109344,   0.000000,   728.634644,   0.534529,   14.796378,   42.826008,   429.221954,   319.302734,   -350.084503,   0.347071,   718.895996,   718.276550
-0.043464,   0.106845,   0.114550,   0.000000,   735.830750,   0.534529,   14.796378,   42.149708,   440.189789,   319.946198,   -350.645844,   0.349978,   723.984192,   723.065369
-0.044877,   0.111382,   0.119392,   0.000000,   742.524353,   0.534530,   14.796378,   41.473408,   450.234039,   321.164001,   -350.940918,   0.352954,   728.516724,   727.227661
-0.046116,   0.115585,   0.123874,   0.000000,   748.715393,   0.534527,   14.796378,   40.797108,   459.453430,   322.748108,   -351.021576,   0.355928,   732.546570,   730.821533
-0.047202,   0.119464,   0.128011,   0.000000,   754.417175,   0.534530,   14.796378,   40.120808,   467.928436,   324.545105,   -350.932343,   0.358848,   736.127136,   733.908997
-0.048147,   0.123038,   0.131820,   0.000000,   759.654541,   0.534529,   14.796378,   39.444504,   475.734100,   326.449890,   -350.707367,   0.361682,   739.307861,   736.548096
-0.048969,   0.126326,   0.135324,   0.000000,   764.463806,   0.534529,   14.796378,   38.768208,   482.936340,   328.402832,   -350.375732,   0.364416,   742.137268,   738.795593
-0.049683,   0.129354,   0.138549,   0.000000,   768.885620,   0.534530,   14.796378,   38.091904,   489.597260,   330.369812,   -349.960510,   0.367043,   744.660034,   740.702820
-0.050303,   0.132143,   0.141519,   0.000000,   772.960266,   0.534527,   14.796378,   37.415604,   495.768372,   332.334412,   -349.482361,   0.369565,   746.917175,   742.316833
-0.050842,   0.134720,   0.144262,   0.000000,   776.723999,   0.534529,   14.796378,   36.739307,   501.489624,   334.302948,   -348.954865,   0.371990,   748.938782,   743.670959
-0.051310,   0.137107,   0.146804,   0.000000,   780.232056,   0.534530,   14.796378,   36.063004,   506.812897,   336.285675,   -348.401276,   0.374323,   750.775452,   744.819092
-0.051717,   0.139328,   0.149171,   0.000000,   783.518433,   0.534529,   14.796378,   35.386703,   511.774750,   338.299255,   -347.829681,   0.376580,   752.451477,   745.786011
-0.052073,   0.141405,   0.151387,   0.000000,   786.623657,   0.534530,   14.796378,   34.710403,   516.408691,   340.372864,   -347.251526,   0.378773,   753.996643,   746.600220
-0.052384,   0.143361,   0.153478,   0.000000,   789.583923,   0.534529,   14.796378,   34.034103,   520.746216,   342.529877,   -346.677032,   0.380916,   755.438354,   747.287659
-0.052658,   0.145217,   0.155466,   0.000000,   792.431885,   0.534527,   14.796378,   33.357803,   524.814453,   344.791718,   -346.116058,   0.383018,   756.801697,   747.872009
-0.052901,   0.146993,   0.157375,   0.000000,   795.198792,   0.534530,   14.796378,   32.681503,   528.639893,   347.179138,   -345.577240,   0.385089,   758.110535,   748.375122
-0.053117,   0.148710,   0.159229,   0.000000,   797.914978,   0.534529,   14.796378,   32.005203,   532.246460,   349.715515,   -345.068817,   0.387137,   759.387817,   748.816589
-0.053312,   0.150388,   0.161051,   0.000000,   800.606995,   0.534530,   14.796378,   31.328901,   535.658203,   352.414246,   -344.598480,   0.389170,   760.655151,   749.216309
-0.053492,   0.152049,   0.162864,   0.000000,   803.299438,   0.534528,   14.796378,   30.652601,   538.897583,   355.285706,   -344.173859,   0.391190,   761.933594,   749.593445
-0.053661,   0.153715,   0.164694,   0.000000,   806.014282,   0.534530,   14.796378,   29.976301,   541.986084,   358.332764,   -343.803070,   0.393198,   763.244080,   749.968689
-0.053824,   0.155407,   0.166566,   0.000000,   808.771729,   0.534529,   14.796378,   29.300001,   544.945129,   361.552948,   -343.494141,   0.395191,   764.606995,   750.363281
-0.053988,   0.157149,   0.168505,   0.000000,   811.591309,   0.534530,   14.796378,   28.623699,   547.794006,   364.942596,   -343.256073,   0.397165,   766.043213,   750.799866
-0.054159,   0.158965,   0.170539,   0.000000,   814.488770,   0.534529,   14.796378,   27.947399,   550.553040,   368.484650,   -343.098267,   0.399110,   767.573120,   751.303467
-0.054344,   0.160881,   0.172697,   0.000000,   817.477478,   0.534529,   14.796378,   27.271099,   553.241516,   372.154602,   -343.031097,   0.401012,   769.217041,   751.902161
-0.054553,   0.162924,   0.175009,   0.000000,   820.570007,   0.534530,   14.796378,   26.594799,   555.879028,   375.923920,   -343.065308,   0.402857,   770.995117,   752.625000
-0.054796,   0.165122,   0.177506,   0.000000,   823.776611,   0.534530,   14.796378,   25.918497,   558.485046,   379.756744,   -343.212341,   0.404627,   772.927185,   753.503845
-0.055083,   0.167505,   0.180218,   0.000000,   827.105713,   0.534528,   14.796378,   25.242197,   561.079529,   383.610962,   -343.483948,   0.406302,   775.032288,   754.572449
-0.055428,   0.170103,   0.183180,   0.000000,   830.562927,   0.534530,   14.796378,   24.565897,   563.682312,   387.436371,   -343.892242,   0.407858,   777.328308,   755.865845
-0.055847,   0.172947,   0.186423,   0.000000,   834.150696,   0.534529,   14.796378,   23.889597,   566.313660,   391.175507,   -344.449066,   0.409272,   779.831299,   757.420044
-0.056357,   0.176070,   0.189980,   0.000000,   837.868347,   0.534530,   14.796378,   23.213297,   568.994141,   394.763153,   -345.165985,   0.410517,   782.555481,   759.271484
-0.056977,   0.179503,   0.193885,   0.000000,   841.711853,   0.534529,   14.796378,   22.536997,   571.745728,   398.127411,   -346.053162,   0.411567,   785.512146,   761.455444
-0.057730,   0.183278,   0.198168,   0.000000,   845.672180,   0.534529,   14.796378,   21.860695,   574.589294,   401.187836,   -347.119720,   0.412394,   788.709412,   764.005310
-0.058638,   0.187427,   0.202859,   0.000000,   849.736145,   0.534530,   14.796378,   21.184395,   577.546692,   403.858704,   -348.372131,   0.412970,   792.151611,   766.950623
-0.059730,   0.191977,   0.207984,   0.000000,   853.884949,   0.534530,   14.796378,   20.508095,   580.637451,   406.048523,   -349.814484,   0.413269,   795.838440,   770.316223
-0.061032,   0.196955,   0.213566,   0.000000,   858.093750,   0.534528,   14.796378,   19.831795,   583.881775,   407.659882,   -351.446106,   0.413264,   799.763977,   774.119141
-0.062575,   0.202383,   0.219622,   0.000000,   862.331482,   0.534530,   14.796378,   19.155495,   587.296997,   408.591858,   -353.262024,   0.412932,   803.916992,   778.368103
-0.064390,   0.208277,   0.226162,   0.000000,   866.559326,   0.534529,   14.796378,   18.479193,   590.892212,   408.740540,   -355.254272,   0.412247,   808.280640,   783.064453
-0.066509,   0.214648,   0.233190,   0.000000,   870.730164,   0.534530,   14.796378,   17.802893,   594.672302,   407.996033,   -357.409302,   0.411183,   812.832214,   788.199463
-0.068967,   0.221498,   0.240700,   0.000000,   874.788330,   0.534529,   14.796378,   17.126593,   598.634338,   406.243500,   -359.708923,   0.409714,   817.543335,   793.755371
-0.071796,   0.228823,   0.248675,   0.000000,   878.667847,   0.534529,   14.796378,   16.450293,   602.766724,   403.359497,   -362.129974,   0.407811,   822.380249,   799.704590
-0.075033,   0.236609,   0.257091,   0.000000,   882.291626,   0.534530,   14.796378,   15.773993,   607.046997,   399.210388,   -364.644348,   0.405436,   827.304077,   806.010559
-0.078711,   0.244830,   0.265909,   0.000000,   885.569580,   0.534529,   14.796378,   15.097692,   611.439392,   393.650757,   -367.219025,   0.402549,   832.270935,   812.626160
-0.082865,   0.253447,   0.275076,   0.000000,   888.398315,   0.534529,   14.796378,   14.421391,   615.893311,   386.522064,   -369.815887,   0.399099,   837.232910,   819.493103
-0.087527,   0.262417,   0.284533,   0.000000,   890.664185,   0.534530,   14.796378,   13.745091,   620.343323,   377.657684,   -372.392731,   0.395025,   842.141785,   826.542053
-0.092731,   0.271681,   0.294211,   0.000000,   892.244324,   0.534529,   14.796378,   13.068790,   624.705444,   366.890991,   -374.903259,   0.390262,   846.950073,   833.688660
-0.098506,   0.281172,   0.304027,   0.000000,   893.006348,   0.534529,   14.796378,   12.392490,   628.874939,   354.063416,   -377.295288,   0.384738,   851.609192,   840.826355
-0.104895,   0.290812,   0.313892,   0.000000,   892.814758,   0.534529,   14.796378,   11.716190,   632.731201,   339.037445,   -379.510681,   0.378382,   856.072815,   847.823425
-0.111932,   0.300520,   0.323717,   0.000000,   891.555237,   0.534530,   14.796378,   11.039889,   636.122620,   321.762543,   -381.501801,   0.371139,   860.310181,   854.528809
-0.119678,   0.310210,   0.333409,   0.000000,   889.114563,   0.534529,   14.796378,   10.363589,   638.890930,   302.211639,   -383.219238,   0.362956,   864.294006,   860.765686
-0.128192,   0.319794,   0.342885,   0.000000,   885.425293,   0.534529,   14.796378,   9.687288,   640.819336,   280.518158,   -384.660736,   0.353805,   868.026489,   866.352661
-0.034128,   0.079543,   0.086693,   -6.184855,   698.492249,   0.533953,   15.788191,   48.740093,   287.420074,   404.887329,   -347.408722,   0.328916,   701.605103,   701.543823
-0.033677,   0.081823,   0.089074,   0.000000,   705.615540,   0.533950,   15.788191,   48.069744,   316.035309,   394.053040,   -348.394318,   0.336508,   703.389832,   703.357788
-0.034130,   0.084599,   0.091946,   0.000000,   711.337585,   0.533951,   15.788191,   47.399399,   339.555725,   383.019714,   -349.374634,   0.341263,   705.785767,   705.584412
-0.035207,   0.087884,   0.095334,   0.000000,   716.410461,   0.533950,   15.788191,   46.729050,   359.456146,   372.361816,   -350.442047,   0.344143,   708.832275,   708.455322
-0.036671,   0.091614,   0.099187,   0.000000,   721.301880,   0.533950,   15.788191,   46.058701,   376.745911,   362.651611,   -351.532501,   0.345953,   712.426453,   711.909119
-0.038356,   0.095687,   0.103409,   0.000000,   726.242737,   0.533951,   15.788191,   45.388355,   392.067627,   354.266113,   -352.569611,   0.347257,   716.408569,   715.774292
-0.040137,   0.099990,   0.107886,   0.000000,   731.307007,   0.533950,   15.788191,   44.718006,   405.856384,   347.344269,   -353.498108,   0.348409,   720.609680,   719.860779
-0.041924,   0.104418,   0.112507,   0.000000,   736.482971,   0.533950,   15.788191,   44.047657,   418.394653,   341.875366,   -354.288086,   0.349606,   724.882202,   724.003235
-0.043659,   0.108875,   0.117175,   0.000000,   741.723633,   0.533951,   15.788191,   43.377312,   429.877106,   337.760254,   -354.928986,   0.350946,   729.112244,   728.075073
-0.045301,   0.113286,   0.121808,   0.000000,   746.965515,   0.533950,   15.788191,   42.706963,   440.454742,   334.837891,   -355.417419,   0.352464,   733.212402,   731.979736
-0.046828,   0.117586,   0.126336,   0.000000,   752.136353,   0.533950,   15.788191,   42.036613,   450.228851,   332.924744,   -355.757141,   0.354151,   737.117371,   735.646973
-0.048226,   0.121723,   0.130702,   0.000000,   757.172852,   0.533951,   15.788191,   41.366264,   459.275452,   331.844208,   -355.955444,   0.355984,   740.782959,   739.029907
-0.049491,   0.125664,   0.134868,   0.000000,   762.026550,   0.533950,   15.788191,   40.695919,   467.657928,   331.433899,   -356.023834,   0.357926,   744.186523,   742.105530
-0.050627,   0.129385,   0.138809,   0.000000,   766.660645,   0.533953,   15.788191,   40.025570,   475.422211,   331.549835,   -355.978912,   0.359940,   747.320801,   744.868713
-0.051638,   0.132875,   0.142508,   0.000000,   771.042664,   0.533950,   15.788191,   39.355221,   482.605194,   332.065308,   -355.833527,   0.361989,   750.180786,   747.318420
-0.052534,   0.136131,   0.145963,   0.000000,   775.170593,   0.533950,   15.788191,   38.684872,   489.251160,   332.877502,   -355.612396,   0.364036,   752.790771,   749.484985
-0.053324,   0.139155,   0.149174,   0.000000,   779.035522,   0.533951,   15.788191,   38.014526,   495.392548,   333.904694,   -355.328369,   0.366058,   755.160217,   751.383179
-0.054018,   0.141957,   0.152151,   0.000000,   782.643188,   0.533950,   15.788191,   37.344177,   501.066467,   335.085724,   -354.995422,   0.368037,   757.307800,   753.036987
-0.054626,   0.144548,   0.154906,   0.000000,   786.007812,   0.533950,   15.788191,   36.673828,   506.308014,   336.384369,   -354.625977,   0.369965,   759.254150,   754.471436
-0.055158,   0.146942,   0.157453,   0.000000,   789.147461,   0.533951,   15.788191,   36.003483,   511.147858,   337.777863,   -354.232361,   0.371836,   761.021179,   755.711853
-0.055623,   0.149156,   0.159811,   0.000000,   792.082947,   0.533950,   15.788191,   35.333134,   515.615906,   339.253418,   -353.825409,   0.373649,   762.630615,   756.782898
-0.056028,   0.151206,   0.161996,   0.000000,   794.837769,   0.533951,   15.788191,   34.662785,   519.739807,   340.810577,   -353.414734,   0.375407,   764.103699,   757.707336
-0.056382,   0.153110,   0.164029,   0.000000,   797.437927,   0.533950,   15.788191,   33.992435,   523.546204,   342.458099,   -353.008820,   0.377116,   765.461426,   758.506226
-0.056690,   0.154885,   0.165927,   0.000000,   799.908508,   0.533950,   15.788191,   33.322090,   527.059448,   344.207825,   -352.615265,   0.378784,   766.723755,   759.198853
-0.056959,   0.156547,   0.167711,   0.000000,   802.275146,   0.533951,   15.788191,   32.651741,   530.303406,   346.075104,   -352.240692,   0.380417,   767.909729,   759.802979
-0.057193,   0.158115,   0.169399,   0.000000,   804.561646,   0.533951,   15.788191,   31.981392,   533.299377,   348.074036,   -351.891815,   0.382024,   769.038147,   760.335999
-0.057398,   0.159605,   0.171012,   0.000000,   806.794739,   0.533951,   15.788191,   31.311045,   536.068359,   350.228302,   -351.574402,   0.383615,   770.127625,   760.813171
-0.057577,   0.161037,   0.172570,   0.000000,   808.997131,   0.533950,   15.788191,   30.640696,   538.630615,   352.551208,   -351.294281,   0.385195,   771.196106,   761.250427
-0.057735,   0.162428,   0.174094,   0.000000,   811.191589,   0.533951,   15.788191,   29.970348,   541.005676,   355.056580,   -351.057343,   0.386770,   772.261902,   761.663818
-0.057876,   0.163798,   0.175608,   0.000000,   813.399780,   0.533951,   15.788191,   29.299999,   543.211792,   357.754700,   -350.870087,   0.388342,   773.343628,   762.070129
-0.058006,   0.165168,   0.177134,   0.000000,   815.641296,   0.533951,   15.788191,   28.629652,   545.267944,   360.648315,   -350.739166,   0.389913,   774.459961,   762.487976
-0.058128,   0.166561,   0.178697,   0.000000,   817.935913,   0.533950,   15.788191,   27.959303,   547.192505,   363.740021,   -350.671570,   0.391481,   775.630249,   762.936279
-0.058249,   0.167999,   0.180325,   0.000000,   820.302002,   0.533951,   15.788191,   27.288956,   549.004211,   367.024750,   -350.675201,   0.393040,   776.874451,   763.436523
-0.058376,   0.169508,   0.182046,   0.000000,   822.755981,   0.533951,   15.788191,   26.618608,   550.721924,   370.490295,   -350.758698,   0.394584,   778.213013,   764.012512
-0.058517,   0.171115,   0.183889,   0.000000,   825.314026,   0.533951,   15.788191,   25.948259,   552.364746,   374.119873,   -350.931793,   0.396103,   779.667358,   764.690430
-0.058681,   0.172849,   0.185889,   0.000000,   827.990479,   0.533951,   15.788191,   25.277912,   553.952209,   377.888885,   -351.205139,   0.397581,   781.259155,   765.499268
-0.058879,   0.174742,   0.188078,   0.000000,   830.799133,   0.533951,   15.788191,   24.607563,   555.505432,   381.767365,   -351.590118,   0.399004,   783.010620,   766.469971
-0.059125,   0.176828,   0.190494,   0.000000,   833.751465,   0.533951,   15.788191,   23.937216,   557.045776,   385.716888,   -352.099030,   0.400353,   784.943787,   767.636292
-0.059434,   0.179141,   0.193174,   0.000000,   836.857300,   0.533951,   15.788191,   23.266867,   558.595886,   389.691315,   -352.744995,   0.401605,   787.080566,   769.033997
-0.059825,   0.181720,   0.196158,   0.000000,   840.124573,   0.533950,   15.788191,   22.596519,   560.181396,   393.637543,   -353.540680,   0.402740,   789.441772,   770.699219
-0.060317,   0.184603,   0.199488,   0.000000,   843.557190,   0.533951,   15.788191,   21.926172,   561.828247,   397.490540,   -354.499481,   0.403730,   792.046692,   772.670044
-0.060935,   0.187830,   0.203204,   0.000000,   847.156128,   0.533951,   15.788191,   21.255823,   563.565369,   401.177917,   -355.633667,   0.404549,   794.912292,   774.982910
-0.061707,   0.191444,   0.207348,   0.000000,   850.918091,   0.533951,   15.788191,   20.585474,   565.423157,   404.617554,   -356.954559,   0.405170,   798.052795,   777.672974
-0.062661,   0.195486,   0.211962,   0.000000,   854.835510,   0.533950,   15.788191,   19.915127,   567.436096,   407.718628,   -358.470551,   0.405565,   801.478210,   780.771179
-0.063831,   0.199996,   0.217085,   0.000000,   858.896057,   0.533951,   15.788191,   19.244780,   569.639709,   410.384247,   -360.187286,   0.405709,   805.194458,   784.303345
-0.065252,   0.205014,   0.222755,   0.000000,   863.081360,   0.533951,   15.788191,   18.574430,   572.068054,   412.511963,   -362.107300,   0.405576,   809.202209,   788.288635
-0.066964,   0.210575,   0.229002,   0.000000,   867.365784,   0.533951,   15.788191,   17.904083,   574.753723,   413.993622,   -364.228149,   0.405144,   813.495300,   792.737244
-0.069006,   0.216710,   0.235853,   0.000000,   871.716492,   0.533951,   15.788191,   17.233734,   577.727173,   414.717529,   -366.541718,   0.404389,   818.061218,   797.649109
-0.071421,   0.223444,   0.243327,   0.000000,   876.091858,   0.533951,   15.788191,   16.563387,   581.013672,   414.565460,   -369.034363,   0.403290,   822.880493,   803.014771
-0.074251,   0.230795,   0.251435,   0.000000,   880.439941,   0.533951,   15.788191,   15.893039,   584.631165,   413.411469,   -371.686890,   0.401824,   827.926819,   808.815002
-0.077541,   0.238774,   0.260177,   0.000000,   884.696899,   0.533950,   15.788191,   15.222691,   588.588074,   411.117218,   -374.474487,   0.399962,   833.167480,   815.021912
-0.081338,   0.247379,   0.269544,   0.000000,   888.783203,   0.533950,   15.788191,   14.552342,   592.878906,   407.526642,   -377.367065,   0.397667,   838.562500,   821.599060
-0.085686,   0.256596,   0.279508,   0.000000,   892.602356,   0.533951,   15.788191,   13.881994,   597.478210,   402.465942,   -380.330261,   0.394892,   844.066162,   828.501465
-0.090632,   0.266398,   0.290030,   0.000000,   896.037292,   0.533950,   15.788191,   13.211646,   602.340088,   395.733978,   -383.324524,   0.391574,   849.626709,   835.675171
-0.096222,   0.276743,   0.301057,   0.000000,   898.954041,   0.533951,   15.788191,   12.541299,   607.392944,   387.113586,   -386.306580,   0.387635,   855.190796,   843.055603
-0.102504,   0.287589,   0.312535,   0.000000,   901.211426,   0.533951,   15.788191,   11.870951,   612.543396,   376.385437,   -389.230621,   0.382989,   860.711609,   850.568237
-0.109529,   0.298879,   0.324398,   0.000000,   902.653503,   0.533951,   15.788191,   11.200602,   617.649170,   363.344421,   -392.052856,   0.377533,   866.144653,   858.119690
-0.117387,   0.310540,   0.336561,   0.000000,   903.102112,   0.533950,   15.788191,   10.530254,   622.531311,   347.775757,   -394.725677,   0.371149,   871.445374,   865.586243
-0.126172,   0.322491,   0.348939,   0.000000,   902.373535,   0.533951,   15.788191,   9.859906,   626.889404,   329.532013,   -397.251465,   0.363686,   876.600098,   872.839539
-0.047878,   0.115440,   0.127041,   0.000000,   754.248474,   0.533467,   16.786739,   48.610340,   341.122253,   420.142487,   -371.521118,   0.337995,   750.764893,   750.691101
-0.045581,   0.113871,   0.125012,   0.000000,   754.790588,   0.533467,   16.786739,   47.944466,   358.919403,   411.762146,   -368.503815,   0.343914,   746.971863,   746.591492
-0.044274,   0.113139,   0.123906,   0.000000,   755.123169,   0.533465,   16.786739,   47.278591,   374.490723,   402.889832,   -366.157684,   0.348175,   744.244141,   743.494751
-0.043785,   0.113280,   0.123749,   0.000000,   755.649048,   0.533467,   16.786739,   46.612720,   388.501068,   393.928589,   -364.424133,   0.351202,   742.621033,   741.533325
-0.043917,   0.114208,   0.124449,   0.000000,   756.522400,   0.533465,   16.786739,   45.946846,   401.264343,   385.203644,   -363.199646,   0.353309,   742.002930,   740.641541
-0.044506,   0.115814,   0.125893,   0.000000,   757.821228,   0.533467,   16.786739,   45.280972,   412.990814,   377.006317,   -362.376251,   0.354773,   742.256470,   740.684937
-0.045410,   0.117978,   0.127957,   0.000000,   759.567627,   0.533467,   16.786739,   44.615097,   423.863464,   369.545624,   -361.845276,   0.355841,   743.224976,   741.488525
-0.046518,   0.120577,   0.130514,   0.000000,   761.739746,   0.533465,   16.786739,   43.949223,   433.994080,   362.975555,   -361.515167,   0.356706,   744.749939,   742.871765
-0.047744,   0.123498,   0.133441,   0.000000,   764.289185,   0.533467,   16.786739,   43.283348,   443.465912,   357.381134,   -361.310883,   0.357514,   746.681702,   744.664185
-0.049016,   0.126632,   0.136622,   0.000000,   767.141602,   0.533465,   16.786739,   42.617477,   452.341858,   352.760254,   -361.174652,   0.358357,   748.883240,   746.713989
-0.050284,   0.129887,   0.139956,   0.000000,   770.212341,   0.533467,   16.786739,   41.951603,   460.666443,   349.045227,   -361.068634,   0.359277,   751.241882,   748.900146
-0.051513,   0.133186,   0.143359,   0.000000,   773.413269,   0.533465,   16.786739,   41.285728,   468.464233,   346.146851,   -360.963257,   0.360291,   753.659302,   751.119629
-0.052677,   0.136465,   0.146761,   0.000000,   776.682983,   0.533467,   16.786739,   40.619858,   475.771149,   343.959473,   -360.848511,   0.361396,   756.078857,   753.314331
-0.053763,   0.139673,   0.150105,   0.000000,   779.955505,   0.533468,   16.786739,   39.953979,   482.603241,   342.386353,   -360.710663,   0.362581,   758.441895,   755.424927
-0.054762,   0.142772,   0.153349,   0.000000,   783.182190,   0.533465,   16.786739,   39.288105,   488.980652,   341.337250,   -360.543304,   0.363834,   760.710388,   757.414368
-0.055671,   0.145734,   0.156458,   0.000000,   786.325562,   0.533467,   16.786739,   38.622231,   494.919983,   340.732147,   -360.344849,   0.365140,   762.859253,   759.258911
-0.056491,   0.148538,   0.159410,   0.000000,   789.356323,   0.533465,   16.786739,   37.956360,   500.435303,   340.497406,   -360.117706,   0.366480,   764.873413,   760.946228
-0.057225,   0.151172,   0.162190,   0.000000,   792.252991,   0.533467,   16.786739,   37.290485,   505.540466,   340.566193,   -359.867035,   0.367834,   766.745972,   762.473450
-0.057878,   0.153632,   0.164790,   0.000000,   795.002808,   0.533465,   16.786739,   36.624611,   510.251923,   340.882843,   -359.598480,   0.369187,   768.475891,   763.843201
-0.058456,   0.155916,   0.167209,   0.000000,   797.599365,   0.533467,   16.786739,   35.958740,   514.585205,   341.403046,   -359.318848,   0.370525,   770.066956,   765.062805
-0.058964,   0.158028,   0.169450,   0.000000,   800.043030,   0.533465,   16.786739,   35.292866,   518.557739,   342.094391,   -359.034576,   0.371840,   771.526062,   766.142517
-0.059410,   0.159974,   0.171517,   0.000000,   802.337646,   0.533467,   16.786739,   34.626991,   522.187744,   342.930664,   -358.751770,   0.373123,   772.862061,   767.093689
-0.059797,   0.161762,   0.173421,   0.000000,   804.493469,   0.533467,   16.786739,   33.961117,   525.492676,   343.902008,   -358.476501,   0.374375,   774.086121,   767.929138
-0.060134,   0.163403,   0.175172,   0.000000,   806.521973,   0.533465,   16.786739,   33.295242,   528.490540,   345.001068,   -358.214050,   0.375594,   775.209717,   768.661194
-0.060423,   0.164908,   0.176782,   0.000000,   808.437317,   0.533467,   16.786739,   32.629368,   531.199036,   346.227692,   -357.969543,   0.376782,   776.245300,   769.302490
-0.060670,   0.166289,   0.178264,   0.000000,   810.255798,   0.533467,   16.786739,   31.963495,   533.634399,   347.589081,   -357.747833,   0.377945,   777.205811,   769.865479
-0.060879,   0.167558,   0.179633,   0.000000,   811.993042,   0.533466,   16.786739,   31.297621,   535.812988,   349.090912,   -357.553253,   0.379086,   778.103821,   770.362122
-0.061053,   0.168729,   0.180902,   0.000000,   813.667358,   0.533466,   16.786739,   30.631748,   537.750793,   350.746857,   -357.389740,   0.380210,   778.952576,   770.803833
-0.061195,   0.169815,   0.182089,   0.000000,   815.297241,   0.533467,   16.786739,   29.965874,   539.463318,   352.570892,   -357.261292,   0.381326,   779.765808,   771.202271
-0.061310,   0.170832,   0.183210,   0.000000,   816.901306,   0.533466,   16.786739,   29.299999,   540.965393,   354.576477,   -357.172241,   0.382437,   780.557800,   771.569702
-0.061399,   0.171795,   0.184283,   0.000000,   818.498535,   0.533466,   16.786739,   28.634127,   542.273132,   356.776337,   -357.126587,   0.383549,   781.343384,   771.919067
-0.061468,   0.172722,   0.185329,   0.000000,   820.107483,   0.533466,   16.786739,   27.968252,   543.401123,   359.180420,   -357.129486,   0.384664,   782.138550,   772.264832
-0.061519,   0.173632,   0.186371,   0.000000,   821.746948,   0.533467,   16.786739,   27.302378,   544.365173,   361.795868,   -357.186310,   0.385784,   782.960266,   772.622986
-0.061557,   0.174547,   0.187431,   0.000000,   823.435547,   0.533466,   16.786739,   26.636505,   545.181274,   364.626495,   -357.303223,   0.386909,   783.826721,   773.011597
-0.061588,   0.175489,   0.188536,   0.000000,   825.191467,   0.533466,   16.786739,   25.970631,   545.865906,   367.670593,   -357.487427,   0.388034,   784.757385,   773.450928
-0.061619,   0.176485,   0.189716,   0.000000,   827.032654,   0.533467,   16.786739,   25.304758,   546.435974,   370.922272,   -357.747223,   0.389153,   785.773254,   773.963989
-0.061657,   0.177562,   0.191002,   0.000000,   828.977722,   0.533466,   16.786739,   24.638884,   546.910217,   374.371033,   -358.091858,   0.390259,   786.896729,   774.576660
-0.061714,   0.178752,   0.192430,   0.000000,   831.044556,   0.533466,   16.786739,   23.973009,   547.308167,   377.999847,   -358.532104,   0.391341,   788.151978,   775.317749
-0.061800,   0.180089,   0.194036,   0.000000,   833.250366,   0.533466,   16.786739,   23.307137,   547.650269,   381.784454,   -359.080383,   0.392383,   789.564453,   776.219727
-0.061932,   0.181612,   0.195863,   0.000000,   835.612610,   0.533466,   16.786739,   22.641262,   547.960876,   385.694153,   -359.749664,   0.393369,   791.160706,   777.317322
-0.062127,   0.183361,   0.197954,   0.000000,   838.146545,   0.533467,   16.786739,   21.975388,   548.265076,   389.688171,   -360.554840,   0.394280,   792.968079,   778.648804
-0.062406,   0.185380,   0.200357,   0.000000,   840.866089,   0.533467,   16.786739,   21.309513,   548.591858,   393.716339,   -361.511230,   0.395091,   795.013916,   780.254028
-0.062795,   0.187716,   0.203121,   0.000000,   843.782898,   0.533466,   16.786739,   20.643641,   548.973511,   397.717773,   -362.635071,   0.395778,   797.325134,   782.174805
-0.063321,   0.190422,   0.206301,   0.000000,   846.906128,   0.533466,   16.786739,   19.977766,   549.448242,   401.619781,   -363.942230,   0.396314,   799.927734,   784.452637
-0.064020,   0.193549,   0.209951,   0.000000,   850.241516,   0.533466,   16.786739,   19.311893,   550.058960,   405.338135,   -365.447968,   0.396671,   802.845337,   787.128174
-0.064927,   0.197153,   0.214127,   0.000000,   853.790527,   0.533466,   16.786739,   18.646019,   550.852783,   408.778290,   -367.166199,   0.396821,   806.098572,   790.239075
-0.066086,   0.201292,   0.218887,   0.000000,   857.550903,   0.533466,   16.786739,   17.980146,   551.881653,   411.838470,   -369.107849,   0.396738,   809.703674,   793.817322
-0.067540,   0.206020,   0.224286,   0.000000,   861.515686,   0.533467,   16.786739,   17.314272,   553.202820,   414.411621,   -371.278809,   0.396399,   813.671021,   797.885620
-0.069340,   0.211394,   0.230379,   0.000000,   865.672058,   0.533466,   16.786739,   16.648397,   554.875916,   416.386047,   -373.679504,   0.395785,   818.004395,   802.457275
-0.071537,   0.217464,   0.237214,   0.000000,   870.000671,   0.533466,   16.786739,   15.982523,   556.962036,   417.647217,   -376.303223,   0.394883,   822.699585,   807.533630
-0.074186,   0.224281,   0.244839,   0.000000,   874.474670,   0.533466,   16.786739,   15.316649,   559.523071,   418.075287,   -379.135498,   0.393679,   827.744751,   813.104126
-0.077344,   0.231887,   0.253294,   0.000000,   879.057678,   0.533466,   16.786739,   14.650777,   562.618958,   417.541534,   -382.153839,   0.392165,   833.119995,   819.147644
-0.081070,   0.240320,   0.262611,   0.000000,   883.699707,   0.533466,   16.786739,   13.984902,   566.300232,   415.904846,   -385.328247,   0.390323,   838.796387,   825.632935
-0.085425,   0.249609,   0.272813,   0.000000,   888.333496,   0.533466,   16.786739,   13.319029,   570.607178,   412.997650,   -388.621521,   0.388131,   844.736755,   832.521118
-0.090469,   0.259772,   0.283916,   0.000000,   892.874695,   0.533466,   16.786739,   12.653154,   575.560242,   408.633820,   -391.990570,   0.385551,   850.898132,   839.767334
-0.096260,   0.270815,   0.295921,   0.000000,   897.220337,   0.533466,   16.786739,   11.987281,   581.150635,   402.615540,   -395.385376,   0.382537,   857.230347,   847.317688
-0.102868,   0.282741,   0.308828,   0.000000,   901.255554,   0.533466,   16.786739,   11.321407,   587.330872,   394.738464,   -398.758331,   0.379021,   863.688904,   855.120728
-0.110377,   0.295571,   0.322660,   0.000000,   904.871704,   0.533466,   16.786739,   10.655534,   594.026733,   384.821747,   -402.063324,   0.374932,   870.244751,   863.128052
-0.118927,   0.309314,   0.337433,   0.000000,   907.952332,   0.533466,   16.786739,   9.989659,   601.012268,   372.771057,   -405.300568,   0.370165,   876.892029,   871.306396
-0.062874,   0.156134,   0.172556,   0.000000,   802.884583,   0.533122,   17.790113,   48.523701,   397.006226,   428.151184,   -389.995087,   0.347296,   791.983093,   791.277954
-0.058861,   0.150543,   0.165955,   0.000000,   798.947998,   0.533123,   17.790113,   47.860813,   405.243225,   422.278778,   -385.092834,   0.351366,   785.051147,   783.879883
-0.055879,   0.146184,   0.160769,   0.000000,   795.593445,   0.533122,   17.790113,   47.197926,   413.299713,   416.081329,   -380.900391,   0.354778,   779.249207,   777.598511
-0.053814,   0.143002,   0.156896,   0.000000,   792.837402,   0.533121,   17.790113,   46.535042,   421.341095,   409.457184,   -377.391510,   0.357538,   774.554993,   772.457825
-0.052536,   0.140901,   0.154218,   0.000000,   790.697815,   0.533122,   17.790113,   45.872154,   429.280029,   402.600006,   -374.520294,   0.359686,   770.932129,   768.451477
-0.051892,   0.139761,   0.152606,   0.000000,   789.176636,   0.533123,   17.790113,   45.209270,   437.055084,   395.730896,   -372.210602,   0.361311,   768.300781,   765.508728
-0.051743,   0.139460,   0.151925,   0.000000,   788.270142,   0.533122,   17.790113,   44.546383,   444.648438,   389.027557,   -370.389526,   0.362510,   766.576416,   763.542114
-0.051972,   0.139865,   0.152033,   0.000000,   787.929688,   0.533121,   17.790113,   43.883495,   452.022064,   382.646210,   -368.968597,   0.363390,   765.631104,   762.411499
-0.052475,   0.140845,   0.152789,   0.000000,   788.100586,   0.533123,   17.790113,   43.220608,   459.152405,   376.718231,   -367.863403,   0.364055,   765.334534,   761.969482
-0.053167,   0.142280,   0.154064,   0.000000,   788.720581,   0.533121,   17.790113,   42.557724,   466.018402,   371.341187,   -367.000336,   0.364595,   765.560791,   762.072815
-0.053978,   0.144062,   0.155740,   0.000000,   789.724304,   0.533122,   17.790113,   41.894836,   472.606567,   366.572113,   -366.318268,   0.365085,   766.195068,   762.591797
-0.054855,   0.146095,   0.157715,   0.000000,   791.043579,   0.533121,   17.790113,   41.231953,   478.903229,   362.431427,   -365.769226,   0.365574,   767.135376,   763.413269
-0.055756,   0.148297,   0.159896,   0.000000,   792.608398,   0.533123,   17.790113,   40.569065,   484.897644,   358.902283,   -365.316345,   0.366093,   768.292786,   764.441589
-0.056649,   0.150595,   0.162206,   0.000000,   794.352295,   0.533121,   17.790113,   39.906178,   490.581268,   355.945496,   -364.931885,   0.366656,   769.592651,   765.598389
-0.057514,   0.152932,   0.164580,   0.000000,   796.214844,   0.533122,   17.790113,   39.243294,   495.946259,   353.510681,   -364.595856,   0.367266,   770.973816,   766.821228
-0.058333,   0.155258,   0.166962,   0.000000,   798.143677,   0.533123,   17.790113,   38.580406,   500.988556,   351.543640,   -364.293121,   0.367921,   772.386963,   768.060852
-0.059098,   0.157533,   0.169308,   0.000000,   800.095886,   0.533120,   17.790113,   37.917519,   505.704620,   349.995758,   -364.013092,   0.368617,   773.793457,   769.279236
-0.059801,   0.159726,   0.171583,   0.000000,   802.035828,   0.533123,   17.790113,   37.254635,   510.093262,   348.819397,   -363.748779,   0.369347,   775.164001,   770.448303
-0.060440,   0.161814,   0.173758,   0.000000,   803.934326,   0.533121,   17.790113,   36.591747,   514.156006,   347.966522,   -363.496338,   0.370100,   776.477173,   771.548950
-0.061015,   0.163780,   0.175814,   0.000000,   805.770874,   0.533123,   17.790113,   35.928864,   517.894592,   347.402222,   -363.253967,   0.370870,   777.718262,   772.567993
-0.061527,   0.165612,   0.177737,   0.000000,   807.528687,   0.533120,   17.790113,   35.265976,   521.312927,   347.088837,   -363.022247,   0.371646,   778.878296,   773.499268
-0.061980,   0.167304,   0.179518,   0.000000,   809.197632,   0.533123,   17.790113,   34.603092,   524.417480,   346.996948,   -362.802429,   0.372422,   779.952637,   774.340088
-0.062375,   0.168853,   0.181153,   0.000000,   810.771057,   0.533123,   17.790113,   33.940201,   527.214355,   347.100800,   -362.597290,   0.373189,   780.940308,   775.091858
-0.062717,   0.170258,   0.182641,   0.000000,   812.245911,   0.533120,   17.790113,   33.277317,   529.712097,   347.380005,   -362.409058,   0.373942,   781.842285,   775.757385
-0.063009,   0.171523,   0.183984,   0.000000,   813.622314,   0.533123,   17.790113,   32.614429,   531.919006,   347.820160,   -362.240265,   0.374679,   782.661194,   776.340881
-0.063253,   0.172649,   0.185185,   0.000000,   814.903748,   0.533122,   17.790113,   31.951544,   533.843994,   348.413055,   -362.093597,   0.375396,   783.401672,   776.847473
-0.063452,   0.173644,   0.186250,   0.000000,   816.096069,   0.533121,   17.790113,   31.288658,   535.496704,   349.154938,   -361.971497,   0.376094,   784.069275,   777.283386
-0.063610,   0.174514,   0.187187,   0.000000,   817.207275,   0.533122,   17.790113,   30.625772,   536.886780,   350.046997,   -361.876526,   0.376775,   784.670959,   777.655212
-0.063729,   0.175266,   0.188004,   0.000000,   818.247437,   0.533122,   17.790113,   29.962887,   538.023987,   351.094299,   -361.811066,   0.377442,   785.214355,   777.969910
-0.063810,   0.175909,   0.188711,   0.000000,   819.228088,   0.533122,   17.790113,   29.300001,   538.918091,   352.305786,   -361.777557,   0.378098,   785.708069,   778.234985
-0.063855,   0.176455,   0.189321,   0.000000,   820.162842,   0.533122,   17.790113,   28.637114,   539.579956,   353.693146,   -361.778107,   0.378749,   786.161438,   778.458069
-0.063868,   0.176913,   0.189846,   0.000000,   821.065613,   0.533122,   17.790113,   27.974228,   540.019104,   355.268768,   -361.815643,   0.379399,   786.585205,   778.648254
-0.063849,   0.177297,   0.190302,   0.000000,   821.951843,   0.533123,   17.790113,   27.311340,   540.246521,   357.045410,   -361.893127,   0.380052,   786.991150,   778.815796
-0.063801,   0.177622,   0.190705,   0.000000,   822.837830,   0.533122,   17.790113,   26.648455,   540.273438,   359.034576,   -362.014191,   0.380711,   787.392700,   778.972717
-0.063728,   0.177906,   0.191077,   0.000000,   823.740540,   0.533121,   17.790113,   25.985569,   540.111816,   361.246368,   -362.183167,   0.381380,   787.804688,   779.132629
-0.063633,   0.178167,   0.191438,   0.000000,   824.677734,   0.533122,   17.790113,   25.322683,   539.774170,   363.687561,   -362.405487,   0.382057,   788.244202,   779.312439
-0.063521,   0.178428,   0.191816,   0.000000,   825.668335,   0.533121,   17.790113,   24.659798,   539.274292,   366.363190,   -362.687531,   0.382741,   788.730164,   779.531128
-0.063398,   0.178715,   0.192239,   0.000000,   826.732422,   0.533122,   17.790113,   23.996910,   538.627441,   369.274200,   -363.037170,   0.383428,   789.284302,   779.811340
-0.063273,   0.179057,   0.192740,   0.000000,   827.891052,   0.533121,   17.790113,   23.334024,   537.849304,   372.417664,   -363.464294,   0.384112,   789.931091,   780.179932
-0.063155,   0.179488,   0.193357,   0.000000,   829.166748,   0.533122,   17.790113,   22.671139,   536.959167,   375.786224,   -363.979675,   0.384785,   790.697266,   780.666626
-0.063060,   0.180046,   0.194131,   0.000000,   830.582703,   0.533123,   17.790113,   22.008251,   535.977783,   379.365204,   -364.596863,   0.385434,   791.613159,   781.306213
-0.063002,   0.180772,   0.195109,   0.000000,   832.162964,   0.533122,   17.790113,   21.345366,   534.929077,   383.133820,   -365.330933,   0.386043,   792.711365,   782.137634
-0.063004,   0.181715,   0.196344,   0.000000,   833.932129,   0.533122,   17.790113,   20.682480,   533.840515,   387.061920,   -366.199402,   0.386596,   794.027283,   783.203918
-0.063090,   0.182927,   0.197892,   0.000000,   835.913696,   0.533122,   17.790113,   20.019594,   532.744934,   391.106689,   -367.221436,   0.387068,   795.598022,   784.552429
-0.063290,   0.184467,   0.199814,   0.000000,   838.128845,   0.533121,   17.790113,   19.356709,   531.680481,   395.210114,   -368.417877,   0.387434,   797.461548,   786.232666
-0.063639,   0.186396,   0.202176,   0.000000,   840.597473,   0.533122,   17.790113,   18.693821,   530.692017,   399.300690,   -369.811157,   0.387663,   799.656311,   788.296875
-0.064179,   0.188783,   0.205051,   0.000000,   843.337463,   0.533121,   17.790113,   18.030935,   529.832153,   403.293762,   -371.424347,   0.387726,   802.220703,   790.797485
-0.064957,   0.191700,   0.208515,   0.000000,   846.364563,   0.533123,   17.790113,   17.368050,   529.163574,   407.092499,   -373.279419,   0.387592,   805.190918,   793.784241
-0.066026,   0.195225,   0.212646,   0.000000,   849.691650,   0.533122,   17.790113,   16.705162,   528.757812,   410.591736,   -375.395813,   0.387233,   808.599304,   797.301270
-0.067444,   0.199434,   0.217526,   0.000000,   853.328003,   0.533122,   17.790113,   16.042276,   528.695984,   413.679932,   -377.788116,   0.386629,   812.472290,   801.383179
-0.069274,   0.204408,   0.223236,   0.000000,   857.279724,   0.533122,   17.790113,   15.379390,   529.069641,   416.244202,   -380.463287,   0.385766,   816.828430,   806.051758
-0.071586,   0.210225,   0.229858,   0.000000,   861.549683,   0.533122,   17.790113,   14.716504,   529.981323,   418.172852,   -383.418457,   0.384642,   821.677612,   811.314087
-0.074450,   0.216968,   0.237476,   0.000000,   866.137024,   0.533122,   17.790113,   14.053617,   531.543701,   419.354248,   -386.640045,   0.383262,   827.020630,   817.162781
-0.077944,   0.224713,   0.246170,   0.000000,   871.031982,   0.533122,   17.790113,   13.390732,   533.881287,   419.664490,   -390.101105,   0.381641,   832.846375,   823.574890
-0.082142,   0.233541,   0.256026,   0.000000,   876.219299,   0.533122,   17.790113,   12.727845,   537.124756,   418.974609,   -393.762817,   0.379795,   839.135620,   830.517029
-0.087123,   0.243535,   0.267136,   0.000000,   881.679382,   0.533122,   17.790113,   12.064960,   541.412903,   417.149628,   -397.572540,   0.377746,   845.862488,   837.947266
-0.092975,   0.254776,   0.279592,   0.000000,   887.379578,   0.533122,   17.790113,   11.402073,   546.854797,   414.053162,   -401.471497,   0.375503,   852.995483,   845.821472
-0.099771,   0.267358,   0.293510,   0.000000,   893.312805,   0.533122,   17.790113,   10.739187,   553.548523,   409.632355,   -405.385406,   0.373105,   860.508728,   854.092102
-0.107645,   0.281425,   0.309067,   0.000000,   899.544861,   0.533122,   17.790113,   10.076301,   561.471497,   404.076752,   -409.273224,   0.370612,   868.426392,   862.756165
-0.078449,   0.199711,   0.220844,   0.000000,   844.403320,   0.532940,   18.796381,   48.480339,   454.416412,   429.154205,   -402.419830,   0.356775,   825.516846,   823.422424
-0.072884,   0.190278,   0.209970,   0.000000,   837.725464,   0.532942,   18.796381,   47.818947,   454.545563,   426.080505,   -397.157501,   0.359240,   817.120239,   814.580627
-0.068397,   0.182445,   0.200943,   0.000000,   832.047363,   0.532942,   18.796381,   47.157555,   455.877686,   422.830750,   -392.345337,   0.361731,   809.725769,   806.692566
-0.064877,   0.176037,   0.193519,   0.000000,   827.142212,   0.532939,   18.796381,   46.496166,   458.276245,   418.952332,   -388.030090,   0.364023,   803.270996,   799.746460
-0.062220,   0.170914,   0.187524,   0.000000,   822.932251,   0.532942,   18.796381,   45.834774,   461.435608,   414.518494,   -384.239746,   0.366013,   797.743896,   793.764954
-0.060302,   0.166951,   0.182812,   0.000000,   819.388794,   0.532942,   18.796381,   45.173382,   465.149841,   409.685669,   -380.962982,   0.367677,   793.120361,   788.742065
-0.059006,   0.164019,   0.179238,   0.000000,   816.469971,   0.532939,   18.796381,   44.511990,   469.255829,   404.575256,   -378.174103,   0.369007,   789.354065,   784.644470
-0.058217,   0.161987,   0.176663,   0.000000,   814.130249,   0.532942,   18.796381,   43.850601,   473.618683,   399.314240,   -375.831940,   0.370022,   786.379517,   781.410156
-0.057834,   0.160733,   0.174952,   0.000000,   812.327271,   0.532940,   18.796381,   43.189209,   478.136841,   394.032684,   -373.885071,   0.370763,   784.120667,   778.958191
-0.057767,   0.160138,   0.173978,   0.000000,   811.015991,   0.532942,   18.796381,   42.527821,   482.728271,   388.854401,   -372.277405,   0.371285,   782.492615,   777.192688
-0.057942,   0.160089,   0.173621,   0.000000,   810.147278,   0.532940,   18.796381,   41.866428,   487.322754,   383.889282,   -370.953522,   0.371643,   781.406433,   776.010925
-0.058290,   0.160482,   0.173768,   0.000000,   809.669189,   0.532940,   18.796381,   41.205036,   491.861542,   379.223785,   -369.863281,   0.371889,   780.774902,   775.312317
-0.058760,   0.161224,   0.174317,   0.000000,   809.528687,   0.532942,   18.796381,   40.543648,   496.298370,   374.917450,   -368.962616,   0.372069,   780.515503,   775.002625
-0.059305,   0.162231,   0.175179,   0.000000,   809.671753,   0.532940,   18.796381,   39.882256,   500.595856,   371.003021,   -368.214508,   0.372214,   780.552795,   774.996948
-0.059892,   0.163430,   0.176273,   0.000000,   810.047546,   0.532940,   18.796381,   39.220863,   504.723145,   367.497833,   -367.588379,   0.372353,   780.819519,   775.221069
-0.060493,   0.164758,   0.177531,   0.000000,   810.605164,   0.532942,   18.796381,   38.559475,   508.657410,   364.392761,   -367.059692,   0.372498,   781.256531,   775.612061
-0.061087,   0.166161,   0.178891,   0.000000,   811.298401,   0.532939,   18.796381,   37.898083,   512.379456,   361.671326,   -366.608856,   0.372660,   781.813293,   776.116943
-0.061658,   0.167593,   0.180304,   0.000000,   812.086182,   0.532942,   18.796381,   37.236691,   515.873901,   359.312256,   -366.220154,   0.372842,   782.446777,   776.691406
-0.062197,   0.169015,   0.181725,   0.000000,   812.933350,   0.532942,   18.796381,   36.575302,   519.128357,   357.293243,   -365.881592,   0.373046,   783.121765,   777.300049
-0.062696,   0.170396,   0.183120,   0.000000,   813.809021,   0.532940,   18.796381,   35.913910,   522.133606,   355.586914,   -365.584625,   0.373271,   783.809937,   777.915161
-0.063149,   0.171712,   0.184460,   0.000000,   814.688477,   0.532940,   18.796381,   35.252518,   524.882202,   354.170685,   -365.323090,   0.373514,   784.489136,   778.515320
-0.063556,   0.172944,   0.185721,   0.000000,   815.550232,   0.532942,   18.796381,   34.591129,   527.369873,   353.019592,   -365.092102,   0.373771,   785.141174,   779.083435
-0.063914,   0.174074,   0.186886,   0.000000,   816.376709,   0.532940,   18.796381,   33.929737,   529.592285,   352.111267,   -364.889160,   0.374038,   785.752625,   779.607788
-0.064225,   0.175093,   0.187941,   0.000000,   817.154480,   0.532940,   18.796381,   33.268345,   531.548218,   351.425446,   -364.712402,   0.374309,   786.313660,   780.079834
-0.064487,   0.175991,   0.188876,   0.000000,   817.872620,   0.532940,   18.796381,   32.606956,   533.236938,   350.942169,   -364.561462,   0.374580,   786.817566,   780.494690
-0.064704,   0.176765,   0.189684,   0.000000,   818.523376,   0.532942,   18.796381,   31.945564,   534.658997,   350.645386,   -364.436432,   0.374846,   787.260071,   780.849426
-0.064875,   0.177410,   0.190362,   0.000000,   819.101624,   0.532940,   18.796381,   31.284174,   535.815491,   350.522461,   -364.337708,   0.375103,   787.638733,   781.143005
-0.065002,   0.177926,   0.190907,   0.000000,   819.604431,   0.532941,   18.796381,   30.622782,   536.708374,   350.564026,   -364.265930,   0.375349,   787.952637,   781.375305
-0.065086,   0.178313,   0.191320,   0.000000,   820.031494,   0.532941,   18.796381,   29.961391,   537.340210,   350.764954,   -364.221832,   0.375583,   788.202454,   781.547668
-0.065128,   0.178573,   0.191602,   0.000000,   820.384399,   0.532940,   18.796381,   29.300001,   537.713684,   351.123749,   -364.206299,   0.375803,   788.389832,   781.661926
-0.065129,   0.178709,   0.191758,   0.000000,   820.667480,   0.532941,   18.796381,   28.638609,   537.833252,   351.643494,   -364.219788,   0.376012,   788.517822,   781.720337
-0.065089,   0.178725,   0.191791,   0.000000,   820.886597,   0.532941,   18.796381,   27.977219,   537.701660,   352.331207,   -364.263428,   0.376213,   788.590393,   781.726440
-0.065009,   0.178626,   0.191710,   0.000000,   821.049927,   0.532941,   18.796381,   27.315826,   537.323669,   353.196777,   -364.338074,   0.376408,   788.612976,   781.684204
-0.064889,   0.178422,   0.191523,   0.000000,   821.167358,   0.532940,   18.796381,   26.654436,   536.704041,   354.252655,   -364.444946,   0.376602,   788.592224,   781.599121
-0.064730,   0.178120,   0.191242,   0.000000,   821.250793,   0.532940,   18.796381,   25.993046,   535.848633,   355.512421,   -364.585724,   0.376800,   788.536804,   781.478271
-0.064534,   0.177734,   0.190880,   0.000000,   821.313721,   0.532942,   18.796381,   25.331656,   534.763855,   356.990356,   -364.762634,   0.377004,   788.456909,   781.330566
-0.064301,   0.177276,   0.190454,   0.000000,   821.371460,   0.532940,   18.796381,   24.670263,   533.457031,   358.700806,   -364.978821,   0.377218,   788.365295,   781.167480
-0.064034,   0.176766,   0.189985,   0.000000,   821.441345,   0.532941,   18.796381,   24.008873,   531.936951,   360.656525,   -365.238617,   0.377445,   788.277405,   781.003723
-0.063738,   0.176224,   0.189498,   0.000000,   821.543091,   0.532941,   18.796381,   23.347481,   530.213013,   362.869537,   -365.548065,   0.377683,   788.211975,   780.857727
-0.063418,   0.175676,   0.189021,   0.000000,   821.699158,   0.532940,   18.796381,   22.686090,   528.297546,   365.351227,   -365.914246,   0.377932,   788.191223,   780.751587
-0.063082,   0.175152,   0.188589,   0.000000,   821.935730,   0.532941,   18.796381,   22.024700,   526.204102,   368.111725,   -366.346985,   0.378190,   788.242004,   780.713013
-0.062741,   0.174689,   0.188244,   0.000000,   822.281494,   0.532940,   18.796381,   21.363308,   523.949646,   371.156616,   -366.858185,   0.378450,   788.395752,   780.774841
-0.062409,   0.174328,   0.188032,   0.000000,   822.767883,   0.532942,   18.796381,   20.701918,   521.553223,   374.487030,   -367.462585,   0.378705,   788.688538,   780.975830
-0.062106,   0.174118,   0.188005,   0.000000,   823.427917,   0.532940,   18.796381,   20.040525,   519.038269,   378.095734,   -368.177277,   0.378940,   789.160583,   781.360352
-0.061854,   0.174113,   0.188223,   0.000000,   824.296631,   0.532940,   18.796381,   19.379135,   516.432922,   381.964905,   -369.022858,   0.379139,   789.857300,   781.979675
-0.061684,   0.174375,   0.188754,   0.000000,   825.409973,   0.532941,   18.796381,   18.717745,   513.770874,   386.063568,   -370.023651,   0.379279,   790.828613,   782.891418
-0.061631,   0.174976,   0.189674,   0.000000,   826.803406,   0.532941,   18.796381,   18.056355,   511.092255,   390.342651,   -371.208191,   0.379330,   792.128845,   784.160461
-0.061740,   0.175991,   0.191066,   0.000000,   828.512939,   0.532941,   18.796381,   17.394962,   508.447632,   394.737823,   -372.607513,   0.379259,   793.815125,   785.855225
-0.062061,   0.177507,   0.193020,   0.000000,   830.573059,   0.532940,   18.796381,   16.733572,   505.898041,   399.164795,   -374.255890,   0.379030,   795.946655,   788.047363
-0.062656,   0.179618,   0.195637,   0.000000,   833.016907,   0.532941,   18.796381,   16.072182,   503.516846,   403.524048,   -376.188690,   0.378605,   798.582214,   790.808289
-0.063592,   0.182421,   0.199021,   0.000000,   835.875549,   0.532941,   18.796381,   15.410790,   501.391510,   407.703583,   -378.439789,   0.377950,   801.777100,   794.203064
-0.064945,   0.186019,   0.203281,   0.000000,   839.178589,   0.532941,   18.796381,   14.749399,   499.624359,   411.588959,   -381.037872,   0.377042,   805.580322,   798.286194
-0.066799,   0.190519,   0.208530,   0.000000,   842.954956,   0.532941,   18.796381,   14.088008,   498.335144,   415.068329,   -384.002899,   0.375872,   810.031616,   803.096008
-0.069243,   0.196032,   0.214889,   0.000000,   847.233765,   0.532940,   18.796381,   13.426618,   497.671295,   418.027344,   -387.342834,   0.374445,   815.160583,   808.653931
-0.072375,   0.202668,   0.222476,   0.000000,   852.039001,   0.532940,   18.796381,   12.765226,   497.802948,   420.352783,   -391.048370,   0.372789,   820.979797,   814.957703
-0.076289,   0.210543,   0.231422,   0.000000,   857.399963,   0.532941,   18.796381,   12.103836,   498.937683,   421.938782,   -395.090393,   0.370952,   827.489746,   821.985352
-0.081089,   0.219786,   0.241879,   0.000000,   863.348450,   0.532940,   18.796381,   11.442445,   501.317444,   422.663177,   -399.426727,   0.368993,   834.685608,   829.709290
-0.086866,   0.230531,   0.254013,   0.000000,   869.952454,   0.532941,   18.796381,   10.781054,   505.227112,   422.511566,   -403.971558,   0.367037,   842.546875,   838.071045
-0.093732,   0.242978,   0.268088,   0.000000,   877.436890,   0.532941,   18.796381,   10.119662,   510.812073,   421.955322,   -408.645142,   0.365309,   851.121582,   847.061035
-0.093732,   0.242978,   0.268087,   0.000000,   877.436768,   0.532941,   19.803617,   48.480339,   510.812134,   421.954987,   -408.645142,   0.365309,   851.121521,   847.060974
-0.086866,   0.230531,   0.254012,   0.000000,   869.952332,   0.532943,   19.803617,   47.818947,   505.226990,   422.511475,   -403.971588,   0.367037,   842.546814,   838.070984
-0.081089,   0.219786,   0.241879,   0.000000,   863.348450,   0.532943,   19.803617,   47.157555,   501.317413,   422.663269,   -399.426727,   0.368993,   834.685608,   829.709229
-0.076289,   0.210543,   0.231422,   0.000000,   857.399902,   0.532940,   19.803617,   46.496166,   498.937744,   421.938599,   -395.090393,   0.370952,   827.489685,   821.985413
-0.072375,   0.202668,   0.222476,   0.000000,   852.039001,   0.532943,   19.803617,   45.834774,   497.802856,   420.352905,   -391.048370,   0.372789,   820.979797,   814.957703
-0.069243,   0.196032,   0.214889,   0.000000,   847.233765,   0.532943,   19.803617,   45.173382,   497.671295,   418.027283,   -387.342834,   0.374445,   815.160583,   808.653870
-0.066799,   0.190519,   0.208530,   0.000000,   842.954956,   0.532940,   19.803617,   44.511990,   498.335114,   415.068268,   -384.002899,   0.375872,   810.031555,   803.095886
-0.064945,   0.186019,   0.203281,   0.000000,   839.178589,   0.532943,   19.803617,   43.850601,   499.624268,   411.589050,   -381.037872,   0.377042,   805.580322,   798.286133
-0.063592,   0.182421,   0.199021,   0.000000,   835.875488,   0.532941,   19.803617,   43.189209,   501.391510,   407.703430,   -378.439789,   0.377950,   801.777100,   794.203064
-0.062656,   0.179618,   0.195637,   0.000000,   833.016907,   0.532943,   19.803617,   42.527821,   503.516785,   403.524139,   -376.188690,   0.378605,   798.582214,   790.808289
-0.062061,   0.177507,   0.193020,   0.000000,   830.573059,   0.532941,   19.803617,   41.866428,   505.898071,   399.164856,   -374.255890,   0.379030,   795.946716,   788.047363
-0.061740,   0.175991,   0.191066,   0.000000,   828.512939,   0.532941,   19.803617,   41.205036,   508.447571,   394.737885,   -372.607513,   0.379259,   793.815125,   785.855225
-0.061631,   0.174976,   0.189674,   0.000000,   826.803345,   0.532943,   19.803617,   40.543648,   511.092194,   390.342651,   -371.208191,   0.379330,   792.128845,   784.160522
-0.061684,   0.174375,   0.188754,   0.000000,   825.409973,   0.532941,   19.803617,   39.882256,   513.770935,   386.063568,   -370.023621,   0.379279,   790.828613,   782.891479
-0.061854,   0.174113,   0.188223,   0.000000,   824.296570,   0.532941,   19.803617,   39.220863,   516.432861,   381.964905,   -369.022858,   0.379139,   789.857239,   781.979675
-0.062106,   0.174118,   0.188005,   0.000000,   823.427856,   0.532943,   19.803617,   38.559475,   519.038269,   378.095673,   -368.177246,   0.378940,   789.160583,   781.360352
-0.062409,   0.174328,   0.188032,   0.000000,   822.767883,   0.532940,   19.803617,   37.898083,   521.553223,   374.487061,   -367.462585,   0.378705,   788.688538,   780.975891
-0.062741,   0.174689,   0.188244,   0.000000,   822.281494,   0.532943,   19.803617,   37.236691,   523.949646,   371.156586,   -366.858185,   0.378450,   788.395752,   780.774780
-0.063082,   0.175152,   0.188589,   0.000000,   821.935730,   0.532943,   19.803617,   36.575302,   526.204102,   368.111755,   -366.346985,   0.378190,   788.242004,   780.712952
-0.063418,   0.175676,   0.189021,   0.000000,   821.699158,   0.532941,   19.803617,   35.913910,   528.297546,   365.351196,   -365.914246,   0.377932,   788.191162,   780.751648
-0.063738,   0.176224,   0.189498,   0.000000,   821.543091,   0.532941,   19.803617,   35.252518,   530.213013,   362.869568,   -365.548065,   0.377683,   788.211975,   780.857788
-0.064034,   0.176766,   0.189985,   0.000000,   821.441345,   0.532943,   19.803617,   34.591129,   531.936951,   360.656494,   -365.238617,   0.377445,   788.277405,   781.003723
-0.064301,   0.177276,   0.190454,   0.000000,   821.371399,   0.532941,   19.803617,   33.929737,   533.457031,   358.700775,   -364.978821,   0.377218,   788.365295,   781.167419
-0.064534,   0.177734,   0.190880,   0.000000,   821.313721,   0.532941,   19.803617,   33.268345,   534.763855,   356.990387,   -364.762634,   0.377004,   788.456909,   781.330566
-0.064730,   0.178120,   0.191242,   0.000000,   821.250793,   0.532941,   19.803617,   32.606956,   535.848633,   355.512421,   -364.585724,   0.376800,   788.536804,   781.478271
-0.064889,   0.178422,   0.191523,   0.000000,   821.167358,   0.532943,   19.803617,   31.945564,   536.704041,   354.252625,   -364.444946,   0.376602,   788.592224,   781.599121
-0.065009,   0.178626,   0.191710,   0.000000,   821.049927,   0.532941,   19.803617,   31.284174,   537.323669,   353.196777,   -364.338074,   0.376408,   788.612976,   781.684204
-0.065089,   0.178725,   0.191791,   0.000000,   820.886597,   0.532942,   19.803617,   30.622782,   537.701660,   352.331207,   -364.263428,   0.376213,   788.590393,   781.726440
-0.065129,   0.178709,   0.191758,   0.000000,   820.667480,   0.532942,   19.803617,   29.961391,   537.833191,   351.643494,   -364.219788,   0.376012,   788.517822,   781.720337
-0.065128,   0.178573,   0.191602,   0.000000,   820.384399,   0.532941,   19.803617,   29.300001,   537.713684,   351.123749,   -364.206299,   0.375803,   788.389832,   781.661926
-0.065086,   0.178313,   0.191320,   0.000000,   820.031494,   0.532942,   19.803617,   28.638609,   537.340210,   350.764954,   -364.221832,   0.375583,   788.202454,   781.547668
-0.065002,   0.177926,   0.190907,   0.000000,   819.604431,   0.532942,   19.803617,   27.977219,   536.708374,   350.564026,   -364.265930,   0.375349,   787.952637,   781.375305
-0.064875,   0.177410,   0.190362,   0.000000,   819.101624,   0.532942,   19.803617,   27.315826,   535.815491,   350.522461,   -364.337708,   0.375103,   787.638733,   781.143005
-0.064704,   0.176765,   0.189684,   0.000000,   818.523376,   0.532941,   19.803617,   26.654436,   534.658997,   350.645386,   -364.436432,   0.374846,   787.260071,   780.849426
-0.064487,   0.175991,   0.188876,   0.000000,   817.872620,   0.532941,   19.803617,   25.993046,   533.236877,   350.942169,   -364.561493,   0.374580,   786.817566,   780.494629
-0.064225,   0.175093,   0.187941,   0.000000,   817.154480,   0.532943,   19.803617,   25.331656,   531.548218,   351.425415,   -364.712402,   0.374309,   786.313660,   780.079773
-0.063914,   0.174074,   0.186886,   0.000000,   816.376648,   0.532941,   19.803617,   24.670263,   529.592224,   352.111267,   -364.889160,   0.374038,   785.752625,   779.607788
-0.063556,   0.172944,   0.185721,   0.000000,   815.550232,   0.532942,   19.803617,   24.008873,   527.369812,   353.019623,   -365.092102,   0.373771,   785.141113,   779.083496
-0.063149,   0.171712,   0.184460,   0.000000,   814.688477,   0.532942,   19.803617,   23.347481,   524.882202,   354.170654,   -365.323090,   0.373514,   784.489136,   778.515320
-0.062696,   0.170396,   0.183120,   0.000000,   813.808960,   0.532941,   19.803617,   22.686090,   522.133484,   355.586945,   -365.584656,   0.373271,   783.809937,   777.915161
-0.062197,   0.169015,   0.181725,   0.000000,   812.933350,   0.532942,   19.803617,   22.024700,   519.128418,   357.293213,   -365.881592,   0.373046,   783.121765,   777.300110
-0.061658,   0.167593,   0.180304,   0.000000,   812.086182,   0.532941,   19.803617,   21.363308,   515.873901,   359.312225,   -366.220154,   0.372842,   782.446777,   776.691406
-0.061087,   0.166161,   0.178891,   0.000000,   811.298340,   0.532943,   19.803617,   20.701918,   512.379395,   361.671295,   -366.608856,   0.372660,   781.813293,   776.116882
-0.060493,   0.164758,   0.177531,   0.000000,   810.605164,   0.532941,   19.803617,   20.040525,   508.657349,   364.392792,   -367.059723,   0.372498,   781.256592,   775.612061
-0.059892,   0.163430,   0.176273,   0.000000,   810.047485,   0.532941,   19.803617,   19.379135,   504.723083,   367.497803,   -367.588409,   0.372353,   780.819519,   775.221069
-0.059305,   0.162231,   0.175179,   0.000000,   809.671753,   0.532942,   19.803617,   18.717745,   500.595825,   371.003113,   -368.214508,   0.372214,   780.552795,   774.996887
-0.058760,   0.161224,   0.174317,   0.000000,   809.528625,   0.532942,   19.803617,   18.056355,   496.298309,   374.917450,   -368.962616,   0.372069,   780.515503,   775.002625
-0.058290,   0.160482,   0.173768,   0.000000,   809.669189,   0.532942,   19.803617,   17.394962,   491.861511,   379.223755,   -369.863312,   0.371889,   780.774902,   775.312439
-0.057942,   0.160089,   0.173621,   0.000000,   810.147278,   0.532941,   19.803617,   16.733572,   487.322754,   383.889374,   -370.953522,   0.371643,   781.406433,   776.010925
-0.057767,   0.160138,   0.173978,   0.000000,   811.015991,   0.532942,   19.803617,   16.072182,   482.728302,   388.854401,   -372.277405,   0.371285,   782.492615,   777.192749
-0.057834,   0.160733,   0.174952,   0.000000,   812.327209,   0.532942,   19.803617,   15.410790,   478.136719,   394.032684,   -373.885101,   0.370763,   784.120667,   778.958191
-0.058217,   0.161987,   0.176663,   0.000000,   814.130249,   0.532942,   19.803617,   14.749399,   473.618744,   399.314240,   -375.831909,   0.370022,   786.379517,   781.410156
-0.059006,   0.164019,   0.179238,   0.000000,   816.469971,   0.532942,   19.803617,   14.088008,   469.255859,   404.575226,   -378.174103,   0.369007,   789.354065,   784.644470
-0.060302,   0.166951,   0.182812,   0.000000,   819.388794,   0.532942,   19.803617,   13.426618,   465.149811,   409.685730,   -380.963013,   0.367677,   793.120361,   788.742126
-0.062220,   0.170914,   0.187524,   0.000000,   822.932312,   0.532942,   19.803617,   12.765226,   461.435760,   414.518585,   -384.239685,   0.366013,   797.743896,   793.764954
-0.064877,   0.176037,   0.193519,   0.000000,   827.142273,   0.532942,   19.803617,   12.103836,   458.276337,   418.952271,   -388.030121,   0.364024,   803.271057,   799.746460
-0.068397,   0.182445,   0.200943,   0.000000,   832.047485,   0.532942,   19.803617,   11.442445,   455.877838,   422.830902,   -392.345306,   0.361731,   809.725769,   806.692566
-0.072884,   0.190278,   0.209970,   0.000000,   837.725586,   0.532942,   19.803617,   10.781054,   454.545776,   426.080597,   -397.157471,   0.359240,   817.120300,   814.580688
-0.078449,   0.199711,   0.220844,   0.000000,   844.403381,   0.532942,   19.803617,   10.119662,   454.416504,   429.154114,   -402.419861,   0.356775,   825.516907,   823.422485
-0.107645,   0.281425,   0.309068,   0.000000,   899.544983,   0.533120,   20.809887,   48.523701,   561.471680,   404.076874,   -409.273193,   0.370612,   868.426453,   862.756104
-0.099771,   0.267358,   0.293510,   0.000000,   893.312927,   0.533122,   20.809887,   47.860813,   553.548523,   409.632751,   -405.385406,   0.373105,   860.508789,   854.092163
-0.092975,   0.254776,   0.279592,   0.000000,   887.379700,   0.533120,   20.809887,   47.197926,   546.854858,   414.053558,   -401.471436,   0.375504,   852.995483,   845.821350
-0.087123,   0.243535,   0.267136,   0.000000,   881.679382,   0.533120,   20.809887,   46.535042,   541.413025,   417.149414,   -397.572540,   0.377746,   845.862488,   837.947327
-0.082141,   0.233541,   0.256026,   0.000000,   876.219421,   0.533120,   20.809887,   45.872154,   537.124756,   418.974976,   -393.762817,   0.379795,   839.135681,   830.517090
-0.077944,   0.224713,   0.246170,   0.000000,   871.032104,   0.533122,   20.809887,   45.209270,   533.881348,   419.664612,   -390.101105,   0.381641,   832.846436,   823.574951
-0.074450,   0.216968,   0.237476,   0.000000,   866.137024,   0.533120,   20.809887,   44.546383,   531.543762,   419.354095,   -386.640076,   0.383262,   827.020691,   817.162842
-0.071586,   0.210225,   0.229858,   0.000000,   861.549805,   0.533120,   20.809887,   43.883495,   529.981384,   418.173096,   -383.418457,   0.384642,   821.677673,   811.314148
-0.069274,   0.204408,   0.223236,   0.000000,   857.279724,   0.533122,   20.809887,   43.220608,   529.069763,   416.244141,   -380.463257,   0.385766,   816.828430,   806.051758
-0.067444,   0.199434,   0.217526,   0.000000,   853.328125,   0.533120,   20.809887,   42.557724,   528.696045,   413.680115,   -377.788116,   0.386629,   812.472351,   801.383179
-0.066026,   0.195225,   0.212646,   0.000000,   849.691650,   0.533120,   20.809887,   41.894836,   528.757874,   410.591675,   -375.395782,   0.387233,   808.599304,   797.301208
-0.064957,   0.191701,   0.208515,   0.000000,   846.364624,   0.533120,   20.809887,   41.231953,   529.163696,   407.092590,   -373.279388,   0.387592,   805.190979,   793.784302
-0.064179,   0.188783,   0.205052,   0.000000,   843.337524,   0.533122,   20.809887,   40.569065,   529.832214,   403.293854,   -371.424347,   0.387726,   802.220764,   790.797485
-0.063639,   0.186396,   0.202176,   0.000000,   840.597473,   0.533120,   20.809887,   39.906178,   530.692139,   399.300507,   -369.811127,   0.387663,   799.656311,   788.296814
-0.063290,   0.184467,   0.199814,   0.000000,   838.128906,   0.533120,   20.809887,   39.243294,   531.680542,   395.210144,   -368.417877,   0.387434,   797.461548,   786.232666
-0.063090,   0.182927,   0.197892,   0.000000,   835.913696,   0.533122,   20.809887,   38.580406,   532.745056,   391.106659,   -367.221405,   0.387068,   795.598022,   784.552429
-0.063004,   0.181715,   0.196344,   0.000000,   833.932129,   0.533119,   20.809887,   37.917519,   533.840576,   387.061890,   -366.199371,   0.386596,   794.027283,   783.203979
-0.063002,   0.180772,   0.195109,   0.000000,   832.163025,   0.533122,   20.809887,   37.254635,   534.929077,   383.133881,   -365.330933,   0.386043,   792.711365,   782.137573
-0.063060,   0.180046,   0.194131,   0.000000,   830.582703,   0.533120,   20.809887,   36.591747,   535.977844,   379.365234,   -364.596863,   0.385434,   791.613220,   781.306274
-0.063155,   0.179488,   0.193357,   0.000000,   829.166748,   0.533122,   20.809887,   35.928864,   536.959229,   375.786224,   -363.979645,   0.384785,   790.697266,   780.666443
-0.063273,   0.179057,   0.192740,   0.000000,   827.891052,   0.533119,   20.809887,   35.265976,   537.849304,   372.417694,   -363.464264,   0.384112,   789.931030,   780.179871
-0.063398,   0.178715,   0.192239,   0.000000,   826.732483,   0.533122,   20.809887,   34.603092,   538.627502,   369.274200,   -363.037170,   0.383428,   789.284302,   779.811401
-0.063521,   0.178428,   0.191816,   0.000000,   825.668335,   0.533122,   20.809887,   33.940201,   539.274353,   366.363190,   -362.687500,   0.382741,   788.730103,   779.531006
-0.063633,   0.178167,   0.191438,   0.000000,   824.677734,   0.533119,   20.809887,   33.277317,   539.774170,   363.687592,   -362.405457,   0.382057,   788.244141,   779.312317
-0.063728,   0.177906,   0.191077,   0.000000,   823.740601,   0.533122,   20.809887,   32.614429,   540.111877,   361.246368,   -362.183167,   0.381380,   787.804688,   779.132629
-0.063801,   0.177622,   0.190705,   0.000000,   822.837830,   0.533121,   20.809887,   31.951544,   540.273438,   359.034546,   -362.014191,   0.380711,   787.392639,   778.972656
-0.063849,   0.177297,   0.190302,   0.000000,   821.951843,   0.533120,   20.809887,   31.288658,   540.246521,   357.045410,   -361.893127,   0.380052,   786.991150,   778.815796
-0.063868,   0.176913,   0.189846,   0.000000,   821.065613,   0.533120,   20.809887,   30.625772,   540.019104,   355.268768,   -361.815643,   0.379399,   786.585205,   778.648254
-0.063855,   0.176455,   0.189321,   0.000000,   820.162781,   0.533121,   20.809887,   29.962887,   539.579956,   353.693115,   -361.778107,   0.378749,   786.161438,   778.458069
-0.063810,   0.175909,   0.188711,   0.000000,   819.228088,   0.533120,   20.809887,   29.300001,   538.918091,   352.305786,   -361.777557,   0.378098,   785.708069,   778.234985
-0.063729,   0.175266,   0.188004,   0.000000,   818.247437,   0.533121,   20.809887,   28.637114,   538.023987,   351.094299,   -361.811066,   0.377442,   785.214355,   777.969910
-0.063610,   0.174514,   0.187187,   0.000000,   817.207275,   0.533120,   20.809887,   27.974228,   536.886780,   350.046997,   -361.876526,   0.376775,   784.670959,   777.655212
-0.063452,   0.173644,   0.186250,   0.000000,   816.096069,   0.533122,   20.809887,   27.311340,   535.496704,   349.154938,   -361.971497,   0.376094,   784.069275,   777.283386
-0.063253,   0.172649,   0.185185,   0.000000,   814.903748,   0.533120,   20.809887,   26.648455,   533.843994,   348.413055,   -362.093597,   0.375396,   783.401672,   776.847473
-0.063009,   0.171523,   0.183984,   0.000000,   813.622314,   0.533120,   20.809887,   25.985569,   531.919006,   347.820160,   -362.240265,   0.374679,   782.661194,   776.340881
-0.062717,   0.170258,   0.182641,   0.000000,   812.245850,   0.533121,   20.809887,   25.322683,   529.712036,   347.379974,   -362.409058,   0.373942,   781.842285,   775.757385
-0.062375,   0.168853,   0.181153,   0.000000,   810.771057,   0.533120,   20.809887,   24.659798,   527.214355,   347.100800,   -362.597290,   0.373189,   780.940308,   775.091858
-0.061980,   0.167304,   0.179518,   0.000000,   809.197632,   0.533121,   20.809887,   23.996910,   524.417419,   346.996948,   -362.802429,   0.372422,   779.952637,   774.339966
-0.061527,   0.165612,   0.177737,   0.000000,   807.528687,   0.533120,   20.809887,   23.334024,   521.312927,   347.088837,   -363.022247,   0.371646,   778.878296,   773.499268
-0.061015,   0.163780,   0.175814,   0.000000,   805.770874,   0.533120,   20.809887,   22.671139,   517.894592,   347.402252,   -363.253967,   0.370870,   777.718262,   772.568054
-0.060440,   0.161814,   0.173758,   0.000000,   803.934326,   0.533122,   20.809887,   22.008251,   514.156067,   347.966492,   -363.496307,   0.370100,   776.477112,   771.548950
-0.059801,   0.159726,   0.171583,   0.000000,   802.035889,   0.533120,   20.809887,   21.345366,   510.093323,   348.819366,   -363.748779,   0.369347,   775.164001,   770.448364
-0.059098,   0.157533,   0.169308,   0.000000,   800.095825,   0.533121,   20.809887,   20.682480,   505.704559,   349.995789,   -364.013092,   0.368617,   773.793396,   769.279297
-0.058333,   0.155258,   0.166962,   0.000000,   798.143677,   0.533120,   20.809887,   20.019594,   500.988556,   351.543640,   -364.293121,   0.367921,   772.386963,   768.060852
-0.057514,   0.152932,   0.164580,   0.000000,   796.214844,   0.533120,   20.809887,   19.356709,   495.946350,   353.510651,   -364.595825,   0.367266,   770.973816,   766.821167
-0.056649,   0.150595,   0.162206,   0.000000,   794.352295,   0.533121,   20.809887,   18.693821,   490.581146,   355.945526,   -364.931946,   0.366656,   769.592651,   765.598389
-0.055756,   0.148297,   0.159896,   0.000000,   792.608398,   0.533120,   20.809887,   18.030935,   484.897675,   358.902252,   -365.316345,   0.366093,   768.292786,   764.441589
-0.054855,   0.146096,   0.157715,   0.000000,   791.043579,   0.533122,   20.809887,   17.368050,   478.903320,   362.431427,   -365.769226,   0.365574,   767.135376,   763.413269
-0.053978,   0.144062,   0.155740,   0.000000,   789.724304,   0.533120,   20.809887,   16.705162,   472.606537,   366.572083,   -366.318298,   0.365085,   766.195129,   762.591858
-0.053167,   0.142280,   0.154064,   0.000000,   788.720642,   0.533121,   20.809887,   16.042276,   466.018524,   371.341187,   -367.000305,   0.364595,   765.560791,   762.072815
-0.052475,   0.140845,   0.152789,   0.000000,   788.100586,   0.533121,   20.809887,   15.379390,   459.152374,   376.718201,   -367.863434,   0.364055,   765.334534,   761.969482
-0.051972,   0.139865,   0.152033,   0.000000,   787.929749,   0.533121,   20.809887,   14.716504,   452.022156,   382.646210,   -368.968567,   0.363390,   765.631104,   762.411499
-0.051743,   0.139460,   0.151925,   0.000000,   788.270020,   0.533121,   20.809887,   14.053617,   444.648315,   389.027252,   -370.389618,   0.362510,   766.576416,   763.542175
-0.051892,   0.139761,   0.152606,   0.000000,   789.176636,   0.533121,   20.809887,   13.390732,   437.054993,   395.730927,   -372.210632,   0.361311,   768.300842,   765.508728
-0.052536,   0.140900,   0.154218,   0.000000,   790.697815,   0.533121,   20.809887,   12.727845,   429.280060,   402.600098,   -374.520264,   0.359686,   770.932068,   768.451477
-0.053814,   0.143002,   0.156896,   0.000000,   792.837219,   0.533121,   20.809887,   12.064960,   421.340881,   409.456726,   -377.391632,   0.357538,   774.554993,   772.457947
-0.055879,   0.146184,   0.160769,   0.000000,   795.593445,   0.533121,   20.809887,   11.402073,   413.299591,   416.081512,   -380.900360,   0.354778,   779.249207,   777.598572
-0.058861,   0.150543,   0.165955,   0.000000,   798.947937,   0.533121,   20.809887,   10.739187,   405.243011,   422.278748,   -385.092865,   0.351366,   785.051147,   783.879883
-0.062874,   0.156134,   0.172555,   0.000000,   802.884460,   0.533121,   20.809887,   10.076301,   397.005951,   428.151123,   -389.995117,   0.347296,   791.983032,   791.277893
-0.118927,   0.309314,   0.337434,   0.000000,   907.952454,   0.533468,   21.813259,   48.610340,   601.012573,   372.771057,   -405.300507,   0.370165,   876.892151,   871.306458
-0.110377,   0.295571,   0.322660,   0.000000,   904.871948,   0.533468,   21.813259,   47.944466,   594.026794,   384.822174,   -402.063354,   0.374932,   870.244812,   863.128113
-0.102868,   0.282741,   0.308828,   0.000000,   901.255676,   0.533466,   21.813259,   47.278591,   587.331116,   394.738617,   -398.758270,   0.379021,   863.688965,   855.120728
-0.096260,   0.270815,   0.295921,   0.000000,   897.220459,   0.533468,   21.813259,   46.612720,   581.150879,   402.615631,   -395.385315,   0.382537,   857.230347,   847.317688
-0.090469,   0.259772,   0.283917,   0.000000,   892.874817,   0.533466,   21.813259,   45.946846,   575.560425,   408.634094,   -391.990509,   0.385551,   850.898193,   839.767273
-0.085425,   0.249609,   0.272814,   0.000000,   888.333557,   0.533468,   21.813259,   45.280972,   570.607422,   412.997803,   -388.621429,   0.388131,   844.736755,   832.520996
-0.081070,   0.240320,   0.262611,   0.000000,   883.699829,   0.533468,   21.813259,   44.615097,   566.300415,   415.904999,   -385.328186,   0.390323,   838.796387,   825.632874
-0.077344,   0.231887,   0.253294,   0.000000,   879.057800,   0.533466,   21.813259,   43.949223,   562.619141,   417.541748,   -382.153778,   0.392165,   833.119995,   819.147644
-0.074186,   0.224281,   0.244839,   0.000000,   874.474731,   0.533468,   21.813259,   43.283348,   559.523254,   418.075378,   -379.135406,   0.393680,   827.744751,   813.104065
-0.071537,   0.217464,   0.237214,   0.000000,   870.000732,   0.533466,   21.813259,   42.617477,   556.962158,   417.647339,   -376.303162,   0.394883,   822.699585,   807.533508
-0.069340,   0.211394,   0.230379,   0.000000,   865.672119,   0.533468,   21.813259,   41.951603,   554.876038,   416.386169,   -373.679413,   0.395785,   818.004333,   802.457214
-0.067540,   0.206020,   0.224286,   0.000000,   861.515747,   0.533466,   21.813259,   41.285728,   553.203003,   414.411530,   -371.278748,   0.396399,   813.671021,   797.885559
-0.066086,   0.201292,   0.218887,   0.000000,   857.550964,   0.533468,   21.813259,   40.619858,   551.881653,   411.838623,   -369.107819,   0.396738,   809.703613,   793.817200
-0.064927,   0.197153,   0.214127,   0.000000,   853.790527,   0.533469,   21.813259,   39.953979,   550.852905,   408.778168,   -367.166168,   0.396821,   806.098511,   790.239075
-0.064020,   0.193549,   0.209951,   0.000000,   850.241516,   0.533466,   21.813259,   39.288105,   550.059021,   405.338196,   -365.447937,   0.396671,   802.845337,   787.128174
-0.063321,   0.190422,   0.206301,   0.000000,   846.906128,   0.533468,   21.813259,   38.622231,   549.448303,   401.619812,   -363.942169,   0.396314,   799.927673,   784.452515
-0.062795,   0.187716,   0.203121,   0.000000,   843.782898,   0.533466,   21.813259,   37.956360,   548.973572,   397.717712,   -362.635040,   0.395778,   797.325134,   782.174744
-0.062406,   0.185380,   0.200357,   0.000000,   840.866150,   0.533468,   21.813259,   37.290485,   548.591797,   393.716461,   -361.511230,   0.395091,   795.013916,   780.254089
-0.062127,   0.183361,   0.197954,   0.000000,   838.146545,   0.533466,   21.813259,   36.624611,   548.265076,   389.688171,   -360.554810,   0.394280,   792.968079,   778.648804
-0.061932,   0.181612,   0.195863,   0.000000,   835.612610,   0.533468,   21.813259,   35.958740,   547.960876,   385.694122,   -359.749664,   0.393369,   791.160706,   777.317261
-0.061800,   0.180089,   0.194036,   0.000000,   833.250366,   0.533466,   21.813259,   35.292866,   547.650269,   381.784454,   -359.080383,   0.392383,   789.564453,   776.219727
-0.061714,   0.178752,   0.192430,   0.000000,   831.044556,   0.533468,   21.813259,   34.626991,   547.308167,   377.999817,   -358.532104,   0.391341,   788.151978,   775.317688
-0.061657,   0.177562,   0.191002,   0.000000,   828.977722,   0.533468,   21.813259,   33.961117,   546.910156,   374.371033,   -358.091888,   0.390259,   786.896729,   774.576721
-0.061619,   0.176485,   0.189716,   0.000000,   827.032654,   0.533466,   21.813259,   33.295242,   546.435913,   370.922272,   -357.747223,   0.389153,   785.773193,   773.964111
-0.061588,   0.175489,   0.188536,   0.000000,   825.191406,   0.533468,   21.813259,   32.629368,   545.865845,   367.670563,   -357.487427,   0.388033,   784.757385,   773.450989
-0.061557,   0.174547,   0.187431,   0.000000,   823.435547,   0.533468,   21.813259,   31.963495,   545.181213,   364.626465,   -357.303223,   0.386909,   783.826721,   773.011597
-0.061519,   0.173632,   0.186371,   0.000000,   821.746948,   0.533467,   21.813259,   31.297621,   544.365173,   361.795868,   -357.186310,   0.385784,   782.960266,   772.622986
-0.061468,   0.172722,   0.185329,   0.000000,   820.107483,   0.533467,   21.813259,   30.631748,   543.401062,   359.180420,   -357.129486,   0.384664,   782.138550,   772.264771
-0.061399,   0.171795,   0.184283,   0.000000,   818.498474,   0.533468,   21.813259,   29.965874,   542.273071,   356.776337,   -357.126587,   0.383549,   781.343384,   771.918945
-0.061310,   0.170832,   0.183210,   0.000000,   816.901245,   0.533467,   21.813259,   29.299999,   540.965332,   354.576447,   -357.172241,   0.382437,   780.557739,   771.569641
-0.061195,   0.169815,   0.182089,   0.000000,   815.297180,   0.533467,   21.813259,   28.634127,   539.463257,   352.570862,   -357.261292,   0.381326,   779.765747,   771.202209
-0.061053,   0.168729,   0.180902,   0.000000,   813.667297,   0.533467,   21.813259,   27.968252,   537.750732,   350.746857,   -357.389740,   0.380210,   778.952576,   770.803833
-0.060879,   0.167558,   0.179633,   0.000000,   811.992981,   0.533468,   21.813259,   27.302378,   535.812866,   349.090881,   -357.553284,   0.379086,   778.103821,   770.362183
-0.060670,   0.166289,   0.178264,   0.000000,   810.255798,   0.533467,   21.813259,   26.636505,   533.634399,   347.589050,   -357.747864,   0.377945,   777.205872,   769.865601
-0.060423,   0.164908,   0.176782,   0.000000,   808.437317,   0.533467,   21.813259,   25.970631,   531.199036,   346.227692,   -357.969574,   0.376782,   776.245361,   769.302551
-0.060134,   0.163403,   0.175172,   0.000000,   806.521973,   0.533468,   21.813259,   25.304758,   528.490479,   345.001099,   -358.214081,   0.375594,   775.209717,   768.661194
-0.059797,   0.161762,   0.173421,   0.000000,   804.493469,   0.533467,   21.813259,   24.638884,   525.492676,   343.902008,   -358.476471,   0.374375,   774.086121,   767.929138
-0.059410,   0.159974,   0.171517,   0.000000,   802.337708,   0.533467,   21.813259,   23.973009,   522.187744,   342.930664,   -358.751801,   0.373123,   772.862122,   767.093750
-0.058964,   0.158028,   0.169450,   0.000000,   800.043030,   0.533467,   21.813259,   23.307137,   518.557678,   342.094391,   -359.034607,   0.371840,   771.526062,   766.142456
-0.058456,   0.155916,   0.167209,   0.000000,   797.599365,   0.533467,   21.813259,   22.641262,   514.585144,   341.403076,   -359.318878,   0.370525,   770.066956,   765.062866
-0.057878,   0.153632,   0.164790,   0.000000,   795.002808,   0.533468,   21.813259,   21.975388,   510.251862,   340.882843,   -359.598511,   0.369187,   768.475952,   763.843140
-0.057225,   0.151172,   0.162190,   0.000000,   792.253052,   0.533468,   21.813259,   21.309513,   505.540558,   340.566162,   -359.867004,   0.367834,   766.745972,   762.473511
-0.056491,   0.148538,   0.159410,   0.000000,   789.356262,   0.533467,   21.813259,   20.643641,   500.435181,   340.497467,   -360.117737,   0.366480,   764.873413,   760.946228
-0.055671,   0.145734,   0.156458,   0.000000,   786.325562,   0.533467,   21.813259,   19.977766,   494.919983,   340.732147,   -360.344849,   0.365140,   762.859253,   759.258911
-0.054762,   0.142772,   0.153349,   0.000000,   783.182190,   0.533467,   21.813259,   19.311893,   488.980621,   341.337219,   -360.543335,   0.363834,   760.710449,   757.414368
-0.053763,   0.139673,   0.150105,   0.000000,   779.955505,   0.533467,   21.813259,   18.646019,   482.603088,   342.386383,   -360.710724,   0.362581,   758.441895,   755.424988
-0.052677,   0.136465,   0.146761,   0.000000,   776.682983,   0.533467,   21.813259,   17.980146,   475.771179,   343.959412,   -360.848511,   0.361396,   756.078857,   753.314270
-0.051513,   0.133186,   0.143359,   0.000000,   773.413208,   0.533468,   21.813259,   17.314272,   468.464111,   346.146881,   -360.963287,   0.360291,   753.659302,   751.119629
-0.050284,   0.129887,   0.139956,   0.000000,   770.212402,   0.533467,   21.813259,   16.648397,   460.666443,   349.045288,   -361.068634,   0.359277,   751.241882,   748.900208
-0.049016,   0.126632,   0.136622,   0.000000,   767.141541,   0.533467,   21.813259,   15.982523,   452.341797,   352.760223,   -361.174652,   0.358357,   748.883240,   746.713989
-0.047744,   0.123498,   0.133441,   0.000000,   764.289185,   0.533467,   21.813259,   15.316649,   443.465881,   357.381226,   -361.310883,   0.357514,   746.681702,   744.664185
-0.046518,   0.120577,   0.130514,   0.000000,   761.739746,   0.533467,   21.813259,   14.650777,   433.994080,   362.975555,   -361.515167,   0.356706,   744.749939,   742.871765
-0.045410,   0.117978,   0.127957,   0.000000,   759.567627,   0.533467,   21.813259,   13.984902,   423.863556,   369.545624,   -361.845245,   0.355841,   743.224915,   741.488464
-0.044506,   0.115814,   0.125893,   0.000000,   757.821228,   0.533467,   21.813259,   13.319029,   412.990784,   377.006409,   -362.376251,   0.354773,   742.256470,   740.684937
-0.043917,   0.114208,   0.124449,   0.000000,   756.522339,   0.533467,   21.813259,   12.653154,   401.264313,   385.203583,   -363.199646,   0.353309,   742.002930,   740.641479
-0.043785,   0.113280,   0.123749,   0.000000,   755.649048,   0.533467,   21.813259,   11.987281,   388.501190,   393.928406,   -364.424133,   0.351202,   742.621033,   741.533447
-0.044274,   0.113139,   0.123906,   0.000000,   755.123108,   0.533467,   21.813259,   11.321407,   374.490631,   402.889648,   -366.157745,   0.348174,   744.244141,   743.494873
-0.045581,   0.113871,   0.125012,   0.000000,   754.790466,   0.533467,   21.813259,   10.655534,   358.919464,   411.761932,   -368.503815,   0.343914,   746.971802,   746.591309
-0.047878,   0.115440,   0.127041,   0.000000,   754.248169,   0.533467,   21.813259,   9.989659,   341.122040,   420.141815,   -371.521271,   0.337995,   750.764893,   750.691101
-0.126172,   0.322490,   0.348939,   0.000000,   902.372925,   0.533953,   22.811810,   48.740093,   626.888977,   329.531158,   -397.251434,   0.363686,   876.599792,   872.839233
-0.117387,   0.310540,   0.336560,   0.000000,   903.101624,   0.533950,   22.811810,   48.069744,   622.530823,   347.775269,   -394.725708,   0.371148,   871.445129,   865.586121
-0.109529,   0.298879,   0.324398,   0.000000,   902.653076,   0.533951,   22.811810,   47.399399,   617.648804,   363.343750,   -392.052856,   0.377532,   866.144470,   858.119507
-0.102504,   0.287589,   0.312535,   0.000000,   901.210999,   0.533950,   22.811810,   46.729050,   612.543030,   376.384888,   -389.230621,   0.382989,   860.711365,   850.568176
-0.096222,   0.276743,   0.301056,   0.000000,   898.953674,   0.533950,   22.811810,   46.058701,   607.392578,   387.113098,   -386.306641,   0.387635,   855.190735,   843.055542
-0.090632,   0.266398,   0.290030,   0.000000,   896.036987,   0.533951,   22.811810,   45.388355,   602.339783,   395.733521,   -383.324585,   0.391573,   849.626648,   835.675232
-0.085686,   0.256596,   0.279508,   0.000000,   892.602112,   0.533950,   22.811810,   44.718006,   597.477966,   402.465576,   -380.330292,   0.394892,   844.066040,   828.501526
-0.081338,   0.247379,   0.269544,   0.000000,   888.783020,   0.533950,   22.811810,   44.047657,   592.878601,   407.526398,   -377.367126,   0.397667,   838.562439,   821.598999
-0.077541,   0.238774,   0.260177,   0.000000,   884.696716,   0.533951,   22.811810,   43.377312,   588.587891,   411.116913,   -374.474518,   0.399962,   833.167358,   815.021912
-0.074251,   0.230795,   0.251435,   0.000000,   880.439819,   0.533950,   22.811810,   42.706963,   584.630920,   413.411316,   -371.686951,   0.401824,   827.926819,   808.815063
-0.071421,   0.223444,   0.243327,   0.000000,   876.091675,   0.533950,   22.811810,   42.036613,   581.013489,   414.565247,   -369.034393,   0.403290,   822.880432,   803.014771
-0.069006,   0.216710,   0.235853,   0.000000,   871.716309,   0.533951,   22.811810,   41.366264,   577.727051,   414.717163,   -366.541718,   0.404389,   818.061157,   797.649109
-0.066964,   0.210575,   0.229002,   0.000000,   867.365662,   0.533950,   22.811810,   40.695919,   574.753418,   413.993683,   -364.228210,   0.405144,   813.495239,   792.737183
-0.065252,   0.205014,   0.222755,   0.000000,   863.081238,   0.533953,   22.811810,   40.025570,   572.067810,   412.511902,   -362.107330,   0.405576,   809.202087,   788.288574
-0.063831,   0.199996,   0.217085,   0.000000,   858.895996,   0.533950,   22.811810,   39.355221,   569.639587,   410.384216,   -360.187317,   0.405709,   805.194397,   784.303345
-0.062661,   0.195486,   0.211962,   0.000000,   854.835449,   0.533950,   22.811810,   38.684872,   567.435974,   407.718536,   -358.470581,   0.405565,   801.478210,   780.771179
-0.061707,   0.191444,   0.207348,   0.000000,   850.918030,   0.533951,   22.811810,   38.014526,   565.423096,   404.617432,   -356.954559,   0.405170,   798.052734,   777.672974
-0.060935,   0.187830,   0.203204,   0.000000,   847.156067,   0.533950,   22.811810,   37.344177,   563.565186,   401.177979,   -355.633698,   0.404549,   794.912292,   774.982849
-0.060317,   0.184603,   0.199488,   0.000000,   843.557129,   0.533950,   22.811810,   36.673828,   561.828125,   397.490479,   -354.499512,   0.403730,   792.046692,   772.670044
-0.059825,   0.181720,   0.196158,   0.000000,   840.124512,   0.533951,   22.811810,   36.003483,   560.181335,   393.637482,   -353.540680,   0.402740,   789.441772,   770.699280
-0.059434,   0.179141,   0.193174,   0.000000,   836.857300,   0.533950,   22.811810,   35.333134,   558.595825,   389.691315,   -352.745026,   0.401605,   787.080566,   769.034058
-0.059125,   0.176828,   0.190494,   0.000000,   833.751465,   0.533951,   22.811810,   34.662785,   557.045776,   385.716827,   -352.099030,   0.400353,   784.943787,   767.636414
-0.058879,   0.174742,   0.188078,   0.000000,   830.799072,   0.533950,   22.811810,   33.992435,   555.505310,   381.767334,   -351.590149,   0.399004,   783.010620,   766.469971
-0.058681,   0.172849,   0.185889,   0.000000,   827.990479,   0.533950,   22.811810,   33.322090,   553.952209,   377.888855,   -351.205170,   0.397581,   781.259155,   765.499329
-0.058517,   0.171115,   0.183889,   0.000000,   825.313965,   0.533951,   22.811810,   32.651741,   552.364685,   374.119873,   -350.931793,   0.396102,   779.667358,   764.690430
-0.058376,   0.169508,   0.182046,   0.000000,   822.755981,   0.533951,   22.811810,   31.981392,   550.721802,   370.490295,   -350.758759,   0.394584,   778.213074,   764.012512
-0.058249,   0.167999,   0.180325,   0.000000,   820.301941,   0.533951,   22.811810,   31.311045,   549.004150,   367.024719,   -350.675201,   0.393040,   776.874451,   763.436523
-0.058128,   0.166561,   0.178697,   0.000000,   817.935913,   0.533950,   22.811810,   30.640696,   547.192444,   363.740021,   -350.671600,   0.391481,   775.630249,   762.936218
-0.058006,   0.165168,   0.177134,   0.000000,   815.641235,   0.533951,   22.811810,   29.970348,   545.267883,   360.648285,   -350.739197,   0.389913,   774.459961,   762.488037
-0.057876,   0.163798,   0.175608,   0.000000,   813.399719,   0.533951,   22.811810,   29.299999,   543.211731,   357.754700,   -350.870087,   0.388342,   773.343567,   762.070129
-0.057735,   0.162428,   0.174094,   0.000000,   811.191589,   0.533951,   22.811810,   28.629652,   541.005615,   355.056610,   -351.057343,   0.386770,   772.261902,   761.663696
-0.057577,   0.161037,   0.172570,   0.000000,   808.997131,   0.533950,   22.811810,   27.959303,   538.630615,   352.551208,   -351.294312,   0.385195,   771.196167,   761.250488
-0.057398,   0.159605,   0.171012,   0.000000,   806.794678,   0.533951,   22.811810,   27.288956,   536.068298,   350.228302,   -351.574432,   0.383615,   770.127625,   760.813110
-0.057193,   0.158115,   0.169399,   0.000000,   804.561646,   0.533951,   22.811810,   26.618608,   533.299377,   348.074036,   -351.891815,   0.382024,   769.038147,   760.335999
-0.056959,   0.156547,   0.167711,   0.000000,   802.275085,   0.533951,   22.811810,   25.948259,   530.303345,   346.075104,   -352.240692,   0.380417,   767.909729,   759.803101
-0.056690,   0.154885,   0.165927,   0.000000,   799.908508,   0.533951,   22.811810,   25.277912,   527.059387,   344.207825,   -352.615295,   0.378784,   766.723755,   759.198975
-0.056382,   0.153110,   0.164029,   0.000000,   797.437988,   0.533951,   22.811810,   24.607563,   523.546265,   342.458069,   -353.008820,   0.377116,   765.461487,   758.506165
-0.056028,   0.151206,   0.161996,   0.000000,   794.837830,   0.533951,   22.811810,   23.937216,   519.739807,   340.810577,   -353.414764,   0.375407,   764.103699,   757.707397
-0.055623,   0.149156,   0.159811,   0.000000,   792.082886,   0.533951,   22.811810,   23.266867,   515.615845,   339.253418,   -353.825409,   0.373649,   762.630554,   756.782898
-0.055158,   0.146942,   0.157453,   0.000000,   789.147400,   0.533950,   22.811810,   22.596519,   511.147797,   337.777863,   -354.232361,   0.371836,   761.021179,   755.711914
-0.054626,   0.144548,   0.154906,   0.000000,   786.007812,   0.533951,   22.811810,   21.926172,   506.307983,   336.384399,   -354.625977,   0.369965,   759.254150,   754.471436
-0.054018,   0.141957,   0.152151,   0.000000,   782.643188,   0.533951,   22.811810,   21.255823,   501.066498,   335.085663,   -354.995422,   0.368037,   757.307800,   753.037048
-0.053324,   0.139155,   0.149174,   0.000000,   779.035522,   0.533951,   22.811810,   20.585474,   495.392487,   333.904694,   -355.328369,   0.366058,   755.160156,   751.383057
-0.052534,   0.136131,   0.145963,   0.000000,   775.170593,   0.533950,   22.811810,   19.915127,   489.251160,   332.877502,   -355.612396,   0.364036,   752.790771,   749.484985
-0.051638,   0.132875,   0.142508,   0.000000,   771.042664,   0.533951,   22.811810,   19.244780,   482.605255,   332.065338,   -355.833496,   0.361989,   750.180786,   747.318481
-0.050627,   0.129385,   0.138809,   0.000000,   766.660706,   0.533951,   22.811810,   18.574430,   475.422272,   331.549866,   -355.978912,   0.359940,   747.320862,   744.868713
-0.049491,   0.125664,   0.134868,   0.000000,   762.026550,   0.533951,   22.811810,   17.904083,   467.658051,   331.433838,   -356.023773,   0.357926,   744.186462,   742.105347
-0.048226,   0.121723,   0.130702,   0.000000,   757.172729,   0.533951,   22.811810,   17.233734,   459.275269,   331.844208,   -355.955475,   0.355983,   740.782959,   739.029846
-0.046828,   0.117586,   0.126336,   0.000000,   752.136414,   0.533951,   22.811810,   16.563387,   450.228882,   332.924774,   -355.757141,   0.354151,   737.117371,   735.646851
-0.045301,   0.113286,   0.121808,   0.000000,   746.965515,   0.533951,   22.811810,   15.893039,   440.454803,   334.837921,   -355.417389,   0.352464,   733.212402,   731.979736
-0.043659,   0.108875,   0.117175,   0.000000,   741.723633,   0.533950,   22.811810,   15.222691,   429.877045,   337.760254,   -354.928986,   0.350946,   729.112244,   728.075012
-0.041924,   0.104418,   0.112507,   0.000000,   736.482971,   0.533950,   22.811810,   14.552342,   418.394745,   341.875366,   -354.288086,   0.349606,   724.882202,   724.003235
-0.040137,   0.099990,   0.107886,   0.000000,   731.307068,   0.533951,   22.811810,   13.881994,   405.856445,   347.344330,   -353.498077,   0.348409,   720.609680,   719.860718
-0.038356,   0.095687,   0.103409,   0.000000,   726.242737,   0.533950,   22.811810,   13.211646,   392.067535,   354.266174,   -352.569641,   0.347257,   716.408569,   715.774292
-0.036671,   0.091614,   0.099187,   0.000000,   721.302002,   0.533951,   22.811810,   12.541299,   376.746063,   362.651794,   -351.532471,   0.345953,   712.426514,   711.909180
-0.035207,   0.087884,   0.095334,   0.000000,   716.410583,   0.533951,   22.811810,   11.870951,   359.456360,   372.362000,   -350.442017,   0.344143,   708.832336,   708.455383
-0.034130,   0.084599,   0.091946,   0.000000,   711.337769,   0.533951,   22.811810,   11.200602,   339.555817,   383.019867,   -349.374664,   0.341263,   705.785889,   705.584534
-0.033677,   0.081823,   0.089074,   0.000000,   705.615967,   0.533950,   22.811810,   10.530254,   316.035767,   394.053497,   -348.394257,   0.336508,   703.389954,   703.357971
-0.034128,   0.079543,   0.086693,   -6.184507,   698.492676,   0.533951,   22.811810,   9.859906,   287.420441,   404.887726,   -347.408752,   0.328916,   701.605347,   701.544006
-0.128192,   0.319794,   0.342885,   0.000000,   885.425293,   0.534530,   23.803621,   48.912712,   640.819214,   280.518280,   -384.660797,   0.353805,   868.026489,   866.352661
-0.119678,   0.310210,   0.333409,   0.000000,   889.114563,   0.534527,   23.803621,   48.236412,   638.890747,   302.211792,   -383.219299,   0.362956,   864.294006,   860.765625
-0.111932,   0.300519,   0.323717,   0.000000,   891.555176,   0.534530,   23.803621,   47.560112,   636.122498,   321.762543,   -381.501831,   0.371139,   860.310120,   854.528809
-0.104895,   0.290812,   0.313892,   0.000000,   892.814697,   0.534528,   23.803621,   46.883808,   632.731201,   339.037445,   -379.510651,   0.378382,   856.072754,   847.823364
-0.098506,   0.281172,   0.304027,   0.000000,   893.006287,   0.534528,   23.803621,   46.207512,   628.874878,   354.063385,   -377.295288,   0.384738,   851.609131,   840.826355
-0.092731,   0.271681,   0.294211,   0.000000,   892.244263,   0.534530,   23.803621,   45.531208,   624.705261,   366.891022,   -374.903320,   0.390262,   846.950073,   833.688660
-0.087527,   0.262417,   0.284533,   0.000000,   890.664124,   0.534528,   23.803621,   44.854908,   620.343323,   377.657623,   -372.392700,   0.395025,   842.141724,   826.541931
-0.082865,   0.253447,   0.275076,   0.000000,   888.398254,   0.534527,   23.803621,   44.178608,   615.893188,   386.522003,   -369.815918,   0.399099,   837.232849,   819.493103
-0.078711,   0.244830,   0.265909,   0.000000,   885.569580,   0.534530,   23.803621,   43.502308,   611.439270,   393.650726,   -367.219086,   0.402549,   832.270935,   812.626282
-0.075033,   0.236609,   0.257091,   0.000000,   882.291565,   0.534528,   23.803621,   42.826008,   607.046936,   399.210327,   -364.644379,   0.405436,   827.304077,   806.010559
-0.071796,   0.228823,   0.248675,   0.000000,   878.667786,   0.534528,   23.803621,   42.149708,   602.766785,   403.359253,   -362.129944,   0.407811,   822.380188,   799.704590
-0.068967,   0.221498,   0.240700,   0.000000,   874.788269,   0.534530,   23.803621,   41.473408,   598.634216,   406.243469,   -359.708984,   0.409714,   817.543335,   793.755310
-0.066509,   0.214648,   0.233190,   0.000000,   870.730164,   0.534527,   23.803621,   40.797108,   594.672180,   407.996063,   -357.409332,   0.411183,   812.832214,   788.199463
-0.064390,   0.208277,   0.226162,   0.000000,   866.559387,   0.534530,   23.803621,   40.120808,   590.892090,   408.740570,   -355.254364,   0.412246,   808.280701,   783.064514
-0.062575,   0.202383,   0.219622,   0.000000,   862.331482,   0.534528,   23.803621,   39.444504,   587.296997,   408.591766,   -353.262054,   0.412932,   803.916992,   778.368164
-0.061032,   0.196955,   0.213566,   0.000000,   858.093689,   0.534528,   23.803621,   38.768208,   583.881775,   407.659760,   -351.446106,   0.413264,   799.763977,   774.119202
-0.059730,   0.191977,   0.207984,   0.000000,   853.884888,   0.534530,   23.803621,   38.091904,   580.637390,   406.048492,   -349.814514,   0.413269,   795.838440,   770.316223
-0.058638,   0.187427,   0.202859,   0.000000,   849.736145,   0.534527,   23.803621,   37.415604,   577.546631,   403.858673,   -348.372192,   0.412970,   792.151672,   766.950684
-0.057730,   0.183278,   0.198168,   0.000000,   845.672119,   0.534528,   23.803621,   36.739307,   574.589294,   401.187744,   -347.119720,   0.412394,   788.709412,   764.005310
-0.056977,   0.179503,   0.193885,   0.000000,   841.711853,   0.534530,   23.803621,   36.063004,   571.745605,   398.127441,   -346.053192,   0.411567,   785.512146,   761.455444
-0.056357,   0.176070,   0.189980,   0.000000,   837.868347,   0.534528,   23.803621,   35.386703,   568.994080,   394.763123,   -345.166016,   0.410517,   782.555481,   759.271545
-0.055847,   0.172947,   0.186423,   0.000000,   834.150696,   0.534530,   23.803621,   34.710403,   566.313599,   391.175507,   -344.449097,   0.409272,   779.831360,   757.420044
-0.055428,   0.170103,   0.183180,   0.000000,   830.562866,   0.534528,   23.803621,   34.034103,   563.682312,   387.436340,   -343.892242,   0.407858,   777.328308,   755.865845
-0.055083,   0.167505,   0.180218,   0.000000,   827.105713,   0.534527,   23.803621,   33.357803,   561.079529,   383.610962,   -343.483948,   0.406302,   775.032288,   754.572449
-0.054796,   0.165122,   0.177506,   0.000000,   823.776611,   0.534530,   23.803621,   32.681503,   558.484985,   379.756775,   -343.212372,   0.404627,   772.927185,   753.503967
-0.054553,   0.162924,   0.175009,   0.000000,   820.570007,   0.534528,   23.803621,   32.005203,   555.879028,   375.923920,   -343.065338,   0.402857,   770.995178,   752.625061
-0.054344,   0.160881,   0.172697,   0.000000,   817.477478,   0.534529,   23.803621,   31.328901,   553.241516,   372.154602,   -343.031097,   0.401012,   769.217041,   751.902161
-0.054159,   0.158965,   0.170539,   0.000000,   814.488708,   0.534528,   23.803621,   30.652601,   550.552979,   368.484650,   -343.098267,   0.399110,   767.573120,   751.303589
-0.053988,   0.157149,   0.168505,   0.000000,   811.591309,   0.534529,   23.803621,   29.976301,   547.794006,   364.942566,   -343.256073,   0.397165,   766.043213,   750.799866
-0.053824,   0.155407,   0.166566,   0.000000,   808.771729,   0.534528,   23.803621,   29.300001,   544.945068,   361.552917,   -343.494141,   0.395191,   764.606995,   750.363281
-0.053661,   0.153715,   0.164694,   0.000000,   806.014282,   0.534529,   23.803621,   28.623699,   541.986023,   358.332764,   -343.803070,   0.393198,   763.244080,   749.968689
-0.053492,   0.152049,   0.162864,   0.000000,   803.299377,   0.534528,   23.803621,   27.947399,   538.897583,   355.285675,   -344.173859,   0.391190,   761.933594,   749.593506
-0.053312,   0.150388,   0.161051,   0.000000,   800.606995,   0.534528,   23.803621,   27.271099,   535.658142,   352.414246,   -344.598511,   0.389170,   760.655212,   749.216309
-0.053117,   0.148710,   0.159229,   0.000000,   797.914978,   0.534529,   23.803621,   26.594799,   532.246399,   349.715485,   -345.068848,   0.387137,   759.387817,   748.816650
-0.052901,   0.146993,   0.157375,   0.000000,   795.198792,   0.534529,   23.803621,   25.918497,   528.639893,   347.179138,   -345.577240,   0.385089,   758.110535,   748.375122
-0.052658,   0.145217,   0.155466,   0.000000,   792.431946,   0.534528,   23.803621,   25.242197,   524.814453,   344.791748,   -346.116058,   0.383018,   756.801697,   747.872070
-0.052384,   0.143361,   0.153478,   0.000000,   789.583923,   0.534529,   23.803621,   24.565897,   520.746216,   342.529877,   -346.677063,   0.380916,   755.438416,   747.287720
-0.052073,   0.141405,   0.151387,   0.000000,   786.623657,   0.534528,   23.803621,   23.889597,   516.408691,   340.372864,   -347.251526,   0.378773,   753.996643,   746.600220
-0.051717,   0.139328,   0.149171,   0.000000,   783.518433,   0.534529,   23.803621,   23.213297,   511.774719,   338.299255,   -347.829712,   0.376580,   752.451538,   745.786011
-0.051310,   0.137107,   0.146804,   0.000000,   780.232117,   0.534528,   23.803621,   22.536997,   506.812988,   336.285675,   -348.401276,   0.374323,   750.775513,   744.819275
-0.050842,   0.134720,   0.144262,   0.000000,   776.723999,   0.534528,   23.803621,   21.860695,   501.489563,   334.302948,   -348.954895,   0.371990,   748.938782,   743.671021
-0.050303,   0.132143,   0.141519,   0.000000,   772.960205,   0.534529,   23.803621,   21.184395,   495.768372,   332.334381,   -349.482330,   0.369565,   746.917175,   742.316772
-0.049683,   0.129354,   0.138549,   0.000000,   768.885620,   0.534529,   23.803621,   20.508095,   489.597290,   330.369812,   -349.960510,   0.367043,   744.660095,   740.702881
-0.048969,   0.126326,   0.135324,   0.000000,   764.463745,   0.534528,   23.803621,   19.831795,   482.936279,   328.402802,   -350.375732,   0.364416,   742.137207,   738.795471
-0.048147,   0.123038,   0.131820,   0.000000,   759.654541,   0.534529,   23.803621,   19.155495,   475.734070,   326.449890,   -350.707397,   0.361682,   739.307861,   736.548096
-0.047202,   0.119464,   0.128011,   0.000000,   754.417236,   0.534528,   23.803621,   18.479193,   467.928528,   324.545074,   -350.932343,   0.358848,   736.127197,   733.908997
-0.046116,   0.115585,   0.123874,   0.000000,   748.715454,   0.534529,   23.803621,   17.802893,   459.453522,   322.748138,   -351.021545,   0.355928,   732.546570,   730.821594
-0.044877,   0.111382,   0.119392,   0.000000,   742.524353,   0.534528,   23.803621,   17.126593,   450.234161,   321.164001,   -350.940887,   0.352954,   728.516724,   727.227661
-0.043464,   0.106845,   0.114550,   0.000000,   735.830750,   0.534528,   23.803621,   16.450293,   440.189667,   319.946259,   -350.645874,   0.349978,   723.984192,   723.065369
-0.041863,   0.101967,   0.109344,   0.000000,   728.634644,   0.534529,   23.803621,   15.773993,   429.221954,   319.302704,   -350.084534,   0.347071,   718.896057,   718.276550
-0.040061,   0.096758,   0.103784,   0.000000,   720.957214,   0.534528,   23.803621,   15.097692,   417.216064,   319.508911,   -349.193909,   0.344326,   713.204102,   712.811768
-0.038049,   0.091238,   0.097892,   0.000000,   712.830017,   0.534528,   23.803621,   14.421391,   404.030487,   320.890381,   -347.894806,   0.341849,   706.862183,   706.629395
-0.035830,   0.085448,   0.091708,   0.000000,   704.280334,   0.534529,   23.803621,   13.745091,   389.453064,   323.801544,   -346.099854,   0.339724,   699.836365,   699.706848
-0.033423,   0.079448,   0.085297,   0.000000,   695.307007,   0.534528,   23.803621,   13.068790,   373.185852,   328.550842,   -343.714874,   0.337968,   692.114563,   692.047302
-0.030874,   0.073322,   0.078742,   0.000000,   685.816284,   0.534529,   23.803621,   12.392490,   354.745422,   335.312103,   -340.648956,   0.336430,   683.705505,   683.675903
-0.028269,   0.067166,   0.072139,   0.000000,   675.622925,   0.534528,   23.803621,   11.716190,   333.407440,   344.198303,   -336.776855,   0.334802,   674.633728,   674.627197
-0.025750,   0.061102,   0.065602,   -1.017350,   664.437927,   0.534529,   23.803621,   11.039889,   308.050110,   355.370483,   -331.885345,   0.332568,   664.947205,   664.945435
-0.023563,   0.055227,   0.059214,   -6.603202,   651.304871,   0.534528,   23.803621,   10.363589,   276.656860,   368.044830,   -325.764984,   0.328277,   654.631470,   654.556580
-0.022081,   0.049590,   0.052994,   -17.771080,   634.383606,   0.534529,   23.803621,   9.687288,   235.712784,   380.899750,   -317.894043,   0.319429,   643.453247,   642.900696
-0.124902,   0.303847,   0.322680,   0.000000,   861.614502,   0.535148,   24.786791,   49.127861,   647.339783,   233.138214,   -366.969482,   0.344338,   852.339355,   851.869507
-0.117085,   0.296549,   0.315872,   0.000000,   866.797668,   0.535147,   24.786791,   48.444141,   646.710571,   255.058334,   -366.927704,   0.353696,   849.851868,   848.230713
-0.109867,   0.288987,   0.308698,   0.000000,   871.107788,   0.535148,   24.786791,   47.760422,   645.340271,   276.001862,   -366.545502,   0.362544,   847.108521,   843.747498
-0.103218,   0.281215,   0.301197,   0.000000,   874.438599,   0.535148,   24.786791,   47.076702,   643.304993,   295.535217,   -365.792358,   0.370754,   844.082520,   838.528137
-0.097105,   0.273297,   0.293431,   0.000000,   876.767944,   0.535148,   24.786791,   46.392986,   640.682739,   313.413147,   -364.691315,   0.378260,   840.775269,   832.718506
-0.091502,   0.265301,   0.285468,   0.000000,   878.111267,   0.535148,   24.786791,   45.709267,   637.567810,   329.468719,   -363.279999,   0.385029,   837.198181,   826.472839
-0.086384,   0.257295,   0.277384,   0.000000,   878.533203,   0.535148,   24.786791,   45.025547,   634.048950,   343.668610,   -361.615784,   0.391065,   833.379517,   819.942993
-0.081730,   0.249348,   0.269256,   0.000000,   878.115845,   0.535147,   24.786791,   44.341827,   630.217224,   356.032928,   -359.754944,   0.396394,   829.352722,   813.265930
-0.077521,   0.241527,   0.261161,   0.000000,   876.954529,   0.535148,   24.786791,   43.658108,   626.160278,   366.628479,   -357.752472,   0.401050,   825.157837,   806.561707
-0.073735,   0.233891,   0.253172,   0.000000,   875.150879,   0.535148,   24.786791,   42.974388,   621.953369,   375.558960,   -355.661987,   0.405078,   820.839050,   799.933838
-0.070347,   0.226491,   0.245353,   0.000000,   872.802673,   0.535150,   24.786791,   42.290668,   617.660522,   382.939514,   -353.531799,   0.408521,   816.440308,   793.468384
-0.067335,   0.219369,   0.237759,   0.000000,   870.001709,   0.535148,   24.786791,   41.606945,   613.334839,   388.888916,   -351.405334,   0.411419,   812.005066,   787.237366
-0.064671,   0.212561,   0.230438,   0.000000,   866.832458,   0.535147,   24.786791,   40.923229,   609.020081,   393.523468,   -349.320648,   0.413808,   807.574951,   781.300171
-0.062330,   0.206091,   0.223429,   0.000000,   863.371582,   0.535148,   24.786791,   40.239510,   604.749146,   396.957001,   -347.311523,   0.415720,   803.189209,   775.705383
-0.060284,   0.199979,   0.216760,   0.000000,   859.687378,   0.535148,   24.786791,   39.555790,   600.547913,   399.296875,   -345.406036,   0.417184,   798.883545,   770.490845
-0.058510,   0.194233,   0.210451,   0.000000,   855.840027,   0.535148,   24.786791,   38.872070,   596.432434,   400.647186,   -343.628418,   0.418226,   794.690063,   765.684448
-0.056980,   0.188860,   0.204517,   0.000000,   851.882141,   0.535148,   24.786791,   38.188351,   592.415710,   401.105530,   -341.996216,   0.418870,   790.635864,   761.303223
-0.055669,   0.183854,   0.198960,   0.000000,   847.859070,   0.535147,   24.786791,   37.504631,   588.498413,   400.769348,   -340.525299,   0.419140,   786.744446,   757.356934
-0.054552,   0.179209,   0.193780,   0.000000,   843.809937,   0.535148,   24.786791,   36.820915,   584.677124,   399.734650,   -339.226288,   0.419059,   783.034363,   753.845398
-0.053608,   0.174912,   0.188969,   0.000000,   839.766907,   0.535148,   24.786791,   36.137192,   580.947266,   398.091156,   -338.104065,   0.418651,   779.518677,   750.758301
-0.052813,   0.170945,   0.184513,   0.000000,   835.756287,   0.535148,   24.786791,   35.453476,   577.298889,   395.927307,   -337.160248,   0.417942,   776.205627,   748.078735
-0.052146,   0.167289,   0.180396,   0.000000,   831.799744,   0.535148,   24.786791,   34.769756,   573.719849,   393.330292,   -336.392853,   0.416958,   773.099121,   745.781982
-0.051589,   0.163921,   0.176596,   0.000000,   827.913208,   0.535148,   24.786791,   34.086037,   570.195862,   390.381317,   -335.796906,   0.415727,   770.198486,   743.839050
-0.051124,   0.160816,   0.173090,   0.000000,   824.108093,   0.535147,   24.786791,   33.402317,   566.711365,   387.157410,   -335.365021,   0.414276,   767.499329,   742.216248
-0.050734,   0.157949,   0.169853,   0.000000,   820.391296,   0.535148,   24.786791,   32.718597,   563.249268,   383.728790,   -335.088501,   0.412630,   764.993774,   740.879089
-0.050406,   0.155296,   0.166860,   0.000000,   816.766174,   0.535148,   24.786791,   32.034878,   559.793823,   380.158966,   -334.956665,   0.410816,   762.671143,   739.790649
-0.050126,   0.152829,   0.164083,   0.000000,   813.233521,   0.535148,   24.786791,   31.351158,   556.327515,   376.509338,   -334.958313,   0.408860,   760.518433,   738.914124
-0.049884,   0.150523,   0.161495,   0.000000,   809.791138,   0.535147,   24.786791,   30.667439,   552.833069,   372.833649,   -335.081696,   0.406786,   758.520813,   738.213318
-0.049669,   0.148354,   0.159069,   0.000000,   806.433289,   0.535149,   24.786791,   29.983719,   549.292542,   369.177582,   -335.315186,   0.404615,   756.661560,   737.653809
-0.049474,   0.146297,   0.156779,   0.000000,   803.151001,   0.535147,   24.786791,   29.299999,   545.687378,   365.577606,   -335.647491,   0.402366,   754.922729,   737.203491
-0.049289,   0.144326,   0.154597,   0.000000,   799.934326,   0.535148,   24.786791,   28.616280,   541.998108,   362.069183,   -336.067352,   0.400055,   753.285461,   736.831238
-0.049109,   0.142420,   0.152497,   0.000000,   796.771179,   0.535148,   24.786791,   27.932560,   538.204773,   358.682007,   -336.563721,   0.397699,   751.730103,   736.507324
-0.048927,   0.140554,   0.150455,   0.000000,   793.644470,   0.535147,   24.786791,   27.248842,   534.285522,   355.431549,   -337.126770,   0.395305,   750.236023,   736.205811
-0.048737,   0.138707,   0.148443,   0.000000,   790.535034,   0.535148,   24.786791,   26.565123,   530.218567,   352.327087,   -337.746552,   0.392881,   748.781616,   735.901917
-0.048534,   0.136855,   0.146438,   0.000000,   787.421265,   0.535148,   24.786791,   25.881403,   525.980896,   349.373230,   -338.413147,   0.390428,   747.344849,   735.571350
-0.048312,   0.134978,   0.144415,   0.000000,   784.279175,   0.535147,   24.786791,   25.197683,   521.548035,   346.568420,   -339.116852,   0.387949,   745.902588,   735.190430
-0.048066,   0.133053,   0.142349,   0.000000,   781.079651,   0.535148,   24.786791,   24.513964,   516.894653,   343.899994,   -339.847473,   0.385438,   744.430054,   734.735840
-0.047790,   0.131058,   0.140214,   0.000000,   777.788208,   0.535147,   24.786791,   23.830246,   511.991333,   341.344879,   -340.595490,   0.382885,   742.900879,   734.183899
-0.047477,   0.128971,   0.137985,   0.000000,   774.375000,   0.535148,   24.786791,   23.146526,   506.809967,   338.881134,   -341.354553,   0.380277,   741.294312,   733.516785
-0.047120,   0.126767,   0.135636,   0.000000,   770.787415,   0.535148,   24.786791,   22.462807,   501.306000,   336.484802,   -342.105957,   0.377605,   739.565613,   732.690308
-0.046710,   0.124422,   0.133138,   0.000000,   766.985535,   0.535148,   24.786791,   21.779087,   495.451721,   334.117493,   -342.838623,   0.374851,   737.687439,   731.678955
-0.046238,   0.121908,   0.130462,   0.000000,   762.920410,   0.535148,   24.786791,   21.095367,   489.203400,   331.751312,   -343.537933,   0.372000,   735.622131,   730.445129
-0.045692,   0.119200,   0.127578,   0.000000,   758.536255,   0.535148,   24.786791,   20.411648,   482.516296,   329.348663,   -344.186462,   0.369032,   733.327637,   728.945679
-0.045059,   0.116266,   0.124451,   0.000000,   753.767273,   0.535147,   24.786791,   19.727928,   475.333679,   326.868927,   -344.764893,   0.365924,   730.754456,   727.129761
-0.044324,   0.113075,   0.121048,   0.000000,   748.544556,   0.535148,   24.786791,   19.044209,   467.597839,   324.277832,   -345.248230,   0.362657,   727.846985,   724.936523
-0.043471,   0.109594,   0.117331,   0.000000,   742.791870,   0.535147,   24.786791,   18.360491,   459.240143,   321.546021,   -345.608124,   0.359209,   724.542236,   722.295776
-0.042479,   0.105787,   0.113260,   0.000000,   736.420898,   0.535148,   24.786791,   17.676771,   450.178101,   318.652802,   -345.807892,   0.355564,   720.762573,   719.120361
-0.041327,   0.101616,   0.108795,   0.000000,   729.338196,   0.535148,   24.786791,   16.993052,   440.311493,   315.598663,   -345.806000,   0.351706,   716.421936,   715.311951
-0.039990,   0.097046,   0.103895,   0.000000,   721.441956,   0.535147,   24.786791,   16.309332,   429.528748,   312.409180,   -345.546021,   0.347635,   711.415405,   710.750671
-0.038441,   0.092035,   0.098514,   0.000000,   712.616943,   0.535149,   24.786791,   15.625613,   417.681824,   309.153015,   -344.957520,   0.343357,   705.615479,   705.293091
-0.036647,   0.086543,   0.092605,   0.000000,   702.741882,   0.535148,   24.786791,   14.941894,   404.584625,   305.982361,   -343.942932,   0.338916,   698.862183,   698.763611
-0.034575,   0.080537,   0.086130,   0.000000,   691.709412,   0.535148,   24.786791,   14.258174,   390.021790,   303.182556,   -342.364899,   0.334415,   690.963135,   690.959473
-0.032193,   0.073994,   0.079062,   -4.475348,   679.437073,   0.535148,   24.786791,   13.574455,   373.706421,   301.255280,   -340.031982,   0.330045,   681.685730,   681.652710
-0.029475,   0.066911,   0.071393,   -9.637820,   665.867432,   0.535148,   24.786791,   12.890736,   355.271851,   300.957733,   -336.659058,   0.326123,   670.738220,   670.582397
-0.026405,   0.059313,   0.063146,   -13.534824,   650.883301,   0.535148,   24.786791,   12.207016,   334.156219,   303.192261,   -331.848114,   0.322992,   657.755188,   657.441711
-0.022990,   0.051275,   0.054392,   -15.901481,   634.180054,   0.535148,   24.786791,   11.523296,   309.504333,   308.774231,   -325.040558,   0.320878,   642.278442,   641.835327
-0.019290,   0.042916,   0.045252,   -16.951155,   615.043579,   0.535148,   24.786791,   10.839578,   279.673126,   318.419312,   -315.402954,   0.319652,   623.691956,   623.173401
-0.015492,   0.034415,   0.035902,   -18.855915,   591.487122,   0.535148,   24.786791,   10.155858,   240.985687,   331.645508,   -301.786102,   0.317527,   601.136902,   600.470947
-0.012124,   0.026029,   0.026584,   -29.533600,   557.921936,   0.535148,   24.786791,   9.472138,   184.452820,   343.935486,   -282.696503,   0.307242,   573.259583,   571.544128
-0.117528,   0.279565,   0.293994,   0.000000,   834.895264,   0.535738,   25.759434,   49.385132,   650.384888,   191.577194,   -344.526978,   0.337574,   831.384338,   831.316772
-0.110641,   0.274248,   0.289405,   0.000000,   840.695068,   0.535738,   25.759434,   48.692539,   650.162659,   212.335464,   -346.009949,   0.346381,   830.008362,   829.363708
-0.104213,   0.268631,   0.284440,   0.000000,   845.933594,   0.535738,   25.759434,   47.999950,   649.370483,   232.820465,   -347.153320,   0.354978,   828.400208,   826.612244
-0.098225,   0.262741,   0.279103,   0.000000,   850.498657,   0.535738,   25.759434,   47.307358,   648.030823,   252.708252,   -347.898438,   0.363264,   826.524414,   823.078430
-0.092660,   0.256614,   0.273419,   0.000000,   854.300842,   0.535738,   25.759434,   46.614769,   646.160522,   271.691376,   -348.230560,   0.371135,   824.364563,   818.825989
-0.087503,   0.250296,   0.267430,   0.000000,   857.275696,   0.535738,   25.759434,   45.922176,   643.795471,   289.481140,   -348.156433,   0.378497,   821.914856,   813.953003
-0.082740,   0.243837,   0.261185,   0.000000,   859.407593,   0.535738,   25.759434,   45.229588,   640.977966,   305.894714,   -347.711975,   0.385291,   819.184631,   808.579285
-0.078357,   0.237288,   0.254740,   0.000000,   860.708923,   0.535738,   25.759434,   44.536995,   637.762512,   320.808655,   -346.942108,   0.391482,   816.189941,   802.831421
-0.074341,   0.230705,   0.248156,   0.000000,   861.221008,   0.535738,   25.759434,   43.844406,   634.210632,   334.168854,   -345.899292,   0.397061,   812.955994,   796.834351
-0.070682,   0.224142,   0.241497,   0.000000,   861.006409,   0.535738,   25.759434,   43.151814,   630.384583,   345.979095,   -344.639709,   0.402036,   809.515869,   790.706604
-0.067365,   0.217653,   0.234825,   0.000000,   860.136963,   0.535739,   25.759434,   42.459225,   626.344910,   356.276581,   -343.217926,   0.406425,   805.906067,   784.554565
-0.064376,   0.211285,   0.228200,   0.000000,   858.688599,   0.535737,   25.759434,   41.766632,   622.146423,   365.123016,   -341.685608,   0.410252,   802.164673,   778.471985
-0.061696,   0.205078,   0.221673,   0.000000,   856.736511,   0.535738,   25.759434,   41.074043,   617.837341,   372.593536,   -340.090240,   0.413543,   798.330017,   772.539490
-0.059307,   0.199068,   0.215291,   0.000000,   854.353210,   0.535738,   25.759434,   40.381451,   613.458130,   378.771027,   -338.475128,   0.416322,   794.439697,   766.826172
-0.057190,   0.193283,   0.209094,   0.000000,   851.606384,   0.535738,   25.759434,   39.688862,   609.043884,   383.739838,   -336.878143,   0.418615,   790.529541,   761.389099
-0.055323,   0.187744,   0.203114,   0.000000,   848.558594,   0.535738,   25.759434,   38.996269,   604.621277,   387.585693,   -335.333435,   0.420444,   786.633667,   756.275696
-0.053688,   0.182469,   0.197377,   0.000000,   845.266357,   0.535738,   25.759434,   38.303680,   600.215820,   390.390076,   -333.867767,   0.421831,   782.782349,   751.521179
-0.052264,   0.177467,   0.191904,   0.000000,   841.781494,   0.535738,   25.759434,   37.611088,   595.837830,   392.240540,   -332.508301,   0.422795,   779.005066,   747.154541
-0.051031,   0.172746,   0.186707,   0.000000,   838.150818,   0.535738,   25.759434,   36.918499,   591.497070,   393.221863,   -331.275421,   0.423356,   775.327576,   743.193787
-0.049970,   0.168306,   0.181797,   0.000000,   834.415527,   0.535738,   25.759434,   36.225906,   587.200684,   393.416229,   -330.184143,   0.423535,   771.771606,   739.646790
-0.049063,   0.164145,   0.177174,   0.000000,   830.611511,   0.535738,   25.759434,   35.533318,   582.950134,   392.906311,   -329.245605,   0.423353,   768.355042,   736.512512
-0.048290,   0.160254,   0.172837,   0.000000,   826.768066,   0.535738,   25.759434,   34.840725,   578.741272,   391.772430,   -328.466980,   0.422832,   765.090759,   733.781433
-0.047634,   0.156621,   0.168776,   0.000000,   822.910522,   0.535738,   25.759434,   34.148136,   574.567871,   390.095581,   -327.851196,   0.421994,   761.987915,   731.435486
-0.047080,   0.153234,   0.164982,   0.000000,   819.059082,   0.535738,   25.759434,   33.455544,   570.420166,   387.953491,   -327.398285,   0.420864,   759.051697,   729.451355
-0.046610,   0.150074,   0.161439,   0.000000,   815.230591,   0.535738,   25.759434,   32.762955,   566.286194,   385.424683,   -327.105133,   0.419468,   756.283569,   727.799683
-0.046212,   0.147125,   0.158131,   0.000000,   811.437683,   0.535738,   25.759434,   32.070362,   562.154541,   382.582672,   -326.965332,   0.417832,   753.681396,   726.446899
-0.045873,   0.144366,   0.155040,   0.000000,   807.687561,   0.535738,   25.759434,   31.377773,   558.011169,   379.491669,   -326.971558,   0.415980,   751.239685,   725.358704
-0.045581,   0.141778,   0.152143,   0.000000,   803.985535,   0.535738,   25.759434,   30.685183,   553.841125,   376.216309,   -327.114777,   0.413938,   748.950500,   724.498840
-0.045325,   0.139340,   0.149422,   0.000000,   800.334045,   0.535739,   25.759434,   29.992590,   549.628601,   372.818054,   -327.384460,   0.411731,   746.803284,   723.829468
-0.045097,   0.137031,   0.146852,   0.000000,   796.732361,   0.535738,   25.759434,   29.299999,   545.356628,   369.352051,   -327.769775,   0.409384,   744.785400,   723.314148
-0.044888,   0.134830,   0.144412,   0.000000,   793.174988,   0.535737,   25.759434,   28.607409,   541.007019,   365.862823,   -328.259705,   0.406915,   742.881653,   722.918274
-0.044690,   0.132714,   0.142079,   0.000000,   789.656006,   0.535738,   25.759434,   27.914818,   536.561707,   362.395416,   -328.842255,   0.404348,   741.075623,   722.607056
-0.044497,   0.130663,   0.139827,   0.000000,   786.166382,   0.535738,   25.759434,   27.222227,   532.001038,   358.988708,   -329.505341,   0.401700,   739.348999,   722.347107
-0.044303,   0.128656,   0.137635,   0.000000,   782.692322,   0.535738,   25.759434,   26.529636,   527.304016,   355.669128,   -330.237366,   0.398986,   737.681824,   722.107971
-0.044101,   0.126670,   0.135478,   0.000000,   779.221802,   0.535738,   25.759434,   25.837046,   522.451660,   352.452667,   -331.031097,   0.396211,   736.059753,   721.869263
-0.043887,   0.124685,   0.133331,   0.000000,   775.720825,   0.535738,   25.759434,   25.144455,   517.404907,   349.353912,   -331.869507,   0.393384,   734.445862,   721.588074
-0.043654,   0.122679,   0.131171,   0.000000,   772.172363,   0.535738,   25.759434,   24.451864,   512.142517,   346.377747,   -332.745117,   0.390508,   732.823730,   721.245483
-0.043396,   0.120630,   0.128973,   0.000000,   768.544495,   0.535738,   25.759434,   23.759274,   506.637360,   343.511475,   -333.645294,   0.387577,   731.165771,   720.813660
-0.043108,   0.118514,   0.126710,   0.000000,   764.803162,   0.535738,   25.759434,   23.066683,   500.855499,   340.745422,   -334.557983,   0.384586,   729.442627,   720.262939
-0.042783,   0.116309,   0.124356,   0.000000,   760.908142,   0.535738,   25.759434,   22.374092,   494.760101,   338.057953,   -335.470947,   0.381524,   727.623108,   719.563538
-0.042412,   0.113989,   0.121883,   0.000000,   756.809509,   0.535739,   25.759434,   21.681501,   488.312531,   335.410706,   -336.369293,   0.378374,   725.670105,   718.680054
-0.041985,   0.111525,   0.119258,   0.000000,   752.452148,   0.535738,   25.759434,   20.988911,   481.464355,   332.771271,   -337.236420,   0.375116,   723.541504,   717.570801
-0.041493,   0.108890,   0.116451,   0.000000,   747.775330,   0.535738,   25.759434,   20.296320,   474.170990,   330.096191,   -338.051483,   0.371731,   721.190674,   716.187317
-0.040922,   0.106053,   0.113425,   0.000000,   742.707703,   0.535737,   25.759434,   19.603729,   466.371765,   327.342682,   -338.792389,   0.368195,   718.563354,   714.473206
-0.040257,   0.102977,   0.110143,   0.000000,   737.165955,   0.535738,   25.759434,   18.911140,   458.003632,   324.458374,   -339.429504,   0.364481,   715.593933,   712.357727
-0.039482,   0.099627,   0.106563,   0.000000,   731.056702,   0.535738,   25.759434,   18.218550,   448.991241,   321.389984,   -339.930603,   0.360559,   712.209106,   709.760315
-0.038575,   0.095964,   0.102642,   0.000000,   724.267029,   0.535738,   25.759434,   17.525959,   439.251740,   318.070526,   -340.253143,   0.356395,   708.318115,   706.579590
-0.037513,   0.091943,   0.098332,   0.000000,   716.665344,   0.535738,   25.759434,   16.833368,   428.676758,   314.438873,   -340.347839,   0.351947,   703.813110,   702.693542
-0.036270,   0.087517,   0.093577,   0.000000,   708.087891,   0.535738,   25.759434,   16.140778,   417.148743,   310.409271,   -340.147461,   0.347172,   698.556396,   697.945557
-0.034812,   0.082634,   0.088318,   0.000000,   698.327087,   0.535738,   25.759434,   15.448186,   404.512634,   305.879425,   -339.568542,   0.342008,   692.373413,   692.136841
-0.033103,   0.077234,   0.082488,   0.000000,   687.121094,   0.535738,   25.759434,   14.755594,   390.568848,   300.738403,   -338.500580,   0.336384,   685.037598,   685.008850
-0.031099,   0.071257,   0.076017,   -4.210762,   674.141663,   0.535738,   25.759434,   14.063004,   375.059296,   294.871582,   -336.798126,   0.330215,   676.256836,   676.227356
-0.028753,   0.064636,   0.068827,   -13.129650,   658.964233,   0.535738,   25.759434,   13.370413,   357.620819,   288.213745,   -334.250214,   0.323422,   665.626160,   665.334656
-0.026011,   0.057304,   0.060841,   -22.431669,   641.076477,   0.535738,   25.759434,   12.677823,   337.735687,   280.909119,   -330.535095,   0.315999,   652.581543,   651.713257
-0.022814,   0.049195,   0.051980,   -31.758490,   619.803955,   0.535738,   25.759434,   11.985232,   314.590515,   273.454956,   -325.131317,   0.308065,   636.277893,   634.491028
-0.019100,   0.040253,   0.042176,   -40.547344,   594.075134,   0.535738,   25.759434,   11.292642,   286.893433,   266.634338,   -317.149506,   0.299844,   615.351501,   612.335083
-0.014799,   0.030450,   0.031395,   -47.758148,   562.035522,   0.535738,   25.759434,   10.600051,   252.342453,   261.934906,   -304.859100,   0.291852,   587.372559,   582.980347
-0.009858,   0.019938,   0.019804,   -47.531311,   522.288818,   0.535738,   25.759434,   9.907460,   206.835815,   267.921661,   -283.268188,   0.288991,   547.603760,   542.933594
-0.004735,   0.009393,   0.008160,   -38.953064,   464.935455,   0.535738,   25.759434,   9.214869,   133.019104,   292.963287,   -238.914993,   0.292419,   485.585175,   482.051239
-0.107802,   0.251644,   0.262021,   0.000000,   807.397156,   0.536220,   26.719685,   49.684025,   651.578918,   156.298508,   -318.516937,   0.333631,   807.157166,   807.156799
-0.101909,   0.248016,   0.259254,   0.000000,   813.775879,   0.536219,   26.719685,   48.981129,   651.491760,   176.325760,   -321.633362,   0.341997,   806.846680,   806.571655
-0.096363,   0.244075,   0.256125,   0.000000,   819.577393,   0.536220,   26.719685,   48.278233,   650.877258,   195.949173,   -324.354980,   0.350088,   806.298279,   805.261230
-0.091153,   0.239846,   0.252631,   0.000000,   824.834351,   0.536220,   26.719685,   47.575333,   649.791565,   215.229797,   -326.660156,   0.357968,   805.493042,   803.232849
-0.086268,   0.235350,   0.248780,   0.000000,   829.516785,   0.536220,   26.719685,   46.872437,   648.254456,   234.067642,   -328.530853,   0.365616,   804.415100,   800.501709
-0.081701,   0.230616,   0.244590,   0.000000,   833.565857,   0.536219,   26.719685,   46.169540,   646.281921,   252.260025,   -329.953369,   0.372970,   803.051697,   797.105408
-0.077442,   0.225677,   0.240089,   0.000000,   836.930481,   0.536220,   26.719685,   45.466640,   643.888123,   269.598206,   -330.936798,   0.379955,   801.399719,   793.110413
-0.073485,   0.220570,   0.235314,   0.000000,   839.577026,   0.536220,   26.719685,   44.763744,   641.098022,   285.891724,   -331.504028,   0.386505,   799.462891,   788.604004
-0.069823,   0.215334,   0.230307,   0.000000,   841.497192,   0.536220,   26.719685,   44.060844,   637.945923,   300.998444,   -331.691437,   0.392575,   797.252747,   783.686279
-0.066449,   0.210013,   0.225115,   0.000000,   842.706299,   0.536219,   26.719685,   43.357948,   634.470825,   314.829620,   -331.545837,   0.398135,   794.788391,   778.463074
-0.063355,   0.204650,   0.219787,   0.000000,   843.237915,   0.536220,   26.719685,   42.655052,   630.717773,   327.339081,   -331.117645,   0.403174,   792.094604,   773.039062
-0.060534,   0.199288,   0.214374,   0.000000,   843.139099,   0.536219,   26.719685,   41.952156,   626.732910,   338.517853,   -330.459045,   0.407691,   789.200745,   767.514099
-0.057975,   0.193966,   0.208926,   0.000000,   842.464478,   0.536220,   26.719685,   41.249256,   622.560120,   348.384583,   -329.621490,   0.411694,   786.138367,   761.979187
-0.055667,   0.188720,   0.203487,   0.000000,   841.271484,   0.536219,   26.719685,   40.546360,   618.239197,   356.976471,   -328.653992,   0.415194,   782.940247,   756.516113
-0.053595,   0.183581,   0.198098,   0.000000,   839.618225,   0.536220,   26.719685,   39.843464,   613.806702,   364.342743,   -327.601410,   0.418206,   779.638611,   751.196350
-0.051747,   0.178576,   0.192797,   0.000000,   837.561035,   0.536220,   26.719685,   39.140564,   609.292358,   370.540527,   -326.505951,   0.420746,   776.265625,   746.082397
-0.050106,   0.173727,   0.187614,   0.000000,   835.152222,   0.536219,   26.719685,   38.437668,   604.727112,   375.626251,   -325.401764,   0.422830,   772.850281,   741.224365
-0.048656,   0.169052,   0.182575,   0.000000,   832.443176,   0.536220,   26.719685,   37.734772,   600.123962,   379.671478,   -324.326355,   0.424472,   769.423157,   736.667847
-0.047385,   0.164565,   0.177705,   0.000000,   829.482361,   0.536220,   26.719685,   37.031872,   595.500122,   382.745178,   -323.308746,   0.425687,   766.012451,   732.447144
-0.046275,   0.160277,   0.173022,   0.000000,   826.312927,   0.536220,   26.719685,   36.328976,   590.870300,   384.913391,   -322.372864,   0.426492,   762.643372,   728.586792
-0.045310,   0.156193,   0.168537,   0.000000,   822.973877,   0.536219,   26.719685,   35.626076,   586.242371,   386.246399,   -321.538696,   0.426902,   759.337769,   725.101624
-0.044477,   0.152316,   0.164259,   0.000000,   819.499573,   0.536220,   26.719685,   34.923180,   581.618591,   386.814636,   -320.823181,   0.426934,   756.114868,   721.998840
-0.043760,   0.148645,   0.160192,   0.000000,   815.921387,   0.536220,   26.719685,   34.220284,   576.999084,   386.691132,   -320.238495,   0.426605,   752.991089,   719.276062
-0.043145,   0.145175,   0.156336,   0.000000,   812.265747,   0.536220,   26.719685,   33.517384,   572.379395,   385.948364,   -319.793274,   0.425935,   749.979065,   716.923340
-0.042617,   0.141897,   0.152686,   0.000000,   808.554382,   0.536219,   26.719685,   32.814487,   567.752380,   384.655853,   -319.492737,   0.424942,   747.087952,   714.924805
-0.042165,   0.138804,   0.149236,   0.000000,   804.806213,   0.536220,   26.719685,   32.111591,   563.109375,   382.886444,   -319.337891,   0.423649,   744.323364,   713.255859
-0.041776,   0.135881,   0.145976,   0.000000,   801.036804,   0.536220,   26.719685,   31.408693,   558.438599,   380.712433,   -319.327332,   0.422078,   741.687927,   711.888184
-0.041438,   0.133117,   0.142892,   0.000000,   797.256775,   0.536220,   26.719685,   30.705795,   553.727539,   378.198944,   -319.457123,   0.420252,   739.180664,   710.790039
-0.041143,   0.130495,   0.139972,   0.000000,   793.473999,   0.536220,   26.719685,   30.002897,   548.961975,   375.410217,   -319.721191,   0.418193,   736.797852,   709.927307
-0.040880,   0.128001,   0.137199,   0.000000,   789.694397,   0.536220,   26.719685,   29.299999,   544.126953,   372.411011,   -320.111267,   0.415928,   734.533081,   709.262390
-0.040640,   0.125617,   0.134556,   0.000000,   785.920044,   0.536220,   26.719685,   28.597103,   539.207825,   369.259735,   -320.616913,   0.413479,   732.376770,   708.757202
-0.040417,   0.123325,   0.132026,   0.000000,   782.155273,   0.536220,   26.719685,   27.894205,   534.192078,   366.005890,   -321.231567,   0.410867,   730.324036,   708.383240
-0.040203,   0.121109,   0.129588,   0.000000,   778.382385,   0.536220,   26.719685,   27.191309,   529.046265,   362.700958,   -321.938477,   0.408115,   728.347107,   708.089417
-0.039992,   0.118949,   0.127222,   0.000000,   774.602112,   0.536220,   26.719685,   26.488411,   523.755066,   359.391266,   -322.729614,   0.405241,   726.437683,   707.847778
-0.039777,   0.116827,   0.124908,   0.000000,   770.801819,   0.536220,   26.719685,   25.785513,   518.297180,   356.108643,   -323.592285,   0.402261,   724.576477,   707.624268
-0.039554,   0.114722,   0.122624,   0.000000,   766.967651,   0.536220,   26.719685,   25.082615,   512.647461,   352.885498,   -324.514191,   0.399189,   722.743469,   707.385376
-0.039315,   0.112616,   0.120348,   0.000000,   763.080017,   0.536220,   26.719685,   24.379717,   506.777588,   349.741638,   -325.483673,   0.396033,   720.916321,   707.100342
-0.039057,   0.110488,   0.118056,   0.000000,   759.111267,   0.536220,   26.719685,   23.676821,   500.656921,   346.681091,   -326.487915,   0.392794,   719.068787,   706.737793
-0.038773,   0.108314,   0.115723,   0.000000,   755.027832,   0.536220,   26.719685,   22.973923,   494.249573,   343.701752,   -327.513214,   0.389471,   717.170654,   706.264282
-0.038455,   0.106072,   0.113324,   0.000000,   750.792603,   0.536220,   26.719685,   22.271025,   487.519501,   340.794830,   -328.544342,   0.386058,   715.189819,   705.644592
-0.038098,   0.103740,   0.110831,   0.000000,   746.359009,   0.536220,   26.719685,   21.568127,   480.427795,   337.934753,   -329.564484,   0.382543,   713.088867,   704.840698
-0.037691,   0.101289,   0.108214,   0.000000,   741.669312,   0.536220,   26.719685,   20.865231,   472.921753,   335.090607,   -330.555664,   0.378909,   710.823608,   703.807678
-0.037225,   0.098690,   0.105439,   0.000000,   736.657471,   0.536220,   26.719685,   20.162333,   464.951294,   332.217712,   -331.494751,   0.375133,   708.342834,   702.492493
-0.036688,   0.095911,   0.102472,   0.000000,   731.246460,   0.536219,   26.719685,   19.459436,   456.449524,   329.271576,   -332.357452,   0.371190,   705.588074,   700.833557
-0.036065,   0.092919,   0.099274,   0.000000,   725.348328,   0.536220,   26.719685,   18.756538,   447.349609,   326.199066,   -333.111084,   0.367051,   702.489502,   698.754456
-0.035338,   0.089676,   0.095804,   0.000000,   718.858704,   0.536220,   26.719685,   18.053640,   437.562653,   322.943665,   -333.720459,   0.362682,   698.966125,   696.166260
-0.034489,   0.086141,   0.092016,   0.000000,   711.649048,   0.536220,   26.719685,   17.350744,   426.997986,   319.422729,   -334.137177,   0.358039,   694.916016,   692.954651
-0.033491,   0.082268,   0.087855,   0.000000,   703.564331,   0.536220,   26.719685,   16.647846,   415.528931,   315.562653,   -334.302612,   0.353076,   690.212585,   688.975891
-0.032319,   0.078010,   0.083270,   0.000000,   694.421814,   0.536220,   26.719685,   15.944948,   403.022339,   311.268341,   -334.141785,   0.347737,   684.703674,   684.054626
-0.030941,   0.073314,   0.078200,   0.000000,   683.994202,   0.536220,   26.719685,   15.242051,   389.317017,   306.429993,   -333.555939,   0.341961,   678.194153,   677.965027
-0.029318,   0.068127,   0.072585,   0.000000,   671.991943,   0.536220,   26.719685,   14.539153,   374.208557,   300.914459,   -332.416443,   0.335666,   670.431824,   670.415344
-0.027409,   0.062385,   0.066350,   -6.084339,   658.005615,   0.536220,   26.719685,   13.836256,   357.426239,   294.495026,   -330.550720,   0.328721,   661.068787,   661.005798
-0.025161,   0.056027,   0.059426,   -16.028582,   641.470337,   0.536220,   26.719685,   13.133358,   338.632904,   286.808868,   -327.726685,   0.320921,   649.632935,   649.187866
-0.022520,   0.048986,   0.051732,   -26.896194,   621.549744,   0.536220,   26.719685,   12.430461,   317.331451,   277.322083,   -323.605225,   0.311945,   635.424866,   634.142273
-0.019418,   0.041198,   0.043197,   -38.866467,   597.036560,   0.536220,   26.719685,   11.727564,   292.792328,   265.377777,   -317.655914,   0.301361,   617.388000,   614.626526
-0.015797,   0.032606,   0.033750,   -52.108513,   565.958008,   0.536220,   26.719685,   11.024666,   263.841492,   250.007996,   -308.955841,   0.288487,   593.729736,   588.552185
-0.011578,   0.023155,   0.023335,   -67.977417,   523.901367,   0.536220,   26.719685,   10.321769,   228.112961,   227.811005,   -295.939362,   0.270906,   560.987549,   551.607422
-0.006654,   0.012759,   0.011898,   -92.880470,   457.670288,   0.536220,   26.719685,   9.618871,   179.761642,   185.028183,   -275.262787,   0.238197,   510.487518,   490.934479
-0.000948,   0.001613,   0.000000,   -107.182465,   306.563416,   0.536220,   26.719685,   8.915974,   68.120903,   131.260056,   -204.449936,   0.178693,   371.923950,   334.438995
-0.097143,   0.223236,   0.230148,   -2.641652,   779.925659,   0.536501,   27.665697,   50.023975,   651.083862,   126.200119,   -290.219147,   0.331641,   781.249817,   781.239746
-0.092222,   0.221064,   0.228890,   0.000000,   787.188538,   0.536499,   27.665697,   49.309357,   651.216980,   146.427841,   -295.169861,   0.339996,   782.012878,   781.855530
-0.087548,   0.218552,   0.227269,   0.000000,   793.651978,   0.536501,   27.665697,   48.594734,   650.760193,   165.711700,   -299.545502,   0.347809,   782.491638,   781.742371
-0.083121,   0.215736,   0.225293,   0.000000,   799.479736,   0.536501,   27.665697,   47.880116,   649.814026,   184.393066,   -303.409576,   0.355272,   782.694031,   780.957886
-0.078939,   0.212640,   0.222967,   0.000000,   804.754578,   0.536499,   27.665697,   47.165497,   648.433044,   202.646545,   -306.793793,   0.362491,   782.621033,   779.527283
-0.074998,   0.209288,   0.220301,   0.000000,   809.493591,   0.536499,   27.665697,   46.450878,   646.651123,   220.486191,   -309.702179,   0.369498,   782.266296,   777.466370
-0.071295,   0.205702,   0.217310,   0.000000,   813.677368,   0.536501,   27.665697,   45.736256,   644.484009,   237.823654,   -312.138824,   0.376270,   781.625305,   774.802917
-0.067825,   0.201908,   0.214016,   0.000000,   817.271179,   0.536501,   27.665697,   45.021637,   641.947266,   254.511734,   -314.110168,   0.382761,   780.695190,   771.582092
-0.064585,   0.197934,   0.210445,   0.000000,   820.244934,   0.536501,   27.665697,   44.307014,   639.059692,   270.394592,   -315.633911,   0.388916,   779.478394,   767.867371
-0.061572,   0.193813,   0.206629,   0.000000,   822.582764,   0.536499,   27.665697,   43.592396,   635.843384,   285.338257,   -316.740723,   0.394688,   777.983521,   763.736877
-0.058782,   0.189576,   0.202606,   0.000000,   824.284546,   0.536501,   27.665697,   42.877777,   632.327087,   299.238190,   -317.469025,   0.400041,   776.224426,   759.276550
-0.056211,   0.185257,   0.198414,   0.000000,   825.366516,   0.536499,   27.665697,   42.163158,   628.544250,   312.024658,   -317.863373,   0.404953,   774.220459,   754.575562
-0.053854,   0.180892,   0.194093,   0.000000,   825.857300,   0.536501,   27.665697,   41.448536,   624.530273,   323.659760,   -317.971619,   0.409411,   771.994995,   749.722046
-0.051706,   0.176512,   0.189684,   0.000000,   825.794006,   0.536499,   27.665697,   40.733917,   620.320190,   334.131042,   -317.842529,   0.413411,   769.573975,   744.799866
-0.049757,   0.172148,   0.185223,   0.000000,   825.218811,   0.536501,   27.665697,   40.019299,   615.947449,   343.446442,   -317.523468,   0.416955,   766.984497,   739.885803
-0.047999,   0.167826,   0.180747,   0.000000,   824.176270,   0.536501,   27.665697,   39.304676,   611.441528,   351.628845,   -317.060303,   0.420048,   764.254395,   735.049744
-0.046420,   0.163569,   0.176285,   0.000000,   822.708984,   0.536499,   27.665697,   38.590057,   606.834412,   358.703552,   -316.491638,   0.422698,   761.408875,   730.351135
-0.045010,   0.159398,   0.171868,   0.000000,   820.864197,   0.536501,   27.665697,   37.875439,   602.137817,   364.723297,   -315.863953,   0.424913,   758.478333,   725.847961
-0.043757,   0.155330,   0.167521,   0.000000,   818.685425,   0.536499,   27.665697,   37.160820,   597.374268,   369.733673,   -315.211060,   0.426703,   755.489014,   721.584900
-0.042649,   0.151378,   0.163264,   0.000000,   816.211426,   0.536501,   27.665697,   36.446198,   592.559631,   373.782440,   -314.563232,   0.428079,   752.463928,   717.597351
-0.041672,   0.147555,   0.159116,   0.000000,   813.480774,   0.536499,   27.665697,   35.731579,   587.705322,   376.924316,   -313.948608,   0.429052,   749.426636,   713.914307
-0.040817,   0.143869,   0.155093,   0.000000,   810.529114,   0.536501,   27.665697,   35.016960,   582.817139,   379.216278,   -313.392853,   0.429633,   746.399536,   710.558228
-0.040069,   0.140326,   0.151205,   0.000000,   807.389282,   0.536501,   27.665697,   34.302338,   577.899170,   380.718872,   -312.916321,   0.429834,   743.402344,   707.541504
-0.039419,   0.136928,   0.147460,   0.000000,   804.090210,   0.536501,   27.665697,   33.587719,   572.950562,   381.492310,   -312.536621,   0.429666,   740.452515,   704.869629
-0.038853,   0.133675,   0.143863,   0.000000,   800.657654,   0.536498,   27.665697,   32.873100,   567.966858,   381.599823,   -312.267334,   0.429145,   737.564514,   702.539917
-0.038361,   0.130564,   0.140415,   0.000000,   797.113586,   0.536502,   27.665697,   32.158482,   562.942139,   381.104797,   -312.117584,   0.428285,   734.749573,   700.541382
-0.037932,   0.127589,   0.137113,   0.000000,   793.476990,   0.536500,   27.665697,   31.443859,   557.867859,   380.071808,   -312.093018,   0.427103,   732.015991,   698.856323
-0.037555,   0.124745,   0.133952,   0.000000,   789.764343,   0.536500,   27.665697,   30.729240,   552.732056,   378.569000,   -312.196381,   0.425619,   729.369385,   697.460938
-0.037221,   0.122021,   0.130926,   0.000000,   785.987610,   0.536501,   27.665697,   30.014620,   547.522339,   376.658234,   -312.427338,   0.423851,   726.812134,   696.327637
-0.036922,   0.119407,   0.128026,   0.000000,   782.161072,   0.536499,   27.665697,   29.299999,   542.229553,   374.397827,   -312.786285,   0.421816,   724.349976,   695.433044
-0.036648,   0.116893,   0.125240,   0.000000,   778.279846,   0.536501,   27.665697,   28.585381,   536.824219,   371.855255,   -313.262695,   0.419539,   721.966919,   694.727295
-0.036393,   0.114464,   0.122556,   0.000000,   774.353088,   0.536500,   27.665697,   27.870760,   531.296753,   369.084564,   -313.852020,   0.417038,   719.663452,   694.182190
-0.036149,   0.112108,   0.119960,   0.000000,   770.382935,   0.536501,   27.665697,   27.156141,   525.628601,   366.146118,   -314.545258,   0.414337,   717.431335,   693.759216
-0.035909,   0.109810,   0.117437,   0.000000,   766.367004,   0.536499,   27.665697,   26.441521,   519.798706,   363.092438,   -315.332703,   0.411455,   715.259399,   693.421387
-0.035669,   0.107554,   0.114970,   0.000000,   762.297180,   0.536501,   27.665697,   25.726900,   513.781982,   359.968262,   -316.203796,   0.408409,   713.132812,   693.131287
-0.035422,   0.105324,   0.112540,   0.000000,   758.163086,   0.536500,   27.665697,   25.012281,   507.554199,   356.815521,   -317.145477,   0.405217,   711.033875,   692.850647
-0.035162,   0.103102,   0.110129,   0.000000,   753.950867,   0.536500,   27.665697,   24.297661,   501.088867,   353.670319,   -318.144196,   0.401894,   708.942688,   692.542175
-0.034885,   0.100872,   0.107717,   0.000000,   749.641296,   0.536500,   27.665697,   23.583042,   494.357056,   350.558960,   -319.185577,   0.398450,   706.836243,   692.168884
-0.034584,   0.098612,   0.105281,   0.000000,   745.204346,   0.536501,   27.665697,   22.868422,   487.321533,   347.491791,   -320.254944,   0.394887,   704.685913,   691.693665
-0.034253,   0.096301,   0.102797,   0.000000,   740.605103,   0.536499,   27.665697,   22.153801,   479.942444,   344.474091,   -321.335571,   0.391205,   702.459290,   691.076355
-0.033886,   0.093919,   0.100241,   0.000000,   735.799133,   0.536501,   27.665697,   21.439182,   472.178894,   341.491455,   -322.408875,   0.387396,   700.119080,   690.275146
-0.033475,   0.091438,   0.097583,   0.000000,   730.730957,   0.536500,   27.665697,   20.724562,   463.976471,   338.524445,   -323.454529,   0.383447,   697.620300,   689.241089
-0.033009,   0.088833,   0.094793,   0.000000,   725.335144,   0.536501,   27.665697,   20.009941,   455.283051,   335.534210,   -324.448090,   0.379337,   694.911865,   687.919373
-0.032477,   0.086074,   0.091839,   0.000000,   719.529968,   0.536499,   27.665697,   19.295322,   446.027771,   332.473938,   -325.362396,   0.375038,   691.931458,   686.243408
-0.031867,   0.083128,   0.088681,   0.000000,   713.218689,   0.536501,   27.665697,   18.580702,   436.139526,   329.282501,   -326.160553,   0.370519,   688.602722,   684.129456
-0.031161,   0.079956,   0.085277,   0.000000,   706.283875,   0.536500,   27.665697,   17.866083,   425.519806,   325.894928,   -326.802032,   0.365740,   684.834717,   681.476929
-0.030341,   0.076522,   0.081585,   0.000000,   698.585999,   0.536500,   27.665697,   17.151463,   414.074371,   322.216095,   -327.233276,   0.360652,   680.517639,   678.161560
-0.029383,   0.072780,   0.077551,   0.000000,   689.955078,   0.536500,   27.665697,   16.436844,   401.675446,   318.156525,   -327.386566,   0.355203,   675.512390,   674.023438
-0.028262,   0.068684,   0.073128,   0.000000,   680.185791,   0.536500,   27.665697,   15.722223,   388.173279,   313.598114,   -327.182220,   0.349320,   669.653992,   668.870605
-0.026948,   0.064190,   0.068260,   0.000000,   669.031311,   0.536501,   27.665697,   15.007604,   373.409607,   308.411926,   -326.507141,   0.342936,   662.728760,   662.450989
-0.025405,   0.059242,   0.062885,   0.000000,   656.170593,   0.536500,   27.665697,   14.292984,   357.168579,   302.464172,   -325.205963,   0.335975,   654.446350,   654.425781
-0.023589,   0.053788,   0.056943,   -6.407681,   641.201233,   0.536501,   27.665697,   13.578364,   339.187134,   295.606415,   -323.070435,   0.328349,   644.428955,   644.357300
-0.021453,   0.047776,   0.050372,   -16.784184,   623.581238,   0.536500,   27.665697,   12.863744,   319.155548,   287.641479,   -319.794739,   0.319970,   632.140442,   631.638794
-0.018939,   0.041163,   0.043124,   -27.604593,   602.549500,   0.536500,   27.665697,   12.149125,   296.703857,   278.241028,   -314.941772,   0.310706,   616.815186,   615.423096
-0.015997,   0.033933,   0.035176,   -38.593925,   577.061707,   0.536500,   27.665697,   11.434505,   271.511902,   266.955902,   -307.819397,   0.300504,   597.294556,   594.479553
-0.012589,   0.026142,   0.026588,   -48.937737,   545.749634,   0.536500,   27.665697,   10.719885,   243.613708,   253.198166,   -297.305054,   0.289623,   571.791321,   567.050964
-0.008757,   0.017945,   0.017538,   -56.507584,   506.692169,   0.536500,   27.665697,   10.005265,   214.487518,   235.697052,   -281.400116,   0.279351,   537.179688,   530.431213
-0.004706,   0.009639,   0.008392,   -58.591419,   454.709045,   0.536500,   27.665697,   9.290645,   193.925049,   202.192581,   -256.616943,   0.271319,   486.657288,   478.625641
-0.000541,   0.000584,   0.000000,   -84.455727,   97.339500,   0.536500,   27.665697,   8.576026,   77.535805,   -64.652031,   -56.639477,   0.027255,   157.571014,   78.229843
-0.086435,   0.196040,   0.200137,   -3.832805,   752.783264,   0.536478,   28.595657,   50.404324,   648.743652,   100.206833,   -260.564423,   0.330791,   754.707031,   754.685120
-0.082433,   0.195127,   0.200127,   0.000000,   761.187622,   0.536478,   28.595657,   49.676586,   649.289185,   121.255531,   -267.595551,   0.339498,   756.552429,   756.422241
-0.078577,   0.193834,   0.199741,   0.000000,   768.541077,   0.536478,   28.595657,   48.948853,   649.134827,   140.847519,   -273.770966,   0.347376,   758.047913,   757.365173
-0.074887,   0.192210,   0.198998,   0.000000,   775.062927,   0.536478,   28.595657,   48.221115,   648.411072,   159.395401,   -279.240814,   0.354665,   759.220886,   757.629761
-0.071371,   0.190291,   0.197912,   0.000000,   780.915955,   0.536477,   28.595657,   47.493382,   647.205750,   177.229858,   -284.110870,   0.361551,   760.091064,   757.280396
-0.068032,   0.188101,   0.196493,   0.000000,   786.202026,   0.536478,   28.595657,   46.765648,   645.579346,   194.561920,   -288.440674,   0.368159,   760.668091,   756.347412
-0.064871,   0.185664,   0.194750,   0.000000,   790.967285,   0.536478,   28.595657,   46.037910,   643.568298,   211.475586,   -292.261017,   0.374549,   760.955078,   754.849670
-0.061887,   0.182999,   0.192698,   0.000000,   795.219055,   0.536478,   28.595657,   45.310177,   641.197205,   227.953629,   -295.586304,   0.380730,   760.951599,   752.807678
-0.059079,   0.180127,   0.190352,   0.000000,   798.942139,   0.536478,   28.595657,   44.582439,   638.487000,   243.908478,   -298.425903,   0.386681,   760.656738,   750.253540
-0.056447,   0.177072,   0.187735,   0.000000,   802.115906,   0.536478,   28.595657,   43.854706,   635.454407,   259.224915,   -300.797302,   0.392365,   760.073242,   747.234863
-0.053988,   0.173859,   0.184872,   0.000000,   804.724243,   0.536478,   28.595657,   43.126968,   632.119751,   273.785950,   -302.724823,   0.397742,   759.207214,   743.811279
-0.051701,   0.170512,   0.181791,   0.000000,   806.761169,   0.536477,   28.595657,   42.399235,   628.506531,   287.489441,   -304.241028,   0.402776,   758.069580,   740.052185
-0.049586,   0.167060,   0.178523,   0.000000,   808.232178,   0.536478,   28.595657,   41.671501,   624.640991,   300.256165,   -305.384888,   0.407439,   756.675354,   736.032349
-0.047638,   0.163531,   0.175101,   0.000000,   809.153687,   0.536478,   28.595657,   40.943764,   620.552307,   312.031616,   -306.199127,   0.411713,   755.043457,   731.827576
-0.045854,   0.159950,   0.171557,   0.000000,   809.549805,   0.536478,   28.595657,   40.216030,   616.269043,   322.783997,   -306.728638,   0.415587,   753.194946,   727.511902
-0.044227,   0.156341,   0.167921,   0.000000,   809.450195,   0.536478,   28.595657,   39.488293,   611.818115,   332.500549,   -307.018799,   0.419053,   751.152283,   723.155396
-0.042752,   0.152728,   0.164223,   0.000000,   808.885254,   0.536478,   28.595657,   38.760559,   607.230225,   341.175507,   -307.109161,   0.422112,   748.936096,   718.819946
-0.041422,   0.149129,   0.160489,   0.000000,   807.894165,   0.536478,   28.595657,   38.032822,   602.513794,   348.838623,   -307.052094,   0.424763,   746.574951,   714.570740
-0.040225,   0.145563,   0.156746,   0.000000,   806.511108,   0.536477,   28.595657,   37.305088,   597.695801,   355.506500,   -306.882202,   0.427010,   744.090393,   710.457092
-0.039154,   0.142044,   0.153013,   0.000000,   804.769165,   0.536478,   28.595657,   36.577354,   592.790344,   361.208862,   -306.635620,   0.428858,   741.503418,   706.522705
-0.038199,   0.138585,   0.149311,   0.000000,   802.703064,   0.536478,   28.595657,   35.849617,   587.809448,   365.984009,   -306.346405,   0.430313,   738.836792,   702.805969
-0.037350,   0.135199,   0.145657,   0.000000,   800.345276,   0.536478,   28.595657,   35.121883,   582.760010,   369.873596,   -306.046234,   0.431381,   736.112122,   699.339478
-0.036599,   0.131893,   0.142067,   0.000000,   797.727112,   0.536478,   28.595657,   34.394146,   577.647766,   372.923187,   -305.762299,   0.432068,   733.349915,   696.147461
-0.035934,   0.128675,   0.138553,   0.000000,   794.877869,   0.536478,   28.595657,   33.666412,   572.473633,   375.183441,   -305.518951,   0.432383,   730.569336,   693.246643
-0.035348,   0.125549,   0.135123,   0.000000,   791.823669,   0.536477,   28.595657,   32.938675,   567.236511,   376.704834,   -305.336487,   0.432334,   727.787170,   690.647156
-0.034830,   0.122519,   0.131786,   0.000000,   788.587646,   0.536479,   28.595657,   32.210941,   561.931885,   377.539948,   -305.231628,   0.431930,   725.018005,   688.351074
-0.034371,   0.119584,   0.128545,   0.000000,   785.196167,   0.536478,   28.595657,   31.483206,   556.556763,   377.742340,   -305.221252,   0.431180,   722.280884,   686.361633
-0.033962,   0.116742,   0.125400,   0.000000,   781.653870,   0.536479,   28.595657,   30.755470,   551.087830,   377.371613,   -305.309296,   0.430098,   719.571777,   684.651184
-0.033595,   0.113988,   0.122352,   0.000000,   777.983765,   0.536478,   28.595657,   30.027735,   545.518188,   376.489655,   -305.505402,   0.428698,   716.905334,   683.209106
-0.033260,   0.111319,   0.119396,   0.000000,   774.197021,   0.536478,   28.595657,   29.299999,   539.836304,   375.149536,   -305.812103,   0.426993,   714.285767,   682.012390
-0.032951,   0.108728,   0.116528,   0.000000,   770.304382,   0.536478,   28.595657,   28.572264,   534.024963,   373.414978,   -306.229980,   0.425001,   711.715454,   681.032166
-0.032660,   0.106205,   0.113740,   0.000000,   766.310608,   0.536478,   28.595657,   27.844528,   528.065125,   371.339874,   -306.757233,   0.422736,   709.192810,   680.237854
-0.032381,   0.103742,   0.111024,   0.000000,   762.219482,   0.536478,   28.595657,   27.116795,   521.938538,   368.981689,   -307.388275,   0.420217,   706.713684,   679.593445
-0.032107,   0.101328,   0.108369,   0.000000,   758.032715,   0.536478,   28.595657,   26.389059,   515.626282,   366.397705,   -308.114990,   0.417464,   704.271240,   679.060608
-0.031832,   0.098952,   0.105763,   0.000000,   753.747803,   0.536478,   28.595657,   25.661324,   509.103577,   363.642487,   -308.928833,   0.414494,   701.855896,   678.600830
-0.031550,   0.096601,   0.103192,   0.000000,   749.357727,   0.536478,   28.595657,   24.933588,   502.345764,   360.764587,   -309.817932,   0.411326,   699.453552,   678.173340
-0.031257,   0.094260,   0.100641,   0.000000,   744.851257,   0.536478,   28.595657,   24.205853,   495.323456,   357.808777,   -310.769806,   0.407974,   697.047363,   677.737488
-0.030947,   0.091915,   0.098094,   0.000000,   740.213623,   0.536478,   28.595657,   23.478117,   488.006042,   354.814667,   -311.769989,   0.404453,   694.617310,   677.252136
-0.030615,   0.089549,   0.095532,   0.000000,   735.420654,   0.536478,   28.595657,   22.750381,   480.357513,   351.809021,   -312.802124,   0.400771,   692.137512,   676.674561
-0.030254,   0.087144,   0.092934,   0.000000,   730.443237,   0.536478,   28.595657,   22.022648,   472.335663,   348.815521,   -313.848724,   0.396934,   689.578308,   675.960693
-0.029859,   0.084683,   0.090281,   0.000000,   725.242371,   0.536478,   28.595657,   21.294912,   463.899445,   345.833923,   -314.889984,   0.392938,   686.905212,   675.066040
-0.029422,   0.082142,   0.087547,   0.000000,   719.763855,   0.536478,   28.595657,   20.567177,   454.992584,   342.854034,   -315.903320,   0.388773,   684.072937,   673.937683
-0.028936,   0.079499,   0.084702,   0.000000,   713.941345,   0.536478,   28.595657,   19.839441,   445.559509,   339.844696,   -316.860748,   0.384421,   681.027832,   672.514709
-0.028390,   0.076724,   0.081718,   0.000000,   707.690491,   0.536478,   28.595657,   19.111706,   435.527985,   336.760193,   -317.731506,   0.379855,   677.704590,   670.725586
-0.027771,   0.073789,   0.078558,   0.000000,   700.911926,   0.536478,   28.595657,   18.383970,   424.825989,   333.540955,   -318.474426,   0.375045,   674.023560,   668.480774
-0.027063,   0.070659,   0.075185,   0.000000,   693.484436,   0.536478,   28.595657,   17.656237,   413.355957,   330.121399,   -319.042847,   0.369951,   669.888550,   665.672058
-0.026253,   0.067303,   0.071562,   0.000000,   685.268311,   0.536478,   28.595657,   16.928501,   401.026978,   326.408600,   -319.378693,   0.364526,   665.187805,   662.170776
-0.025318,   0.063684,   0.067647,   0.000000,   676.092468,   0.536479,   28.595657,   16.200766,   387.725891,   322.307068,   -319.405518,   0.358724,   659.777283,   657.808838
-0.024237,   0.059757,   0.063389,   0.000000,   665.725281,   0.536478,   28.595657,   15.473030,   373.305328,   317.659882,   -319.031738,   0.352459,   653.470947,   652.372925
-0.022982,   0.055486,   0.058746,   0.000000,   653.904480,   0.536478,   28.595657,   14.745295,   357.641205,   312.281677,   -318.135651,   0.345654,   646.044250,   645.597229
-0.021522,   0.050828,   0.053667,   0.000000,   640.278259,   0.536478,   28.595657,   14.017559,   340.575378,   305.926819,   -316.553467,   0.338205,   637.189087,   637.120728
-0.019821,   0.045737,   0.048100,   -4.145719,   624.403259,   0.536478,   28.595657,   13.289824,   321.944092,   298.313446,   -314.052307,   0.330019,   626.486389,   626.455505
-0.017836,   0.040179,   0.042005,   -15.000650,   605.728455,   0.536478,   28.595657,   12.562089,   301.627533,   289.100250,   -310.301331,   0.321030,   613.366333,   612.953430
-0.015526,   0.034126,   0.035349,   -26.096663,   583.514832,   0.536478,   28.595657,   11.834353,   279.602997,   277.815186,   -304.804443,   0.311238,   596.991150,   595.705688
-0.012845,   0.027568,   0.028122,   -36.703171,   556.807556,   0.536478,   28.595657,   11.106618,   256.246796,   263.857574,   -296.730957,   0.300967,   576.036743,   573.397095
-0.009767,   0.020557,   0.020383,   -44.182915,   524.928345,   0.536478,   28.595657,   10.378882,   232.976257,   247.769150,   -284.459473,   0.292234,   548.356384,   544.330078
-0.006326,   0.013297,   0.012378,   -40.443012,   488.949127,   0.536478,   28.595657,   9.651148,   213.255356,   235.250748,   -264.467499,   0.292927,   510.373840,   506.749878
-0.002717,   0.006242,   0.004648,   -13.892445,   448.883423,   0.536478,   28.595657,   8.923412,   195.228882,   239.762085,   -230.314072,   0.317984,   455.988373,   455.511841
-0.001413,   0.000543,   0.000000,   -288.418701,   27.517521,   0.536478,   28.595657,   8.195677,   21.020235,   -281.921417,   44.838749,   -0.286910,   303.115692,   -300.286224
-0.076163,   0.170856,   0.172757,   -3.993878,   726.173950,   0.536039,   29.507784,   50.824341,   644.505615,   77.674461,   -230.134476,   0.330587,   728.179077,   728.154480
-0.073011,   0.171012,   0.173754,   0.000000,   735.808777,   0.536039,   29.507784,   50.082123,   645.655090,   99.702370,   -239.473083,   0.339843,   731.081238,   730.940857
-0.069908,   0.170752,   0.174368,   0.000000,   744.205566,   0.536040,   29.507784,   49.339905,   645.972473,   119.972069,   -247.629501,   0.348041,   733.577698,   732.852478
-0.066891,   0.170134,   0.174622,   0.000000,   751.579834,   0.536039,   29.507784,   48.597683,   645.610413,   138.831543,   -254.818695,   0.355418,   735.699402,   734.045349
-0.063982,   0.169198,   0.174536,   0.000000,   758.121033,   0.536039,   29.507784,   47.855469,   644.682861,   156.627579,   -261.213196,   0.362186,   737.475464,   734.622009
-0.061193,   0.167977,   0.174121,   0.000000,   763.981201,   0.536040,   29.507784,   47.113247,   643.274414,   173.660233,   -266.937744,   0.368522,   738.928894,   734.641785
-0.058532,   0.166498,   0.173391,   0.000000,   769.265869,   0.536039,   29.507784,   46.371029,   641.446350,   190.144073,   -272.071838,   0.374553,   740.074463,   734.135376
-0.056001,   0.164779,   0.172353,   0.000000,   774.038452,   0.536039,   29.507784,   45.628811,   639.242554,   206.203369,   -276.661926,   0.380359,   740.919983,   733.118286
-0.053602,   0.162840,   0.171021,   0.000000,   778.321472,   0.536040,   29.507784,   44.886593,   636.693420,   221.860382,   -280.732086,   0.385970,   741.468140,   731.606445
-0.051337,   0.160697,   0.169409,   0.000000,   782.115051,   0.536039,   29.507784,   44.144371,   633.820618,   237.073410,   -284.300262,   0.391384,   741.721130,   729.624084
-0.049204,   0.158371,   0.167533,   0.000000,   785.402039,   0.536039,   29.507784,   43.402153,   630.637817,   251.764801,   -287.381195,   0.396581,   741.674500,   727.198242
-0.047205,   0.155882,   0.165413,   0.000000,   788.181824,   0.536040,   29.507784,   42.659935,   627.177551,   265.832611,   -290.000793,   0.401526,   741.347290,   724.391174
-0.045340,   0.153250,   0.163074,   0.000000,   790.441101,   0.536039,   29.507784,   41.917717,   623.454529,   279.187225,   -292.185760,   0.406188,   740.741577,   721.251404
-0.043606,   0.150497,   0.160539,   0.000000,   792.179932,   0.536039,   29.507784,   41.175499,   619.492432,   291.748596,   -293.969757,   0.410541,   739.869385,   717.840820
-0.042004,   0.147647,   0.157834,   0.000000,   793.406494,   0.536040,   29.507784,   40.433281,   615.315369,   303.455292,   -295.391205,   0.414563,   738.745789,   714.223938
-0.040530,   0.144719,   0.154987,   0.000000,   794.135803,   0.536039,   29.507784,   39.691059,   610.947144,   314.263519,   -296.491425,   0.418238,   737.388000,   710.465515
-0.039180,   0.141736,   0.152023,   0.000000,   794.388550,   0.536039,   29.507784,   38.948841,   606.416931,   324.142609,   -297.309387,   0.421555,   735.814514,   706.627258
-0.037951,   0.138713,   0.148965,   0.000000,   794.189514,   0.536040,   29.507784,   38.206623,   601.730164,   333.091400,   -297.897064,   0.424505,   734.047607,   702.773315
-0.036834,   0.135666,   0.145833,   0.000000,   793.560669,   0.536039,   29.507784,   37.464405,   596.912903,   341.099426,   -298.287628,   0.427086,   732.102234,   698.952026
-0.035823,   0.132611,   0.142650,   0.000000,   792.530334,   0.536039,   29.507784,   36.722187,   591.978577,   348.179199,   -298.522003,   0.429296,   729.999268,   695.213928
-0.034910,   0.129560,   0.139434,   0.000000,   791.126404,   0.536040,   29.507784,   35.979969,   586.938538,   354.349792,   -298.637726,   0.431136,   727.758545,   691.602722
-0.034089,   0.126525,   0.136203,   0.000000,   789.377075,   0.536039,   29.507784,   35.237751,   581.799683,   359.638000,   -298.670563,   0.432606,   725.400146,   688.157227
-0.033352,   0.123517,   0.132972,   0.000000,   787.315491,   0.536039,   29.507784,   34.495529,   576.573425,   364.072876,   -298.655365,   0.433708,   722.949707,   684.917419
-0.032691,   0.120544,   0.129756,   0.000000,   784.954529,   0.536039,   29.507784,   33.753311,   571.249084,   367.692169,   -298.615540,   0.434447,   720.411682,   681.893127
-0.032099,   0.117614,   0.126568,   0.000000,   782.327026,   0.536040,   29.507784,   33.011093,   565.831299,   370.539062,   -298.580505,   0.434827,   717.810974,   679.111572
-0.031567,   0.114733,   0.123417,   0.000000,   779.454041,   0.536039,   29.507784,   32.268875,   560.318237,   372.649963,   -298.572174,   0.434851,   715.162903,   676.585693
-0.031089,   0.111904,   0.120310,   0.000000,   776.357544,   0.536040,   29.507784,   31.526657,   554.704651,   374.074036,   -298.608948,   0.434528,   712.481506,   674.319580
-0.030655,   0.109128,   0.117254,   0.000000,   773.055786,   0.536040,   29.507784,   30.784437,   548.978577,   374.861450,   -298.707672,   0.433863,   709.779175,   672.312134
-0.030259,   0.106406,   0.114251,   0.000000,   769.564087,   0.536039,   29.507784,   30.042219,   543.126160,   375.061829,   -298.881714,   0.432863,   707.066040,   670.556946
-0.029893,   0.103737,   0.111303,   0.000000,   765.894592,   0.536040,   29.507784,   29.299999,   537.132202,   374.723938,   -299.140686,   0.431536,   704.349487,   669.040771
-0.029551,   0.101118,   0.108409,   0.000000,   762.058838,   0.536040,   29.507784,   28.557781,   530.984070,   373.901276,   -299.488586,   0.429894,   701.634399,   667.741882
-0.029225,   0.098545,   0.105567,   0.000000,   758.064941,   0.536039,   29.507784,   27.815563,   524.662231,   372.649567,   -299.928314,   0.427949,   698.923462,   666.634644
-0.028909,   0.096011,   0.102772,   0.000000,   753.917847,   0.536040,   29.507784,   27.073343,   518.147461,   371.022491,   -300.458618,   0.425716,   696.215637,   665.688110
-0.028596,   0.093510,   0.100018,   0.000000,   749.620239,   0.536040,   29.507784,   26.331125,   511.418488,   369.074371,   -301.075867,   0.423207,   693.507996,   664.868469
-0.028283,   0.091035,   0.097297,   0.000000,   745.170837,   0.536039,   29.507784,   25.588907,   504.448822,   366.859344,   -301.774597,   0.420438,   690.794006,   664.138855
-0.027962,   0.088576,   0.094600,   0.000000,   740.566223,   0.536040,   29.507784,   24.846687,   497.213379,   364.431641,   -302.544891,   0.417425,   688.063599,   663.457825
-0.027628,   0.086121,   0.091916,   0.000000,   735.798828,   0.536040,   29.507784,   24.104469,   489.681244,   361.843262,   -303.376068,   0.414183,   685.303955,   662.783752
-0.027277,   0.083663,   0.089235,   0.000000,   730.858276,   0.536039,   29.507784,   23.362249,   481.821259,   359.141602,   -304.255188,   0.410727,   682.499817,   662.074951
-0.026904,   0.081187,   0.086542,   0.000000,   725.724609,   0.536040,   29.507784,   22.620031,   473.599304,   356.361542,   -305.165192,   0.407066,   679.628357,   661.285217
-0.026503,   0.078679,   0.083819,   0.000000,   720.369873,   0.536039,   29.507784,   21.877813,   464.967621,   353.537933,   -306.087738,   0.403208,   676.660461,   660.365234
-0.026070,   0.076124,   0.081050,   0.000000,   714.759399,   0.536040,   29.507784,   21.135595,   455.885803,   350.684937,   -307.000458,   0.399156,   673.563171,   659.265015
-0.025597,   0.073503,   0.078214,   0.000000,   708.843140,   0.536040,   29.507784,   20.393375,   446.296844,   347.804382,   -307.878845,   0.394902,   670.293152,   657.928345
-0.025077,   0.070798,   0.075289,   0.000000,   702.559998,   0.536039,   29.507784,   19.651157,   436.146484,   344.881165,   -308.691528,   0.390437,   666.797913,   656.290039
-0.024502,   0.067985,   0.072246,   0.000000,   695.826721,   0.536040,   29.507784,   18.908939,   425.363861,   341.875824,   -309.403564,   0.385735,   663.010986,   654.274414
-0.023861,   0.065041,   0.069061,   0.000000,   688.550049,   0.536040,   29.507784,   18.166719,   413.881989,   338.739624,   -309.970581,   0.380773,   658.854980,   651.790710
-0.023142,   0.061939,   0.065701,   0.000000,   680.611206,   0.536039,   29.507784,   17.424501,   401.610687,   335.408447,   -310.341370,   0.375513,   654.233643,   648.728760
-0.022331,   0.058650,   0.062135,   0.000000,   671.865967,   0.536040,   29.507784,   16.682283,   388.464752,   331.787292,   -310.449219,   0.369914,   649.027100,   644.950378
-0.021412,   0.055145,   0.058325,   0.000000,   662.143860,   0.536040,   29.507784,   15.940063,   374.350037,   327.777405,   -310.207336,   0.363937,   643.084961,   640.279419
-0.020366,   0.051394,   0.054241,   0.000000,   651.233765,   0.536039,   29.507784,   15.197845,   359.154907,   323.232025,   -309.519562,   0.357516,   636.229431,   634.509949
-0.019172,   0.047368,   0.049846,   0.000000,   638.872253,   0.536039,   29.507784,   14.455626,   342.791840,   317.948975,   -308.251678,   0.350587,   628.223511,   627.366211
-0.017809,   0.043042,   0.045112,   0.000000,   624.738037,   0.536039,   29.507784,   13.713408,   325.192200,   311.656494,   -306.238922,   0.343071,   618.771606,   618.504883
-0.016251,   0.038393,   0.040012,   0.000000,   608.437195,   0.536040,   29.507784,   12.971189,   306.352631,   304.014801,   -303.251251,   0.334921,   607.474426,   607.467529
-0.014471,   0.033408,   0.034530,   -8.525483,   589.476868,   0.536040,   29.507784,   12.228970,   286.398254,   294.553101,   -298.973358,   0.326129,   593.785522,   593.647766
-0.012446,   0.028077,   0.028656,   -19.037706,   567.146851,   0.536039,   29.507784,   11.486752,   265.688812,   282.420349,   -292.972870,   0.316697,   576.901367,   576.193970
-0.010161,   0.022405,   0.022397,   -29.611387,   540.186523,   0.536040,   29.507784,   10.744533,   244.924561,   265.650574,   -284.710419,   0.306329,   555.584351,   553.804749
-0.007601,   0.016340,   0.015715,   -41.510162,   505.471771,   0.536039,   29.507784,   10.002314,   224.204834,   239.756775,   -273.380402,   0.293209,   527.453308,   523.759460
-0.004679,   0.009650,   0.008400,   -60.659306,   453.200195,   0.536039,   29.507784,   9.260096,   198.201706,   194.339172,   -256.922485,   0.269025,   486.375122,   477.753754
-0.001046,   0.002087,   0.000269,   -80.962173,   365.138062,   0.536039,   29.507784,   8.517877,   129.363541,   154.812347,   -222.686874,   0.230120,   411.634613,   393.117645
-0.004398,   0.001873,   0.002627,   -424.823730,   0.000000,   0.536039,   29.507784,   7.775658,   -34.071507,   -391.512756,   114.089157,   -0.334229,   424.443970,   -424.442444
-0.066590,   0.148038,   0.148289,   -3.585274,   700.312012,   0.535065,   30.400322,   51.283226,   638.422668,   58.304066,   -199.332504,   0.330777,   702.111511,   702.090881
-0.064205,   0.149061,   0.150058,   0.000000,   711.102234,   0.535064,   30.400322,   50.525185,   640.355225,   81.105980,   -211.116928,   0.340643,   705.979797,   705.808777
-0.061780,   0.149658,   0.151455,   0.000000,   720.574341,   0.535065,   30.400322,   49.767139,   641.315674,   102.112785,   -221.401108,   0.349311,   709.423401,   708.594421
-0.059368,   0.149877,   0.152503,   0.000000,   728.896423,   0.535064,   30.400322,   49.009098,   641.471069,   121.524147,   -230.433807,   0.356977,   712.459290,   710.619873
-0.057002,   0.149763,   0.153215,   0.000000,   736.241455,   0.535064,   30.400322,   48.251057,   640.954468,   139.610733,   -238.434799,   0.363844,   715.110596,   712.010254
-0.054706,   0.149348,   0.153606,   0.000000,   742.769470,   0.535065,   30.400322,   47.493015,   639.869873,   156.657440,   -245.582336,   0.370098,   717.402710,   712.849976
-0.052492,   0.148663,   0.153688,   0.000000,   748.617676,   0.535064,   30.400322,   46.734970,   638.302490,   172.928177,   -252.006500,   0.375905,   719.357727,   713.188477
-0.050369,   0.147730,   0.153471,   0.000000,   753.891113,   0.535064,   30.400322,   45.976933,   636.314697,   188.635605,   -257.799774,   0.381396,   720.992615,   713.050598
-0.048341,   0.146568,   0.152965,   0.000000,   758.655884,   0.535066,   30.400322,   45.218887,   633.953064,   203.908661,   -263.018127,   0.386654,   722.317322,   712.448914
-0.046413,   0.145193,   0.152179,   0.000000,   762.946167,   0.535064,   30.400322,   44.460846,   631.250916,   218.800430,   -267.696472,   0.391726,   723.337830,   711.394897
-0.044584,   0.143620,   0.151125,   0.000000,   766.772461,   0.535064,   30.400322,   43.702801,   628.235413,   233.299484,   -271.856140,   0.396624,   724.057068,   709.904602
-0.042858,   0.141866,   0.149817,   0.000000,   770.131958,   0.535065,   30.400322,   42.944759,   624.928772,   247.352783,   -275.516235,   0.401338,   724.478516,   708.004517
-0.041234,   0.139947,   0.148272,   0.000000,   773.016602,   0.535064,   30.400322,   42.186718,   621.351562,   260.885315,   -278.697693,   0.405846,   724.606567,   705.730469
-0.039713,   0.137880,   0.146507,   0.000000,   775.419189,   0.535064,   30.400322,   41.428677,   617.524841,   273.815582,   -281.425598,   0.410124,   724.448120,   703.126892
-0.038294,   0.135683,   0.144544,   0.000000,   777.336975,   0.535065,   30.400322,   40.670635,   613.469666,   286.067596,   -283.730469,   0.414144,   724.013000,   700.245667
-0.036976,   0.133374,   0.142402,   0.000000,   778.773010,   0.535065,   30.400322,   39.912590,   609.207153,   297.577759,   -285.647156,   0.417885,   723.313416,   697.141235
-0.035759,   0.130971,   0.140105,   0.000000,   779.737061,   0.535064,   30.400322,   39.154549,   604.761353,   308.295624,   -287.212097,   0.421328,   722.363831,   693.869812
-0.034640,   0.128488,   0.137671,   0.000000,   780.241089,   0.535065,   30.400322,   38.396507,   600.140259,   318.188812,   -288.471863,   0.424456,   721.181396,   690.491455
-0.033613,   0.125940,   0.135119,   0.000000,   780.298157,   0.535064,   30.400322,   37.638466,   595.366455,   327.228424,   -289.459778,   0.427259,   719.777527,   687.053711
-0.032672,   0.123340,   0.132467,   0.000000,   779.928467,   0.535064,   30.400322,   36.880424,   590.451843,   335.407745,   -290.217682,   0.429731,   718.170288,   683.607544
-0.031815,   0.120699,   0.129733,   0.000000,   779.152527,   0.535065,   30.400322,   36.122379,   585.406372,   342.726929,   -290.784790,   0.431865,   716.376465,   680.199402
-0.031033,   0.118030,   0.126933,   0.000000,   777.991577,   0.535064,   30.400322,   35.364338,   580.236450,   349.194550,   -291.198944,   0.433657,   714.413208,   676.871765
-0.030323,   0.115342,   0.124083,   0.000000,   776.467773,   0.535064,   30.400322,   34.606297,   574.946533,   354.827545,   -291.495209,   0.435106,   712.297424,   673.661133
-0.029677,   0.112645,   0.121196,   0.000000,   774.603210,   0.535065,   30.400322,   33.848255,   569.538025,   359.649261,   -291.706360,   0.436210,   710.045776,   670.599121
-0.029089,   0.109947,   0.118286,   0.000000,   772.419189,   0.535065,   30.400322,   33.090210,   564.007874,   363.687592,   -291.863464,   0.436969,   707.674866,   667.713257
-0.028554,   0.107255,   0.115363,   0.000000,   769.935669,   0.535064,   30.400322,   32.332169,   558.352478,   366.972992,   -291.993378,   0.437382,   705.199829,   665.024109
-0.028064,   0.104574,   0.112438,   0.000000,   767.171082,   0.535064,   30.400322,   31.574127,   552.568787,   369.537903,   -292.118103,   0.437452,   702.633911,   662.544128
-0.027613,   0.101909,   0.109518,   0.000000,   764.143677,   0.535064,   30.400322,   30.816084,   546.643494,   371.427307,   -292.259949,   0.437183,   699.990479,   660.281433
-0.027194,   0.099263,   0.106610,   0.000000,   760.868835,   0.535064,   30.400322,   30.058043,   540.566528,   372.682678,   -292.435150,   0.436577,   697.280212,   658.235474
-0.026801,   0.096637,   0.103718,   0.000000,   757.359375,   0.535065,   30.400322,   29.300001,   534.323242,   373.348297,   -292.657410,   0.435640,   694.511841,   656.400696
-0.026429,   0.094031,   0.100844,   0.000000,   753.626221,   0.535064,   30.400322,   28.541958,   527.899780,   373.469482,   -292.935883,   0.434379,   691.691772,   654.763489
-0.026070,   0.091444,   0.097990,   0.000000,   749.677063,   0.535064,   30.400322,   27.783916,   521.275269,   373.094482,   -293.278259,   0.432800,   688.824280,   653.306519
-0.025718,   0.088873,   0.095155,   0.000000,   745.518250,   0.535065,   30.400322,   27.025873,   514.429688,   372.274567,   -293.687469,   0.430913,   685.911194,   652.004883
-0.025369,   0.086316,   0.092336,   0.000000,   741.154236,   0.535064,   30.400322,   26.267830,   507.340515,   371.062408,   -294.164124,   0.428728,   682.952637,   650.830078
-0.025016,   0.083768,   0.089532,   0.000000,   736.585571,   0.535064,   30.400322,   25.509789,   499.982300,   369.508972,   -294.705811,   0.426255,   679.945435,   649.749939
-0.024654,   0.081224,   0.086736,   0.000000,   731.808594,   0.535064,   30.400322,   24.751747,   492.328369,   367.665100,   -295.305206,   0.423508,   676.881348,   648.724854
-0.024279,   0.078675,   0.083941,   0.000000,   726.815735,   0.535065,   30.400322,   23.993704,   484.344238,   365.582977,   -295.953796,   0.420496,   673.749390,   647.714233
-0.023885,   0.076115,   0.081138,   0.000000,   721.596130,   0.535064,   30.400322,   23.235661,   475.995697,   363.311615,   -296.639221,   0.417233,   670.534790,   646.673950
-0.023469,   0.073535,   0.078319,   0.000000,   716.135132,   0.535064,   30.400322,   22.477619,   467.252258,   360.892548,   -297.344574,   0.413729,   667.219299,   645.556824
-0.023025,   0.070925,   0.075472,   0.000000,   710.407288,   0.535064,   30.400322,   21.719578,   458.062714,   358.368134,   -298.052277,   0.409993,   663.776733,   644.312378
-0.022548,   0.068275,   0.072585,   0.000000,   704.383606,   0.535065,   30.400322,   20.961535,   448.387909,   355.768585,   -298.737244,   0.406031,   660.176086,   642.885193
-0.022034,   0.065569,   0.069640,   0.000000,   698.017151,   0.535064,   30.400322,   20.203493,   438.169739,   353.106689,   -299.372833,   0.401841,   656.375427,   641.215515
-0.021477,   0.062796,   0.066624,   0.000000,   691.258484,   0.535064,   30.400322,   19.445450,   427.358398,   350.388794,   -299.925873,   0.397421,   652.328552,   639.238281
-0.020870,   0.059939,   0.063519,   0.000000,   684.031311,   0.535064,   30.400322,   18.687408,   415.887817,   347.583588,   -300.360260,   0.392748,   647.973877,   636.880005
-0.020205,   0.056980,   0.060300,   0.000000,   676.241516,   0.535065,   30.400322,   17.929365,   403.691925,   344.648865,   -300.625092,   0.387804,   643.229675,   634.043030
-0.019471,   0.053897,   0.056943,   0.000000,   667.768677,   0.535064,   30.400322,   17.171324,   390.689606,   341.514313,   -300.663025,   0.382554,   637.996155,   630.613220
-0.018660,   0.050671,   0.053427,   0.000000,   658.483521,   0.535065,   30.400322,   16.413282,   376.812561,   338.094971,   -300.406616,   0.376964,   632.162903,   626.460022
-0.017757,   0.047283,   0.049729,   0.000000,   648.223206,   0.535064,   30.400322,   15.655239,   361.987671,   334.288208,   -299.765503,   0.371001,   625.582581,   621.409973
-0.016751,   0.043712,   0.045822,   0.000000,   636.784363,   0.535064,   30.400322,   14.897197,   346.138580,   329.949738,   -298.630524,   0.364623,   618.070374,   615.249268
-0.015627,   0.039944,   0.041694,   0.000000,   623.942627,   0.535064,   30.400322,   14.139154,   329.219330,   324.888428,   -296.880859,   0.357776,   609.420227,   607.737061
-0.014377,   0.035971,   0.037331,   0.000000,   609.406311,   0.535064,   30.400322,   13.381112,   311.237946,   318.806152,   -294.359924,   0.350402,   599.353943,   598.553711
-0.012984,   0.031787,   0.032727,   0.000000,   592.829712,   0.535064,   30.400322,   12.623070,   292.289276,   311.324677,   -290.867035,   0.342469,   587.511780,   587.289001
-0.011437,   0.027384,   0.027875,   0.000000,   573.779053,   0.535064,   30.400322,   11.865027,   272.572083,   302.012726,   -286.108246,   0.334036,   573.376648,   573.375366
-0.009723,   0.022770,   0.022787,   -8.827472,   551.779236,   0.535064,   30.400322,   11.106986,   252.447495,   290.504272,   -279.656738,   0.325367,   556.245544,   556.087830
-0.007846,   0.017961,   0.017485,   -17.722048,   525.987305,   0.535065,   30.400322,   10.348944,   232.203232,   276.062012,   -270.968750,   0.316636,   535.068481,   534.407532
-0.005799,   0.012929,   0.011955,   -27.993759,   493.272827,   0.535064,   30.400322,   9.590901,   211.265594,   254.013474,   -259.755402,   0.305392,   507.848694,   506.108429
-0.003496,   0.007606,   0.006148,   -41.170177,   447.636749,   0.535064,   30.400322,   8.832859,   192.439026,   214.027542,   -244.164978,   0.288534,   469.577393,   465.490936
-0.000576,   0.000760,   0.000000,   -80.373634,   135.412674,   0.535064,   30.400322,   8.074817,   81.733894,   -26.694857,   -93.283089,   0.097126,   188.891830,   141.984238
-0.006136,   0.002633,   0.004450,   -447.083435,   0.000000,   0.535064,   30.400322,   7.316774,   -46.552799,   -409.878479,   122.072617,   -0.343840,   442.483582,   -442.261383
-0.057856,   0.127705,   0.126772,   -2.864700,   675.449280,   0.533428,   31.271563,   51.780094,   630.621277,   41.963287,   -168.516769,   0.331215,   676.886169,   676.872437
-0.056142,   0.129387,   0.129078,   0.000000,   687.179626,   0.533425,   31.271563,   51.004917,   633.490784,   65.075424,   -182.756851,   0.341652,   681.557678,   681.343628
-0.054314,   0.130659,   0.131053,   0.000000,   697.642761,   0.533425,   31.271563,   50.229740,   635.256653,   86.633286,   -195.239639,   0.350854,   685.840698,   684.875305
-0.052435,   0.131557,   0.132704,   0.000000,   706.917664,   0.533425,   31.271563,   49.454567,   636.082886,   106.621429,   -206.208313,   0.358939,   689.721008,   687.627502
-0.050550,   0.132118,   0.134042,   0.000000,   715.130859,   0.533425,   31.271563,   48.679390,   636.118164,   125.174187,   -215.902908,   0.366074,   693.203796,   689.733032
-0.048688,   0.132373,   0.135075,   0.000000,   722.419128,   0.533425,   31.271563,   47.904217,   635.484619,   142.497040,   -224.533401,   0.372435,   696.302490,   691.288452
-0.046869,   0.132349,   0.135808,   0.000000,   728.916626,   0.533425,   31.271563,   47.129040,   634.283569,   158.826279,   -232.270126,   0.378193,   699.034180,   692.356201
-0.045106,   0.132069,   0.136251,   0.000000,   734.744690,   0.533426,   31.271563,   46.353867,   632.595276,   174.393173,   -239.247971,   0.383503,   701.418701,   692.974304
-0.043408,   0.131554,   0.136414,   0.000000,   740.000916,   0.533426,   31.271563,   45.578690,   630.484802,   189.391403,   -245.561798,   0.388490,   703.472534,   693.160156
-0.041780,   0.130820,   0.136303,   0.000000,   744.752747,   0.533425,   31.271563,   44.803513,   628.000854,   203.954468,   -251.275162,   0.393244,   705.206726,   692.921082
-0.040227,   0.129882,   0.135928,   0.000000,   749.039856,   0.533425,   31.271563,   44.028336,   625.181580,   218.150406,   -256.427490,   0.397820,   706.628052,   692.261841
-0.038749,   0.128753,   0.135297,   0.000000,   752.879944,   0.533425,   31.271563,   43.253162,   622.056580,   231.990021,   -261.045166,   0.402241,   707.740479,   691.192017
-0.037349,   0.127445,   0.134423,   0.000000,   756.275635,   0.533425,   31.271563,   42.477985,   618.650024,   245.440521,   -265.149017,   0.406508,   708.547180,   689.729797
-0.036027,   0.125971,   0.133316,   0.000000,   759.222473,   0.533426,   31.271563,   41.702808,   614.983887,   258.443359,   -268.759491,   0.410608,   709.051941,   687.901855
-0.034783,   0.124347,   0.131993,   0.000000,   761.713989,   0.533425,   31.271563,   40.927635,   611.077576,   270.928925,   -271.900940,   0.414519,   709.260254,   685.744324
-0.033617,   0.122584,   0.130468,   0.000000,   763.746033,   0.533426,   31.271563,   40.152458,   606.950195,   282.826538,   -274.601837,   0.418219,   709.179993,   683.300110
-0.032530,   0.120700,   0.128760,   0.000000,   765.319702,   0.533425,   31.271563,   39.377281,   602.620728,   294.075531,   -276.895203,   0.421684,   708.822266,   680.616882
-0.031520,   0.118706,   0.126885,   0.000000,   766.436462,   0.533425,   31.271563,   38.602108,   598.100769,   304.619598,   -278.819397,   0.424890,   708.198547,   677.747314
-0.030584,   0.116615,   0.124858,   0.000000,   767.101562,   0.533425,   31.271563,   37.826931,   593.407959,   314.415894,   -280.407959,   0.427824,   707.318420,   674.736389
-0.029717,   0.114437,   0.122695,   0.000000,   767.326782,   0.533425,   31.271563,   37.051758,   588.552368,   323.438660,   -281.701691,   0.430471,   706.196411,   671.634155
-0.028918,   0.112185,   0.120413,   0.000000,   767.124634,   0.533426,   31.271563,   36.276581,   583.542236,   331.669586,   -282.739960,   0.432818,   704.846619,   668.487976
-0.028181,   0.109868,   0.118024,   0.000000,   766.509705,   0.533425,   31.271563,   35.501404,   578.382690,   339.101166,   -283.561462,   0.434857,   703.283203,   665.341492
-0.027502,   0.107496,   0.115544,   0.000000,   765.498108,   0.533425,   31.271563,   34.726231,   573.077026,   345.734650,   -284.202972,   0.436581,   701.520569,   662.234985
-0.026877,   0.105078,   0.112986,   0.000000,   764.106628,   0.533426,   31.271563,   33.951054,   567.625305,   351.579590,   -284.699615,   0.437984,   699.573303,   659.203796
-0.026300,   0.102621,   0.110362,   0.000000,   762.353088,   0.533425,   31.271563,   33.175877,   562.026428,   356.653168,   -285.083313,   0.439062,   697.455505,   656.278015
-0.025766,   0.100134,   0.107684,   0.000000,   760.254700,   0.533425,   31.271563,   32.400703,   556.276550,   360.977783,   -285.383545,   0.439816,   695.180847,   653.482361
-0.025271,   0.097623,   0.104961,   0.000000,   757.826721,   0.533426,   31.271563,   31.625526,   550.372864,   364.574585,   -285.625061,   0.440242,   692.761108,   650.835327
-0.024807,   0.095092,   0.102203,   0.000000,   755.084778,   0.533425,   31.271563,   30.850351,   544.300659,   367.478638,   -285.834229,   0.440340,   690.209045,   648.352295
-0.024370,   0.092547,   0.099419,   0.000000,   752.042725,   0.533425,   31.271563,   30.075176,   538.050232,   369.722992,   -286.030701,   0.440110,   687.534912,   646.039978
-0.023956,   0.089992,   0.096614,   0.000000,   748.712830,   0.533426,   31.271563,   29.300001,   531.607056,   371.345520,   -286.231781,   0.439555,   684.747803,   643.899414
-0.023557,   0.087429,   0.093794,   0.000000,   745.106567,   0.533425,   31.271563,   28.524824,   524.957458,   372.387054,   -286.450439,   0.438678,   681.855286,   641.924500
-0.023169,   0.084859,   0.090963,   0.000000,   741.232239,   0.533425,   31.271563,   27.749649,   518.082031,   372.891174,   -286.697388,   0.437483,   678.862854,   640.104065
-0.022785,   0.082283,   0.088124,   0.000000,   737.094238,   0.533426,   31.271563,   26.974474,   510.959595,   372.900452,   -286.978790,   0.435975,   675.772034,   638.419067
-0.022402,   0.079699,   0.085275,   0.000000,   732.694946,   0.533425,   31.271563,   26.199297,   503.564545,   372.461914,   -287.298370,   0.434160,   672.582764,   636.846313
-0.022013,   0.077105,   0.082417,   0.000000,   728.034180,   0.533425,   31.271563,   25.424122,   495.871399,   371.621582,   -287.655609,   0.432045,   669.291992,   635.356323
-0.021614,   0.074499,   0.079548,   0.000000,   723.109192,   0.533426,   31.271563,   24.648947,   487.853577,   370.427551,   -288.045715,   0.429639,   665.893616,   633.913879
-0.021200,   0.071877,   0.076665,   0.000000,   717.913269,   0.533426,   31.271563,   23.873770,   479.474792,   368.931610,   -288.462555,   0.426950,   662.378357,   632.480896
-0.020766,   0.069235,   0.073762,   0.000000,   712.435486,   0.533425,   31.271563,   23.098595,   470.698029,   367.184540,   -288.894592,   0.423987,   658.732361,   631.012817
-0.020308,   0.066567,   0.070835,   0.000000,   706.663147,   0.533425,   31.271563,   22.323420,   461.493103,   365.232605,   -289.324280,   0.420765,   654.938171,   629.460571
-0.019823,   0.063867,   0.067876,   0.000000,   700.571716,   0.533426,   31.271563,   21.548244,   451.806946,   363.120575,   -289.734283,   0.417288,   650.971252,   627.773682
-0.019307,   0.061129,   0.064880,   0.000000,   694.140015,   0.533426,   31.271563,   20.773067,   441.601654,   360.891663,   -290.099976,   0.413567,   646.806335,   625.897339
-0.018755,   0.058348,   0.061839,   0.000000,   687.328247,   0.533425,   31.271563,   19.997892,   430.821899,   358.566895,   -290.395172,   0.409599,   642.407410,   623.775391
-0.018164,   0.055513,   0.058740,   0.000000,   680.086426,   0.533426,   31.271563,   19.222717,   419.412720,   356.163879,   -290.582336,   0.405387,   637.725891,   621.335876
-0.017530,   0.052614,   0.055571,   0.000000,   672.342285,   0.533425,   31.271563,   18.447540,   407.314453,   353.657318,   -290.620667,   0.400912,   632.700500,   618.502930
-0.016844,   0.049640,   0.052319,   0.000000,   664.013184,   0.533426,   31.271563,   17.672365,   394.462494,   351.019745,   -290.460999,   0.396158,   627.259277,   615.187439
-0.016103,   0.046580,   0.048970,   0.000000,   654.991272,   0.533425,   31.271563,   16.897190,   380.791077,   348.183960,   -290.045898,   0.391095,   621.311890,   611.283936
-0.015297,   0.043420,   0.045508,   0.000000,   645.142212,   0.533426,   31.271563,   16.122015,   366.238708,   345.061829,   -289.298248,   0.385692,   614.738892,   606.652039
-0.014420,   0.040146,   0.041918,   0.000000,   634.312317,   0.533425,   31.271563,   15.346839,   350.744202,   341.554840,   -288.126160,   0.379926,   607.398438,   601.123779
-0.013463,   0.036759,   0.038198,   0.000000,   622.353149,   0.533426,   31.271563,   14.571663,   334.282593,   337.559509,   -286.427399,   0.373779,   599.143555,   594.518982
-0.012423,   0.033249,   0.034338,   0.000000,   609.040955,   0.533425,   31.271563,   13.796487,   316.815094,   332.890259,   -284.074615,   0.367214,   589.761169,   586.594604
-0.011293,   0.029621,   0.030342,   0.000000,   594.126587,   0.533426,   31.271563,   13.021312,   298.384216,   327.245483,   -280.941376,   0.360167,   579.018127,   577.085266
-0.010074,   0.025874,   0.026211,   0.000000,   577.238708,   0.533425,   31.271563,   12.246136,   279.109039,   320.102295,   -276.875427,   0.352536,   566.572083,   565.612244
-0.008762,   0.022012,   0.021950,   0.000000,   557.850342,   0.533426,   31.271563,   11.470961,   259.123413,   310.660370,   -271.739410,   0.344085,   551.980408,   551.690002
-0.007351,   0.018016,   0.017543,   0.000000,   535.050537,   0.533425,   31.271563,   10.695785,   238.378479,   297.780670,   -265.313660,   0.334370,   534.497070,   534.494446
-0.005817,   0.013835,   0.012944,   -10.456819,   507.436096,   0.533425,   31.271563,   9.920609,   216.197418,   280.781860,   -256.925049,   0.323084,   512.744507,   512.504456
-0.004101,   0.009415,   0.008106,   -20.004793,   473.675110,   0.533425,   31.271563,   9.145433,   191.214584,   262.455719,   -244.256287,   0.312453,   483.987671,   483.056152
-0.002102,   0.004600,   0.002899,   -33.841637,   423.446838,   0.533425,   31.271563,   8.370258,   155.033417,   234.571793,   -225.159058,   0.294258,   441.341827,   438.408447
-0.001157,   0.000427,   0.000000,   -237.504669,   18.449739,   0.533425,   31.271563,   7.595082,   18.423872,   -237.478806,   -2.572990,   -0.295326,   247.246368,   -245.690460
-0.005979,   0.002572,   0.004279,   -445.335022,   0.000000,   0.533425,   31.271563,   6.819907,   -45.171726,   -409.483643,   119.776497,   -0.343851,   440.748779,   -440.526947
-0.050010,   0.109787,   0.108047,   -2.054770,   651.749634,   0.530986,   32.119831,   52.313992,   621.152588,   28.542288,   -138.088058,   0.331758,   652.779480,   652.772217
-0.048861,   0.111935,   0.110688,   0.000000,   664.124268,   0.530986,   32.119831,   51.520405,   625.102112,   51.362541,   -154.632767,   0.342666,   658.040894,   657.780457
-0.047550,   0.113717,   0.113059,   0.000000,   675.408386,   0.530985,   32.119831,   50.726818,   627.828491,   73.104324,   -169.285446,   0.352397,   663.014771,   661.907959
-0.046140,   0.115149,   0.115151,   0.000000,   685.566772,   0.530985,   32.119831,   49.933235,   629.479309,   93.517815,   -182.226562,   0.360972,   667.638977,   665.272156
-0.044676,   0.116253,   0.116959,   0.000000,   694.648132,   0.530986,   32.119831,   49.139648,   630.204651,   112.558144,   -193.679855,   0.368497,   671.884094,   667.991516
-0.043193,   0.117055,   0.118487,   0.000000,   702.746399,   0.530985,   32.119831,   48.346062,   630.147278,   130.304855,   -203.859604,   0.375118,   675.743958,   670.166809
-0.041719,   0.117580,   0.119739,   0.000000,   709.971252,   0.530986,   32.119831,   47.552475,   629.426758,   146.912216,   -212.958496,   0.380993,   679.223633,   671.870605
-0.040271,   0.117848,   0.120717,   0.000000,   716.437134,   0.530986,   32.119831,   46.758888,   628.139954,   162.580765,   -221.142426,   0.386282,   682.334778,   673.147461
-0.038863,   0.117877,   0.121426,   0.000000,   722.247620,   0.530986,   32.119831,   45.965305,   626.366577,   177.507019,   -228.539444,   0.391127,   685.091431,   674.021057
-0.037501,   0.117684,   0.121872,   0.000000,   727.492065,   0.530985,   32.119831,   45.171719,   624.171997,   191.870789,   -235.245453,   0.395653,   687.507080,   674.498230
-0.036191,   0.117283,   0.122059,   0.000000,   732.236023,   0.530985,   32.119831,   44.378132,   621.608093,   205.803085,   -241.325928,   0.399952,   689.592102,   674.578064
-0.034937,   0.116685,   0.121994,   0.000000,   736.521179,   0.530986,   32.119831,   43.584549,   618.714844,   219.380920,   -246.824600,   0.404085,   691.353027,   674.258484
-0.033738,   0.115900,   0.121684,   0.000000,   740.368347,   0.530985,   32.119831,   42.790962,   615.523315,   232.628677,   -251.771286,   0.408083,   692.793640,   673.542114
-0.032597,   0.114938,   0.121137,   0.000000,   743.783875,   0.530987,   32.119831,   41.997375,   612.058899,   245.529007,   -256.188599,   0.411955,   693.916504,   672.438782
-0.031514,   0.113810,   0.120362,   0.000000,   746.765076,   0.530985,   32.119831,   41.203789,   608.341614,   258.036255,   -260.099121,   0.415694,   694.724915,   670.969238
-0.030489,   0.112526,   0.119370,   0.000000,   749.306213,   0.530986,   32.119831,   40.410202,   604.389099,   270.090240,   -263.527222,   0.419280,   695.223083,   669.162354
-0.029523,   0.111097,   0.118175,   0.000000,   751.403503,   0.530985,   32.119831,   39.616615,   600.215576,   281.629974,   -266.503448,   0.422693,   695.419128,   667.056763
-0.028615,   0.109536,   0.116789,   0.000000,   753.051270,   0.530985,   32.119831,   38.823032,   595.836426,   292.587769,   -269.057068,   0.425907,   695.319580,   664.693604
-0.027764,   0.107851,   0.115227,   0.000000,   754.249451,   0.530986,   32.119831,   38.029446,   591.264526,   302.911041,   -271.221985,   0.428902,   694.933350,   662.116394
-0.026968,   0.106054,   0.113500,   0.000000,   755.001282,   0.530985,   32.119831,   37.235859,   586.507568,   312.557770,   -273.036560,   0.431659,   694.271484,   659.371948
-0.026225,   0.104154,   0.111624,   0.000000,   755.312622,   0.530987,   32.119831,   36.442272,   581.572693,   321.494598,   -274.538757,   0.434159,   693.345276,   656.506409
-0.025531,   0.102160,   0.109611,   0.000000,   755.191833,   0.530985,   32.119831,   35.648685,   576.464600,   329.698792,   -275.766541,   0.436390,   692.166626,   653.563843
-0.024884,   0.100081,   0.107473,   0.000000,   754.649048,   0.530986,   32.119831,   34.855103,   571.185791,   337.157196,   -276.756989,   0.438338,   690.747498,   650.585938
-0.024279,   0.097926,   0.105223,   0.000000,   753.696167,   0.530985,   32.119831,   34.061516,   565.736328,   343.866211,   -277.545654,   0.439995,   689.099976,   647.610229
-0.023714,   0.095702,   0.102873,   0.000000,   752.346191,   0.530985,   32.119831,   33.267929,   560.114075,   349.830444,   -278.166229,   0.441355,   687.236145,   644.670166
-0.023184,   0.093417,   0.100433,   0.000000,   750.612671,   0.530986,   32.119831,   32.474346,   554.314575,   355.061737,   -278.650116,   0.442410,   685.168091,   641.794983
-0.022685,   0.091077,   0.097915,   0.000000,   748.507690,   0.530985,   32.119831,   31.680758,   548.335144,   359.572937,   -279.023376,   0.443160,   682.905396,   639.006226
-0.022212,   0.088689,   0.095328,   0.000000,   746.044373,   0.530985,   32.119831,   30.887173,   542.159180,   363.391602,   -279.315643,   0.443597,   680.459839,   636.324951
-0.021762,   0.086258,   0.092680,   0.000000,   743.235657,   0.530985,   32.119831,   30.093586,   535.778992,   366.542511,   -279.548737,   0.443723,   677.841614,   633.763977
-0.021328,   0.083791,   0.089982,   0.000000,   740.092834,   0.530986,   32.119831,   29.299999,   529.182190,   369.056915,   -279.741699,   0.443536,   675.059021,   631.329102
-0.020907,   0.081290,   0.087238,   0.000000,   736.622742,   0.530985,   32.119831,   28.506414,   522.352661,   370.965424,   -279.909668,   0.443037,   672.116882,   629.019348
-0.020494,   0.078758,   0.084453,   0.000000,   732.832703,   0.530985,   32.119831,   27.712828,   515.271118,   372.307648,   -280.064972,   0.442229,   669.019531,   626.826782
-0.020083,   0.076197,   0.081633,   0.000000,   728.726135,   0.530986,   32.119831,   26.919241,   507.916870,   373.119781,   -280.216278,   0.441113,   665.768372,   624.738708
-0.019669,   0.073608,   0.078779,   0.000000,   724.304626,   0.530985,   32.119831,   26.125656,   500.263275,   373.444702,   -280.369659,   0.439692,   662.363220,   622.735962
-0.019249,   0.070991,   0.075894,   0.000000,   719.567078,   0.530985,   32.119831,   25.332071,   492.284363,   373.324799,   -280.526062,   0.437972,   658.800415,   620.792847
-0.018817,   0.068347,   0.072978,   0.000000,   714.509338,   0.530986,   32.119831,   24.538485,   483.952728,   372.805237,   -280.681580,   0.435961,   655.072754,   618.875549
-0.018369,   0.065673,   0.070030,   0.000000,   709.124451,   0.530985,   32.119831,   23.744898,   475.230713,   371.937805,   -280.830627,   0.433664,   651.170654,   616.947021
-0.017901,   0.062967,   0.067050,   0.000000,   703.401001,   0.530985,   32.119831,   22.951313,   466.079407,   370.771210,   -280.963043,   0.431090,   647.080505,   614.965698
-0.017410,   0.060231,   0.064038,   0.000000,   697.328674,   0.530985,   32.119831,   22.157726,   456.468445,   369.353394,   -281.062653,   0.428250,   642.787537,   612.884949
-0.016892,   0.057461,   0.060992,   0.000000,   690.886353,   0.530986,   32.119831,   21.364141,   446.346313,   367.731964,   -281.112427,   0.425148,   638.270020,   610.656860
-0.016344,   0.054655,   0.057907,   0.000000,   684.047974,   0.530985,   32.119831,   20.570555,   435.667145,   365.951660,   -281.085449,   0.421795,   633.498596,   608.221863
-0.015764,   0.051810,   0.054780,   0.000000,   676.775146,   0.530985,   32.119831,   19.776970,   424.379211,   364.038452,   -280.951019,   0.418190,   628.435974,   605.519165
-0.015148,   0.048923,   0.051609,   0.000000,   669.028320,   0.530986,   32.119831,   18.983383,   412.422424,   362.024414,   -280.675995,   0.414335,   623.044128,   602.487427
-0.014496,   0.045996,   0.048393,   0.000000,   660.755371,   0.530985,   32.119831,   18.189796,   399.756836,   359.904053,   -280.217316,   0.410223,   617.274292,   599.057129
-0.013802,   0.043019,   0.045122,   0.000000,   651.865356,   0.530985,   32.119831,   17.396212,   386.302704,   357.650177,   -279.522003,   0.405834,   611.048157,   595.135864
-0.013064,   0.039986,   0.041786,   0.000000,   642.249512,   0.530985,   32.119831,   16.602625,   371.998627,   355.188965,   -278.528961,   0.401135,   604.274353,   590.619934
-0.012276,   0.036896,   0.038386,   0.000000,   631.800842,   0.530985,   32.119831,   15.809039,   356.804962,   352.447723,   -277.165955,   0.396105,   596.855896,   585.389771
-0.011436,   0.033745,   0.034916,   0.000000,   620.369507,   0.530986,   32.119831,   15.015453,   340.670227,   349.314423,   -275.343262,   0.390711,   588.657349,   579.287781
-0.010542,   0.030532,   0.031373,   0.000000,   607.800537,   0.530985,   32.119831,   14.221868,   323.575836,   345.690765,   -272.943359,   0.384956,   579.517456,   572.114868
-0.009589,   0.027262,   0.027765,   0.000000,   593.922852,   0.530985,   32.119831,   13.428282,   305.513000,   341.448151,   -269.844757,   0.378832,   569.259827,   563.660706
-0.008584,   0.023940,   0.024097,   0.000000,   578.483459,   0.530986,   32.119831,   12.634696,   286.459473,   336.343994,   -265.914520,   0.372281,   557.645935,   553.662659
-0.007528,   0.020582,   0.020388,   0.000000,   561.177124,   0.530985,   32.119831,   11.841109,   266.442780,   329.983765,   -261.037567,   0.365183,   544.408936,   541.832520
-0.006425,   0.017180,   0.016633,   0.000000,   541.325195,   0.530985,   32.119831,   11.047523,   245.181198,   321.540710,   -255.123230,   0.357046,   529.084229,   527.710205
-0.005266,   0.013708,   0.012807,   0.000000,   517.661255,   0.530986,   32.119831,   10.253938,   221.971008,   309.512177,   -248.087967,   0.346769,   510.890503,   510.469574
-0.004015,   0.010090,   0.008838,   -1.813140,   487.293915,   0.530985,   32.119831,   9.460352,   195.259384,   290.221405,   -239.899948,   0.331475,   488.203033,   488.195496
-0.002583,   0.006163,   0.004568,   -26.214918,   443.324768,   0.530985,   32.119831,   8.666766,   162.061951,   255.047897,   -230.120148,   0.304240,   456.996490,   455.300171
-0.000754,   0.001720,   0.000000,   -55.063091,   344.600555,   0.530986,   32.119831,   7.873180,   88.227577,   201.309891,   -191.666000,   0.257247,   375.174988,   365.918304
-0.001995,   0.000610,   0.000140,   -393.556854,   0.000000,   0.530986,   32.119831,   7.079594,   -18.451008,   -379.266052,   73.215828,   -0.338632,   391.493317,   -391.443542
-0.005053,   0.002147,   0.003301,   -433.595459,   0.000000,   0.530985,   32.119831,   6.286008,   -33.259426,   -408.018524,   101.189735,   -0.342231,   429.805695,   -429.651154
-0.043052,   0.094122,   0.091872,   -1.496050,   629.258362,   0.527611,   32.943504,   52.883896,   609.973206,   17.789108,   -108.592270,   0.332145,   630.007751,   630.003784
-0.042369,   0.096564,   0.094676,   0.000000,   641.935669,   0.527612,   32.943504,   52.070660,   615.117859,   39.661274,   -127.089310,   0.343386,   635.611267,   635.319275
-0.041494,   0.098700,   0.097281,   0.000000,   653.819397,   0.527612,   32.943504,   51.257420,   618.957825,   61.148411,   -143.740845,   0.353625,   641.080261,   639.865967
-0.040478,   0.100529,   0.099664,   0.000000,   664.752075,   0.527611,   32.943504,   50.444183,   621.604309,   81.767052,   -158.601685,   0.362764,   646.308350,   643.704773
-0.039374,   0.102059,   0.101813,   0.000000,   674.666870,   0.527613,   32.943504,   49.630943,   623.180847,   101.220634,   -171.826904,   0.370789,   651.225525,   646.932007
-0.038223,   0.103305,   0.103719,   0.000000,   683.592224,   0.527611,   32.943504,   48.817707,   623.841492,   119.436531,   -183.599289,   0.377803,   655.789551,   649.636597
-0.037053,   0.104285,   0.105378,   0.000000,   691.598877,   0.527612,   32.943504,   48.004471,   623.726135,   136.460541,   -194.110199,   0.383942,   659.983398,   651.892822
-0.035884,   0.105017,   0.106791,   0.000000,   698.781311,   0.527612,   32.943504,   47.191231,   622.955566,   152.425430,   -203.538315,   0.389362,   663.804504,   653.750366
-0.034732,   0.105513,   0.107953,   0.000000,   705.231445,   0.527612,   32.943504,   46.377995,   621.624634,   167.494385,   -212.034180,   0.394212,   667.254395,   655.233154
-0.033606,   0.105787,   0.108865,   0.000000,   711.042908,   0.527612,   32.943504,   45.564754,   619.815247,   181.851562,   -219.720001,   0.398636,   670.341125,   656.347046
-0.032513,   0.105850,   0.109527,   0.000000,   716.294373,   0.527611,   32.943504,   44.751518,   617.592590,   195.658936,   -226.688446,   0.402755,   673.073914,   657.086792
-0.031455,   0.105712,   0.109943,   0.000000,   721.047119,   0.527612,   32.943504,   43.938282,   615.008484,   209.045135,   -233.006393,   0.406663,   675.460388,   657.441040
-0.030436,   0.105380,   0.110115,   0.000000,   725.341187,   0.527612,   32.943504,   43.125042,   612.102295,   222.089828,   -238.720825,   0.410423,   677.505920,   657.400085
-0.029456,   0.104863,   0.110047,   0.000000,   729.197632,   0.527612,   32.943504,   42.311806,   608.903992,   234.824478,   -243.864609,   0.414071,   679.213440,   656.959717
-0.028516,   0.104167,   0.109743,   0.000000,   732.623962,   0.527612,   32.943504,   41.498566,   605.435669,   247.242355,   -248.464996,   0.417620,   680.585266,   656.125183
-0.027617,   0.103300,   0.109212,   0.000000,   735.618408,   0.527612,   32.943504,   40.685329,   601.714539,   259.307190,   -252.546860,   0.421064,   681.624146,   654.911926
-0.026758,   0.102270,   0.108461,   0.000000,   738.176819,   0.527611,   32.943504,   39.872089,   597.751038,   270.969940,   -256.140350,   0.424386,   682.335754,   653.347595
-0.025942,   0.101087,   0.107501,   0.000000,   740.291138,   0.527612,   32.943504,   39.058853,   593.563721,   282.165375,   -259.267456,   0.427567,   682.723145,   651.461304
-0.025167,   0.099759,   0.106342,   0.000000,   741.957458,   0.527612,   32.943504,   38.245617,   589.160583,   292.836151,   -261.962463,   0.430582,   682.794739,   649.294067
-0.024432,   0.098295,   0.104997,   0.000000,   743.173645,   0.527612,   32.943504,   37.432377,   584.548523,   302.930695,   -264.260468,   0.433408,   682.559204,   646.888245
-0.023737,   0.096705,   0.103478,   0.000000,   743.939819,   0.527612,   32.943504,   36.619141,   579.733521,   312.403381,   -266.197266,   0.436023,   682.025696,   644.288269
-0.023080,   0.094997,   0.101795,   0.000000,   744.258789,   0.527611,   32.943504,   35.805901,   574.719910,   321.218689,   -267.809174,   0.438409,   681.203979,   641.537537
-0.022460,   0.093180,   0.099962,   0.000000,   744.136047,   0.527613,   32.943504,   34.992664,   569.509827,   329.350616,   -269.132690,   0.440550,   680.104431,   638.678894
-0.021873,   0.091261,   0.097989,   0.000000,   743.578735,   0.527611,   32.943504,   34.179428,   564.103027,   336.783081,   -270.203491,   0.442432,   678.737427,   635.752014
-0.021317,   0.089248,   0.095887,   0.000000,   742.595337,   0.527612,   32.943504,   33.366188,   558.497192,   343.508453,   -271.055634,   0.444045,   677.113098,   632.793457
-0.020790,   0.087150,   0.093669,   0.000000,   741.195740,   0.527612,   32.943504,   32.552952,   552.687805,   349.528076,   -271.721313,   0.445379,   675.241577,   629.835144
-0.020287,   0.084972,   0.091343,   0.000000,   739.389099,   0.527611,   32.943504,   31.739714,   546.672607,   354.845764,   -272.227539,   0.446430,   673.131104,   626.902100
-0.019805,   0.082722,   0.088921,   0.000000,   737.186584,   0.527611,   32.943504,   30.926476,   540.433289,   359.481934,   -272.607086,   0.447190,   670.793030,   624.021851
-0.019342,   0.080406,   0.086411,   0.000000,   734.597961,   0.527612,   32.943504,   30.113239,   533.964111,   363.452972,   -272.881378,   0.447656,   668.234680,   621.208984
-0.018892,   0.078029,   0.083822,   0.000000,   731.630249,   0.527612,   32.943504,   29.299999,   527.252441,   366.781403,   -273.069580,   0.447827,   665.460999,   618.471497
-0.018452,   0.075597,   0.081161,   0.000000,   728.288696,   0.527612,   32.943504,   28.486761,   520.282288,   369.490784,   -273.189087,   0.447701,   662.475952,   615.813782
-0.018016,   0.073112,   0.078434,   0.000000,   724.579163,   0.527612,   32.943504,   27.673523,   513.033752,   371.616974,   -273.253632,   0.447280,   659.282471,   613.231812
-0.017581,   0.070579,   0.075647,   0.000000,   720.502991,   0.527611,   32.943504,   26.860287,   505.486755,   373.189697,   -273.272766,   0.446563,   655.880310,   610.716064
-0.017143,   0.067999,   0.072804,   0.000000,   716.060242,   0.527611,   32.943504,   26.047049,   497.613434,   374.249390,   -273.253540,   0.445555,   652.267334,   608.250488
-0.016697,   0.065375,   0.069910,   0.000000,   711.248047,   0.527612,   32.943504,   25.233810,   489.387817,   374.834534,   -273.197327,   0.444258,   648.438354,   605.811035
-0.016239,   0.062710,   0.066967,   0.000000,   706.061646,   0.527612,   32.943504,   24.420572,   480.782532,   374.985565,   -273.101654,   0.442679,   644.385803,   603.368713
-0.015765,   0.060004,   0.063979,   0.000000,   700.494751,   0.527612,   32.943504,   23.607334,   471.760651,   374.754578,   -272.961304,   0.440824,   640.100159,   600.888000
-0.015273,   0.057258,   0.060948,   0.000000,   694.532959,   0.527611,   32.943504,   22.794098,   462.280304,   374.185455,   -272.766510,   0.438699,   635.565918,   598.329468
-0.014758,   0.054474,   0.057874,   0.000000,   688.160034,   0.527612,   32.943504,   21.980860,   452.306030,   373.322205,   -272.499115,   0.436312,   630.762756,   595.643433
-0.014218,   0.051652,   0.054758,   0.000000,   681.353760,   0.527612,   32.943504,   21.167622,   441.787872,   372.216492,   -272.137390,   0.433674,   625.665405,   592.775208
-0.013650,   0.048795,   0.051604,   0.000000,   674.093933,   0.527611,   32.943504,   20.354383,   430.674622,   370.918976,   -271.659058,   0.430790,   620.251587,   589.676331
-0.013054,   0.045907,   0.048418,   0.000000,   666.355286,   0.527611,   32.943504,   19.541147,   418.929840,   369.469574,   -271.029663,   0.427671,   614.491150,   586.285706
-0.012428,   0.042989,   0.045197,   0.000000,   658.084534,   0.527612,   32.943504,   18.727909,   406.469666,   367.894897,   -270.214783,   0.424307,   608.337280,   582.541748
-0.011771,   0.040044,   0.041947,   0.000000,   649.237915,   0.527612,   32.943504,   17.914671,   393.266388,   366.203217,   -269.163177,   0.420706,   601.742676,   578.368958
-0.011083,   0.037075,   0.038668,   0.000000,   639.738770,   0.527612,   32.943504,   17.101433,   379.242737,   364.382416,   -267.823120,   0.416848,   594.640991,   573.689148
-0.010363,   0.034087,   0.035367,   0.000000,   629.505737,   0.527612,   32.943504,   16.288195,   364.350922,   362.377075,   -266.139893,   0.412704,   586.964783,   568.424988
-0.009610,   0.031079,   0.032042,   0.000000,   618.409485,   0.527612,   32.943504,   15.474957,   348.543396,   360.083038,   -264.033203,   0.408242,   578.600342,   562.449158
-0.008823,   0.028053,   0.028695,   0.000000,   606.306763,   0.527612,   32.943504,   14.661719,   331.780182,   357.378632,   -261.414185,   0.403428,   569.419495,   555.615540
-0.008001,   0.025012,   0.025330,   0.000000,   593.030029,   0.527612,   32.943504,   13.848482,   314.027283,   354.126160,   -258.175995,   0.398233,   559.265320,   547.741394
-0.007146,   0.021964,   0.021957,   0.000000,   578.390808,   0.527612,   32.943504,   13.035244,   295.248260,   350.189514,   -254.191833,   0.392636,   547.952393,   538.607971
-0.006261,   0.018919,   0.018587,   0.000000,   562.152283,   0.527612,   32.943504,   12.222006,   275.379486,   345.394379,   -249.319626,   0.386591,   535.254578,   527.959900
-0.005349,   0.015878,   0.015223,   0.000000,   543.892395,   0.527612,   32.943504,   11.408768,   254.170807,   339.442230,   -243.379578,   0.379926,   520.815125,   515.434937
-0.004412,   0.012841,   0.011870,   0.000000,   522.925964,   0.527611,   32.943504,   10.595531,   231.126495,   331.744415,   -236.192001,   0.372164,   504.141724,   500.562744
-0.003440,   0.009796,   0.008518,   0.000000,   498.010193,   0.527612,   32.943504,   9.782292,   205.697388,   320.908020,   -227.528519,   0.362417,   484.346069,   482.441376
-0.002409,   0.006720,   0.005152,   0.000000,   467.904175,   0.527612,   32.943504,   8.969054,   178.566010,   306.255493,   -216.266357,   0.351565,   459.679047,   458.977875
-0.001309,   0.003716,   0.001900,   0.000000,   433.165527,   0.527611,   32.943504,   8.155817,   155.833435,   287.661835,   -200.880188,   0.345325,   428.094147,   427.813629
-0.000135,   0.000570,   0.000000,   0.000000,   122.131256,   0.527612,   32.943504,   7.342579,   54.779877,   75.597458,   -55.983173,   0.367599,   118.224106,   117.574471
-0.002171,   0.000639,   0.000299,   -403.505402,   0.000000,   0.527612,   32.943504,   6.529341,   -38.903290,   -380.134521,   92.309662,   -0.352754,   395.967743,   -395.281433
-0.004056,   0.001664,   0.002261,   -420.508850,   0.000000,   0.527612,   32.943504,   5.716104,   -22.359785,   -404.511810,   79.807320,   -0.340927,   417.363861,   -417.254730
-0.036874,   0.080356,   0.077822,   -1.455171,   607.765442,   0.523154,   33.740997,   53.488712,   596.878784,   9.431483,   -80.708458,   0.332137,   608.494324,   608.490479
-0.036574,   0.082970,   0.080678,   0.000000,   620.417725,   0.523154,   33.740997,   52.654621,   603.281860,   29.683668,   -100.611755,   0.343495,   614.239929,   613.951416
-0.036068,   0.085350,   0.083407,   0.000000,   632.680176,   0.523154,   33.740997,   51.820526,   608.384216,   50.423309,   -118.939011,   0.354181,   620.029480,   618.789185
-0.035401,   0.087478,   0.085979,   0.000000,   644.242554,   0.523154,   33.740997,   50.986435,   612.190552,   70.889671,   -135.562241,   0.363885,   625.728333,   623.007935
-0.034623,   0.089352,   0.088376,   0.000000,   654.940613,   0.523155,   33.740997,   50.152340,   614.799744,   90.581718,   -150.511963,   0.372488,   631.233521,   626.675232
-0.033769,   0.090975,   0.090583,   0.000000,   664.720886,   0.523154,   33.740997,   49.318245,   616.366638,   109.245964,   -163.888885,   0.380023,   636.463440,   629.860107
-0.032872,   0.092351,   0.092579,   0.000000,   673.578308,   0.523154,   33.740997,   48.484154,   617.028687,   126.772583,   -175.845596,   0.386577,   641.356628,   632.620728
-0.031953,   0.093487,   0.094354,   0.000000,   681.563416,   0.523155,   33.740997,   47.650059,   616.923340,   143.188568,   -186.549149,   0.392287,   645.881348,   635.002136
-0.031030,   0.094396,   0.095902,   0.000000,   688.755981,   0.523154,   33.740997,   46.815964,   616.174255,   158.604111,   -196.161530,   0.397305,   650.027832,   637.033264
-0.030115,   0.095086,   0.097217,   0.000000,   695.240234,   0.523155,   33.740997,   45.981869,   614.882751,   173.172485,   -204.822037,   0.401786,   653.792725,   638.718018
-0.029213,   0.095563,   0.098294,   0.000000,   701.093079,   0.523152,   33.740997,   45.147778,   613.125305,   187.055084,   -212.647079,   0.405868,   657.176086,   640.045654
-0.028330,   0.095834,   0.099129,   0.000000,   706.385681,   0.523154,   33.740997,   44.313686,   610.965210,   200.406326,   -219.728912,   0.409670,   660.183533,   640.998169
-0.027467,   0.095905,   0.099722,   0.000000,   711.172546,   0.523155,   33.740997,   43.479591,   608.449524,   213.347153,   -226.137405,   0.413283,   662.820679,   641.556519
-0.026628,   0.095781,   0.100071,   0.000000,   715.490051,   0.523154,   33.740997,   42.645496,   605.613403,   225.956268,   -231.923126,   0.416770,   665.091492,   641.704834
-0.025811,   0.095465,   0.100179,   0.000000,   719.358215,   0.523155,   33.740997,   41.811405,   602.480957,   238.269882,   -237.125076,   0.420166,   666.999023,   641.435669
-0.025019,   0.094964,   0.100047,   0.000000,   722.784546,   0.523154,   33.740997,   40.977310,   599.070251,   250.286591,   -241.774185,   0.423485,   668.545837,   640.751587
-0.024252,   0.094282,   0.099682,   0.000000,   725.768677,   0.523154,   33.740997,   40.143215,   595.389404,   261.980194,   -245.903214,   0.426720,   669.736572,   639.668701
-0.023511,   0.093427,   0.099089,   0.000000,   728.305115,   0.523154,   33.740997,   39.309124,   591.458862,   273.300598,   -249.530884,   0.429861,   670.572693,   638.204834
-0.022798,   0.092407,   0.098279,   0.000000,   730.389343,   0.523154,   33.740997,   38.475029,   587.283813,   284.193695,   -252.691650,   0.432884,   671.062744,   636.396179
-0.022113,   0.091232,   0.097263,   0.000000,   732.016846,   0.523155,   33.740997,   37.640938,   582.871033,   294.604889,   -255.417603,   0.435765,   671.214172,   634.281250
-0.021455,   0.089908,   0.096050,   0.000000,   733.184448,   0.523154,   33.740997,   36.806843,   578.226440,   304.482452,   -257.741760,   0.438481,   671.035034,   631.901123
-0.020826,   0.088446,   0.094652,   0.000000,   733.891296,   0.523154,   33.740997,   35.972748,   573.354370,   313.781036,   -259.698334,   0.441009,   670.533936,   629.298950
-0.020224,   0.086853,   0.093081,   0.000000,   734.138916,   0.523155,   33.740997,   35.138653,   568.257141,   322.463959,   -261.322327,   0.443330,   669.719910,   626.518005
-0.019648,   0.085138,   0.091348,   0.000000,   733.930542,   0.523154,   33.740997,   34.304562,   562.935059,   330.503845,   -262.648346,   0.445426,   668.602234,   623.599731
-0.019096,   0.083308,   0.089463,   0.000000,   733.271423,   0.523154,   33.740997,   33.470467,   557.386169,   337.882324,   -263.710266,   0.447283,   667.189758,   620.583313
-0.018567,   0.081372,   0.087438,   0.000000,   732.167847,   0.523154,   33.740997,   32.636375,   551.606567,   344.590332,   -264.540161,   0.448890,   665.491211,   617.503662
-0.018058,   0.079338,   0.085284,   0.000000,   730.627869,   0.523154,   33.740997,   31.802280,   545.594360,   350.623932,   -265.166840,   0.450238,   663.515076,   614.391663
-0.017567,   0.077211,   0.083010,   0.000000,   728.657715,   0.523154,   33.740997,   30.968187,   539.330444,   355.993286,   -265.622894,   0.451316,   661.269287,   611.276550
-0.017090,   0.074998,   0.080626,   0.000000,   726.262390,   0.523154,   33.740997,   30.134094,   532.808899,   360.705627,   -265.929016,   0.452121,   658.757446,   608.174683
-0.016624,   0.072705,   0.078138,   0.000000,   723.447754,   0.523154,   33.740997,   29.300001,   526.018127,   364.777710,   -266.105438,   0.452651,   655.983582,   605.097839
-0.016165,   0.070338,   0.075557,   0.000000,   720.216980,   0.523154,   33.740997,   28.465906,   518.942627,   368.227295,   -266.170074,   0.452904,   652.949829,   602.054138
-0.015711,   0.067901,   0.072889,   0.000000,   716.573120,   0.523154,   33.740997,   27.631813,   511.560211,   371.085144,   -266.138092,   0.452878,   649.656921,   599.042969
-0.015256,   0.065399,   0.070140,   0.000000,   712.515015,   0.523154,   33.740997,   26.797718,   503.852478,   373.373962,   -266.018860,   0.452574,   646.102234,   596.057861
-0.014798,   0.062837,   0.067318,   0.000000,   708.042175,   0.523154,   33.740997,   25.963625,   495.790985,   375.132812,   -265.820251,   0.451994,   642.282715,   593.085388
-0.014333,   0.060218,   0.064428,   0.000000,   703.151672,   0.523154,   33.740997,   25.129532,   487.351501,   376.396729,   -265.544312,   0.451143,   638.192627,   590.105652
-0.013857,   0.057545,   0.061475,   0.000000,   697.831116,   0.523154,   33.740997,   24.295439,   478.502655,   377.194489,   -265.188141,   0.450022,   633.818726,   587.090515
-0.013367,   0.054821,   0.058462,   0.000000,   692.070679,   0.523154,   33.740997,   23.461344,   469.205780,   377.578156,   -264.743896,   0.448642,   629.146606,   584.000916
-0.012860,   0.052050,   0.055394,   0.000000,   685.853821,   0.523153,   33.740997,   22.627251,   459.418427,   377.589691,   -264.200531,   0.447006,   624.158142,   580.796936
-0.012333,   0.049235,   0.052278,   0.000000,   679.166809,   0.523154,   33.740997,   21.793158,   449.105896,   377.274323,   -263.540649,   0.445127,   618.835144,   577.432861
-0.011783,   0.046383,   0.049119,   0.000000,   671.992249,   0.523154,   33.740997,   20.959064,   438.224213,   376.690094,   -262.739777,   0.443018,   613.153931,   573.852783
-0.011211,   0.043497,   0.045922,   0.000000,   664.295227,   0.523154,   33.740997,   20.124969,   426.705261,   375.878632,   -261.772614,   0.440679,   607.081055,   570.003906
-0.010614,   0.040586,   0.042695,   0.000000,   656.054260,   0.523154,   33.740997,   19.290876,   414.522797,   374.889771,   -260.595581,   0.438136,   600.584106,   565.814392
-0.009993,   0.037652,   0.039444,   0.000000,   647.217407,   0.523154,   33.740997,   18.456783,   401.586945,   373.755066,   -259.173096,   0.435377,   593.617615,   561.228333
-0.009349,   0.034713,   0.036185,   0.000000,   637.762390,   0.523154,   33.740997,   17.622690,   387.875763,   372.509888,   -257.454926,   0.432418,   586.150818,   556.183105
-0.008685,   0.031775,   0.032926,   0.000000,   627.621155,   0.523154,   33.740997,   16.788595,   373.316437,   371.148651,   -255.386322,   0.429242,   578.123779,   550.609558
-0.008002,   0.028845,   0.029674,   0.000000,   616.698120,   0.523154,   33.740997,   15.954503,   357.854614,   369.608032,   -252.898544,   0.425825,   569.453308,   544.419495
-0.007301,   0.025934,   0.026443,   0.000000,   604.900696,   0.523154,   33.740997,   15.120409,   341.456909,   367.806091,   -249.922180,   0.422135,   560.060242,   537.526794
-0.006581,   0.023045,   0.023234,   0.000000,   592.065796,   0.523154,   33.740997,   14.286316,   324.078552,   365.586914,   -246.360397,   0.418130,   549.801941,   529.783508
-0.005845,   0.020185,   0.020057,   0.000000,   578.005310,   0.523154,   33.740997,   13.452222,   305.644745,   362.755341,   -242.127228,   0.413720,   538.528259,   521.048096
-0.005094,   0.017358,   0.016919,   0.000000,   562.481934,   0.523154,   33.740997,   12.618128,   286.086334,   359.112213,   -237.087524,   0.408852,   526.024109,   511.084442
-0.004328,   0.014568,   0.013823,   0.000000,   545.178955,   0.523154,   33.740997,   11.784035,   265.293365,   354.423462,   -231.062149,   0.403465,   511.995636,   499.569794
-0.003551,   0.011824,   0.010785,   0.000000,   525.676575,   0.523154,   33.740997,   10.949941,   243.048386,   348.393127,   -223.842102,   0.397415,   496.074341,   486.121704
-0.002760,   0.009137,   0.007818,   0.000000,   503.548431,   0.523154,   33.740997,   10.115848,   219.557007,   340.810211,   -214.979660,   0.391034,   477.680206,   469.987457
-0.001958,   0.006541,   0.004966,   0.000000,   478.689819,   0.523154,   33.740997,   9.281754,   196.222855,   331.695282,   -203.767258,   0.385844,   456.072632,   450.037018
-0.001165,   0.004084,   0.002287,   0.000000,   450.225891,   0.523154,   33.740997,   8.447660,   178.908203,   313.967529,   -192.274033,   0.381641,   430.488434,   425.696259
-0.000396,   0.001606,   0.000000,   0.000000,   343.265381,   0.523154,   33.740997,   7.613567,   99.991219,   263.182800,   -139.578018,   0.362713,   333.756683,   332.416809
-0.000311,   0.000120,   0.000000,   -63.402790,   6.082194,   0.523154,   33.740997,   6.779473,   -10.355166,   -46.965431,   29.529018,   -0.286665,   66.652344,   -66.023666
-0.001689,   0.000465,   0.000000,   -357.639679,   0.000000,   0.523154,   33.740997,   5.945380,   -32.198685,   -335.142242,   85.566269,   -0.346984,   352.889069,   -352.588806
-0.002752,   0.001003,   0.000917,   -403.333771,   0.000000,   0.523154,   33.740997,   5.111286,   -14.611261,   -394.494385,   58.617985,   -0.340514,   400.479034,   -400.385468
-0.031292,   0.067994,   0.065341,   -2.117327,   586.684692,   0.517472,   34.510784,   54.127285,   581.455750,   3.111610,   -55.240082,   0.331530,   587.746216,   587.737671
-0.031346,   0.070747,   0.068234,   0.000000,   599.067078,   0.517472,   34.510784,   53.271168,   589.102539,   21.026133,   -75.894188,   0.342607,   593.613647,   593.381653
-0.031179,   0.073325,   0.071050,   0.000000,   611.535217,   0.517471,   34.510784,   52.415058,   595.580872,   40.451557,   -95.452919,   0.353551,   599.661987,   598.534668
-0.030840,   0.075711,   0.073772,   0.000000,   623.638550,   0.517472,   34.510784,   51.558945,   600.734924,   60.358761,   -113.583221,   0.363770,   605.780029,   603.166565
-0.030365,   0.077891,   0.076376,   0.000000,   635.108398,   0.517472,   34.510784,   50.702831,   604.599548,   80.059799,   -130.130264,   0.373006,   611.839600,   607.300659
-0.029793,   0.079852,   0.078833,   0.000000,   645.766479,   0.517472,   34.510784,   49.846718,   607.279968,   99.055107,   -145.055161,   0.381156,   617.713257,   610.978943
-0.029153,   0.081593,   0.081125,   0.000000,   655.555298,   0.517472,   34.510784,   48.990604,   608.932739,   117.097366,   -158.443283,   0.388264,   623.313171,   614.253845
-0.028469,   0.083113,   0.083232,   0.000000,   664.470642,   0.517472,   34.510784,   48.134491,   609.710754,   134.084549,   -170.422653,   0.394436,   628.573547,   617.161926
-0.027759,   0.084412,   0.085134,   0.000000,   672.548584,   0.517472,   34.510784,   47.278378,   609.748962,   150.039017,   -181.144745,   0.399814,   633.450623,   619.718994
-0.027035,   0.085493,   0.086819,   0.000000,   679.848694,   0.517472,   34.510784,   46.422264,   609.167175,   165.047211,   -190.753647,   0.404550,   637.922241,   621.928345
-0.026306,   0.086360,   0.088276,   0.000000,   686.443848,   0.517471,   34.510784,   45.566151,   608.060730,   179.248810,   -199.387848,   0.408791,   641.981628,   623.779968
-0.025576,   0.087014,   0.089496,   0.000000,   692.400574,   0.517472,   34.510784,   44.710037,   606.499146,   192.791672,   -207.164459,   0.412670,   645.626160,   625.252502
-0.024850,   0.087456,   0.090471,   0.000000,   697.779175,   0.517472,   34.510784,   43.853924,   604.533997,   205.817245,   -214.180023,   0.416296,   648.858826,   626.321106
-0.024129,   0.087689,   0.091196,   0.000000,   702.627197,   0.517472,   34.510784,   42.997814,   602.203186,   218.436966,   -220.509232,   0.419753,   651.684692,   626.964417
-0.023414,   0.087715,   0.091669,   0.000000,   706.978271,   0.517472,   34.510784,   42.141701,   599.533447,   230.727890,   -226.209259,   0.423100,   654.108948,   627.166199
-0.022709,   0.087538,   0.091890,   0.000000,   710.851990,   0.517472,   34.510784,   41.285587,   596.544312,   242.727478,   -231.322769,   0.426371,   656.136230,   626.919006
-0.022013,   0.087161,   0.091861,   0.000000,   714.256897,   0.517472,   34.510784,   40.429474,   593.244751,   254.440460,   -235.888474,   0.429574,   657.771973,   626.228882
-0.021330,   0.086592,   0.091587,   0.000000,   717.194519,   0.517471,   34.510784,   39.573360,   589.656067,   265.841522,   -239.926758,   0.432713,   659.018555,   625.103394
-0.020663,   0.085837,   0.091077,   0.000000,   719.664307,   0.517472,   34.510784,   38.717247,   585.784241,   276.890106,   -243.472046,   0.435769,   659.885864,   623.573181
-0.020011,   0.084906,   0.090341,   0.000000,   721.663208,   0.517472,   34.510784,   37.861134,   581.637756,   287.537384,   -246.553574,   0.438724,   660.381409,   621.670532
-0.019378,   0.083807,   0.089388,   0.000000,   723.187805,   0.517472,   34.510784,   37.005020,   577.223877,   297.731293,   -249.201355,   0.441553,   660.513184,   619.433777
-0.018764,   0.082550,   0.088231,   0.000000,   724.235901,   0.517473,   34.510784,   36.148907,   572.548340,   307.421997,   -251.446808,   0.444235,   660.289612,   616.904297
-0.018169,   0.081144,   0.086880,   0.000000,   724.807068,   0.517472,   34.510784,   35.292793,   567.614990,   316.565735,   -253.322495,   0.446746,   659.719666,   614.125610
-0.017595,   0.079597,   0.085347,   0.000000,   724.902039,   0.517472,   34.510784,   34.436680,   562.425232,   325.126129,   -254.861374,   0.449067,   658.811768,   611.140625
-0.017039,   0.077918,   0.083644,   0.000000,   724.523315,   0.517471,   34.510784,   33.580566,   556.978271,   333.075348,   -256.096008,   0.451180,   657.574158,   607.990845
-0.016502,   0.076115,   0.081781,   0.000000,   723.674133,   0.517472,   34.510784,   32.724453,   551.270752,   340.394257,   -257.057861,   0.453072,   656.014160,   604.714355
-0.015983,   0.074197,   0.079769,   0.000000,   722.359741,   0.517471,   34.510784,   31.868340,   545.299133,   347.070923,   -257.776764,   0.454730,   654.139526,   601.346680
-0.015478,   0.072171,   0.077619,   0.000000,   720.584290,   0.517472,   34.510784,   31.012226,   539.048035,   353.106598,   -258.283783,   0.456142,   651.956421,   597.919617
-0.014986,   0.070043,   0.075339,   0.000000,   718.349487,   0.517473,   34.510784,   30.156113,   532.510437,   358.500458,   -258.600067,   0.457304,   649.466492,   594.453125
-0.014503,   0.067820,   0.072939,   0.000000,   715.658203,   0.517471,   34.510784,   29.299999,   525.674255,   363.261627,   -258.746399,   0.458211,   646.671692,   590.963379
-0.014028,   0.065508,   0.070427,   0.000000,   712.511414,   0.517472,   34.510784,   28.443888,   518.524231,   367.402863,   -258.740448,   0.458859,   643.571899,   587.460938
-0.013557,   0.063113,   0.067810,   0.000000,   708.908752,   0.517472,   34.510784,   27.587774,   511.035400,   370.948303,   -258.598877,   0.459248,   640.165771,   583.950562
-0.013087,   0.060640,   0.065098,   0.000000,   704.848511,   0.517472,   34.510784,   26.731661,   503.192291,   373.914398,   -258.331055,   0.459375,   636.449890,   580.429871
-0.012615,   0.058096,   0.062298,   0.000000,   700.327087,   0.517471,   34.510784,   25.875547,   494.964813,   376.336578,   -257.944641,   0.459244,   632.417847,   576.887085
-0.012137,   0.055484,   0.059416,   0.000000,   695.335205,   0.517472,   34.510784,   25.019434,   486.326294,   378.242523,   -257.439667,   0.458858,   628.058044,   573.300964
-0.011651,   0.052810,   0.056459,   0.000000,   689.857544,   0.517472,   34.510784,   24.163321,   477.245667,   379.653992,   -256.813110,   0.458219,   623.354858,   569.646912
-0.011154,   0.050078,   0.053433,   0.000000,   683.884766,   0.517472,   34.510784,   23.307207,   467.683594,   380.627502,   -256.055786,   0.457341,   618.292542,   565.884033
-0.010643,   0.047296,   0.050347,   0.000000,   677.402405,   0.517471,   34.510784,   22.451094,   457.601257,   381.202209,   -255.157089,   0.456228,   612.854675,   561.977417
-0.010117,   0.044469,   0.047208,   0.000000,   670.384277,   0.517472,   34.510784,   21.594982,   446.958221,   381.412079,   -254.094299,   0.454890,   607.011780,   557.873840
-0.009573,   0.041604,   0.044023,   0.000000,   662.807190,   0.517472,   34.510784,   20.738867,   435.707672,   381.313843,   -252.837921,   0.453346,   600.733765,   553.510010
-0.009011,   0.038707,   0.040801,   0.000000,   654.635986,   0.517471,   34.510784,   19.882755,   423.783478,   380.955902,   -251.355804,   0.451606,   593.983398,   548.824890
-0.008430,   0.035792,   0.037558,   0.000000,   645.853882,   0.517472,   34.510784,   19.026642,   411.155975,   380.396027,   -249.604492,   0.449695,   586.732910,   543.751709
-0.007834,   0.032873,   0.034308,   0.000000,   636.428040,   0.517473,   34.510784,   18.170528,   397.758118,   379.682098,   -247.542984,   0.447616,   578.948120,   538.237488
-0.007224,   0.029963,   0.031066,   0.000000,   626.317078,   0.517472,   34.510784,   17.314415,   383.548340,   378.850311,   -245.106491,   0.445394,   570.579590,   532.199463
-0.006604,   0.027076,   0.027849,   0.000000,   615.460388,   0.517471,   34.510784,   16.458302,   368.454742,   377.896545,   -242.238754,   0.443011,   561.574341,   525.584045
-0.005976,   0.024233,   0.024678,   0.000000,   603.813171,   0.517472,   34.510784,   15.602188,   352.463654,   376.803436,   -238.869812,   0.440470,   551.886108,   518.326904
-0.005343,   0.021436,   0.021558,   0.000000,   591.236084,   0.517472,   34.510784,   14.746075,   335.495850,   375.461670,   -234.908905,   0.437731,   541.396057,   510.321838
-0.004705,   0.018702,   0.018508,   0.000000,   577.599121,   0.517472,   34.510784,   13.889962,   317.490936,   373.720367,   -230.283585,   0.434719,   530.005798,   501.498444
-0.004068,   0.016035,   0.015535,   0.000000,   562.693970,   0.517472,   34.510784,   13.033849,   298.394104,   371.333435,   -224.892319,   0.431348,   517.545654,   491.710266
-0.003427,   0.013440,   0.012644,   0.000000,   546.253540,   0.517472,   34.510784,   12.177735,   278.139740,   368.042053,   -218.588531,   0.427557,   503.778107,   480.715302
-0.002786,   0.010927,   0.009850,   0.000000,   527.976379,   0.517472,   34.510784,   11.321622,   256.698761,   363.522156,   -211.217316,   0.423274,   488.431366,   468.228180
-0.002149,   0.008509,   0.007170,   0.000000,   507.529602,   0.517472,   34.510784,   10.465509,   234.341385,   357.368744,   -202.539337,   0.418660,   471.114166,   453.728333
-0.001520,   0.006208,   0.004631,   0.000000,   484.637817,   0.517472,   34.510784,   9.609395,   212.113174,   348.829346,   -192.382843,   0.414271,   451.349182,   436.482666
-0.000910,   0.004020,   0.002232,   0.000000,   458.508514,   0.517472,   34.510784,   8.753282,   192.783600,   334.773438,   -181.327026,   0.410697,   428.180359,   415.376984
-0.000389,   0.002078,   0.000142,   0.000000,   427.043671,   0.517472,   34.510784,   7.897169,   147.393494,   335.285522,   -160.187973,   0.400109,   402.122955,   393.324280
-0.000012,   0.000660,   0.000000,   0.000000,   151.510086,   0.517472,   34.510784,   7.041056,   46.700310,   147.835709,   -19.624228,   0.479512,   135.231918,   118.294899
-0.000646,   0.000348,   0.000000,   -124.911926,   35.561764,   0.517472,   34.510784,   6.184943,   -15.744491,   -73.605675,   74.839645,   -0.204026,   145.978485,   -135.709641
-0.001351,   0.000436,   0.000000,   -281.638458,   7.126689,   0.517472,   34.510784,   5.328829,   -19.318214,   -255.193558,   83.288857,   -0.320764,   285.268585,   -285.068176
-0.001755,   0.000529,   0.000000,   -368.460388,   0.634552,   0.517472,   34.510784,   4.472716,   -5.338546,   -362.487305,   46.572121,   -0.332473,   368.778076,   -368.776886
-0.025446,   0.055065,   0.052416,   -3.880080,   562.043640,   0.522564,   35.259705,   54.819710,   560.468933,   -2.305376,   -29.810783,   0.329888,   563.993713,   563.963745
-0.025966,   0.058323,   0.055729,   0.000000,   575.313599,   0.522564,   35.259705,   53.939720,   570.529480,   13.728811,   -51.833408,   0.341137,   570.893860,   570.736206
-0.026255,   0.061313,   0.058857,   0.000000,   588.334778,   0.522564,   35.259705,   53.059731,   578.836182,   31.259356,   -72.742210,   0.351988,   577.761841,   576.838684
-0.026343,   0.064106,   0.061880,   0.000000,   601.144897,   0.522564,   35.259705,   52.179741,   585.659180,   49.917854,   -92.391289,   0.362344,   584.689697,   582.402100
-0.026262,   0.066717,   0.064811,   0.000000,   613.544922,   0.522564,   35.259705,   51.299751,   591.096863,   69.052406,   -110.556839,   0.371944,   591.621094,   587.469971
-0.026043,   0.069134,   0.067629,   0.000000,   625.304871,   0.522565,   35.259705,   50.419762,   595.240845,   88.036186,   -127.092270,   0.380595,   598.428467,   592.061462
-0.025717,   0.071344,   0.070311,   0.000000,   636.286621,   0.522564,   35.259705,   49.539768,   598.239868,   106.448906,   -141.981033,   0.388263,   604.992737,   596.199951
-0.025309,   0.073338,   0.072827,   0.000000,   646.412476,   0.522564,   35.259705,   48.659779,   600.252930,   124.021019,   -155.284729,   0.394993,   611.212646,   599.902954
-0.024838,   0.075110,   0.075155,   0.000000,   655.674438,   0.522564,   35.259705,   47.779793,   601.434631,   140.651947,   -167.136810,   0.400896,   617.023315,   603.184570
-0.024320,   0.076652,   0.077271,   0.000000,   664.087769,   0.522564,   35.259705,   46.899803,   601.910217,   156.330612,   -177.682602,   0.406100,   622.375671,   606.041931
-0.023767,   0.077960,   0.079154,   0.000000,   671.700195,   0.522564,   35.259705,   46.019814,   601.781250,   171.130112,   -187.081085,   0.410741,   627.248962,   608.470032
-0.023185,   0.079034,   0.080790,   0.000000,   678.567932,   0.522565,   35.259705,   45.139820,   601.123413,   185.159470,   -195.478302,   0.414945,   631.636780,   610.458252
-0.022582,   0.079870,   0.082167,   0.000000,   684.749817,   0.522564,   35.259705,   44.259830,   599.989990,   198.550171,   -203.002945,   0.418824,   635.541199,   611.989868
-0.021962,   0.080469,   0.083274,   0.000000,   690.297974,   0.522564,   35.259705,   43.379841,   598.417114,   211.425034,   -209.759995,   0.422474,   638.968689,   613.047119
-0.021329,   0.080834,   0.084107,   0.000000,   695.259521,   0.522564,   35.259705,   42.499851,   596.433838,   223.889572,   -215.831985,   0.425967,   641.930603,   613.616150
-0.020687,   0.080966,   0.084664,   0.000000,   699.669128,   0.522564,   35.259705,   41.619862,   594.062317,   236.016022,   -221.280197,   0.429355,   644.437866,   613.688171
-0.020041,   0.080872,   0.084948,   0.000000,   703.550354,   0.522565,   35.259705,   40.739872,   591.315979,   247.844147,   -226.154602,   0.432667,   646.502014,   613.264832
-0.019394,   0.080559,   0.084962,   0.000000,   706.916321,   0.522564,   35.259705,   39.859882,   588.217041,   259.378387,   -230.483002,   0.435918,   648.130310,   612.349426
-0.018751,   0.080036,   0.084717,   0.000000,   709.776672,   0.522564,   35.259705,   38.979893,   584.776428,   270.602600,   -234.300812,   0.439104,   649.336426,   610.966187
-0.018114,   0.079312,   0.084222,   0.000000,   712.135132,   0.522564,   35.259705,   38.099903,   581.006592,   281.481171,   -237.636322,   0.442212,   650.131470,   609.144043
-0.017487,   0.078400,   0.083490,   0.000000,   713.992981,   0.522564,   35.259705,   37.219910,   576.918945,   291.969696,   -240.517044,   0.445224,   650.526123,   606.918701
-0.016873,   0.077309,   0.082531,   0.000000,   715.350708,   0.522565,   35.259705,   36.339920,   572.523071,   302.020294,   -242.971207,   0.448118,   650.530823,   604.330444
-0.016273,   0.076051,   0.081360,   0.000000,   716.208618,   0.522565,   35.259705,   35.459930,   567.826172,   311.586914,   -245.028107,   0.450873,   650.155396,   601.422485
-0.015688,   0.074635,   0.079989,   0.000000,   716.567566,   0.522564,   35.259705,   34.579941,   562.832703,   320.627899,   -246.717926,   0.453469,   649.409119,   598.239441
-0.015120,   0.073072,   0.078430,   0.000000,   716.428833,   0.522564,   35.259705,   33.699951,   557.544373,   329.108704,   -248.070862,   0.455886,   648.300110,   594.824341
-0.014566,   0.071371,   0.076695,   0.000000,   715.794006,   0.522564,   35.259705,   32.819962,   551.959839,   337.002106,   -249.116547,   0.458108,   646.835083,   591.218506
-0.014029,   0.069540,   0.074795,   0.000000,   714.666077,   0.522564,   35.259705,   31.939970,   546.074158,   344.289398,   -249.884979,   0.460121,   645.021057,   587.461975
-0.013506,   0.067589,   0.072741,   0.000000,   713.047791,   0.522564,   35.259705,   31.059980,   539.877258,   350.963776,   -250.404251,   0.461914,   642.862732,   583.588013
-0.012995,   0.065523,   0.070542,   0.000000,   710.937927,   0.522564,   35.259705,   30.179991,   533.360474,   357.016144,   -250.696075,   0.463477,   640.360229,   579.622437
-0.012494,   0.063350,   0.068208,   0.000000,   708.336243,   0.522564,   35.259705,   29.299999,   526.511047,   362.447479,   -250.781387,   0.464805,   637.513428,   575.586609
-0.012002,   0.061077,   0.065748,   0.000000,   705.240967,   0.522564,   35.259705,   28.420010,   519.312988,   367.265106,   -250.677429,   0.465894,   634.319824,   571.494080
-0.011515,   0.058711,   0.063170,   0.000000,   701.650146,   0.522564,   35.259705,   27.540020,   511.738922,   371.486969,   -250.403030,   0.466739,   630.777283,   567.358154
-0.011033,   0.056258,   0.060485,   0.000000,   697.557434,   0.522564,   35.259705,   26.660030,   503.773804,   375.120636,   -249.965942,   0.467339,   626.878357,   563.179138
-0.010551,   0.053724,   0.057699,   0.000000,   692.952454,   0.522564,   35.259705,   25.780041,   495.382111,   378.195404,   -249.372543,   0.467696,   622.610596,   558.945312
-0.010066,   0.051115,   0.054820,   0.000000,   687.823792,   0.522564,   35.259705,   24.900049,   486.536469,   380.733826,   -248.622849,   0.467813,   617.960388,   554.639893
-0.009578,   0.048440,   0.051858,   0.000000,   682.157166,   0.522564,   35.259705,   24.020060,   477.208984,   382.752533,   -247.714401,   0.467691,   612.912903,   550.244812
-0.009084,   0.045704,   0.048823,   0.000000,   675.937012,   0.522564,   35.259705,   23.140070,   467.354553,   384.302307,   -246.637177,   0.467342,   607.447754,   545.720215
-0.008582,   0.042915,   0.045722,   0.000000,   669.138245,   0.522564,   35.259705,   22.260080,   456.930878,   385.409363,   -245.375931,   0.466770,   601.538696,   541.026794
-0.008069,   0.040082,   0.042567,   0.000000,   661.735291,   0.522564,   35.259705,   21.380089,   445.904236,   386.106781,   -243.904068,   0.465991,   595.155396,   536.107422
-0.007546,   0.037216,   0.039369,   0.000000,   653.702393,   0.522564,   35.259705,   20.500099,   434.223450,   386.452362,   -242.189499,   0.465026,   588.265259,   530.896240
-0.007013,   0.034330,   0.036147,   0.000000,   645.019714,   0.522564,   35.259705,   19.620110,   421.845612,   386.507263,   -240.194244,   0.463899,   580.839905,   525.327759
-0.006470,   0.031437,   0.032912,   0.000000,   635.644592,   0.522564,   35.259705,   18.740120,   408.712738,   386.308899,   -237.870148,   0.462625,   572.833252,   519.329407
-0.005919,   0.028551,   0.029681,   0.000000,   625.537415,   0.522564,   35.259705,   17.860130,   394.774170,   385.909790,   -235.153687,   0.461237,   564.196350,   512.812073
-0.005363,   0.025695,   0.026482,   0.000000,   614.687195,   0.522564,   35.259705,   16.980139,   379.998413,   385.386780,   -231.978973,   0.459771,   554.903687,   505.704132
-0.004807,   0.022888,   0.023337,   0.000000,   603.039429,   0.522563,   35.259705,   16.100149,   364.313171,   384.730927,   -228.289230,   0.458206,   544.910400,   497.972534
-0.004254,   0.020149,   0.020266,   0.000000,   590.535339,   0.522564,   35.259705,   15.220160,   347.720459,   383.929413,   -223.979889,   0.456585,   534.146179,   489.504700
-0.003707,   0.017497,   0.017291,   0.000000,   577.100525,   0.522564,   35.259705,   14.340169,   330.146271,   382.924072,   -218.981033,   0.454861,   522.555786,   480.277832
-0.003170,   0.014940,   0.014423,   0.000000,   562.558655,   0.522564,   35.259705,   13.460179,   311.460754,   381.510193,   -213.215576,   0.452909,   510.014740,   470.256226
-0.002641,   0.012491,   0.011680,   0.000000,   546.764343,   0.522564,   35.259705,   12.580190,   291.762390,   379.453918,   -206.553818,   0.450740,   496.380524,   459.269684
-0.002122,   0.010159,   0.009072,   0.000000,   529.493469,   0.522564,   35.259705,   11.700199,   271.063354,   376.484070,   -198.852310,   0.448334,   481.447083,   447.108612
-0.001616,   0.007956,   0.006617,   0.000000,   510.561035,   0.522564,   35.259705,   10.820210,   249.703491,   372.240021,   -189.952850,   0.445852,   464.985016,   433.418762
-0.001131,   0.005906,   0.004341,   0.000000,   489.888977,   0.522564,   35.259705,   9.940220,   228.756042,   366.035828,   -179.839203,   0.443770,   446.771820,   417.691895
-0.000679,   0.004027,   0.002266,   0.000000,   467.636932,   0.522564,   35.259705,   9.060229,   210.586945,   357.194183,   -168.491272,   0.443777,   426.476318,   398.713470
-0.000319,   0.002483,   0.000578,   0.000000,   445.131683,   0.522564,   35.259705,   8.180239,   185.110428,   354.500824,   -153.512054,   0.442793,   406.217621,   380.299896
-0.000028,   0.001215,   0.000000,   0.000000,   278.437256,   0.522564,   35.259705,   7.300249,   96.350067,   259.681946,   -58.438881,   0.476839,   248.883484,   219.083191
-0.000204,   0.000503,   0.000000,   -12.194592,   102.050117,   0.522564,   35.259705,   6.420259,   12.577397,   77.278130,   47.078842,   0.275643,   108.661835,   107.106133
-0.000769,   0.000465,   0.000000,   -145.398376,   53.959518,   0.522564,   35.259705,   5.540269,   -9.389871,   -82.048981,   92.822708,   -0.170659,   178.599945,   -158.644852
-0.001145,   0.000448,   0.000000,   -233.257034,   24.037521,   0.522564,   35.259705,   4.660279,   -8.104355,   -201.115158,   85.069557,   -0.283314,   246.157608,   -243.496124
-0.001305,   0.000399,   0.000000,   -273.529755,   1.704505,   0.522564,   35.259705,   3.780289,   -3.996013,   -267.829224,   39.197983,   -0.330222,   274.385986,   -274.374084
-0.020343,   0.044010,   0.041443,   -4.086538,   538.940491,   0.537509,   36.001991,   55.549416,   538.610535,   -3.756594,   -13.381326,   0.329549,   540.995300,   540.960571
-0.021410,   0.047391,   0.044819,   0.000000,   550.388611,   0.537508,   36.001991,   54.644264,   548.282227,   5.348008,   -33.882965,   0.336282,   548.774963,   548.753479
-0.022082,   0.050627,   0.048113,   0.000000,   563.488586,   0.537508,   36.001991,   53.739113,   557.949768,   19.802788,   -54.876049,   0.346067,   556.493774,   556.082214
-0.022511,   0.053701,   0.051322,   0.000000,   577.008972,   0.537509,   36.001991,   52.833961,   566.518921,   36.971375,   -75.266319,   0.356524,   564.234558,   562.833801
-0.022750,   0.056616,   0.054458,   0.000000,   590.382751,   0.537508,   36.001991,   51.928806,   573.712585,   55.445465,   -94.432419,   0.366654,   571.981689,   569.013306
-0.022832,   0.059379,   0.057525,   0.000000,   603.335205,   0.537509,   36.001991,   51.023655,   579.585083,   74.417412,   -112.079681,   0.376081,   579.664673,   574.651001
-0.022782,   0.061976,   0.060503,   0.000000,   615.648132,   0.537509,   36.001991,   50.118504,   584.252991,   93.279129,   -128.061905,   0.384640,   587.157104,   579.752014
-0.022618,   0.064383,   0.063357,   0.000000,   627.174988,   0.537508,   36.001991,   49.213352,   587.867554,   111.624512,   -142.355103,   0.392317,   594.325500,   584.304016
-0.022360,   0.066579,   0.066050,   0.000000,   637.829712,   0.537508,   36.001991,   48.308201,   590.566101,   129.196030,   -155.047989,   0.399158,   601.066345,   588.306152
-0.022022,   0.068549,   0.068550,   0.000000,   647.585022,   0.537509,   36.001991,   47.403046,   592.477478,   145.872467,   -166.277313,   0.405256,   607.310974,   591.762451
-0.021616,   0.070276,   0.070825,   0.000000,   656.444275,   0.537508,   36.001991,   46.497894,   593.692200,   161.629761,   -176.211884,   0.410714,   613.015625,   594.676758
-0.021154,   0.071749,   0.072848,   0.000000,   664.437988,   0.537509,   36.001991,   45.592743,   594.279419,   176.516205,   -185.018616,   0.415640,   618.159973,   597.052002
-0.020644,   0.072961,   0.074600,   0.000000,   671.615112,   0.537508,   36.001991,   44.687592,   594.290771,   190.628098,   -192.852325,   0.420141,   622.742432,   598.890137
-0.020095,   0.073909,   0.076066,   0.000000,   678.033081,   0.537509,   36.001991,   43.782436,   593.764954,   204.086227,   -199.846512,   0.424317,   626.773193,   600.189392
-0.019514,   0.074593,   0.077238,   0.000000,   683.746521,   0.537508,   36.001991,   42.877285,   592.731445,   217.009048,   -206.107147,   0.428253,   630.266479,   600.944641
-0.018908,   0.075016,   0.078111,   0.000000,   688.804077,   0.537508,   36.001991,   41.972134,   591.215515,   229.496750,   -211.714798,   0.432018,   633.239258,   601.151001
-0.018283,   0.075185,   0.078686,   0.000000,   693.246277,   0.537510,   36.001991,   41.066982,   589.237305,   241.624619,   -216.731873,   0.435661,   635.709778,   600.809448
-0.017647,   0.075106,   0.078968,   0.000000,   697.101440,   0.537508,   36.001991,   40.161827,   586.821960,   253.430923,   -221.196198,   0.439215,   637.692444,   599.921875
-0.017005,   0.074791,   0.078965,   0.000000,   700.392456,   0.537508,   36.001991,   39.256676,   583.986877,   264.931061,   -225.144699,   0.442695,   639.205200,   598.504761
-0.016362,   0.074251,   0.078688,   0.000000,   703.132812,   0.537509,   36.001991,   38.351524,   580.749939,   276.110931,   -228.604858,   0.446098,   640.263123,   596.582642
-0.015723,   0.073499,   0.078150,   0.000000,   705.330872,   0.537508,   36.001991,   37.446369,   577.127197,   286.940704,   -231.601318,   0.449418,   640.879883,   594.186279
-0.015092,   0.072546,   0.077364,   0.000000,   706.991699,   0.537508,   36.001991,   36.541222,   573.132568,   297.380524,   -234.158508,   0.452637,   641.068054,   591.353333
-0.014471,   0.071406,   0.076343,   0.000000,   708.118591,   0.537511,   36.001991,   35.636066,   568.777466,   307.386475,   -236.301605,   0.455738,   640.839355,   588.126404
-0.013864,   0.070091,   0.075103,   0.000000,   708.713623,   0.537508,   36.001991,   34.730915,   564.070129,   316.915436,   -238.056839,   0.458700,   640.203979,   584.550476
-0.013271,   0.068612,   0.073656,   0.000000,   708.778442,   0.537508,   36.001991,   33.825764,   559.015442,   325.927734,   -239.451157,   0.461506,   639.170654,   580.671570
-0.012694,   0.066980,   0.072016,   0.000000,   708.313965,   0.537509,   36.001991,   32.920609,   553.614807,   334.389557,   -240.511520,   0.464137,   637.746155,   576.534119
-0.012132,   0.065206,   0.070194,   0.000000,   707.322388,   0.537509,   36.001991,   32.015457,   547.863525,   342.276398,   -241.267120,   0.466576,   635.937378,   572.184021
-0.011586,   0.063299,   0.068205,   0.000000,   705.805786,   0.537509,   36.001991,   31.110304,   541.757202,   349.572876,   -241.742661,   0.468814,   633.748352,   567.657898
-0.011053,   0.061267,   0.066057,   0.000000,   703.761658,   0.537508,   36.001991,   30.205153,   535.286804,   356.262543,   -241.960464,   0.470838,   631.179016,   562.989807
-0.010533,   0.059120,   0.063763,   0.000000,   701.188171,   0.537509,   36.001991,   29.300001,   528.439758,   362.339020,   -241.941406,   0.472641,   628.228210,   558.208374
-0.010025,   0.056866,   0.061334,   0.000000,   698.084534,   0.537509,   36.001991,   28.394848,   521.201599,   367.805450,   -241.703796,   0.474217,   624.894653,   553.336121
-0.009527,   0.054513,   0.058778,   0.000000,   694.444397,   0.537508,   36.001991,   27.489697,   513.543335,   372.671600,   -241.265518,   0.475560,   621.172302,   548.391174
-0.009036,   0.052069,   0.056106,   0.000000,   690.257080,   0.537509,   36.001991,   26.584543,   505.449249,   376.937439,   -240.632370,   0.476670,   617.049316,   543.377258
-0.008551,   0.049539,   0.053326,   0.000000,   685.510925,   0.537508,   36.001991,   25.679390,   496.881012,   380.628387,   -239.812347,   0.477546,   612.512512,   538.291077
-0.008070,   0.046935,   0.050451,   0.000000,   680.197571,   0.537509,   36.001991,   24.774239,   487.814453,   383.763733,   -238.807159,   0.478192,   607.551331,   533.126221
-0.007592,   0.044266,   0.047493,   0.000000,   674.297791,   0.537509,   36.001991,   23.869085,   478.223389,   386.351654,   -237.610718,   0.478608,   602.145630,   527.864929
-0.007114,   0.041537,   0.044459,   0.000000,   667.784729,   0.537508,   36.001991,   22.963934,   468.051086,   388.432678,   -236.211746,   0.478804,   596.266235,   522.468323
-0.006635,   0.038759,   0.041361,   0.000000,   660.632141,   0.537509,   36.001991,   22.058783,   457.260620,   390.032013,   -234.589767,   0.478791,   589.883911,   516.892273
-0.006155,   0.035947,   0.038218,   0.000000,   652.821899,   0.537509,   36.001991,   21.153629,   445.824585,   391.181915,   -232.720367,   0.478583,   582.975708,   511.090057
-0.005674,   0.033113,   0.035042,   0.000000,   644.322327,   0.537508,   36.001991,   20.248476,   433.691711,   391.935364,   -230.565414,   0.478206,   575.503174,   504.987366
-0.005190,   0.030269,   0.031850,   0.000000,   635.096497,   0.537509,   36.001991,   19.343325,   420.819916,   392.339325,   -228.072754,   0.477693,   567.421265,   498.493774
-0.004707,   0.027432,   0.028660,   0.000000,   625.105530,   0.537509,   36.001991,   18.438171,   407.153564,   392.433807,   -225.191635,   0.477063,   558.687134,   491.537933
-0.004225,   0.024625,   0.025499,   0.000000,   614.331421,   0.537508,   36.001991,   17.533020,   392.672699,   392.292358,   -221.848831,   0.476372,   549.266174,   484.017303
-0.003746,   0.021863,   0.022385,   0.000000,   602.724304,   0.537509,   36.001991,   16.627869,   377.305145,   391.986725,   -217.954773,   0.475666,   539.098328,   475.820404
-0.003277,   0.019171,   0.019347,   0.000000,   590.232971,   0.537508,   36.001991,   15.722715,   360.986450,   391.498749,   -213.445862,   0.474926,   528.142151,   466.926300
-0.002820,   0.016579,   0.016420,   0.000000,   576.868530,   0.537509,   36.001991,   14.817563,   343.749298,   390.885895,   -208.221344,   0.474214,   516.388428,   457.258728
-0.002380,   0.014106,   0.013626,   0.000000,   562.550598,   0.537509,   36.001991,   13.912411,   325.488739,   390.073120,   -202.207382,   0.473457,   503.784729,   446.840759
-0.001958,   0.011765,   0.010983,   0.000000,   547.170715,   0.537508,   36.001991,   13.007258,   306.202515,   388.883850,   -195.300018,   0.472612,   490.244537,   435.630859
-0.001554,   0.009571,   0.008509,   0.000000,   530.622131,   0.537509,   36.001991,   12.102106,   286.069611,   387.017029,   -187.400604,   0.471677,   475.669159,   423.527588
-0.001168,   0.007537,   0.006222,   0.000000,   512.837891,   0.537509,   36.001991,   11.196954,   265.497864,   384.191742,   -178.379776,   0.470847,   459.943848,   410.246338
-0.000805,   0.005683,   0.004146,   0.000000,   493.924469,   0.537509,   36.001991,   10.291800,   245.420410,   380.144684,   -168.150955,   0.470678,   443.023834,   395.294678
-0.000478,   0.004044,   0.002320,   0.000000,   474.331970,   0.537508,   36.001991,   9.386649,   227.251678,   374.611328,   -156.968155,   0.471869,   425.162231,   378.401886
-0.000234,   0.002716,   0.000848,   0.000000,   454.711243,   0.537509,   36.001991,   8.481497,   207.025955,   367.689758,   -146.812592,   0.469353,   408.161743,   365.192841
-0.000058,   0.001563,   0.000000,   0.000000,   356.759613,   0.537509,   36.001991,   7.576344,   130.392181,   321.300079,   -89.592865,   0.470463,   320.033569,   285.683319
-0.000065,   0.000773,   0.000000,   0.000000,   173.787979,   0.537509,   36.001991,   6.671192,   39.855778,   172.378693,   13.738582,   0.447440,   158.110260,   147.031128
-0.000434,   0.000553,   0.000000,   -61.908150,   97.467575,   0.537509,   36.001991,   5.766040,   -0.898125,   36.457554,   77.468018,   0.085174,   139.163879,   100.349281
-0.000781,   0.000474,   0.000000,   -147.523911,   55.217648,   0.537509,   36.001991,   4.860888,   -12.093884,   -80.212387,   95.477760,   -0.169484,   181.543976,   -160.959457
-0.000928,   0.000374,   0.000000,   -188.357239,   21.967710,   0.537509,   36.001991,   3.955735,   -11.176764,   -155.212769,   76.632591,   -0.276974,   200.246872,   -197.508652
-0.000852,   0.000263,   0.000000,   -178.324753,   1.778877,   0.537509,   36.001991,   3.050583,   -2.960234,   -173.585648,   28.828320,   -0.328358,   179.220825,   -179.200943
-0.016202,   0.035028,   0.032562,   -5.207312,   516.710876,   0.552449,   36.744282,   56.279121,   516.550659,   -5.047074,   -9.143595,   0.328307,   519.334106,   519.275391
-0.017596,   0.038183,   0.035694,   -4.516557,   525.503357,   0.552447,   36.744282,   55.348808,   524.205200,   -3.218420,   -26.198345,   0.329045,   527.776123,   527.732727
-0.018653,   0.041442,   0.038957,   0.000000,   537.426453,   0.552447,   36.744282,   54.418495,   533.545959,   5.971174,   -45.412655,   0.335280,   536.384155,   536.375000
-0.019418,   0.044683,   0.042259,   0.000000,   551.100220,   0.552449,   36.744282,   53.488178,   543.082764,   20.273621,   -65.237152,   0.344513,   545.075500,   544.765320
-0.019965,   0.047859,   0.045568,   0.000000,   565.483704,   0.552447,   36.744282,   52.557865,   551.956604,   37.667850,   -84.497345,   0.354891,   553.808044,   552.622314
-0.020336,   0.050942,   0.048862,   0.000000,   579.874695,   0.552448,   36.744282,   51.627552,   559.799805,   56.632996,   -102.489136,   0.365302,   562.487366,   559.805115
-0.020548,   0.053902,   0.052114,   0.000000,   593.838745,   0.552448,   36.744282,   50.697235,   566.545959,   76.163376,   -118.864685,   0.375212,   570.974243,   566.240112
-0.020613,   0.056704,   0.055281,   0.000000,   607.105347,   0.552448,   36.744282,   49.766922,   572.256409,   95.612160,   -133.510284,   0.384416,   579.119507,   571.881714
-0.020543,   0.059310,   0.058315,   0.000000,   619.492188,   0.552447,   36.744282,   48.836605,   577.002563,   114.535538,   -146.476700,   0.392833,   586.795776,   576.719421
-0.020352,   0.061685,   0.061168,   0.000000,   630.898438,   0.552449,   36.744282,   47.906292,   580.865173,   132.669113,   -157.886108,   0.400474,   593.907959,   580.762451
-0.020055,   0.063804,   0.063799,   0.000000,   641.282898,   0.552447,   36.744282,   46.975975,   583.910339,   149.871597,   -167.909286,   0.407384,   600.401367,   584.047424
-0.019666,   0.065645,   0.066171,   0.000000,   650.649536,   0.552448,   36.744282,   46.045662,   586.193237,   166.112167,   -176.724365,   0.413640,   606.247803,   586.611572
-0.019199,   0.067195,   0.068256,   0.000000,   659.033264,   0.552447,   36.744282,   45.115349,   587.758423,   181.433746,   -184.501541,   0.419332,   611.442078,   588.491943
-0.018668,   0.068449,   0.070035,   0.000000,   666.492432,   0.552450,   36.744282,   44.185036,   588.646545,   195.934067,   -191.392334,   0.424559,   615.996826,   589.718567
-0.018087,   0.069405,   0.071495,   0.000000,   673.090881,   0.552447,   36.744282,   43.254719,   588.892029,   209.728180,   -197.521133,   0.429412,   619.932495,   590.313293
-0.017465,   0.070067,   0.072632,   0.000000,   678.894165,   0.552448,   36.744282,   42.324406,   588.527466,   222.936081,   -202.986298,   0.433979,   623.274719,   590.290039
-0.016815,   0.070443,   0.073444,   0.000000,   683.961243,   0.552448,   36.744282,   41.394089,   587.581116,   235.662933,   -207.863068,   0.438327,   626.050049,   589.658813
-0.016146,   0.070543,   0.073938,   0.000000,   688.340088,   0.552447,   36.744282,   40.463776,   586.084106,   247.982132,   -212.200912,   0.442511,   628.282593,   588.428040
-0.015465,   0.070379,   0.074122,   0.000000,   692.070984,   0.552448,   36.744282,   39.533463,   584.062744,   259.944519,   -216.039841,   0.446567,   629.997009,   586.612122
-0.014781,   0.069966,   0.074008,   0.000000,   695.181030,   0.552448,   36.744282,   38.603146,   581.541443,   271.565674,   -219.407104,   0.450512,   631.213257,   584.230957
-0.014100,   0.069317,   0.073609,   0.000000,   697.689941,   0.552448,   36.744282,   37.672832,   578.543030,   282.839020,   -222.324585,   0.454352,   631.949463,   581.311646
-0.013425,   0.068448,   0.072941,   0.000000,   699.611267,   0.552447,   36.744282,   36.742519,   575.087524,   293.740753,   -224.812195,   0.458082,   632.221619,   577.888245
-0.012762,   0.067373,   0.072018,   0.000000,   700.954285,   0.552450,   36.744282,   35.812202,   571.192017,   304.237030,   -226.889709,   0.461692,   632.043945,   574.000854
-0.012114,   0.066108,   0.070858,   0.000000,   701.725464,   0.552447,   36.744282,   34.881889,   566.870056,   314.289154,   -228.577988,   0.465167,   631.428467,   569.694580
-0.011483,   0.064666,   0.069475,   0.000000,   701.929138,   0.552448,   36.744282,   33.951572,   562.131348,   323.857635,   -229.899017,   0.468491,   630.385254,   565.017151
-0.010869,   0.063059,   0.067884,   0.000000,   701.567322,   0.552448,   36.744282,   33.021259,   556.980896,   332.905670,   -230.875443,   0.471647,   628.921448,   560.016724
-0.010275,   0.061301,   0.066101,   0.000000,   700.642944,   0.552448,   36.744282,   32.090942,   551.416870,   341.405548,   -231.533112,   0.474620,   627.044067,   554.743591
-0.009699,   0.059402,   0.064138,   0.000000,   699.158081,   0.552448,   36.744282,   31.160629,   545.439636,   349.333984,   -231.893143,   0.477398,   624.757019,   549.240906
-0.009142,   0.057373,   0.062009,   0.000000,   697.110596,   0.552448,   36.744282,   30.230314,   539.041687,   356.669037,   -231.976791,   0.479970,   622.060303,   543.551880
-0.008603,   0.055224,   0.059725,   0.000000,   694.497192,   0.552448,   36.744282,   29.299999,   532.210693,   363.397644,   -231.803757,   0.482326,   618.951477,   537.713745
-0.008080,   0.052965,   0.057301,   0.000000,   691.315796,   0.552448,   36.744282,   28.369686,   524.931091,   369.515961,   -231.392685,   0.484458,   615.428345,   531.760742
-0.007573,   0.050607,   0.054746,   0.000000,   687.560303,   0.552448,   36.744282,   27.439371,   517.178711,   375.028046,   -230.759079,   0.486362,   611.483948,   525.718506
-0.007080,   0.048157,   0.052073,   0.000000,   683.217407,   0.552448,   36.744282,   26.509056,   508.936249,   379.928864,   -229.907516,   0.488036,   607.103699,   519.598145
-0.006601,   0.045626,   0.049293,   0.000000,   678.278015,   0.552448,   36.744282,   25.578741,   500.164307,   384.237885,   -228.850540,   0.489476,   602.277954,   513.416870
-0.006134,   0.043025,   0.046420,   0.000000,   672.728088,   0.552448,   36.744282,   24.648426,   490.837555,   387.964478,   -227.586945,   0.490684,   596.990662,   507.174530
-0.005678,   0.040364,   0.043465,   0.000000,   666.542358,   0.552448,   36.744282,   23.718113,   480.930908,   391.112000,   -226.104034,   0.491668,   591.214355,   500.848022
-0.005232,   0.037652,   0.040441,   0.000000,   659.695984,   0.552448,   36.744282,   22.787798,   470.381866,   393.714600,   -224.397064,   0.492427,   584.924072,   494.423096
-0.004795,   0.034905,   0.037366,   0.000000,   652.173523,   0.552448,   36.744282,   21.857483,   459.172424,   395.800262,   -222.441696,   0.492980,   578.098206,   487.856049
-0.004368,   0.032134,   0.034253,   0.000000,   643.930847,   0.552448,   36.744282,   20.927168,   447.254639,   397.373383,   -220.208969,   0.493334,   570.693604,   481.100586
-0.003948,   0.029352,   0.031118,   0.000000,   634.930481,   0.552448,   36.744282,   19.996855,   434.578064,   398.481689,   -217.653595,   0.493519,   562.666504,   474.072266
-0.003538,   0.026579,   0.027983,   0.000000,   625.143616,   0.552448,   36.744282,   19.066540,   421.107788,   399.167389,   -214.725983,   0.493563,   553.981628,   466.692780
-0.003138,   0.023834,   0.024873,   0.000000,   614.536255,   0.552448,   36.744282,   18.136225,   406.803253,   399.469788,   -211.367950,   0.493496,   544.599487,   458.881378
-0.002749,   0.021133,   0.021806,   0.000000,   603.050171,   0.552448,   36.744282,   17.205910,   391.622467,   399.431671,   -207.486343,   0.493374,   534.452209,   450.495544
-0.002373,   0.018501,   0.018811,   0.000000,   590.665771,   0.552448,   36.744282,   16.275597,   375.483154,   399.155914,   -203.001434,   0.493232,   523.512634,   441.461365
-0.002015,   0.015969,   0.015927,   0.000000,   577.388611,   0.552448,   36.744282,   15.345281,   358.409546,   398.667511,   -197.828644,   0.493104,   511.776764,   431.729156
-0.001678,   0.013560,   0.013178,   0.000000,   563.175781,   0.552448,   36.744282,   14.414967,   340.314117,   397.979767,   -191.874588,   0.492974,   499.210419,   421.289764
-0.001364,   0.011299,   0.010597,   0.000000,   548.031250,   0.552448,   36.744282,   13.484652,   321.176178,   397.078003,   -185.052750,   0.492806,   485.825745,   410.198151
-0.001074,   0.009211,   0.008214,   0.000000,   531.985718,   0.552448,   36.744282,   12.554337,   301.193848,   395.819550,   -177.273895,   0.492610,   471.646637,   398.457123
-0.000808,   0.007307,   0.006045,   0.000000,   515.010864,   0.552448,   36.744282,   11.624022,   280.540161,   393.826538,   -168.565048,   0.492220,   456.684235,   386.259125
-0.000565,   0.005602,   0.004109,   0.000000,   497.180939,   0.552448,   36.744282,   10.693707,   259.668365,   390.587799,   -159.113846,   0.491459,   441.038361,   373.852570
-0.000352,   0.004115,   0.002430,   0.000000,   478.729614,   0.552448,   36.744282,   9.763393,   238.725388,   385.629272,   -149.480698,   0.489624,   425.057281,   362.193665
-0.000194,   0.002871,   0.001030,   0.000000,   459.594238,   0.552448,   36.744282,   8.833078,   215.049286,   377.498138,   -141.690475,   0.482178,   409.632660,   355.999512
-0.000096,   0.001827,   0.000000,   0.000000,   415.032288,   0.552448,   36.744282,   7.902764,   154.102493,   365.344513,   -113.864052,   0.463060,   373.923462,   338.722748
-0.000055,   0.001074,   0.000000,   0.000000,   244.002121,   0.552448,   36.744282,   6.972449,   65.239799,   240.455643,   -25.178913,   0.463703,   219.749405,   198.821274
-0.000243,   0.000668,   0.000000,   -9.933373,   137.334885,   0.552448,   36.744282,   6.042135,   6.729414,   120.672096,   46.650307,   0.297887,   142.561356,   141.779602
-0.000537,   0.000510,   0.000000,   -88.613724,   80.449371,   0.552448,   36.744282,   5.111820,   -17.481066,   9.316713,   83.462883,   -0.018580,   146.469833,   -64.025520
-0.000714,   0.000401,   0.000000,   -137.047546,   42.999760,   0.552448,   36.744282,   4.181505,   -21.928881,   -72.118912,   86.455185,   -0.192490,   162.861969,   -149.268478
-0.000690,   0.000278,   0.000000,   -139.968750,   16.471916,   0.552448,   36.744282,   3.251191,   -11.990146,   -111.506683,   60.353416,   -0.276484,   148.889648,   -146.818741
-0.000516,   0.000157,   0.000000,   -108.157043,   0.480214,   0.552448,   36.744282,   2.320876,   -3.331371,   -104.345459,   19.988794,   -0.331116,   108.397949,   -108.395561
-0.012077,   0.025955,   0.023624,   -10.218631,   488.058807,   0.567390,   37.486568,   57.008831,   487.503021,   -9.662859,   -16.631882,   0.322921,   493.247498,   493.009247
-0.013735,   0.029119,   0.026762,   -16.252838,   495.506958,   0.567390,   37.486568,   56.053352,   493.669891,   -14.415785,   -30.606453,   0.317074,   503.830017,   503.239685
-0.015286,   0.032541,   0.030168,   -15.808205,   506.555573,   0.567390,   37.486568,   55.097878,   502.201904,   -11.454522,   -47.489487,   0.317857,   514.641785,   514.095093
-0.016589,   0.036119,   0.033756,   -9.750339,   520.528442,   0.567390,   37.486568,   54.142399,   512.310608,   -1.532489,   -65.499756,   0.324013,   525.471436,   525.267883
-0.017635,   0.039750,   0.037445,   0.000000,   536.355408,   0.567390,   37.486568,   53.186924,   523.017029,   13.723162,   -83.492882,   0.333692,   536.163086,   536.162842
-0.018432,   0.043343,   0.041160,   0.000000,   552.914856,   0.567390,   37.486568,   52.231445,   533.472656,   32.379566,   -100.599922,   0.345099,   546.560974,   546.216248
-0.018997,   0.046826,   0.044839,   0.000000,   569.357544,   0.567390,   37.486568,   51.275970,   543.176331,   52.803749,   -116.292786,   0.356966,   556.524109,   555.088623
-0.019339,   0.050143,   0.048430,   0.000000,   585.133667,   0.567391,   37.486568,   50.320492,   551.904114,   73.817627,   -130.348801,   0.368549,   565.932312,   562.643677
-0.019474,   0.053242,   0.051877,   0.000000,   599.923889,   0.567389,   37.486568,   49.365013,   559.580383,   94.670738,   -142.771484,   0.379481,   574.689453,   568.869263
-0.019419,   0.056078,   0.055126,   0.000000,   613.546631,   0.567391,   37.486568,   48.409538,   566.199402,   114.876999,   -153.657486,   0.389594,   582.723877,   573.821594
-0.019198,   0.058615,   0.058129,   0.000000,   625.923767,   0.567390,   37.486568,   47.454060,   571.789917,   134.161835,   -163.159332,   0.398846,   589.994629,   577.594177
-0.018834,   0.060831,   0.060848,   0.000000,   637.047791,   0.567390,   37.486568,   46.498585,   576.399963,   152.393799,   -171.444458,   0.407268,   596.490234,   580.297058
-0.018354,   0.062710,   0.063252,   0.000000,   646.955505,   0.567390,   37.486568,   45.543106,   580.080811,   169.551895,   -178.679123,   0.414929,   602.217957,   582.034363
-0.017779,   0.064245,   0.065318,   0.000000,   655.714478,   0.567390,   37.486568,   44.587631,   582.884827,   185.697128,   -185.016754,   0.421927,   607.199890,   582.893738
-0.017132,   0.065439,   0.067035,   0.000000,   663.406433,   0.567390,   37.486568,   43.632153,   584.862610,   200.933121,   -190.589661,   0.428366,   611.468201,   582.946899
-0.016432,   0.066296,   0.068396,   0.000000,   670.116882,   0.567391,   37.486568,   42.676678,   586.059998,   215.386307,   -195.507599,   0.434346,   615.059326,   582.245789
-0.015694,   0.066828,   0.069401,   0.000000,   675.926819,   0.567389,   37.486568,   41.721199,   586.517700,   229.181747,   -199.857681,   0.439960,   618.010864,   580.829224
-0.014935,   0.067049,   0.070056,   0.000000,   680.907288,   0.567390,   37.486568,   40.765724,   586.274780,   242.424286,   -203.702591,   0.445280,   620.358459,   578.726196
-0.014164,   0.066975,   0.070372,   0.000000,   685.119141,   0.567390,   37.486568,   39.810246,   585.365967,   255.198090,   -207.089310,   0.450365,   622.135864,   575.961792
-0.013393,   0.066623,   0.070363,   0.000000,   688.608765,   0.567390,   37.486568,   38.854771,   583.823364,   267.552521,   -210.048950,   0.455253,   623.371765,   572.561768
-0.012629,   0.066013,   0.070043,   0.000000,   691.411438,   0.567391,   37.486568,   37.899292,   581.676025,   279.509064,   -212.603531,   0.459968,   624.090820,   568.556091
-0.011878,   0.065162,   0.069431,   0.000000,   693.553406,   0.567389,   37.486568,   36.943813,   578.950684,   291.067169,   -214.769684,   0.464519,   624.314392,   563.979492
-0.011144,   0.064089,   0.068545,   0.000000,   695.054199,   0.567391,   37.486568,   35.988338,   575.671021,   302.209381,   -216.561935,   0.468908,   624.060608,   558.873352
-0.010433,   0.062811,   0.067404,   0.000000,   695.928162,   0.567389,   37.486568,   35.032864,   571.857300,   312.907867,   -217.994644,   0.473128,   623.344543,   553.284180
-0.009744,   0.061346,   0.066026,   0.000000,   696.186157,   0.567391,   37.486568,   34.077385,   567.526306,   323.129486,   -219.083099,   0.477170,   622.178833,   547.263245
-0.009081,   0.059709,   0.064429,   0.000000,   695.835449,   0.567390,   37.486568,   33.121906,   562.690247,   332.840576,   -219.843216,   0.481024,   620.572449,   540.862915
-0.008445,   0.057914,   0.062630,   0.000000,   694.881714,   0.567390,   37.486568,   32.166431,   557.353271,   342.012329,   -220.294312,   0.484677,   618.532288,   534.138794
-0.007834,   0.055977,   0.060646,   0.000000,   693.329102,   0.567390,   37.486568,   31.210953,   551.521362,   350.616882,   -220.452332,   0.488121,   616.062500,   527.143494
-0.007250,   0.053910,   0.058492,   0.000000,   691.178223,   0.567390,   37.486568,   30.255476,   545.192139,   358.630341,   -220.334671,   0.491344,   613.163818,   519.929626
-0.006690,   0.051724,   0.056182,   0.000000,   688.426758,   0.567390,   37.486568,   29.299999,   538.356812,   366.035767,   -219.957275,   0.494339,   609.832764,   512.545105
-0.006156,   0.049431,   0.053730,   0.000000,   685.071045,   0.567390,   37.486568,   28.344522,   530.999329,   372.822510,   -219.336899,   0.497099,   606.064697,   505.038269
-0.005645,   0.047042,   0.051150,   0.000000,   681.106323,   0.567391,   37.486568,   27.389046,   523.102112,   378.989105,   -218.485214,   0.499620,   601.852112,   497.446411
-0.005158,   0.044572,   0.048457,   0.000000,   676.526062,   0.567390,   37.486568,   26.433569,   514.652771,   384.532806,   -217.407257,   0.501902,   597.184875,   489.797577
-0.004695,   0.042027,   0.045662,   0.000000,   671.312378,   0.567390,   37.486568,   25.478092,   505.606659,   389.457733,   -216.113251,   0.503939,   592.045471,   482.125916
-0.004253,   0.039421,   0.042779,   0.000000,   665.445557,   0.567390,   37.486568,   24.522615,   495.935669,   393.766022,   -214.598129,   0.505732,   586.411377,   474.440308
-0.003833,   0.036768,   0.039826,   0.000000,   658.914673,   0.567391,   37.486568,   23.567139,   485.625671,   397.471222,   -212.850372,   0.507294,   580.266541,   466.735107
-0.003435,   0.034078,   0.036815,   0.000000,   651.684265,   0.567390,   37.486568,   22.611660,   474.603851,   400.585175,   -210.866638,   0.508613,   573.578491,   459.023651
-0.003058,   0.031367,   0.033763,   0.000000,   643.727112,   0.567390,   37.486568,   21.656183,   462.847748,   403.120056,   -208.616516,   0.509709,   566.315430,   451.265961
-0.002702,   0.028649,   0.030688,   0.000000,   635.002502,   0.567390,   37.486568,   20.700708,   450.311340,   405.080750,   -206.069199,   0.510587,   558.436951,   443.427063
-0.002367,   0.025940,   0.027610,   0.000000,   625.477783,   0.567390,   37.486568,   19.745232,   436.936859,   406.499054,   -203.190659,   0.511258,   549.909302,   435.468933
-0.002055,   0.023261,   0.024553,   0.000000,   615.114990,   0.567391,   37.486568,   18.789755,   422.681610,   407.392090,   -199.932022,   0.511734,   540.693420,   427.334412
-0.001763,   0.020629,   0.021537,   0.000000,   603.858704,   0.567390,   37.486568,   17.834278,   407.494293,   407.773254,   -196.224884,   0.512038,   530.733398,   418.935303
-0.001494,   0.018069,   0.018595,   0.000000,   591.695740,   0.567390,   37.486568,   16.878801,   391.340668,   407.699829,   -192.001343,   0.512195,   520.010254,   410.203491
-0.001248,   0.015601,   0.015747,   0.000000,   578.570435,   0.567390,   37.486568,   15.923324,   374.070587,   407.242096,   -187.180740,   0.512193,   508.475708,   401.108826
-0.001026,   0.013257,   0.013036,   0.000000,   564.518066,   0.567390,   37.486568,   14.967846,   355.751526,   406.429352,   -181.669037,   0.512061,   496.152222,   391.601440
-0.000829,   0.011062,   0.010493,   0.000000,   549.543274,   0.567390,   37.486568,   14.012369,   336.229980,   405.290924,   -175.416504,   0.511676,   483.066498,   381.880341
-0.000658,   0.009044,   0.008152,   0.000000,   533.730957,   0.567390,   37.486568,   13.056892,   315.509735,   403.825562,   -168.368958,   0.510913,   469.313232,   372.166626
-0.000512,   0.007230,   0.006046,   0.000000,   517.198486,   0.567390,   37.486568,   12.101416,   293.601990,   401.798767,   -160.633041,   0.509378,   455.065247,   363.091309
-0.000391,   0.005636,   0.004200,   0.000000,   500.114868,   0.567390,   37.486568,   11.145939,   270.353577,   398.878235,   -152.513138,   0.506291,   440.610413,   355.741150
-0.000294,   0.004271,   0.002625,   0.000000,   482.574921,   0.567390,   37.486568,   10.190462,   245.071869,   394.353546,   -144.750977,   0.499903,   426.366638,   352.072083
-0.000222,   0.003127,   0.001317,   0.000000,   464.230713,   0.567390,   37.486568,   9.234985,   214.709396,   387.811859,   -138.087402,   0.486487,   412.838593,   354.816437
-0.000193,   0.002211,   0.000294,   0.000000,   442.983582,   0.567390,   37.486568,   8.279508,   165.203003,   384.022461,   -127.977562,   0.457034,   400.572601,   366.812683
-0.000166,   0.001456,   0.000000,   0.000000,   324.537842,   0.567390,   37.486568,   7.324031,   82.074944,   304.987488,   -68.849358,   0.432618,   298.232361,   282.916534
-0.000213,   0.000861,   0.000000,   0.000000,   183.945160,   0.567390,   37.486568,   6.368554,   10.594880,   183.853195,   3.992608,   0.362252,   178.925034,   178.229492
-0.000368,   0.000530,   0.000000,   -48.130589,   96.920105,   0.567390,   37.486568,   5.413077,   -26.163830,   74.953346,   51.997646,   0.127091,   127.964378,   104.473991
-0.000538,   0.000372,   0.000000,   -98.357536,   48.562397,   0.567390,   37.486568,   4.457601,   -37.717945,   -12.077192,   72.332596,   -0.128025,   129.649475,   -106.081757
-0.000573,   0.000260,   0.000000,   -114.242302,   20.421585,   0.567390,   37.486568,   3.502124,   -29.102854,   -64.717865,   64.934456,   -0.248789,   125.703438,   -121.887314
-0.000472,   0.000158,   0.000000,   -97.862778,   3.871776,   0.567390,   37.486568,   2.546647,   -14.273771,   -79.717232,   38.945709,   -0.313758,   99.854973,   -99.685875
-0.000313,   0.000087,   0.000000,   -66.185356,   0.000000,   0.567390,   37.486568,   1.591170,   -3.292157,   -64.417542,   10.544359,   -0.344913,   65.436501,   -65.396530
-0.007154,   0.014817,   0.012739,   -30.343969,   436.526520,   0.582331,   38.228855,   57.738537,   431.632263,   -25.449705,   -47.550327,   0.299239,   452.462280,   450.164520
-0.009593,   0.019010,   0.016909,   -45.353046,   447.992126,   0.582333,   38.228855,   56.757896,   440.869385,   -38.230309,   -58.849258,   0.284166,   472.304626,   467.367950
-0.012024,   0.023373,   0.021262,   -52.024162,   462.037109,   0.582333,   38.228855,   55.777256,   451.962189,   -41.949249,   -71.257408,   0.278850,   490.124329,   483.854034
-0.014218,   0.027867,   0.025746,   -49.723442,   479.523315,   0.582332,   38.228855,   54.796619,   465.631500,   -35.831642,   -84.612106,   0.283013,   506.219879,   500.681488
-0.016048,   0.032391,   0.030266,   -40.744232,   499.217773,   0.582332,   38.228855,   53.815979,   480.689423,   -22.215878,   -98.291946,   0.293449,   520.786621,   517.182556
-0.017479,   0.036837,   0.034739,   -27.166088,   519.905396,   0.582332,   38.228855,   52.835342,   496.039581,   -3.300261,   -111.744064,   0.307574,   534.006958,   532.448914
-0.018519,   0.041107,   0.039093,   -10.857280,   540.502747,   0.582333,   38.228855,   51.854702,   510.807922,   18.837570,   -124.461922,   0.323342,   546.012390,   545.769348
-0.019192,   0.045124,   0.043268,   0.000000,   560.194763,   0.582333,   38.228855,   50.874062,   524.417847,   42.443306,   -136.101288,   0.339301,   556.891479,   556.801697
-0.019529,   0.048832,   0.047216,   0.000000,   578.514465,   0.582331,   38.228855,   49.893421,   536.601440,   66.302612,   -146.520844,   0.354620,   566.713440,   565.530823
-0.019570,   0.052190,   0.050896,   0.000000,   595.236389,   0.582333,   38.228855,   48.912785,   547.284119,   89.634933,   -155.707199,   0.368890,   575.528259,   572.117432
-0.019357,   0.055171,   0.054275,   0.000000,   610.295593,   0.582333,   38.228855,   47.932144,   556.501160,   111.991730,   -163.725250,   0.381967,   583.378113,   576.792908
-0.018935,   0.057755,   0.057320,   0.000000,   623.713135,   0.582332,   38.228855,   46.951504,   564.333374,   133.137817,   -170.675842,   0.393851,   590.300293,   579.797119
-0.018347,   0.059935,   0.060008,   0.000000,   635.566162,   0.582332,   38.228855,   45.970867,   570.882935,   152.992981,   -176.675934,   0.404624,   596.335693,   581.351257
-0.017631,   0.061711,   0.062321,   0.000000,   645.960388,   0.582332,   38.228855,   44.990227,   576.252502,   171.586044,   -181.845062,   0.414411,   601.526978,   581.640015
-0.016822,   0.063089,   0.064246,   0.000000,   655.011108,   0.582333,   38.228855,   44.009590,   580.534851,   189.012238,   -186.295029,   0.423351,   605.917236,   580.807678
-0.015950,   0.064081,   0.065780,   0.000000,   662.836975,   0.582333,   38.228855,   43.028946,   583.811707,   205.407272,   -190.127579,   0.431584,   609.552795,   578.963440
-0.015038,   0.064701,   0.066921,   0.000000,   669.548767,   0.582331,   38.228855,   42.048309,   586.150024,   220.918121,   -193.430206,   0.439235,   612.479553,   576.187012
-0.014107,   0.064970,   0.067678,   0.000000,   675.245544,   0.582333,   38.228855,   41.067673,   587.605042,   235.682205,   -196.274170,   0.446413,   614.742554,   572.538086
-0.013174,   0.064907,   0.068061,   0.000000,   680.012085,   0.582332,   38.228855,   40.087032,   588.221313,   249.815308,   -198.716095,   0.453200,   616.384277,   568.065125
-0.012251,   0.064536,   0.068087,   0.000000,   683.916077,   0.582333,   38.228855,   39.106392,   588.034729,   263.399017,   -200.797775,   0.459656,   617.442566,   562.813232
-0.011349,   0.063879,   0.067774,   0.000000,   687.011047,   0.582332,   38.228855,   38.125751,   587.075378,   276.482910,   -202.549744,   0.465818,   617.950806,   556.829224
-0.010474,   0.062961,   0.067142,   0.000000,   689.338806,   0.582332,   38.228855,   37.145115,   585.370056,   289.088562,   -203.993912,   0.471708,   617.937744,   550.164795
-0.009631,   0.061803,   0.066213,   0.000000,   690.932190,   0.582333,   38.228855,   36.164474,   582.943481,   301.215027,   -205.146393,   0.477334,   617.428040,   542.878418
-0.008824,   0.060429,   0.065011,   0.000000,   691.817505,   0.582332,   38.228855,   35.183834,   579.819336,   312.846588,   -206.019501,   0.482698,   616.442261,   535.033875
-0.008055,   0.058859,   0.063559,   0.000000,   692.016052,   0.582332,   38.228855,   34.203197,   576.019897,   323.958496,   -206.623489,   0.487796,   614.997009,   526.699219
-0.007326,   0.057115,   0.061879,   0.000000,   691.547119,   0.582333,   38.228855,   33.222557,   571.567383,   334.523956,   -206.967468,   0.492623,   613.106140,   517.944763
-0.006635,   0.055214,   0.059993,   0.000000,   690.423767,   0.582332,   38.228855,   32.241917,   566.478271,   344.514618,   -207.060120,   0.497176,   610.777832,   508.840240
-0.005982,   0.053174,   0.057920,   0.000000,   688.655762,   0.582332,   38.228855,   31.261278,   560.767822,   353.902893,   -206.907867,   0.501451,   608.015686,   499.453247
-0.005367,   0.051011,   0.055680,   0.000000,   686.251404,   0.582332,   38.228855,   30.280640,   554.446838,   362.668243,   -206.518112,   0.505447,   604.821045,   489.848419
-0.004789,   0.048739,   0.053290,   0.000000,   683.216858,   0.582332,   38.228855,   29.300001,   547.521729,   370.796814,   -205.897705,   0.509165,   601.192688,   480.087219
-0.004246,   0.046371,   0.050767,   0.000000,   679.549927,   0.582333,   38.228855,   28.319361,   539.986755,   378.277679,   -205.052444,   0.512606,   597.121643,   470.224762
-0.003738,   0.043920,   0.048123,   0.000000,   675.243958,   0.582332,   38.228855,   27.338722,   531.830933,   385.105804,   -203.984299,   0.515775,   592.594482,   460.306488
-0.003265,   0.041399,   0.045377,   0.000000,   670.296082,   0.582332,   38.228855,   26.358082,   523.046021,   391.282257,   -202.693832,   0.518679,   587.600769,   450.376831
-0.002826,   0.038820,   0.042541,   0.000000,   664.689941,   0.582332,   38.228855,   25.377443,   513.600037,   396.807770,   -201.182220,   0.521317,   582.120056,   440.481659
-0.002421,   0.036193,   0.039629,   0.000000,   658.402588,   0.582332,   38.228855,   24.396805,   503.459747,   401.682861,   -199.441452,   0.523695,   576.125305,   430.651367
-0.002051,   0.033537,   0.036661,   0.000000,   651.422302,   0.582332,   38.228855,   23.416164,   492.601440,   405.918518,   -197.461716,   0.525820,   569.599304,   420.915527
-0.001716,   0.030863,   0.033650,   0.000000,   643.716431,   0.582333,   38.228855,   22.435526,   480.963287,   409.516052,   -195.235382,   0.527682,   562.509949,   411.323273
-0.001417,   0.028185,   0.030613,   0.000000,   635.242920,   0.582332,   38.228855,   21.454885,   468.490967,   412.471710,   -192.736938,   0.529283,   554.815308,   401.890015
-0.001153,   0.025525,   0.027575,   0.000000,   625.985168,   0.582332,   38.228855,   20.474247,   455.145477,   414.793274,   -189.947250,   0.530615,   546.497437,   392.660278
-0.000926,   0.022896,   0.024552,   0.000000,   615.885498,   0.582332,   38.228855,   19.493608,   440.833710,   416.470642,   -186.836639,   0.531657,   537.505005,   383.678619
-0.000735,   0.020318,   0.021568,   0.000000,   604.896057,   0.582333,   38.228855,   18.512968,   425.475616,   417.492554,   -183.368561,   0.532382,   527.796082,   374.994965
-0.000580,   0.017815,   0.018652,   0.000000,   592.997986,   0.582332,   38.228855,   17.532330,   409.000397,   417.872162,   -179.506927,   0.532756,   517.355591,   366.683777
-0.000460,   0.015413,   0.015835,   0.000000,   580.170532,   0.582333,   38.228855,   16.551691,   391.306854,   417.617340,   -175.215286,   0.532707,   506.171875,   358.871246
-0.000372,   0.013129,   0.013143,   0.000000,   566.374512,   0.582333,   38.228855,   15.571051,   372.190643,   416.738556,   -170.460831,   0.532095,   494.228088,   351.797455
-0.000313,   0.010993,   0.010613,   0.000000,   551.648132,   0.582332,   38.228855,   14.590412,   351.506744,   415.239105,   -165.230408,   0.530710,   481.585327,   345.816803
-0.000279,   0.009036,   0.008287,   0.000000,   536.097961,   0.582332,   38.228855,   13.609773,   328.960083,   413.141052,   -159.590179,   0.528108,   468.402008,   341.661896
-0.000265,   0.007288,   0.006205,   0.000000,   519.901184,   0.582332,   38.228855,   12.629134,   304.267639,   410.360260,   -153.690277,   0.523598,   454.947357,   340.246826
-0.000266,   0.005777,   0.004408,   0.000000,   503.319794,   0.582332,   38.228855,   11.648495,   277.104492,   406.657593,   -147.873138,   0.516046,   441.667358,   342.656250
-0.000279,   0.004510,   0.002909,   0.000000,   486.439789,   0.582332,   38.228855,   10.667855,   246.728439,   401.748230,   -142.483414,   0.503843,   429.020294,   349.487793
-0.000300,   0.003469,   0.001691,   0.000000,   468.706055,   0.582332,   38.228855,   9.687216,   210.728302,   395.335846,   -137.578644,   0.484070,   417.339233,   360.962738
-0.000338,   0.002608,   0.000715,   0.000000,   447.375702,   0.582332,   38.228855,   8.706576,   161.112930,   387.027252,   -131.436340,   0.449511,   406.471283,   376.801941
-0.000361,   0.001853,   0.000000,   0.000000,   402.660645,   0.582332,   38.228855,   7.725937,   82.781158,   364.892212,   -109.915169,   0.390489,   382.147736,   376.114136
-0.000380,   0.001202,   0.000000,   -4.436003,   251.190567,   0.582332,   38.228855,   6.745298,   5.997642,   240.756927,   -50.579205,   0.324543,   253.437683,   253.350327
-0.000384,   0.000663,   0.000000,   -42.612919,   126.433556,   0.582332,   38.228855,   5.764659,   -42.603027,   126.423660,   1.293107,   0.183480,   152.279373,   137.878174
-0.000398,   0.000293,   0.000000,   -71.643524,   39.943249,   0.582332,   38.228855,   4.784020,   -60.022907,   28.322632,   34.083260,   -0.107903,   97.928207,   -76.063515
-0.000429,   0.000137,   0.000000,   -89.575722,   1.987253,   0.582332,   38.228855,   3.803381,   -51.046425,   -36.542046,   45.203434,   -0.322304,   90.585701,   -90.536636
-0.000415,   0.000102,   0.000000,   -88.795090,   0.000000,   0.582332,   38.228855,   2.822742,   -29.615717,   -64.324318,   38.054764,   -0.362685,   86.337669,   -85.991745
-0.000326,   0.000092,   0.000000,   -68.854607,   0.000000,   0.582332,   38.228855,   1.842103,   -9.139894,   -60.958572,   21.714268,   -0.342406,   68.241180,   -68.215668
-0.000207,   0.000067,   0.000000,   -43.166878,   1.128837,   0.582332,   38.228855,   0.861463,   -0.042376,   -41.995667,   7.106896,   -0.320347,   43.742226,   -43.709435
