Image X[Pixel];Image Y[Pixel];Horizontal Displacement U[Pixel];Vertical Displacement V[Pixel];Correlation Coefficient: R;Sigma;Strain-global frame: Exx;Strain-global frame: Eyy;Strain-global frame: Exy;Maximum Principal Strain: EI;Minimum Principal Strain: EII;Shear Angle Gamma;Von Mises Equivalent Strain;
1111;1092;3.024114;32.470519;0.997532;0.013882;-0.110080;0.363915;0.001865;0.363922;-0.110088;89.774570;0.373265;
951;362;0.034906;0.060172;1.000000;0.000113;-0.000420;0.001704;0.000240;0.001730;-0.000446;83.631001;0.001797;
1106;1087;3.525539;30.894315;0.997341;0.018911;-0.106933;0.343845;0.003009;0.343865;-0.106954;89.617520;0.351955;
1016;517;0.083322;0.281213;0.999999;0.000290;-0.000615;0.001613;0.000169;0.001626;-0.000627;85.682813;0.001640;
1201;692;-0.165016;0.795347;0.999996;0.000653;-0.002687;0.006683;-0.001149;0.006822;-0.002826;-83.107484;0.006856;
956;362;0.032326;0.057044;1.000000;0.000099;-0.000387;0.001671;0.000246;0.001700;-0.000416;83.277939;0.001773;
1051;872;1.551500;4.402177;0.999895;0.002516;-0.019089;0.042316;0.006340;0.042964;-0.019736;84.166316;0.043011;
1126;1772;0.003719;86.210279;1.000000;0.000082;-0.000550;0.001555;-0.000007;0.001555;-0.000550;-89.805081;0.001577;
1071;1842;0.018043;86.312766;1.000000;0.000146;-0.000298;0.001430;-0.000097;0.001435;-0.000304;-86.787590;0.001513;
1036;1367;1.889404;81.818830;0.999898;0.002248;-0.020141;0.044167;-0.007850;0.045111;-0.021085;-83.140415;0.045143;
1051;1132;10.902055;46.160081;0.994627;0.023196;-0.120450;0.381026;-0.003844;0.381056;-0.120480;-89.560875;0.389546;
1106;1092;3.586731;32.483668;0.997335;0.016948;-0.109764;0.361377;0.002331;0.361388;-0.109775;89.716537;0.370550;
1091;1177;4.116727;60.759365;0.998225;0.010891;-0.098661;0.291724;-0.006525;0.291833;-0.098770;-89.042763;0.296868;
1071;1872;0.010371;86.355710;1.000000;0.000222;-0.000176;0.001359;-0.000111;0.001367;-0.000184;-85.874889;0.001484;
1176;1537;-0.132659;85.504815;0.999997;0.000448;-0.003182;0.007962;0.000832;0.008023;-0.003244;85.753903;0.008072;
1001;507;0.088411;0.266003;0.999999;0.000296;-0.000578;0.001561;0.000169;0.001574;-0.000591;85.509504;0.001590;
1106;1097;3.696788;34.150312;0.995946;0.017059;-0.112337;0.377805;0.001699;0.377811;-0.112343;89.801384;0.388017;
1096;1177;3.616245;60.843882;0.998276;0.009963;-0.098198;0.291588;-0.005820;0.291675;-0.098285;-89.144692;0.296799;
1016;647;0.175290;0.557469;0.999996;0.000494;-0.001538;0.004044;0.001172;0.004280;-0.001774;78.613495;0.004301;
1111;1772;0.012050;86.210056;1.000000;0.000061;-0.000551;0.001558;-0.000026;0.001558;-0.000551;-89.298408;0.001580;
1151;467;-0.008594;0.193128;1.000000;0.000081;-0.000531;0.001554;-0.000018;0.001554;-0.000531;-89.507584;0.001580;
1071;1877;0.009356;86.361392;1.000000;0.000193;-0.000155;0.001345;-0.000112;0.001354;-0.000163;-85.769960;0.001478;
1066;1817;0.026191;86.275925;1.000000;0.000162;-0.000394;0.001489;-0.000093;0.001494;-0.000398;-87.182566;0.001547;
1176;852;-0.639993;3.617278;0.999925;0.002372;-0.015475;0.034921;-0.002716;0.035067;-0.015621;-86.924499;0.035136;
1001;512;0.090493;0.273361;0.999999;0.000332;-0.000583;0.001568;0.000174;0.001582;-0.000597;85.399708;0.001598;
1151;1112;-2.058211;39.566101;0.994519;0.017334;-0.120042;0.422711;0.000133;0.422711;-0.120042;89.985982;0.435663;
1211;1367;-1.521004;81.796474;0.999927;0.002861;-0.019759;0.044051;0.006035;0.044617;-0.020325;84.644780;0.044676;
1176;1542;-0.123822;85.543277;0.999997;0.000519;-0.002978;0.007445;0.000782;0.007504;-0.003036;85.732276;0.007549;
1111;1087;2.971344;30.860777;0.997517;0.016463;-0.107234;0.346159;0.002493;0.346172;-0.107248;89.685027;0.354422;
1071;1177;6.250492;60.289919;0.997351;0.012675;-0.100387;0.291771;-0.009421;0.291997;-0.100613;-88.624607;0.296662;
1021;647;0.167364;0.558325;0.999997;0.000461;-0.001504;0.004015;0.001100;0.004226;-0.001716;79.133089;0.004251;
1071;1882;0.008410;86.367199;1.000000;0.000185;-0.000134;0.001342;-0.000113;0.001351;-0.000143;-85.657717;0.001484;
1151;472;-0.008896;0.199981;1.000000;0.000091;-0.000551;0.001559;-0.000019;0.001559;-0.000551;-89.494370;0.001581;
1106;1772;0.014750;86.209803;1.000000;0.000064;-0.000551;0.001558;-0.000033;0.001559;-0.000552;-89.111369;0.001581;
1001;517;0.092540;0.281614;0.999999;0.000301;-0.000584;0.001577;0.000181;0.001592;-0.000599;85.242377;0.001609;
1171;852;-0.562537;3.615517;0.999916;0.002578;-0.015435;0.034884;-0.002387;0.034997;-0.015548;-87.289711;0.035070;
1156;1112;-2.690000;39.626077;0.994984;0.019941;-0.120296;0.421899;-0.000032;0.421899;-0.120296;-89.996650;0.434691;
1206;1367;-1.421289;81.807281;0.999928;0.003314;-0.019705;0.044071;0.005587;0.044557;-0.020191;85.031507;0.044622;
1111;1097;3.095006;34.088843;0.996699;0.014492;-0.112715;0.380377;0.001385;0.380380;-0.112719;89.839047;0.390758;
1021;1717;0.081204;86.114971;1.000000;0.000178;-0.000626;0.001627;-0.000176;0.001640;-0.000639;-85.562048;0.001653;
1046;1577;0.157156;85.759398;0.999997;0.000484;-0.001945;0.005022;-0.001113;0.005195;-0.002118;-81.142311;0.005225;
1106;1182;2.464669;62.199126;0.998294;0.011103;-0.093563;0.273737;-0.004597;0.273795;-0.093620;-89.283002;0.278318;
1026;647;0.160693;0.560217;0.999997;0.000479;-0.001504;0.003987;0.001048;0.004180;-0.001697;79.553098;0.004205;
1131;1772;0.001024;86.210542;1.000000;0.000073;-0.000550;0.001555;-0.000002;0.001555;-0.000550;-89.948383;0.001577;
1156;1107;-2.620663;37.795188;0.994608;0.020756;-0.119174;0.414796;-0.000537;0.414797;-0.119175;-89.942357;0.427123;
1116;1087;2.426529;30.830764;0.997117;0.017093;-0.107547;0.348611;0.002151;0.348621;-0.107557;89.729779;0.357041;
1206;1372;-1.357255;82.023771;0.999939;0.002898;-0.018873;0.042196;0.005381;0.042667;-0.019344;85.002456;0.042729;
1261;1802;-0.057949;86.245551;1.000000;0.000163;-0.000471;0.001530;0.000119;0.001537;-0.000478;86.599618;0.001574;
1066;432;0.027561;0.142317;1.000000;0.000097;-0.000419;0.001503;0.000090;0.001508;-0.000423;87.322996;0.001555;
1111;1182;2.000929;62.244156;0.998334;0.013560;-0.093194;0.272729;-0.003688;0.272767;-0.093231;-89.422546;0.277280;
1101;862;0.559915;3.994474;0.999906;0.002547;-0.016838;0.038088;0.002324;0.038187;-0.016937;87.581405;0.038268;
1296;517;-0.106927;0.281569;0.999999;0.000325;-0.000518;0.001415;-0.000213;0.001438;-0.000541;-83.774928;0.001453;
1031;1742;0.066094;86.155637;1.000000;0.000144;-0.000613;0.001607;-0.000127;0.001615;-0.000620;-86.735880;0.001629;
1136;1762;-0.001868;86.194576;1.000000;0.000075;-0.000589;0.001575;0.000004;0.001575;-0.000589;89.889420;0.001592;
1231;1582;-0.173209;85.780337;0.999996;0.000548;-0.001882;0.004814;0.001156;0.005008;-0.002076;80.472211;0.005032;
1116;1092;2.458810;32.456329;0.997196;0.015604;-0.110453;0.366503;0.001612;0.366509;-0.110458;89.806322;0.376024;
1216;1367;-1.619693;81.790890;0.999928;0.003439;-0.019834;0.044001;0.006397;0.044636;-0.020469;84.333537;0.044687;
1101;1097;4.319986;34.220785;0.996889;0.018092;-0.112252;0.375176;0.002118;0.375186;-0.112261;89.751091;0.385137;
1246;672;-0.219756;0.672421;0.999996;0.000485;-0.002189;0.005553;-0.001552;0.005853;-0.002488;-79.078665;0.005874;
1071;432;0.025573;0.142035;1.000000;0.000088;-0.000416;0.001500;0.000084;0.001504;-0.000419;87.483590;0.001552;
1266;1802;-0.060561;86.244458;1.000000;0.000159;-0.000469;0.001526;0.000116;0.001533;-0.000476;86.674417;0.001569;
1116;1172;1.654222;59.726153;0.997254;0.018565;-0.100494;0.308127;-0.002300;0.308140;-0.100507;-89.677461;0.314286;
1301;517;-0.110297;0.282423;0.999999;0.000302;-0.000512;0.001378;-0.000215;0.001402;-0.000536;-83.591307;0.001415;
1221;857;-1.407491;3.804172;0.999918;0.002830;-0.016736;0.036829;-0.006015;0.037496;-0.017403;-83.671118;0.037529;
1116;1097;2.506576;34.073632;0.996823;0.014787;-0.113147;0.382955;0.001274;0.382958;-0.113150;89.852861;0.393494;
1056;1817;0.030135;86.275836;1.000000;0.000138;-0.000404;0.001496;-0.000106;0.001502;-0.000410;-86.811895;0.001552;
1136;1767;-0.001895;86.202310;1.000000;0.000075;-0.000569;0.001564;0.000004;0.001564;-0.000569;89.902903;0.001584;
1121;1087;1.824001;30.782330;0.997317;0.013934;-0.107816;0.350869;0.001707;0.350876;-0.107822;89.786729;0.359458;
1076;432;0.023508;0.141739;1.000000;0.000094;-0.000411;0.001496;0.000078;0.001499;-0.000415;87.654940;0.001548;
991;592;0.131313;0.400345;0.999996;0.000516;-0.000571;0.001791;0.000488;0.001888;-0.000668;78.770009;0.001914;
1116;1177;1.546123;61.136365;0.998187;0.018605;-0.096793;0.289686;-0.002657;0.289705;-0.096811;-89.606054;0.294968;
1271;1802;-0.062834;86.243887;1.000000;0.000137;-0.000468;0.001522;0.000112;0.001528;-0.000474;86.797144;0.001564;
1121;1092;1.837478;32.424572;0.997267;0.015686;-0.110757;0.368783;0.001352;0.368787;-0.110760;89.838461;0.378461;
1106;1082;3.435845;29.412674;0.997029;0.017456;-0.103821;0.326554;0.003471;0.326582;-0.103849;89.537978;0.333717;
1126;1077;1.182292;27.936269;0.997650;0.018579;-0.101293;0.315641;0.001374;0.315646;-0.101297;89.811250;0.322324;
1296;582;-0.132809;0.375896;0.999997;0.000461;-0.000454;0.001588;-0.000418;0.001671;-0.000537;-78.860277;0.001706;
956;367;0.036162;0.065266;1.000000;0.000096;-0.000415;0.001684;0.000225;0.001708;-0.000439;83.939224;0.001774;
1116;1182;1.466483;62.291614;0.997909;0.019085;-0.092900;0.271640;-0.002672;0.271660;-0.092919;-89.580029;0.276141;
971;382;0.041103;0.082447;1.000000;0.000124;-0.000433;0.001573;0.000161;0.001585;-0.000446;85.449572;0.001635;
1096;537;0.034075;0.308820;0.999999;0.000294;-0.000825;0.001832;0.000087;0.001835;-0.000828;88.115711;0.001837;
1121;1097;1.883819;34.076449;0.997018;0.016175;-0.113462;0.385159;0.001154;0.385162;-0.113465;89.867411;0.395848;
1271;1807;-0.060300;86.251131;1.000000;0.000163;-0.000459;0.001520;0.000114;0.001527;-0.000466;86.710428;0.001565;
1111;1082;2.903031;29.361149;0.997303;0.016320;-0.104066;0.328392;0.002929;0.328412;-0.104086;89.611958;0.335669;
1126;1082;1.201688;29.310180;0.997432;0.015942;-0.104771;0.334214;0.001371;0.334218;-0.104775;89.821098;0.341881;
1006;522;0.091194;0.289565;0.999999;0.000281;-0.000596;0.001589;0.000185;0.001605;-0.000612;85.187896;0.001620;
1301;582;-0.131926;0.375916;0.999979;0.001212;-0.000453;0.001596;-0.000415;0.001677;-0.000534;-78.978068;0.001713;
1096;1182;3.463515;62.036308;0.998155;0.010639;-0.094562;0.275304;-0.005999;0.275401;-0.094659;-89.071081;0.279849;
1121;1082;1.791917;29.269658;0.997926;0.015407;-0.104586;0.332294;0.002001;0.332303;-0.104595;89.737644;0.339820;
1236;1582;-0.181271;85.781375;0.999997;0.000441;-0.001888;0.004859;0.001224;0.005074;-0.002103;80.027367;0.005099;
981;392;0.044117;0.095412;1.000000;0.000107;-0.000388;0.001543;0.000159;0.001556;-0.000401;85.330069;0.001616;
1116;1082;2.371034;29.309552;0.997293;0.016382;-0.104352;0.330382;0.002542;0.330397;-0.104367;89.665027;0.337782;
1096;542;0.034856;0.318343;0.999999;0.000291;-0.000849;0.001872;0.000093;0.001875;-0.000852;88.046411;0.001878;
1051;1887;0.009037;86.374439;1.000000;0.000143;-0.000118;0.001352;-0.000153;0.001368;-0.000134;-84.123765;0.001508;
1126;1087;1.221426;30.796369;0.996741;0.013966;-0.108022;0.352977;0.001169;0.352980;-0.108025;89.854770;0.361725;
1026;652;0.169045;0.581413;0.999997;0.000416;-0.001623;0.004282;0.001135;0.004493;-0.001833;79.486720;0.004518;
1016;522;0.085190;0.289650;0.999999;0.000296;-0.000620;0.001616;0.000177;0.001630;-0.000634;85.492876;0.001643;
971;587;0.137251;0.383925;0.999997;0.000402;-0.000439;0.001688;0.000499;0.001799;-0.000550;77.441777;0.001843;
1101;1182;2.951319;62.110595;0.998323;0.011138;-0.094097;0.274586;-0.005309;0.274662;-0.094173;-89.175249;0.279146;
1111;1102;3.172533;35.707394;0.997267;0.015420;-0.115052;0.395380;0.001074;0.395382;-0.115054;89.879470;0.406734;
1101;1082;3.971966;29.454616;0.997155;0.017531;-0.103811;0.324990;0.004075;0.325028;-0.103850;89.455546;0.332012;
1051;1892;0.007336;86.380529;1.000000;0.000180;-0.000096;0.001343;-0.000154;0.001359;-0.000112;-83.945893;0.001509;
1096;547;0.035660;0.328155;0.999999;0.000275;-0.000874;0.001914;0.000099;0.001918;-0.000878;87.972590;0.001920;
1126;1092;1.232158;32.430477;0.996606;0.013698;-0.110942;0.370875;0.000974;0.370877;-0.110944;89.884168;0.380722;
1296;597;-0.144004;0.401817;0.999991;0.000759;-0.000526;0.001731;-0.000551;0.001858;-0.000654;-76.980212;0.001885;
1241;1582;-0.190673;85.782347;0.999996;0.000454;-0.001892;0.004900;0.001295;0.005138;-0.002130;79.561940;0.005163;
1076;1377;0.992103;82.247094;0.999921;0.002862;-0.017997;0.040234;-0.004139;0.040527;-0.018289;-85.954561;0.040591;
976;587;0.135027;0.385126;0.999997;0.000427;-0.000469;0.001686;0.000487;0.001792;-0.000574;77.833939;0.001830;
1306;517;-0.111823;0.281900;0.999999;0.000286;-0.000510;0.001339;-0.000212;0.001363;-0.000534;-83.547224;0.001373;
1091;1182;3.939581;61.963991;0.998058;0.010401;-0.095087;0.275872;-0.006713;0.275993;-0.095208;-88.963643;0.280381;
1301;587;-0.139272;0.384497;0.999958;0.001563;-0.000464;0.001579;-0.000491;0.001690;-0.000576;-77.173375;0.001719;
1116;1077;2.259378;27.931380;0.997600;0.015168;-0.100933;0.312763;0.002645;0.312780;-0.100950;89.633669;0.319263;
1056;1892;0.007022;86.380824;1.000000;0.000187;-0.000095;0.001336;-0.000143;0.001350;-0.000109;-84.343417;0.001500;
1101;1087;4.078547;30.898312;0.997177;0.018906;-0.106896;0.341813;0.003594;0.341841;-0.106925;89.541170;0.349737;
1296;587;-0.135479;0.382841;0.999997;0.000481;-0.000464;0.001592;-0.000480;0.001699;-0.000570;-77.484284;0.001729;
1141;532;-0.005118;0.298605;0.999999;0.000198;-0.000830;0.001806;-0.000016;0.001806;-0.000830;-89.644972;0.001808;
1086;452;0.023170;0.171400;1.000000;0.000120;-0.000482;0.001528;0.000058;0.001529;-0.000483;88.353452;0.001564;
1311;502;-0.107455;0.260163;0.999999;0.000366;-0.000521;0.001328;-0.000162;0.001342;-0.000536;-85.019500;0.001351;
1086;1182;4.433857;61.878768;0.997979;0.011619;-0.095420;0.276403;-0.007487;0.276553;-0.095571;-88.846912;0.280915;
1186;1547;-0.140930;85.577121;0.999997;0.000487;-0.002830;0.007024;0.000916;0.007108;-0.002915;84.736739;0.007146;
1061;1892;0.006457;86.381269;1.000000;0.000181;-0.000092;0.001332;-0.000131;0.001344;-0.000104;-84.771976;0.001495;
1081;1377;0.900762;82.251357;0.999918;0.002751;-0.017927;0.040139;-0.003731;0.040378;-0.018166;-86.338882;0.040446;
1121;1077;1.714743;27.870346;0.997915;0.019727;-0.101118;0.314162;0.002042;0.314172;-0.101128;89.718243;0.320747;
1296;592;-0.138969;0.391951;0.999997;0.000479;-0.000490;0.001624;-0.000548;0.001757;-0.000623;-76.300151;0.001782;
1101;1092;4.186049;32.506342;0.996910;0.019561;-0.109714;0.358985;0.002890;0.359003;-0.109732;89.646696;0.367931;
1031;642;0.145382;0.542164;0.999996;0.000537;-0.001386;0.003688;0.000914;0.003848;-0.001546;80.095553;0.003872;
1146;532;-0.009689;0.298788;0.999999;0.000220;-0.000827;0.001801;-0.000029;0.001802;-0.000827;-89.367793;0.001804;
1311;507;-0.108649;0.266879;0.999999;0.000338;-0.000513;0.001318;-0.000175;0.001334;-0.000530;-84.578317;0.001344;
1091;452;0.020772;0.171012;1.000000;0.000120;-0.000479;0.001525;0.000052;0.001526;-0.000481;88.510062;0.001561;
1081;1177;5.184612;60.583266;0.998076;0.010140;-0.099292;0.291731;-0.008041;0.291896;-0.099457;-88.822379;0.296792;
1071;1887;0.007242;86.374534;1.000000;0.000209;-0.000113;0.001338;-0.000113;0.001346;-0.000122;-85.580591;0.001490;
1106;1107;3.831484;37.454013;0.996194;0.013275;-0.116714;0.405635;0.000891;0.405636;-0.116716;89.902252;0.417643;
1186;1552;-0.131814;85.610343;0.999998;0.000572;-0.002647;0.006576;0.000863;0.006656;-0.002727;84.699769;0.006692;
1111;1067;2.490111;25.469486;0.997375;0.014682;-0.093967;0.278769;0.003638;0.278805;-0.094003;89.440886;0.283691;
1221;1367;-1.719218;81.791658;0.999917;0.003379;-0.019876;0.043992;0.006804;0.044709;-0.020593;83.985976;0.044755;
1031;647;0.153426;0.562794;0.999997;0.000555;-0.001493;0.003960;0.000994;0.004136;-0.001669;79.982700;0.004161;
1236;672;-0.196861;0.672667;0.999996;0.000495;-0.002157;0.005469;-0.001394;0.005716;-0.002404;-79.957342;0.005740;
1311;512;-0.111264;0.274204;0.999999;0.000311;-0.000510;0.001299;-0.000189;0.001318;-0.000530;-84.095212;0.001327;
1151;532;-0.013592;0.298877;0.999999;0.000227;-0.000823;0.001796;-0.000040;0.001797;-0.000824;-89.118302;0.001799;
946;357;0.037869;0.052320;0.999991;0.000763;-0.000440;0.001729;0.000254;0.001759;-0.000469;83.413000;0.001821;
1081;1182;4.962471;61.803132;0.997897;0.011756;-0.095901;0.276844;-0.008218;0.277025;-0.096082;-88.737584;0.281325;
1111;1107;3.184581;37.425486;0.996475;0.016862;-0.117053;0.407877;0.000719;0.407878;-0.117054;89.921548;0.420036;
1226;1367;-1.823461;81.791671;0.999913;0.002681;-0.019899;0.043945;0.007224;0.044752;-0.020706;83.624246;0.044794;
1066;1867;0.012772;86.347869;1.000000;0.000246;-0.000199;0.001374;-0.000121;0.001384;-0.000208;-85.633050;0.001492;
1116;1067;2.025425;25.412802;0.997426;0.015275;-0.093931;0.279277;0.002994;0.279301;-0.093955;89.540433;0.284241;
946;362;0.041593;0.061921;0.999994;0.000854;-0.000464;0.001741;0.000229;0.001764;-0.000488;84.131502;0.001822;
1031;652;0.161380;0.583349;0.999997;0.000531;-0.001608;0.004250;0.001075;0.004441;-0.001799;79.921450;0.004468;
1016;652;0.185024;0.574924;0.999997;0.000639;-0.001657;0.004335;0.001268;0.004593;-0.001914;78.531102;0.004614;
1156;532;-0.017560;0.299127;0.999999;0.000223;-0.000822;0.001791;-0.000049;0.001791;-0.000822;-88.919270;0.001793;
1076;1537;0.174758;85.509637;0.999996;0.000539;-0.003203;0.007851;-0.001171;0.007974;-0.003326;-84.019765;0.008010;
1291;517;-0.103563;0.280600;0.999998;0.000368;-0.000516;0.001447;-0.000215;0.001471;-0.000539;-83.808742;0.001488;
1076;1177;5.731905;60.435924;0.997512;0.011138;-0.099896;0.291689;-0.008734;0.291884;-0.100091;-88.722902;0.296647;
946;367;0.043874;0.069653;0.999995;0.000817;-0.000492;0.001767;0.000204;0.001785;-0.000510;84.885231;0.001839;
1116;1102;2.540242;35.708110;0.997184;0.017340;-0.115480;0.397719;0.001058;0.397721;-0.115482;89.881894;0.409208;
1071;1867;0.011517;86.348295;1.000000;0.000226;-0.000197;0.001371;-0.000111;0.001379;-0.000205;-85.953814;0.001488;
1121;1067;1.545471;25.373548;0.997269;0.015816;-0.093894;0.279895;0.002288;0.279909;-0.093908;89.649355;0.284914;
1191;1377;-1.029812;82.225134;0.999932;0.002354;-0.017838;0.040157;0.004020;0.040435;-0.018116;86.053969;0.040507;
1311;517;-0.113775;0.279806;0.999999;0.000311;-0.000508;0.001296;-0.000210;0.001320;-0.000532;-83.458326;0.001328;
1021;652;0.176425;0.576220;0.999997;0.000485;-0.001627;0.004315;0.001192;0.004545;-0.001857;79.067145;0.004570;
1241;672;-0.208120;0.671741;0.999996;0.000561;-0.002184;0.005518;-0.001472;0.005790;-0.002456;-79.537531;0.005812;
1136;532;-0.001191;0.298888;0.999999;0.000211;-0.000834;0.001810;-0.000004;0.001810;-0.000834;-89.919780;0.001812;
1081;1537;0.156456;85.508161;0.999997;0.000534;-0.003189;0.007833;-0.001073;0.007937;-0.003293;-84.490779;0.007975;
951;367;0.038723;0.068398;1.000000;0.000099;-0.000447;0.001721;0.000218;0.001743;-0.000469;84.323236;0.001804;
1116;1072;2.123557;26.648469;0.997813;0.014680;-0.097454;0.295829;0.002706;0.295848;-0.097473;89.605749;0.301529;
1106;1187;2.345713;63.299493;0.998388;0.010612;-0.089699;0.257355;-0.004210;0.257406;-0.089750;-89.305088;0.261307;
1076;1867;0.010366;86.348290;1.000000;0.000220;-0.000195;0.001368;-0.000102;0.001374;-0.000202;-86.267253;0.001484;
1126;1067;1.050878;25.278884;0.996614;0.015287;-0.093883;0.280596;0.001525;0.280602;-0.093889;89.766655;0.285674;
1196;1377;-1.118852;82.216768;0.999935;0.002663;-0.017927;0.040203;0.004382;0.040532;-0.018256;85.712832;0.040598;
1021;662;0.200108;0.625664;0.999996;0.000659;-0.001904;0.004927;0.001377;0.005194;-0.002171;79.020592;0.005217;
1001;632;0.168053;0.495977;0.999996;0.000588;-0.001116;0.003248;0.001012;0.003472;-0.001339;77.554224;0.003502;
1086;1537;0.139873;85.507368;0.999997;0.000436;-0.003183;0.007823;-0.000970;0.007907;-0.003268;-85.000968;0.007947;
1091;532;0.036658;0.299546;0.999999;0.000335;-0.000792;0.001781;0.000093;0.001784;-0.000795;87.924846;0.001788;
1231;547;-0.080271;0.329348;0.999998;0.000388;-0.000695;0.001702;-0.000205;0.001720;-0.000713;-85.145486;0.001728;
1121;1072;1.635239;26.584181;0.997810;0.017131;-0.097532;0.296749;0.002071;0.296760;-0.097543;89.699119;0.302510;
1111;1187;1.890073;63.351102;0.998250;0.015906;-0.089318;0.255976;-0.003286;0.256007;-0.089349;-89.454872;0.259869;
1076;1872;0.009622;86.355451;1.000000;0.000171;-0.000175;0.001356;-0.000102;0.001363;-0.000182;-86.188144;0.001480;
1281;392;-0.041146;0.092638;1.000000;0.000103;-0.000371;0.001528;-0.000172;0.001544;-0.000387;-84.858111;0.001606;
1096;1067;3.969387;25.664922;0.997565;0.016473;-0.094457;0.277027;0.005824;0.277119;-0.094548;89.102030;0.281740;
1201;1372;-1.265116;82.032878;0.999937;0.002887;-0.018805;0.042121;0.004959;0.042522;-0.019206;85.377499;0.042588;
1026;662;0.191335;0.626481;0.999996;0.000530;-0.001895;0.004883;0.001309;0.005128;-0.002139;79.439116;0.005151;
1001;637;0.177999;0.513470;0.999996;0.000641;-0.001219;0.003500;0.001106;0.003746;-0.001465;77.438600;0.003776;
1091;537;0.038025;0.309033;0.999999;0.000312;-0.000815;0.001821;0.000099;0.001824;-0.000819;87.860280;0.001828;
1211;1572;-0.152742;85.726070;0.999996;0.000433;-0.002107;0.005250;0.001004;0.005384;-0.002241;82.367470;0.005409;
1001;522;0.094139;0.289283;0.999999;0.000337;-0.000585;0.001574;0.000190;0.001591;-0.000602;85.003597;0.001606;
1126;1072;1.117419;26.533942;0.997369;0.017666;-0.097628;0.297790;0.001384;0.297795;-0.097633;89.799413;0.303621;
1116;1187;1.397905;63.404338;0.997943;0.016885;-0.089013;0.254602;-0.002321;0.254617;-0.089029;-89.613069;0.258426;
1076;1877;0.008575;86.361376;1.000000;0.000148;-0.000154;0.001343;-0.000103;0.001350;-0.000161;-86.099089;0.001475;
1096;1072;4.168487;26.979351;0.997612;0.013573;-0.097648;0.292240;0.005444;0.292316;-0.097724;89.200239;0.297618;
1221;862;-1.469974;3.994001;0.999906;0.002860;-0.017491;0.038532;-0.006165;0.039202;-0.018162;-83.793683;0.039237;
1031;662;0.182731;0.627682;0.999997;0.000440;-0.001873;0.004838;0.001239;0.005060;-0.002095;79.865817;0.005085;
1156;467;-0.011042;0.193315;1.000000;0.000098;-0.000532;0.001555;-0.000024;0.001555;-0.000532;-89.347834;0.001581;
1056;1362;1.547023;81.610693;0.999918;0.002455;-0.020804;0.046250;-0.006335;0.046843;-0.021398;-84.649780;0.046901;
1001;642;0.187019;0.532187;0.999995;0.000583;-0.001347;0.003781;0.001205;0.004050;-0.001616;77.414373;0.004077;
1091;542;0.039118;0.318594;0.999999;0.000320;-0.000839;0.001860;0.000105;0.001864;-0.000843;87.777703;0.001867;
1311;497;-0.105267;0.253517;0.999999;0.000336;-0.000527;0.001325;-0.000151;0.001337;-0.000539;-85.364517;0.001346;
1246;1587;-0.187887;85.805749;0.999997;0.000379;-0.001768;0.004615;0.001271;0.004858;-0.002012;79.142686;0.004882;
1046;1887;0.009496;86.373851;1.000000;0.000177;-0.000121;0.001358;-0.000163;0.001376;-0.000139;-83.797382;0.001515;
1096;1187;3.301876;63.173547;0.998279;0.010472;-0.090817;0.259516;-0.005709;0.259609;-0.090910;-89.066711;0.263465;
1106;1072;3.136186;26.810303;0.997608;0.014888;-0.097302;0.293988;0.003987;0.294028;-0.097343;89.416328;0.299570;
1096;1077;4.353011;28.265306;0.997567;0.012165;-0.100746;0.307784;0.005013;0.307846;-0.100808;89.297038;0.313896;
1016;657;0.197256;0.598312;0.999996;0.000650;-0.001790;0.004641;0.001367;0.004919;-0.002069;78.483302;0.004940;
1061;1362;1.437654;81.614012;0.999923;0.002624;-0.020759;0.046261;-0.005890;0.046775;-0.021273;-85.015648;0.046838;
1036;652;0.153723;0.584871;0.999997;0.000508;-0.001601;0.004220;0.001016;0.004393;-0.001773;80.381069;0.004420;
1096;532;0.032198;0.298808;0.999999;0.000303;-0.000801;0.001790;0.000083;0.001792;-0.000804;88.169422;0.001796;
1191;857;-0.911536;3.797532;0.999917;0.002355;-0.016339;0.036613;-0.003891;0.036897;-0.016623;-85.820243;0.036958;
1301;522;-0.111606;0.288326;0.999998;0.000265;-0.000509;0.001381;-0.000231;0.001409;-0.000537;-83.140167;0.001423;
1046;1892;0.008116;86.381173;1.000000;0.000171;-0.000099;0.001349;-0.000164;0.001368;-0.000117;-83.612706;0.001516;
1101;1067;3.478521;25.585933;0.997491;0.016939;-0.094167;0.277524;0.005177;0.277596;-0.094239;89.202232;0.282324;
1101;1187;2.813685;63.239542;0.998434;0.010836;-0.090292;0.258542;-0.004987;0.258613;-0.090363;-89.181083;0.262494;
1111;1072;2.636252;26.715878;0.997828;0.011431;-0.097375;0.294952;0.003278;0.294980;-0.097402;89.521373;0.300596;
1041;1577;0.167005;85.760178;0.999997;0.000574;-0.001954;0.005059;-0.001181;0.005253;-0.002148;-80.690722;0.005282;
1021;657;0.187655;0.600626;0.999997;0.000558;-0.001764;0.004619;0.001287;0.004869;-0.002013;79.019159;0.004893;
1201;1367;-1.321956;81.815413;0.999920;0.004408;-0.019637;0.043988;0.005157;0.044403;-0.020052;85.396350;0.044472;
1306;522;-0.113421;0.287344;0.999998;0.000240;-0.000508;0.001343;-0.000230;0.001371;-0.000536;-83.021122;0.001382;
1101;532;0.028674;0.298301;0.999999;0.000291;-0.000811;0.001797;0.000074;0.001799;-0.000814;88.367777;0.001801;
1036;657;0.163407;0.606332;0.999997;0.000451;-0.001726;0.004503;0.001093;0.004690;-0.001912;80.331185;0.004716;
1196;867;-1.083229;4.183608;0.999919;0.002423;-0.017896;0.040141;-0.004444;0.040480;-0.018234;-85.646897;0.040546;
1076;1882;0.007690;86.366958;1.000000;0.000194;-0.000133;0.001340;-0.000103;0.001347;-0.000140;-86.031873;0.001481;
1131;1067;0.543043;25.221678;0.997814;0.013837;-0.094191;0.281387;0.000810;0.281388;-0.094193;89.876368;0.286466;
1131;1072;0.599477;26.508888;0.997660;0.015143;-0.098008;0.298896;0.000745;0.298898;-0.098010;89.892472;0.304742;
1121;1172;1.112594;59.786451;0.997212;0.015347;-0.100341;0.307766;-0.001538;0.307772;-0.100347;-89.784078;0.313920;
1131;537;0.003158;0.307563;0.999999;0.000235;-0.000861;0.001858;0.000010;0.001858;-0.000861;89.793313;0.001860;
1201;867;-1.171449;4.187629;0.999928;0.002260;-0.017965;0.040194;-0.004827;0.040592;-0.018363;-85.287186;0.040653;
1096;452;0.018567;0.170745;1.000000;0.000124;-0.000477;0.001523;0.000046;0.001524;-0.000478;88.674981;0.001559;
1311;522;-0.115824;0.286745;0.999999;0.000297;-0.000506;0.001299;-0.000232;0.001328;-0.000535;-82.798545;0.001337;
1076;1887;0.006378;86.373747;1.000000;0.000209;-0.000112;0.001336;-0.000103;0.001343;-0.000120;-85.954760;0.001487;
1196;1367;-1.219798;81.824736;0.999911;0.003363;-0.019564;0.043888;0.004731;0.044239;-0.019914;85.759238;0.044312;
1136;1067;0.047113;25.149143;0.997690;0.010893;-0.094471;0.282113;0.000142;0.282113;-0.094471;89.978460;0.287196;
1106;1077;3.307612;28.086303;0.997380;0.015655;-0.100534;0.310029;0.003703;0.310062;-0.100567;89.483271;0.316376;
1186;707;-0.155356;0.901572;0.999994;0.000727;-0.003220;0.007974;-0.001043;0.008071;-0.003317;-84.722717;0.008113;
1096;527;0.031207;0.290389;0.999999;0.000279;-0.000777;0.001749;0.000079;0.001751;-0.000779;88.218874;0.001755;
1051;1817;0.031832;86.275215;1.000000;0.000144;-0.000408;0.001499;-0.000111;0.001505;-0.000414;-86.666852;0.001555;
1206;867;-1.261061;4.185140;0.999915;0.002734;-0.018069;0.040255;-0.005227;0.040719;-0.018534;-84.919025;0.040774;
1256;417;-0.044407;0.125882;1.000000;0.000133;-0.000407;0.001508;-0.000144;0.001518;-0.000418;-85.731514;0.001569;
1196;1372;-1.165080;82.034329;0.999937;0.002885;-0.018735;0.042041;0.004551;0.042380;-0.019074;85.740862;0.042451;
1136;1072;0.062846;26.428794;0.997556;0.011287;-0.098353;0.299964;0.000156;0.299965;-0.098353;89.977561;0.305831;
1111;1077;2.781084;28.016856;0.997701;0.012163;-0.100718;0.311368;0.003109;0.311392;-0.100742;89.567795;0.317792;
1256;1802;-0.055677;86.246607;1.000000;0.000157;-0.000470;0.001533;0.000121;0.001540;-0.000477;86.545807;0.001577;
1296;557;-0.122003;0.338500;0.999997;0.000567;-0.000444;0.001501;-0.000292;0.001544;-0.000487;-81.651196;0.001578;
1101;527;0.027284;0.290434;0.999999;0.000247;-0.000786;0.001755;0.000071;0.001757;-0.000788;88.408995;0.001760;
1181;542;-0.040357;0.317678;0.999999;0.000231;-0.000835;0.001837;-0.000113;0.001842;-0.000840;-87.578159;0.001845;
1126;1062;0.961674;24.120715;0.997222;0.012966;-0.090185;0.263757;0.001599;0.263764;-0.090193;89.741232;0.268121;
1191;1372;-1.074907;82.038564;0.999928;0.002246;-0.018641;0.041979;0.004174;0.042265;-0.018927;86.079520;0.042342;
1106;1102;3.796429;35.800931;0.996810;0.013474;-0.114658;0.393022;0.001244;0.393025;-0.114661;89.859622;0.404229;
1136;862;-0.032548;3.979054;0.999929;0.002620;-0.016662;0.037934;-0.000193;0.037934;-0.016662;-89.797718;0.038028;
1051;1822;0.030229;86.281736;1.000000;0.000166;-0.000388;0.001486;-0.000115;0.001493;-0.000395;-86.513360;0.001547;
1021;422;0.043143;0.131904;1.000000;0.000159;-0.000412;0.001516;0.000139;0.001526;-0.000422;85.885519;0.001576;
1106;527;0.023740;0.290953;0.999999;0.000286;-0.000796;0.001761;0.000062;0.001763;-0.000797;88.619823;0.001766;
1296;562;-0.123364;0.346010;0.999997;0.000576;-0.000442;0.001527;-0.000307;0.001574;-0.000488;-81.329171;0.001611;
966;1827;0.064040;86.273891;0.999999;0.000190;-0.000521;0.001473;-0.000069;0.001475;-0.000523;-88.019333;0.001496;
1131;1062;0.478018;24.057678;0.997972;0.014072;-0.090409;0.264195;0.000834;0.264197;-0.090411;89.865199;0.268547;
1186;1372;-0.983821;82.043255;0.999916;0.002284;-0.018568;0.041925;0.003794;0.042162;-0.018805;86.425029;0.042244;
1141;1072;-0.457771;26.435158;0.997668;0.010721;-0.098703;0.300936;-0.000554;0.300937;-0.098704;-89.920533;0.306815;
946;377;0.048199;0.085828;0.999996;0.000746;-0.000544;0.001659;0.000121;0.001666;-0.000551;86.863618;0.001697;
1106;532;0.024176;0.298881;0.999999;0.000274;-0.000821;0.001804;0.000065;0.001806;-0.000823;88.590856;0.001808;
1056;1822;0.028310;86.282437;1.000000;0.000135;-0.000385;0.001482;-0.000109;0.001488;-0.000392;-86.660048;0.001543;
1141;862;-0.119001;3.980783;0.999917;0.002661;-0.016653;0.037951;-0.000509;0.037956;-0.016658;-89.465898;0.038051;
1031;667;0.193779;0.651215;0.999996;0.000518;-0.002014;0.005162;0.001327;0.005399;-0.002252;79.848390;0.005424;
1101;537;0.029326;0.308940;0.999999;0.000317;-0.000836;0.001841;0.000078;0.001843;-0.000838;88.334124;0.001845;
1011;522;0.088056;0.289632;0.999999;0.000282;-0.000607;0.001605;0.000183;0.001620;-0.000622;85.309273;0.001634;
1251;1842;-0.035608;86.307737;0.999999;0.000151;-0.000349;0.001489;0.000163;0.001503;-0.000363;84.956855;0.001568;
1186;1377;-0.938548;82.229779;0.999912;0.002336;-0.017777;0.040119;0.003651;0.040348;-0.018006;86.406249;0.040426;
951;377;0.045968;0.083880;1.000000;0.000114;-0.000499;0.001645;0.000146;0.001655;-0.000509;86.125354;0.001695;
1206;557;-0.066152;0.345273;0.999999;0.000424;-0.000818;0.001873;-0.000188;0.001886;-0.000831;-86.027371;0.001891;
1136;1077;0.052374;27.903743;0.997004;0.014772;-0.102109;0.318568;0.000206;0.318568;-0.102110;89.971894;0.325337;
1106;537;0.024955;0.308854;0.999999;0.000273;-0.000847;0.001849;0.000068;0.001850;-0.000848;88.563655;0.001852;
1061;1817;0.028392;86.276141;1.000000;0.000159;-0.000399;0.001493;-0.000101;0.001498;-0.000404;-86.962834;0.001550;
966;572;0.132205;0.359024;0.999996;0.000652;-0.000383;0.001514;0.000363;0.001581;-0.000450;79.531980;0.001629;
1166;852;-0.483407;3.619989;0.999915;0.002562;-0.015407;0.034850;-0.002069;0.034935;-0.015492;-87.646859;0.035009;
1161;532;-0.021772;0.298660;0.999999;0.000271;-0.000818;0.001782;-0.000060;0.001783;-0.000820;-88.679907;0.001785;
956;377;0.043497;0.081102;1.000000;0.000092;-0.000467;0.001631;0.000162;0.001644;-0.000480;85.607357;0.001691;
1081;1867;0.009615;86.348381;1.000000;0.000191;-0.000196;0.001366;-0.000094;0.001372;-0.000202;-86.576725;0.001481;
1196;557;-0.057660;0.346599;0.999999;0.000327;-0.000858;0.001925;-0.000170;0.001935;-0.000869;-86.516310;0.001939;
1091;1067;4.481337;25.761191;0.998154;0.012297;-0.094840;0.276685;0.006440;0.276797;-0.094951;89.007273;0.281307;
966;577;0.135805;0.368127;0.999993;0.000875;-0.000399;0.001630;0.000379;0.001699;-0.000467;79.749815;0.001755;
1066;1362;1.333628;81.611549;0.999906;0.002498;-0.020657;0.046186;-0.005464;0.046630;-0.021100;-85.357779;0.046700;
1146;527;-0.009100;0.290465;0.999999;0.000204;-0.000801;0.001762;-0.000027;0.001762;-0.000801;-89.400524;0.001765;
1061;1822;0.026801;86.283030;1.000000;0.000152;-0.000380;0.001478;-0.000104;0.001484;-0.000386;-86.815937;0.001539;
1156;852;-0.332969;3.624167;0.999914;0.002472;-0.015341;0.034764;-0.001448;0.034806;-0.015383;-88.346145;0.034884;
1191;562;-0.054554;0.355913;0.999999;0.000333;-0.000900;0.002008;-0.000168;0.002018;-0.000909;-86.704494;0.002021;
961;377;0.041065;0.078167;1.000000;0.000112;-0.000443;0.001616;0.000171;0.001630;-0.000457;85.290143;0.001681;
1151;527;-0.013318;0.290748;1.000000;0.000226;-0.000797;0.001758;-0.000038;0.001759;-0.000798;-89.152649;0.001761;
1081;1872;0.008832;86.355549;1.000000;0.000153;-0.000176;0.001354;-0.000094;0.001360;-0.000181;-86.487080;0.001477;
1201;557;-0.062314;0.345585;0.999999;0.000385;-0.000837;0.001899;-0.000179;0.001911;-0.000849;-86.263566;0.001915;
1091;1072;4.676652;27.060767;0.998184;0.010882;-0.097970;0.291479;0.006090;0.291574;-0.098065;89.104295;0.296736;
1051;1362;1.650428;81.604395;0.999916;0.002354;-0.020854;0.046283;-0.006772;0.046959;-0.021530;-84.296782;0.047013;
1141;522;-0.004826;0.281658;0.999999;0.000210;-0.000779;0.001739;-0.000012;0.001739;-0.000779;-89.717410;0.001742;
1066;1822;0.024953;86.283242;1.000000;0.000182;-0.000376;0.001474;-0.000096;0.001479;-0.000381;-87.043865;0.001536;
1036;647;0.145762;0.564429;0.999997;0.000572;-0.001488;0.003935;0.000939;0.004093;-0.001646;80.449016;0.004119;
1161;852;-0.409111;3.624971;0.999915;0.002771;-0.015372;0.034808;-0.001753;0.034869;-0.015433;-88.001897;0.034946;
1196;562;-0.059013;0.355812;0.999999;0.000316;-0.000880;0.001979;-0.000180;0.001991;-0.000891;-86.408396;0.001994;
1156;527;-0.017137;0.290698;0.999999;0.000232;-0.000795;0.001753;-0.000046;0.001754;-0.000796;-88.958004;0.001757;
1081;1877;0.007929;86.361550;1.000000;0.000163;-0.000154;0.001341;-0.000094;0.001347;-0.000160;-86.424142;0.001472;
1316;512;-0.113821;0.274058;0.999998;0.000353;-0.000506;0.001248;-0.000181;0.001267;-0.000524;-84.159515;0.001273;
966;582;0.128346;0.374262;0.999273;0.007503;-0.000376;0.001653;0.000433;0.001741;-0.000465;78.444395;0.001803;
1026;422;0.040997;0.131426;1.000000;0.000143;-0.000409;0.001513;0.000137;0.001523;-0.000419;85.955463;0.001573;
1091;1077;4.893781;28.356365;0.998134;0.010984;-0.100985;0.306669;0.005661;0.306747;-0.101064;89.204545;0.312638;
1141;527;-0.005021;0.290470;0.999999;0.000183;-0.000805;0.001766;-0.000015;0.001766;-0.000805;-89.662342;0.001769;
1086;1377;0.808584;82.245837;0.999930;0.002485;-0.017844;0.040041;-0.003335;0.040233;-0.018035;-86.713715;0.040304;
1186;857;-0.828899;3.798323;0.999917;0.002638;-0.016280;0.036564;-0.003539;0.036800;-0.016516;-86.185494;0.036864;
1231;1657;-0.099879;86.008011;1.000000;0.000166;-0.000798;0.002038;0.000331;0.002076;-0.000836;83.435277;0.002089;
1201;562;-0.063544;0.355554;0.999999;0.000353;-0.000857;0.001951;-0.000190;0.001964;-0.000870;-86.155560;0.001968;
1316;517;-0.115487;0.278554;0.999998;0.000302;-0.000501;0.001243;-0.000207;0.001268;-0.000525;-83.309750;0.001274;
1091;527;0.034588;0.290049;0.999999;0.000265;-0.000768;0.001742;0.000088;0.001745;-0.000771;87.995955;0.001749;
1066;1862;0.014368;86.340026;1.000000;0.000228;-0.000220;0.001381;-0.000119;0.001390;-0.000228;-85.766868;0.001491;
1031;422;0.039024;0.130871;1.000000;0.000145;-0.000407;0.001510;0.000132;0.001519;-0.000416;86.066151;0.001570;
1091;1082;5.104686;29.671713;0.997878;0.011232;-0.103991;0.321929;0.005295;0.321995;-0.104057;89.287892;0.328639;
1051;627;0.104887;0.501174;0.999995;0.000581;-0.001190;0.003006;0.000546;0.003076;-0.001260;82.706907;0.003092;
1091;517;0.032480;0.274024;1.000000;0.000240;-0.000723;0.001683;0.000078;0.001685;-0.000725;88.153343;0.001691;
1241;842;-1.521826;3.311286;0.999932;0.002067;-0.014640;0.031688;-0.006866;0.032684;-0.015636;-81.745360;0.032695;
1091;1377;0.725142;82.251179;0.999935;0.002240;-0.017778;0.039956;-0.002957;0.040107;-0.017929;-87.076042;0.040182;
1316;522;-0.117505;0.285539;0.999998;0.000340;-0.000495;0.001246;-0.000235;0.001277;-0.000527;-82.435420;0.001284;
1236;1657;-0.103920;86.009073;1.000000;0.000187;-0.000769;0.002002;0.000342;0.002044;-0.000810;83.063518;0.002059;
1161;527;-0.021074;0.290346;0.999999;0.000255;-0.000792;0.001745;-0.000056;0.001746;-0.000793;-88.727083;0.001749;
1176;547;-0.037323;0.327129;0.999998;0.000252;-0.000873;0.001895;-0.000107;0.001899;-0.000878;-87.781850;0.001901;
1071;1862;0.012907;86.340553;1.000000;0.000221;-0.000217;0.001378;-0.000110;0.001386;-0.000225;-86.086206;0.001488;
1096;1082;4.545953;29.554014;0.997116;0.012350;-0.103835;0.323431;0.004708;0.323482;-0.103887;89.368732;0.330309;
1096;517;0.028578;0.274335;1.000000;0.000188;-0.000731;0.001687;0.000071;0.001689;-0.000733;88.328215;0.001694;
1226;847;-1.359430;3.467930;0.999917;0.002797;-0.015321;0.033738;-0.006037;0.034470;-0.016053;-83.086443;0.034497;
1011;407;0.040217;0.111386;1.000000;0.000093;-0.000378;0.001509;0.000158;0.001522;-0.000391;85.252900;0.001581;
1096;1377;0.634740;82.255261;0.999927;0.002271;-0.017698;0.039877;-0.002600;0.039994;-0.017815;-87.419484;0.040073;
1231;662;-0.165895;0.627314;0.999997;0.000440;-0.001855;0.004765;-0.001147;0.004958;-0.002048;-80.447088;0.004983;
1241;1657;-0.107151;86.009875;1.000000;0.000192;-0.000738;0.001968;0.000355;0.002014;-0.000784;82.656440;0.002030;
1226;552;-0.079065;0.336698;0.999999;0.000334;-0.000726;0.001738;-0.000205;0.001755;-0.000743;-85.267351;0.001762;
1166;527;-0.024947;0.289890;0.999999;0.000254;-0.000786;0.001738;-0.000067;0.001739;-0.000787;-88.490088;0.001742;
1076;1862;0.011861;86.340866;1.000000;0.000189;-0.000216;0.001377;-0.000101;0.001383;-0.000223;-86.395580;0.001486;
1181;547;-0.041577;0.327320;0.999999;0.000257;-0.000860;0.001881;-0.000120;0.001887;-0.000865;-87.503950;0.001889;
1086;1067;4.995104;25.875977;0.998374;0.010290;-0.095358;0.276374;0.007113;0.276510;-0.095494;88.904149;0.280884;
1226;852;-1.423820;3.629169;0.999880;0.002779;-0.016057;0.035304;-0.006195;0.036040;-0.016794;-83.218882;0.036068;
1101;517;0.025143;0.273917;1.000000;0.000171;-0.000738;0.001691;0.000065;0.001693;-0.000740;88.474636;0.001697;
1201;1362;-1.387412;81.585076;0.999903;0.003670;-0.020499;0.045927;0.005310;0.046349;-0.020921;85.458004;0.046422;
1176;452;-0.019729;0.170754;1.000000;0.000093;-0.000476;0.001524;-0.000051;0.001526;-0.000477;-88.531359;0.001561;
1046;697;0.243648;0.838053;0.999996;0.000703;-0.002954;0.007295;0.001623;0.007546;-0.003204;81.212630;0.007574;
1166;532;-0.025598;0.299035;0.999999;0.000277;-0.000812;0.001773;-0.000070;0.001775;-0.000814;-88.443569;0.001777;
1081;1862;0.011055;86.340972;1.000000;0.000177;-0.000217;0.001375;-0.000092;0.001380;-0.000222;-86.685097;0.001482;
1186;547;-0.045655;0.326123;0.999999;0.000290;-0.000845;0.001866;-0.000131;0.001872;-0.000851;-87.243651;0.001875;
1086;1072;5.205244;27.196522;0.998318;0.008798;-0.098439;0.290733;0.006797;0.290851;-0.098558;88.999774;0.295843;
1101;522;0.026377;0.282574;1.000000;0.000182;-0.000762;0.001727;0.000067;0.001729;-0.000763;88.459393;0.001733;
1231;847;-1.438183;3.472735;0.999911;0.003346;-0.015363;0.033753;-0.006385;0.034569;-0.016179;-82.713076;0.034593;
1136;1772;-0.001769;86.210262;1.000000;0.000080;-0.000550;0.001554;0.000004;0.001554;-0.000550;89.887445;0.001576;
1191;1367;-1.124681;81.826970;0.999895;0.002575;-0.019471;0.043802;0.004335;0.044098;-0.019766;86.098924;0.044176;
1171;547;-0.032584;0.326453;0.999999;0.000283;-0.000881;0.001905;-0.000095;0.001908;-0.000885;-88.040756;0.001910;
1146;522;-0.008849;0.281722;0.999999;0.000238;-0.000775;0.001736;-0.000024;0.001736;-0.000775;-89.460161;0.001739;
1041;637;0.127162;0.529335;0.999991;0.000697;-0.001309;0.003409;0.000743;0.003523;-0.001423;81.263477;0.003545;
1236;847;-1.516817;3.473468;0.999911;0.002925;-0.015371;0.033735;-0.006739;0.034643;-0.016280;-82.325724;0.034664;
1101;452;0.015968;0.170185;1.000000;0.000140;-0.000476;0.001521;0.000041;0.001522;-0.000477;88.830074;0.001557;
1086;1077;5.427421;28.458053;0.998155;0.009225;-0.101395;0.305590;0.006352;0.305690;-0.101494;89.105987;0.311387;
1086;517;0.036477;0.274631;0.999999;0.000322;-0.000717;0.001679;0.000086;0.001682;-0.000720;87.936790;0.001688;
1281;1687;-0.116667;86.066889;1.000000;0.000172;-0.000467;0.001555;0.000286;0.001595;-0.000507;82.094499;0.001630;
1261;517;-0.086635;0.280549;0.999998;0.000382;-0.000590;0.001577;-0.000180;0.001592;-0.000605;-85.273505;0.001607;
1096;1762;0.021603;86.193091;1.000000;0.000094;-0.000587;0.001581;-0.000045;0.001582;-0.000588;-88.799248;0.001599;
1086;1372;0.845637;82.051178;0.999935;0.002077;-0.018659;0.041908;-0.003452;0.042104;-0.018856;-86.748442;0.042180;
1241;847;-1.595688;3.482338;0.999911;0.002261;-0.015381;0.033627;-0.007100;0.034634;-0.016388;-81.920180;0.034651;
1301;557;-0.124196;0.336786;0.999997;0.000602;-0.000423;0.001494;-0.000284;0.001535;-0.000464;-81.758927;0.001575;
1151;522;-0.012796;0.281735;0.999999;0.000204;-0.000771;0.001733;-0.000034;0.001734;-0.000772;-89.214545;0.001737;
1191;552;-0.051767;0.335682;0.999999;0.000284;-0.000853;0.001896;-0.000150;0.001904;-0.000862;-86.887118;0.001907;
1086;1062;4.793269;24.693595;0.997934;0.013591;-0.092190;0.263104;0.007359;0.263256;-0.092342;88.813948;0.267136;
1146;517;-0.008600;0.273462;0.999999;0.000226;-0.000750;0.001697;-0.000024;0.001697;-0.000750;-89.448479;0.001701;
1041;1887;0.010191;86.374148;1.000000;0.000235;-0.000126;0.001363;-0.000174;0.001383;-0.000146;-83.429434;0.001520;
1246;432;-0.045895;0.146791;1.000000;0.000112;-0.000442;0.001515;-0.000127;0.001523;-0.000450;-86.310430;0.001565;
1301;562;-0.125954;0.343713;0.999997;0.000484;-0.000422;0.001526;-0.000298;0.001570;-0.000467;-81.485196;0.001613;
1266;517;-0.089966;0.280818;0.999998;0.000361;-0.000582;0.001562;-0.000188;0.001579;-0.000598;-85.019435;0.001594;
1091;1372;0.753218;82.053506;0.999932;0.002242;-0.018593;0.041830;-0.003066;0.041985;-0.018748;-87.102239;0.042065;
1191;557;-0.052993;0.346248;0.999999;0.000323;-0.000877;0.001949;-0.000158;0.001958;-0.000886;-86.800987;0.001961;
1156;522;-0.016717;0.281819;0.999999;0.000192;-0.000769;0.001730;-0.000043;0.001731;-0.000770;-89.011427;0.001734;
1101;1772;0.017506;86.209411;1.000000;0.000084;-0.000551;0.001560;-0.000040;0.001561;-0.000552;-88.910255;0.001583;
1091;1062;4.277682;24.536366;0.997662;0.012655;-0.091635;0.262921;0.006679;0.263047;-0.091761;88.921249;0.267024;
1096;857;0.616983;3.802756;0.999910;0.002445;-0.016197;0.036445;0.002594;0.036573;-0.016325;87.185826;0.036643;
1041;1892;0.008481;86.380954;1.000000;0.000209;-0.000103;0.001355;-0.000176;0.001376;-0.000124;-83.231232;0.001523;
1151;517;-0.012629;0.273164;0.999999;0.000231;-0.000746;0.001694;-0.000033;0.001695;-0.000747;-89.222817;0.001699;
991;397;0.042556;0.099741;1.000000;0.000105;-0.000379;0.001527;0.000164;0.001541;-0.000392;85.125199;0.001602;
1096;1372;0.660757;82.056816;0.999925;0.002536;-0.018501;0.041755;-0.002701;0.041876;-0.018622;-87.438574;0.041961;
1161;522;-0.020428;0.281761;0.999999;0.000242;-0.000766;0.001724;-0.000053;0.001725;-0.000767;-88.783376;0.001729;
1226;672;-0.176351;0.675078;0.999996;0.000462;-0.002119;0.005365;-0.001245;0.005567;-0.002320;-80.798173;0.005592;
1016;527;0.086984;0.297606;0.999999;0.000283;-0.000622;0.001618;0.000184;0.001633;-0.000637;85.326174;0.001646;
1096;1062;3.798566;24.445164;0.997571;0.012347;-0.091188;0.262751;0.006066;0.262855;-0.091292;89.018361;0.266909;
1021;512;0.078032;0.272256;0.999999;0.000294;-0.000617;0.001611;0.000157;0.001622;-0.000628;85.998920;0.001636;
1156;517;-0.016022;0.273469;0.999999;0.000225;-0.000744;0.001691;-0.000041;0.001692;-0.000745;-89.035588;0.001696;
1026;657;0.179891;0.603557;0.999997;0.000433;-0.001755;0.004580;0.001223;0.004808;-0.001983;79.445231;0.004833;
1091;1737;0.028968;86.153809;1.000000;0.000098;-0.000681;0.001632;-0.000062;0.001633;-0.000683;-88.465322;0.001640;
966;1747;0.100776;86.158807;1.000000;0.000193;-0.000550;0.001406;-0.000169;0.001420;-0.000564;-85.104937;0.001430;
1136;867;-0.028790;4.165255;0.999932;0.002596;-0.017384;0.039652;-0.000184;0.039652;-0.017384;-89.815070;0.039752;
1176;1552;-0.108935;85.611259;0.999997;0.000472;-0.002603;0.006499;0.000693;0.006552;-0.002655;85.671243;0.006591;
1161;467;-0.013954;0.193197;1.000000;0.000125;-0.000532;0.001556;-0.000030;0.001557;-0.000532;-89.174479;0.001582;
1131;1077;0.624872;27.913749;0.997303;0.017694;-0.101724;0.317139;0.000770;0.317140;-0.101726;89.894624;0.323862;
1206;442;-0.031156;0.157558;1.000000;0.000116;-0.000449;0.001517;-0.000089;0.001522;-0.000453;-87.399991;0.001562;
1081;1372;0.942234;82.052335;0.999924;0.002785;-0.018739;0.041990;-0.003862;0.042235;-0.018984;-86.375398;0.042306;
1121;1177;1.047463;61.153948;0.997556;0.016526;-0.096581;0.288979;-0.001800;0.288987;-0.096589;-89.732588;0.294233;
1036;642;0.138655;0.543448;0.999996;0.000649;-0.001387;0.003666;0.000861;0.003809;-0.001530;80.593312;0.003833;
1096;557;0.037254;0.347615;0.999998;0.000294;-0.000925;0.002018;0.000109;0.002022;-0.000929;87.872931;0.002024;
1116;1777;0.009015;86.217558;1.000000;0.000080;-0.000531;0.001549;-0.000019;0.001550;-0.000532;-89.467514;0.001575;
1006;527;0.092296;0.296638;0.999999;0.000352;-0.000596;0.001587;0.000192;0.001604;-0.000613;85.021109;0.001619;
1141;867;-0.117872;4.165720;0.999917;0.002399;-0.017385;0.039672;-0.000514;0.039677;-0.017390;-89.483517;0.039777;
966;1752;0.098821;86.166184;1.000000;0.000176;-0.000523;0.001391;-0.000151;0.001403;-0.000535;-85.513738;0.001416;
1181;1552;-0.120943;85.610017;0.999998;0.000458;-0.002621;0.006537;0.000777;0.006603;-0.002686;85.184082;0.006641;
951;382;0.049524;0.091904;1.000000;0.000105;-0.000524;0.001610;0.000133;0.001618;-0.000532;86.443704;0.001649;
1061;432;0.029797;0.142620;1.000000;0.000100;-0.000422;0.001507;0.000096;0.001512;-0.000427;87.157857;0.001559;
1131;1082;0.635733;29.352530;0.996973;0.015880;-0.105197;0.336004;0.000820;0.336006;-0.105199;89.893517;0.343743;
1206;1362;-1.483094;81.581660;0.999912;0.003454;-0.020575;0.046036;0.005751;0.046529;-0.021068;85.101475;0.046598;
1006;627;0.153837;0.482520;0.999996;0.000494;-0.001035;0.003008;0.000895;0.003197;-0.001225;78.062527;0.003226;
1121;1182;1.005566;62.322328;0.997150;0.017726;-0.092684;0.270540;-0.001767;0.270549;-0.092692;-89.721212;0.274981;
1176;552;-0.038571;0.335812;0.999998;0.000291;-0.000899;0.001951;-0.000115;0.001956;-0.000904;-87.697728;0.001958;
1021;517;0.080305;0.280546;0.999999;0.000273;-0.000623;0.001621;0.000163;0.001633;-0.000635;85.866152;0.001646;
1121;1777;0.006433;86.217896;1.000000;0.000094;-0.000531;0.001548;-0.000013;0.001548;-0.000531;-89.634494;0.001573;
956;382;0.047236;0.089320;1.000000;0.000106;-0.000491;0.001606;0.000147;0.001616;-0.000501;86.009281;0.001654;
1136;872;-0.027149;4.365999;0.999907;0.002592;-0.018142;0.041339;-0.000165;0.041340;-0.018143;-89.841100;0.041442;
1086;1867;0.008748;86.348492;1.000000;0.000157;-0.000195;0.001363;-0.000084;0.001368;-0.000199;-86.906669;0.001478;
1056;422;0.028895;0.128606;1.000000;0.000100;-0.000387;0.001491;0.000109;0.001497;-0.000394;86.678296;0.001553;
1131;1087;0.654395;30.835200;0.995901;0.015173;-0.108422;0.354882;0.000706;0.354884;-0.108423;89.912650;0.363722;
1211;1362;-1.589820;81.578734;0.999913;0.003330;-0.020625;0.046025;0.006212;0.046599;-0.021199;84.720714;0.046662;
1071;1547;0.166140;85.576631;0.999997;0.000496;-0.002839;0.007039;-0.001143;0.007169;-0.002970;-83.485949;0.007204;
1031;632;0.133539;0.509525;0.999995;0.000692;-0.001194;0.003220;0.000776;0.003353;-0.001326;80.311957;0.003377;
1181;552;-0.042936;0.335636;0.999999;0.000297;-0.000885;0.001935;-0.000127;0.001941;-0.000891;-87.419208;0.001943;
961;382;0.044989;0.086340;1.000000;0.000131;-0.000466;0.001597;0.000155;0.001609;-0.000478;85.740585;0.001652;
1126;1777;0.003681;86.217876;1.000000;0.000078;-0.000531;0.001548;-0.000007;0.001548;-0.000531;-89.796723;0.001573;
1091;1187;3.759386;63.064159;0.998495;0.009577;-0.091411;0.260477;-0.006463;0.260596;-0.091530;-88.948090;0.264413;
1001;502;0.086099;0.259141;0.999999;0.000271;-0.000572;0.001555;0.000164;0.001567;-0.000585;85.620470;0.001584;
946;372;0.045849;0.079009;0.999996;0.000662;-0.000519;0.001732;0.000153;0.001742;-0.000529;86.133211;0.001786;
1196;872;-1.132949;4.373051;0.999932;0.002123;-0.018701;0.041908;-0.004557;0.042249;-0.019042;-85.724594;0.042317;
1086;1872;0.007809;86.355379;1.000000;0.000142;-0.000175;0.001352;-0.000086;0.001356;-0.000180;-86.798756;0.001473;
1101;1072;3.637815;26.894502;0.997700;0.013278;-0.097425;0.293079;0.004755;0.293137;-0.097483;89.302439;0.298566;
1306;557;-0.125606;0.334019;0.999997;0.000557;-0.000410;0.001494;-0.000268;0.001531;-0.000447;-82.125979;0.001574;
1186;1367;-1.027056;81.828524;0.999882;0.002854;-0.019383;0.043716;0.003940;0.043961;-0.019628;86.440915;0.044045;
1091;1537;0.124755;85.508319;0.999997;0.000404;-0.003168;0.007810;-0.000866;0.007878;-0.003236;-85.515594;0.007920;
1186;552;-0.047253;0.334663;0.999999;0.000276;-0.000869;0.001916;-0.000139;0.001923;-0.000876;-87.159222;0.001926;
951;372;0.042556;0.075921;1.000000;0.000102;-0.000474;0.001696;0.000175;0.001710;-0.000488;85.422516;0.001762;
1111;1777;0.011666;86.217442;1.000000;0.000067;-0.000532;0.001551;-0.000026;0.001551;-0.000532;-89.275737;0.001576;
1021;522;0.082331;0.288746;0.999998;0.000310;-0.000629;0.001626;0.000171;0.001639;-0.000642;85.690034;0.001651;
1076;1182;5.486224;61.693980;0.997731;0.010994;-0.096557;0.277269;-0.008896;0.277480;-0.096769;-88.637613;0.281681;
1101;457;0.016629;0.177996;1.000000;0.000143;-0.000494;0.001531;0.000039;0.001532;-0.000495;88.889274;0.001564;
1201;872;-1.221415;4.378151;0.999930;0.002553;-0.018780;0.041985;-0.004945;0.042385;-0.019179;-85.378237;0.042449;
1306;562;-0.128244;0.341488;0.999996;0.000466;-0.000407;0.001534;-0.000280;0.001574;-0.000447;-81.962564;0.001622;
1101;1077;3.819149;28.160675;0.997458;0.013535;-0.100603;0.308884;0.004359;0.308930;-0.100649;89.390219;0.315118;
1216;1362;-1.686709;81.570904;0.999915;0.003420;-0.020685;0.046005;0.006597;0.046651;-0.021331;84.404228;0.046708;
956;372;0.039853;0.073036;1.000000;0.000091;-0.000442;0.001667;0.000189;0.001684;-0.000459;84.928620;0.001741;
996;1587;0.225719;85.821623;0.999996;0.000628;-0.001720;0.004594;-0.001588;0.004970;-0.002097;-76.651270;0.004991;
1011;527;0.090240;0.296965;0.999999;0.000289;-0.000608;0.001603;0.000189;0.001619;-0.000624;85.147179;0.001633;
1141;1762;-0.004919;86.194584;1.000000;0.000076;-0.000589;0.001576;0.000010;0.001576;-0.000589;89.730251;0.001593;
1086;1082;5.646181;29.785083;0.997875;0.012756;-0.104333;0.320475;0.005924;0.320557;-0.104415;89.201227;0.326983;
1086;1187;4.236599;63.002303;0.998113;0.011844;-0.091829;0.261442;-0.007291;0.261593;-0.091979;-88.818141;0.265405;
1191;547;-0.049859;0.327087;0.999999;0.000284;-0.000830;0.001849;-0.000142;0.001856;-0.000837;-86.977242;0.001859;
1206;872;-1.312511;4.377451;0.999918;0.002925;-0.018887;0.042064;-0.005357;0.042531;-0.019355;-85.015190;0.042588;
1031;637;0.139510;0.525923;0.999995;0.000608;-0.001286;0.003445;0.000843;0.003591;-0.001431;80.194418;0.003615;
1221;1362;-1.790380;81.572252;0.999910;0.003108;-0.020731;0.046015;0.007022;0.046746;-0.021461;84.059253;0.046798;
1116;1107;2.551211;37.441200;0.996767;0.021396;-0.117406;0.410028;0.000710;0.410029;-0.117407;89.922891;0.422323;
1161;517;-0.019779;0.273480;0.999999;0.000238;-0.000741;0.001688;-0.000050;0.001689;-0.000742;-88.829929;0.001693;
1051;422;0.031015;0.129046;1.000000;0.000101;-0.000389;0.001495;0.000116;0.001502;-0.000396;86.494354;0.001557;
1141;1767;-0.004747;86.202496;1.000000;0.000072;-0.000569;0.001564;0.000009;0.001564;-0.000569;89.750307;0.001584;
1081;1187;4.753092;62.948200;0.997894;0.010698;-0.092374;0.262358;-0.008097;0.262543;-0.092558;-88.693034;0.266321;
1181;1547;-0.129585;85.577783;0.999997;0.000478;-0.002802;0.006985;0.000825;0.007054;-0.002871;85.212661;0.007095;
1001;527;0.095844;0.296601;0.999999;0.000392;-0.000584;0.001572;0.000197;0.001590;-0.000602;84.819388;0.001605;
1066;562;0.066122;0.356435;0.999999;0.000320;-0.000850;0.001951;0.000193;0.001965;-0.000863;86.075179;0.001970;
1031;1367;1.986377;81.813916;0.999727;0.003685;-0.020121;0.043975;-0.008290;0.045030;-0.021176;-82.748887;0.045057;
1131;1057;0.408414;22.902478;0.998242;0.011167;-0.086655;0.247693;0.000721;0.247694;-0.086656;89.876397;0.251389;
1181;857;-0.750363;3.798446;0.999917;0.002379;-0.016221;0.036518;-0.003169;0.036708;-0.016411;-86.573489;0.036777;
1106;1067;2.991494;25.523827;0.997343;0.015850;-0.093993;0.278147;0.004390;0.278199;-0.094045;89.324205;0.283022;
1226;677;-0.189454;0.703147;0.999996;0.000446;-0.002271;0.005732;-0.001333;0.005948;-0.002487;-80.786687;0.005975;
1051;427;0.032433;0.136492;1.000000;0.000104;-0.000408;0.001504;0.000112;0.001511;-0.000414;86.666291;0.001561;
1166;517;-0.023341;0.273766;0.999999;0.000284;-0.000735;0.001683;-0.000059;0.001685;-0.000736;-88.605490;0.001689;
1141;1772;-0.004452;86.210113;1.000000;0.000086;-0.000550;0.001555;0.000009;0.001555;-0.000550;89.742533;0.001577;
1086;1192;4.056900;64.087039;0.998430;0.010702;-0.088271;0.246123;-0.007020;0.246270;-0.088419;-88.797801;0.249512;
1176;1547;-0.116585;85.579151;0.999997;0.000526;-0.002785;0.006946;0.000737;0.007001;-0.002840;85.695046;0.007043;
1136;1057;-0.040993;22.906547;0.998309;0.012019;-0.086776;0.247739;-0.000071;0.247739;-0.086776;-89.987913;0.251414;
991;497;0.089311;0.251418;0.999999;0.000233;-0.000544;0.001518;0.000164;0.001531;-0.000557;85.479980;0.001550;
1191;862;-0.952178;3.988186;0.999926;0.002300;-0.017081;0.038331;-0.003991;0.038617;-0.017366;-85.901893;0.038682;
1101;1372;0.567569;82.061450;0.999904;0.002492;-0.018397;0.041689;-0.002323;0.041779;-0.018486;-87.789044;0.041871;
1236;547;-0.083962;0.329132;0.999998;0.000459;-0.000675;0.001685;-0.000213;0.001704;-0.000694;-84.889528;0.001714;
1146;1067;-0.924579;25.134259;0.997885;0.014951;-0.095022;0.283499;-0.001409;0.283505;-0.095028;-89.786787;0.288593;
1226;682;-0.202857;0.734952;0.999997;0.000457;-0.002434;0.006108;-0.001422;0.006339;-0.002665;-80.792406;0.006365;
1056;427;0.030153;0.136037;1.000000;0.000106;-0.000406;0.001501;0.000106;0.001507;-0.000412;86.838675;0.001558;
1081;517;0.040456;0.275703;0.999999;0.000260;-0.000711;0.001675;0.000093;0.001678;-0.000714;87.778101;0.001684;
1131;1777;0.001041;86.217948;1.000000;0.000075;-0.000531;0.001547;-0.000002;0.001547;-0.000531;-89.943823;0.001572;
1091;1192;3.572024;64.147509;0.998587;0.009001;-0.087786;0.244915;-0.006127;0.245028;-0.087899;-88.945344;0.248267;
1141;1057;-0.481497;22.915039;0.998234;0.011224;-0.086971;0.247884;-0.000974;0.247887;-0.086974;-89.833389;0.251536;
1191;867;-0.993808;4.178763;0.999919;0.002460;-0.017847;0.040082;-0.004075;0.040368;-0.018132;-85.995412;0.040437;
1226;1587;-0.153631;85.800427;0.999996;0.000451;-0.001735;0.004478;0.001018;0.004641;-0.001897;80.928162;0.004666;
996;497;0.086506;0.251124;0.999999;0.000253;-0.000555;0.001535;0.000161;0.001547;-0.000567;85.625452;0.001566;
1081;1367;0.981032;81.848279;0.999912;0.002670;-0.019565;0.043939;-0.004002;0.044191;-0.019817;-86.408296;0.044269;
1151;1067;-1.435182;25.159731;0.997502;0.016470;-0.095443;0.284345;-0.002098;0.284357;-0.095454;-89.683444;0.289430;
1226;687;-0.216983;0.765792;0.999996;0.000588;-0.002605;0.006497;-0.001506;0.006740;-0.002848;-80.845405;0.006766;
1286;397;-0.046040;0.101860;1.000000;0.000115;-0.000398;0.001531;-0.000150;0.001543;-0.000409;-85.586487;0.001598;
1081;522;0.041614;0.283776;0.999999;0.000247;-0.000732;0.001703;0.000099;0.001707;-0.000736;87.666340;0.001712;
1096;1192;3.112438;64.251633;0.998413;0.010678;-0.087123;0.243748;-0.005344;0.243834;-0.087210;-89.074915;0.247106;
1031;657;0.172806;0.606257;0.999997;0.000438;-0.001737;0.004540;0.001157;0.004747;-0.001943;79.881881;0.004773;
1166;522;-0.024114;0.281903;0.999999;0.000265;-0.000760;0.001718;-0.000063;0.001719;-0.000761;-88.545418;0.001723;
1091;1742;0.027999;86.161142;1.000000;0.000109;-0.000661;0.001619;-0.000059;0.001620;-0.000663;-88.530966;0.001629;
1191;872;-1.037923;4.369300;0.999922;0.002312;-0.018645;0.041824;-0.004180;0.042112;-0.018933;-86.063959;0.042183;
1311;557;-0.131142;0.333399;0.999980;0.001577;-0.000391;0.001515;-0.000240;0.001545;-0.000420;-82.936258;0.001597;
1251;1587;-0.197427;85.805827;0.999996;0.000521;-0.001781;0.004637;0.001337;0.004904;-0.002048;78.686010;0.004926;
1046;542;0.073116;0.320448;0.999999;0.000284;-0.000712;0.001720;0.000182;0.001734;-0.000725;85.754746;0.001742;
1086;1367;0.881232;81.848889;0.999925;0.001894;-0.019500;0.043861;-0.003577;0.044062;-0.019701;-86.778832;0.044144;
1081;1062;5.255439;24.765770;0.997998;0.011591;-0.092680;0.263285;0.008123;0.263471;-0.092865;88.693473;0.267266;
1101;1192;2.647696;64.367695;0.998534;0.010906;-0.086544;0.242610;-0.004573;0.242674;-0.086608;-89.204099;0.245965;
1096;512;0.027587;0.265654;1.000000;0.000179;-0.000709;0.001660;0.000064;0.001662;-0.000711;88.443669;0.001668;
1086;522;0.037698;0.283169;0.999999;0.000226;-0.000739;0.001709;0.000092;0.001713;-0.000742;87.841850;0.001718;
1091;1747;0.027122;86.169263;1.000000;0.000112;-0.000642;0.001609;-0.000056;0.001611;-0.000643;-88.586587;0.001622;
1216;437;-0.034709;0.150919;1.000000;0.000108;-0.000440;0.001514;-0.000103;0.001519;-0.000445;-86.999306;0.001562;
1191;877;-1.087757;4.577442;0.999920;0.002278;-0.019479;0.043599;-0.004314;0.043893;-0.019773;-86.105373;0.043965;
1036;677;0.210339;0.708200;0.999996;0.000511;-0.002290;0.005814;0.001433;0.006060;-0.002536;80.263182;0.006086;
1046;547;0.075727;0.329592;0.999999;0.000289;-0.000722;0.001738;0.000191;0.001753;-0.000737;85.592680;0.001760;
1091;1367;0.784753;81.852368;0.999923;0.002453;-0.019434;0.043782;-0.003185;0.043942;-0.019594;-87.123355;0.044028;
1266;632;-0.160860;0.493403;0.999996;0.000586;-0.001111;0.003212;-0.000960;0.003416;-0.001315;-78.025417;0.003446;
1081;1067;5.477232;25.937197;0.998516;0.009754;-0.095795;0.276052;0.007860;0.276218;-0.095961;88.789671;0.280473;
1171;1522;-0.142993;85.377197;0.999996;0.000496;-0.003877;0.009583;0.000861;0.009638;-0.003932;86.356933;0.009692;
1106;1192;2.194985;64.455385;0.998401;0.010211;-0.085918;0.241319;-0.003731;0.241361;-0.085961;-89.346801;0.244668;
1101;512;0.024184;0.265204;0.999999;0.000164;-0.000716;0.001664;0.000060;0.001665;-0.000717;88.558718;0.001670;
1086;527;0.038736;0.291154;0.999999;0.000227;-0.000761;0.001734;0.000098;0.001738;-0.000765;87.749779;0.001742;
1151;1752;-0.011465;86.178411;1.000000;0.000061;-0.000632;0.001602;0.000022;0.001602;-0.000633;89.423405;0.001614;
1196;877;-1.182245;4.573916;0.999916;0.002256;-0.019539;0.043697;-0.004704;0.044045;-0.019887;-85.769290;0.044114;
1036;682;0.223694;0.737284;0.999996;0.000605;-0.002458;0.006173;0.001518;0.006432;-0.002717;80.310492;0.006458;
1046;552;0.077327;0.336529;0.999998;0.000320;-0.000734;0.001773;0.000201;0.001789;-0.000750;85.452662;0.001797;
996;397;0.040739;0.098403;1.000000;0.000089;-0.000370;0.001519;0.000167;0.001533;-0.000385;84.999831;0.001595;
1266;637;-0.169249;0.512380;0.999996;0.000474;-0.001204;0.003459;-0.001057;0.003688;-0.001433;-77.804759;0.003718;
1096;1367;0.686565;81.861774;0.999920;0.002774;-0.019337;0.043708;-0.002808;0.043833;-0.019462;-87.455122;0.043924;
1081;1072;5.718986;27.261268;0.998526;0.009031;-0.098834;0.289949;0.007560;0.290096;-0.098981;88.886422;0.294932;
1021;1587;0.180261;85.811996;0.999996;0.000463;-0.001728;0.004577;-0.001281;0.004828;-0.001979;-78.941165;0.004854;
1111;1192;1.761952;64.505214;0.998120;0.014112;-0.085507;0.239937;-0.002824;0.239962;-0.085531;-89.502924;0.243236;
1106;512;0.020988;0.264827;1.000000;0.000215;-0.000722;0.001665;0.000053;0.001667;-0.000723;88.730071;0.001671;
1086;532;0.040103;0.299849;0.999999;0.000262;-0.000784;0.001770;0.000104;0.001775;-0.000788;87.662015;0.001778;
1156;1752;-0.014440;86.178253;1.000000;0.000066;-0.000631;0.001602;0.000030;0.001603;-0.000631;89.239729;0.001615;
1201;877;-1.277407;4.578219;0.999920;0.002434;-0.019625;0.043792;-0.005100;0.044199;-0.020032;-85.431229;0.044264;
1266;642;-0.179834;0.531756;0.999996;0.000473;-0.001320;0.003725;-0.001166;0.003982;-0.001576;-77.591731;0.004011;
1036;687;0.238021;0.767542;0.999996;0.000566;-0.002631;0.006548;0.001612;0.006823;-0.002906;80.323154;0.006848;
1081;1077;5.940943;28.551230;0.998616;0.009370;-0.101755;0.304471;0.007084;0.304594;-0.101878;89.001228;0.310108;
1101;1377;0.544951;82.250278;0.999919;0.002681;-0.017601;0.039805;-0.002236;0.039892;-0.017688;-87.773202;0.039977;
1296;522;-0.108908;0.288290;0.999998;0.000361;-0.000515;0.001417;-0.000229;0.001444;-0.000542;-83.344224;0.001459;
1181;447;-0.021357;0.163486;1.000000;0.000111;-0.000460;0.001518;-0.000059;0.001520;-0.000461;-88.293006;0.001558;
1116;1192;1.291876;64.532053;0.997990;0.015475;-0.085137;0.238603;-0.001975;0.238615;-0.085149;-89.650470;0.241853;
1106;517;0.021846;0.273404;0.999999;0.000254;-0.000747;0.001695;0.000057;0.001696;-0.000748;88.668319;0.001700;
1161;1517;-0.112979;85.329597;0.999995;0.000687;-0.004116;0.010162;0.000654;0.010192;-0.004145;87.383889;0.010251;
1091;522;0.033624;0.282394;1.000000;0.000218;-0.000745;0.001716;0.000083;0.001718;-0.000748;88.077227;0.001723;
966;567;0.131362;0.352182;0.999997;0.000603;-0.000386;0.001467;0.000342;0.001528;-0.000448;79.860808;0.001571;
1161;1752;-0.017554;86.178159;1.000000;0.000067;-0.000628;0.001603;0.000037;0.001604;-0.000629;89.050113;0.001616;
1231;1367;-1.920774;81.793331;0.999903;0.002324;-0.019983;0.043836;0.007653;0.044741;-0.020888;83.256432;0.044773;
1141;872;-0.120040;4.363208;0.999882;0.002818;-0.018149;0.041351;-0.000509;0.041356;-0.018154;-89.510035;0.041458;
1176;557;-0.039262;0.346152;0.999998;0.000369;-0.000926;0.002009;-0.000121;0.002014;-0.000931;-87.651285;0.002016;
1131;1052;0.377387;21.823965;0.998429;0.011887;-0.082854;0.231968;0.000562;0.231969;-0.082855;89.897787;0.235102;
1306;492;-0.101325;0.246882;0.999999;0.000354;-0.000521;0.001362;-0.000145;0.001373;-0.000532;-85.620376;0.001384;
1136;1062;-0.006329;24.006159;0.997989;0.013648;-0.090611;0.264564;0.000060;0.264564;-0.090611;89.990347;0.268904;
1161;1857;-0.006416;86.335234;1.000000;0.000192;-0.000224;0.001379;0.000048;0.001381;-0.000225;88.292752;0.001482;
1021;417;0.040590;0.124402;1.000000;0.000135;-0.000397;0.001511;0.000145;0.001522;-0.000408;85.687132;0.001576;
1146;1057;-0.914035;22.875806;0.998777;0.008822;-0.087094;0.248201;-0.001854;0.248211;-0.087104;-89.683260;0.251862;
1236;1372;-1.939017;81.985940;0.999900;0.002283;-0.019205;0.042016;0.007737;0.042979;-0.020168;82.908051;0.043006;
1216;1577;-0.153599;85.754083;0.999996;0.000443;-0.001973;0.004962;0.001014;0.005107;-0.002118;81.849610;0.005132;
1096;522;0.029666;0.281993;1.000000;0.000203;-0.000753;0.001721;0.000074;0.001723;-0.000756;88.277999;0.001727;
1206;877;-1.375399;4.579475;0.999906;0.002943;-0.019734;0.043896;-0.005521;0.044371;-0.020210;-85.077599;0.044430;
1166;1742;-0.022336;86.161449;1.000000;0.000078;-0.000670;0.001631;0.000049;0.001632;-0.000671;88.771019;0.001641;
1181;557;-0.043935;0.346287;0.999999;0.000295;-0.000910;0.001992;-0.000134;0.001998;-0.000917;-87.354161;0.002000;
1076;1072;6.236973;27.332486;0.998406;0.010223;-0.099295;0.289246;0.008193;0.289419;-0.099467;88.792488;0.294096;
1316;507;-0.111165;0.267600;0.999998;0.000405;-0.000511;0.001272;-0.000169;0.001288;-0.000527;-84.624062;0.001295;
1141;1062;-0.453329;23.982696;0.997981;0.013419;-0.090871;0.264963;-0.000808;0.264965;-0.090873;-89.869856;0.269286;
1146;1062;-0.893967;23.913789;0.998503;0.011707;-0.091041;0.265526;-0.001655;0.265533;-0.091049;-89.734053;0.269867;
1031;1672;0.094023;86.039009;1.000000;0.000120;-0.000703;0.001811;-0.000275;0.001841;-0.000733;-83.835603;0.001854;
1281;1597;-0.220559;85.858945;0.999994;0.000635;-0.001453;0.004047;0.001464;0.004412;-0.001818;75.981918;0.004435;
1076;457;0.028930;0.179578;1.000000;0.000106;-0.000502;0.001544;0.000069;0.001546;-0.000505;88.064123;0.001577;
1081;527;0.042674;0.292110;0.999999;0.000222;-0.000752;0.001726;0.000106;0.001730;-0.000756;87.547265;0.001735;
1166;1747;-0.021585;86.169676;1.000000;0.000084;-0.000647;0.001616;0.000046;0.001617;-0.000648;88.839768;0.001628;
1186;557;-0.048572;0.345698;0.999999;0.000282;-0.000893;0.001971;-0.000146;0.001979;-0.000901;-87.087944;0.001982;
1076;1077;6.517264;28.659477;0.998351;0.010544;-0.102158;0.303292;0.007669;0.303437;-0.102303;88.916771;0.308756;
1176;1392;-0.677866;82.784036;0.999923;0.002117;-0.015446;0.034955;0.002619;0.035091;-0.015582;87.033403;0.035164;
1091;862;0.732579;3.997785;0.999905;0.002186;-0.016987;0.038195;0.003029;0.038361;-0.017153;86.867811;0.038432;
1141;1067;-0.429663;25.141401;0.997846;0.011815;-0.094791;0.282768;-0.000628;0.282769;-0.094792;-89.904729;0.287842;
1141;1052;-0.473327;21.840986;0.998153;0.010197;-0.083118;0.231517;-0.001062;0.231521;-0.083121;-89.806675;0.234568;
976;487;0.093417;0.239225;0.999999;0.000319;-0.000493;0.001446;0.000136;0.001455;-0.000503;85.993392;0.001478;
1036;1672;0.090741;86.038597;1.000000;0.000176;-0.000730;0.001845;-0.000268;0.001872;-0.000758;-84.125549;0.001884;
1166;1752;-0.020877;86.177868;1.000000;0.000085;-0.000627;0.001604;0.000043;0.001605;-0.000628;88.885346;0.001617;
1081;457;0.026526;0.179159;1.000000;0.000130;-0.000501;0.001542;0.000063;0.001544;-0.000503;88.238045;0.001574;
1076;512;0.042310;0.267746;0.999999;0.000260;-0.000689;0.001650;0.000092;0.001653;-0.000692;87.755763;0.001661;
1076;1082;6.744789;29.971418;0.997841;0.013004;-0.104964;0.317221;0.007150;0.317342;-0.105085;89.030018;0.323318;
1071;1542;0.176709;85.543726;0.999997;0.000484;-0.003024;0.007459;-0.001205;0.007595;-0.003161;-83.526263;0.007631;
991;507;0.093630;0.267165;0.999999;0.000301;-0.000556;0.001522;0.000179;0.001538;-0.000571;85.118411;0.001555;
1136;877;-0.028965;4.571022;0.999930;0.002538;-0.018922;0.043045;-0.000161;0.043046;-0.018922;-89.850685;0.043150;
1071;1372;1.132692;82.044256;0.999921;0.002546;-0.018895;0.042163;-0.004693;0.042521;-0.019253;-85.630721;0.042584;
1146;1052;-0.896130;21.854714;0.998438;0.009073;-0.083236;0.231514;-0.001894;0.231526;-0.083247;-89.655279;0.234550;
1206;562;-0.067092;0.353989;0.999998;0.000411;-0.000837;0.001922;-0.000198;0.001936;-0.000851;-85.909903;0.001941;
1031;1667;0.096175;86.030230;1.000000;0.000146;-0.000717;0.001850;-0.000294;0.001884;-0.000750;-83.544082;0.001897;
1086;457;0.023894;0.178875;1.000000;0.000126;-0.000501;0.001539;0.000057;0.001541;-0.000502;88.408407;0.001571;
1101;507;0.023594;0.257602;1.000000;0.000160;-0.000692;0.001643;0.000055;0.001644;-0.000694;88.652251;0.001651;
1081;1082;6.173242;29.844351;0.997630;0.016395;-0.104639;0.318925;0.006607;0.319028;-0.104742;89.106514;0.325237;
991;512;0.095657;0.274711;0.999999;0.000316;-0.000560;0.001528;0.000186;0.001544;-0.000577;84.939305;0.001561;
1081;1192;4.528809;63.995951;0.998326;0.009505;-0.088863;0.247258;-0.007893;0.247443;-0.089048;-88.655558;0.250662;
1136;882;-0.031988;4.778978;0.999919;0.002327;-0.019726;0.044895;-0.000164;0.044895;-0.019726;-89.854360;0.045005;
1206;1557;-0.172968;85.643512;0.999996;0.000580;-0.002565;0.006353;0.001149;0.006499;-0.002711;82.774068;0.006528;
1151;1052;-1.317312;21.842249;0.998092;0.009871;-0.083503;0.231706;-0.002637;0.231728;-0.083525;-89.520735;0.234717;
1101;1367;0.590070;81.866152;0.999887;0.002962;-0.019227;0.043643;-0.002418;0.043736;-0.019320;-87.800722;0.043835;
996;507;0.090890;0.265836;0.999999;0.000271;-0.000568;0.001543;0.000173;0.001557;-0.000582;85.333099;0.001573;
1036;1667;0.093044;86.029668;1.000000;0.000161;-0.000746;0.001887;-0.000286;0.001918;-0.000777;-83.862660;0.001929;
1141;722;-0.020662;1.027768;0.999996;0.000510;-0.003838;0.009492;-0.000150;0.009494;-0.003840;-89.354822;0.009552;
1106;507;0.020388;0.256624;1.000000;0.000195;-0.000697;0.001644;0.000049;0.001645;-0.000698;88.804465;0.001652;
1076;1067;5.993743;26.032158;0.998264;0.010592;-0.096314;0.275874;0.008528;0.276069;-0.096509;88.688014;0.280202;
1076;437;0.024427;0.149080;1.000000;0.000105;-0.000430;0.001506;0.000076;0.001509;-0.000433;87.759875;0.001554;
991;517;0.099213;0.283181;0.999999;0.000394;-0.000561;0.001540;0.000195;0.001558;-0.000579;84.737257;0.001575;
1151;1057;-1.352184;22.839384;0.998454;0.008360;-0.087377;0.248687;-0.002641;0.248708;-0.087398;-89.549789;0.252342;
1116;887;0.383253;5.020625;0.999911;0.002541;-0.020671;0.046927;0.001389;0.046955;-0.020699;88.823688;0.047065;
1121;1187;0.937557;63.454518;0.997443;0.016436;-0.088788;0.253241;-0.001457;0.253247;-0.088794;-89.755992;0.256987;
1076;1367;1.081708;81.846851;0.999915;0.002669;-0.019629;0.044011;-0.004433;0.044319;-0.019936;-86.034625;0.044393;
996;512;0.093158;0.273760;0.999999;0.000346;-0.000572;0.001548;0.000179;0.001563;-0.000587;85.198067;0.001579;
1036;1577;0.178383;85.761083;0.999996;0.000571;-0.001972;0.005098;-0.001251;0.005313;-0.002187;-80.256353;0.005340;
1111;507;0.016779;0.256301;1.000000;0.000224;-0.000700;0.001646;0.000041;0.001647;-0.000701;88.988275;0.001653;
1076;1062;5.746165;24.846537;0.997887;0.011254;-0.093278;0.263601;0.008810;0.263818;-0.093496;88.586682;0.267521;
1081;437;0.022323;0.148746;1.000000;0.000108;-0.000427;0.001503;0.000070;0.001506;-0.000430;87.933247;0.001551;
1046;1817;0.034025;86.274991;1.000000;0.000151;-0.000410;0.001502;-0.000117;0.001510;-0.000417;-86.505064;0.001559;
991;522;0.099908;0.289497;0.999999;0.000382;-0.000560;0.001536;0.000204;0.001556;-0.000579;84.479711;0.001573;
1231;677;-0.199110;0.702457;0.999996;0.000449;-0.002290;0.005781;-0.001412;0.006021;-0.002530;-80.356190;0.006046;
1151;1062;-1.389755;23.898915;0.998159;0.011814;-0.091393;0.266227;-0.002414;0.266243;-0.091409;-89.613327;0.270564;
1121;887;0.284361;5.021728;0.999909;0.002778;-0.020641;0.046900;0.000972;0.046914;-0.020655;89.175765;0.047026;
1076;1372;1.037741;82.056747;0.999928;0.002542;-0.018807;0.042068;-0.004281;0.042368;-0.019107;-85.997343;0.042436;
1121;1192;0.848818;64.579447;0.997605;0.012869;-0.084843;0.237286;-0.001206;0.237291;-0.084847;-89.785577;0.240479;
996;517;0.095387;0.281846;0.999999;0.000398;-0.000573;0.001560;0.000187;0.001576;-0.000589;85.014913;0.001592;
1181;1542;-0.138293;85.542386;0.999997;0.000455;-0.002995;0.007485;0.000877;0.007558;-0.003068;85.249650;0.007602;
1111;512;0.017164;0.264528;1.000000;0.000249;-0.000726;0.001667;0.000045;0.001668;-0.000727;88.923034;0.001673;
1061;437;0.031051;0.150103;1.000000;0.000110;-0.000439;0.001517;0.000093;0.001521;-0.000444;87.282643;0.001565;
1156;1052;-1.750045;21.838975;0.998245;0.011764;-0.083910;0.231983;-0.003280;0.232018;-0.083944;-89.405148;0.234953;
1321;482;-0.105179;0.236688;0.999967;0.001471;-0.000544;0.001316;-0.000112;0.001323;-0.000551;-86.562642;0.001329;
1046;1822;0.032122;86.281187;1.000000;0.000187;-0.000391;0.001490;-0.000120;0.001498;-0.000399;-86.355524;0.001551;
1231;682;-0.214255;0.734100;0.999995;0.000526;-0.002454;0.006156;-0.001505;0.006412;-0.002709;-80.367360;0.006437;
1071;1367;1.182594;81.840306;0.999915;0.002513;-0.019716;0.044101;-0.004860;0.044469;-0.020084;-85.670062;0.044539;
1131;1042;0.318107;19.808321;0.998872;0.011268;-0.075638;0.205175;0.000209;0.205175;-0.075638;89.957310;0.207521;
1186;862;-0.864294;3.986789;0.999913;0.002714;-0.017023;0.038280;-0.003637;0.038518;-0.017261;-86.253829;0.038587;
1076;1187;5.244358;62.808474;0.997710;0.011380;-0.093075;0.263178;-0.008824;0.263396;-0.093294;-88.582055;0.267103;
1031;527;0.077363;0.296711;0.999999;0.000310;-0.000652;0.001644;0.000165;0.001656;-0.000664;85.911417;0.001667;
1321;487;-0.110071;0.245864;0.999964;0.001571;-0.000545;0.001286;-0.000119;0.001294;-0.000552;-86.308296;0.001299;
1186;1542;-0.152357;85.541768;0.999997;0.000454;-0.003025;0.007524;0.000972;0.007612;-0.003114;84.778057;0.007654;
1111;517;0.018116;0.273290;0.999999;0.000271;-0.000751;0.001698;0.000048;0.001699;-0.000752;88.871901;0.001702;
1066;437;0.029131;0.149925;1.000000;0.000116;-0.000437;0.001513;0.000087;0.001517;-0.000441;87.439560;0.001561;
1156;1057;-1.821012;22.860325;0.998295;0.010447;-0.087811;0.249127;-0.003280;0.249159;-0.087843;-89.442261;0.252744;
1231;687;-0.229920;0.765484;0.999994;0.000536;-0.002627;0.006546;-0.001590;0.006814;-0.002895;-80.437954;0.006840;
1081;1362;1.026203;81.622352;0.999900;0.002882;-0.020423;0.045937;-0.004122;0.046192;-0.020679;-86.458842;0.046276;
1016;1712;0.086646;86.106479;1.000000;0.000152;-0.000617;0.001622;-0.000190;0.001638;-0.000633;-85.181739;0.001652;
1131;1037;0.311084;18.999698;0.999001;0.009541;-0.072316;0.193351;0.000186;0.193351;-0.072316;89.959904;0.195387;
1141;877;-0.120153;4.565884;0.999916;0.003301;-0.018929;0.043049;-0.000518;0.043054;-0.018934;-89.520948;0.043158;
1076;1192;5.009284;63.886309;0.998258;0.010293;-0.089568;0.248341;-0.008692;0.248564;-0.089791;-88.527436;0.251735;
996;522;0.096689;0.289352;0.999999;0.000437;-0.000573;0.001557;0.000197;0.001575;-0.000591;84.771031;0.001591;
991;527;0.101758;0.297366;0.999999;0.000410;-0.000557;0.001534;0.000213;0.001555;-0.000578;84.250394;0.001572;
1091;507;0.030253;0.258402;0.999999;0.000243;-0.000681;0.001638;0.000064;0.001640;-0.000683;88.425409;0.001648;
1071;437;0.026869;0.149726;1.000000;0.000101;-0.000434;0.001510;0.000082;0.001513;-0.000437;87.592077;0.001557;
1156;1062;-1.880645;23.929430;0.998079;0.011400;-0.091870;0.266807;-0.003017;0.266832;-0.091895;-89.518124;0.271105;
1176;1527;-0.151422;85.422150;0.999996;0.000454;-0.003636;0.009009;0.000934;0.009077;-0.003705;85.797686;0.009128;
1231;667;-0.175642;0.649800;0.999996;0.000450;-0.001993;0.005079;-0.001228;0.005286;-0.002200;-80.427143;0.005311;
1086;1362;0.921819;81.625499;0.999917;0.002715;-0.020374;0.045857;-0.003690;0.046062;-0.020579;-86.821227;0.046149;
1136;1037;-0.045717;18.958344;0.998940;0.011133;-0.072240;0.192770;-0.000558;0.192772;-0.072242;-89.879388;0.194777;
1141;882;-0.126290;4.779578;0.999911;0.003351;-0.019735;0.044902;-0.000530;0.044906;-0.019739;-89.530590;0.045016;
1086;1197;3.839869;65.191012;0.998233;0.011273;-0.084738;0.230312;-0.006798;0.230458;-0.084885;-88.764425;0.233107;
1156;1857;-0.005435;86.334918;1.000000;0.000252;-0.000224;0.001379;0.000041;0.001380;-0.000225;88.539753;0.001481;
996;527;0.099528;0.297799;0.999999;0.000432;-0.000570;0.001554;0.000204;0.001573;-0.000589;84.575751;0.001590;
1096;507;0.026698;0.257912;1.000000;0.000185;-0.000688;0.001641;0.000058;0.001642;-0.000689;88.564093;0.001649;
991;532;0.104843;0.305677;0.999999;0.000431;-0.000556;0.001540;0.000222;0.001564;-0.000580;84.009695;0.001581;
1146;1032;-0.789246;18.153749;0.998783;0.012000;-0.069034;0.181062;-0.001957;0.181077;-0.069049;-89.551706;0.182770;
986;397;0.044749;0.101161;1.000000;0.000093;-0.000389;0.001535;0.000156;0.001548;-0.000402;85.386819;0.001606;
1076;1532;0.185993;85.469484;0.999996;0.000590;-0.003411;0.008326;-0.001228;0.008453;-0.003538;-84.092887;0.008490;
1091;1362;0.824102;81.633672;0.999922;0.002806;-0.020317;0.045776;-0.003278;0.045938;-0.020479;-87.167845;0.046028;
1141;1037;-0.428709;18.936404;0.998816;0.011623;-0.072273;0.192410;-0.001357;0.192417;-0.072280;-89.706358;0.194391;
991;597;0.135646;0.409667;0.999995;0.000579;-0.000612;0.001891;0.000541;0.002002;-0.000724;78.319910;0.002028;
1186;867;-0.903789;4.175730;0.999911;0.002869;-0.017786;0.040016;-0.003717;0.040254;-0.018024;-86.336045;0.040328;
1091;1197;3.388287;65.281445;0.998338;0.011960;-0.084194;0.228969;-0.005911;0.229080;-0.084305;-88.919032;0.231725;
996;532;0.101940;0.305531;0.999999;0.000424;-0.000569;0.001562;0.000212;0.001583;-0.000589;84.377196;0.001600;
1111;522;0.018824;0.281579;0.999999;0.000346;-0.000776;0.001737;0.000050;0.001738;-0.000777;88.865525;0.001741;
1016;1732;0.078717;86.138883;1.000000;0.000193;-0.000609;0.001600;-0.000160;0.001612;-0.000620;-85.875804;0.001626;
1151;1032;-1.121280;18.146655;0.998585;0.014312;-0.069161;0.181050;-0.002650;0.181078;-0.069189;-89.393189;0.182749;
1271;517;-0.093174;0.280572;0.999998;0.000329;-0.000573;0.001547;-0.000192;0.001564;-0.000591;-84.861644;0.001580;
1071;442;0.028283;0.157578;1.000000;0.000105;-0.000452;0.001520;0.000080;0.001524;-0.000455;87.681679;0.001564;
1081;1532;0.167258;85.467199;0.999997;0.000558;-0.003395;0.008312;-0.001123;0.008419;-0.003502;-84.571345;0.008459;
1146;1037;-0.798325;18.942646;0.998647;0.010369;-0.072280;0.192132;-0.002110;0.192149;-0.072297;-89.542918;0.194100;
1126;887;0.178324;5.021859;0.999902;0.003541;-0.020600;0.046883;0.000565;0.046888;-0.020604;89.520392;0.047003;
1096;1197;2.940202;65.369894;0.998193;0.011563;-0.083462;0.227721;-0.005140;0.227806;-0.083546;-89.053868;0.230487;
996;597;0.132192;0.410646;0.999996;0.000568;-0.000621;0.001911;0.000521;0.002014;-0.000724;78.812282;0.002040;
1171;1387;-0.622314;82.598334;0.999910;0.002261;-0.016119;0.036620;0.002351;0.036725;-0.016223;87.452102;0.036808;
1001;532;0.098830;0.305596;0.999998;0.000449;-0.000583;0.001581;0.000204;0.001600;-0.000602;84.651341;0.001616;
1086;507;0.033767;0.258663;0.999999;0.000276;-0.000677;0.001636;0.000071;0.001638;-0.000679;88.233175;0.001646;
1021;1732;0.076227;86.139629;1.000000;0.000169;-0.000614;0.001609;-0.000154;0.001619;-0.000625;-86.060031;0.001633;
1316;482;-0.100210;0.235362;0.999999;0.000285;-0.000533;0.001339;-0.000116;0.001346;-0.000540;-86.453460;0.001354;
1121;1037;1.020460;19.037809;0.998609;0.011137;-0.072708;0.195028;0.001772;0.195040;-0.072720;89.620724;0.197131;
1071;447;0.029170;0.165118;1.000000;0.000094;-0.000469;0.001529;0.000078;0.001532;-0.000472;87.762657;0.001569;
1086;1532;0.150640;85.467716;0.999997;0.000493;-0.003387;0.008301;-0.001014;0.008389;-0.003474;-85.077308;0.008430;
1101;1197;2.490068;65.475460;0.998210;0.012488;-0.082797;0.226545;-0.004346;0.226606;-0.082858;-89.195175;0.229317;
1121;1042;1.087147;19.894690;0.998342;0.012882;-0.075937;0.206764;0.001811;0.206776;-0.075949;89.632896;0.209189;
1171;857;-0.582784;3.796998;0.999912;0.003304;-0.016158;0.036462;-0.002449;0.036576;-0.016271;-87.340907;0.036650;
1171;1392;-0.596437;82.784049;0.999915;0.002527;-0.015394;0.034972;0.002285;0.035076;-0.015497;87.407383;0.035155;
946;487;0.120193;0.242046;0.999779;0.003827;-0.000861;0.001222;-0.000084;0.001226;-0.000864;-87.682320;0.001260;
1081;512;0.038767;0.267004;0.999999;0.000274;-0.000692;0.001652;0.000086;0.001655;-0.000695;87.908113;0.001662;
1026;667;0.202824;0.651152;0.999995;0.000633;-0.002038;0.005209;0.001400;0.005471;-0.002299;79.437939;0.005494;
1026;1732;0.072938;86.139599;1.000000;0.000163;-0.000621;0.001614;-0.000146;0.001624;-0.000630;-86.279097;0.001637;
1116;1042;1.487445;19.931813;0.998147;0.012176;-0.076315;0.207711;0.002628;0.207735;-0.076339;89.469987;0.210153;
1071;452;0.030403;0.172278;1.000000;0.000106;-0.000487;0.001536;0.000076;0.001539;-0.000490;87.852954;0.001572;
1161;552;-0.024310;0.335884;0.999998;0.000353;-0.000924;0.001983;-0.000075;0.001985;-0.000926;-88.519952;0.001987;
1056;1567;0.158261;85.704336;0.999997;0.000485;-0.002217;0.005630;-0.001122;0.005787;-0.002374;-82.017092;0.005818;
961;567;0.112964;0.345790;0.999914;0.002734;-0.000339;0.001433;0.000328;0.001491;-0.000398;79.837318;0.001545;
1121;1047;1.181285;20.878523;0.998432;0.012146;-0.079338;0.219153;0.001855;0.219164;-0.079350;89.644021;0.221927;
1136;717;-0.002209;0.984005;0.999996;0.000447;-0.003575;0.008890;-0.000025;0.008890;-0.003575;-89.885230;0.008947;
1086;1877;0.006863;86.362219;1.000000;0.000168;-0.000154;0.001338;-0.000086;0.001343;-0.000159;-86.722894;0.001468;
951;487;0.104398;0.244900;0.999998;0.000319;-0.000757;0.001271;-0.000022;0.001271;-0.000757;-89.375174;0.001279;
1116;1047;1.588526;20.908413;0.998442;0.010594;-0.079648;0.219994;0.002642;0.220018;-0.079671;89.494882;0.222789;
1091;1732;0.029772;86.145446;1.000000;0.000101;-0.000703;0.001653;-0.000066;0.001655;-0.000704;-88.385959;0.001661;
1171;517;-0.026744;0.274041;0.999999;0.000272;-0.000726;0.001678;-0.000068;0.001680;-0.000728;-88.374864;0.001685;
1316;487;-0.102266;0.242157;0.999999;0.000321;-0.000533;0.001320;-0.000125;0.001329;-0.000542;-86.154790;0.001336;
1106;522;0.022870;0.281881;0.999999;0.000255;-0.000770;0.001732;0.000058;0.001734;-0.000772;88.662556;0.001737;
1081;442;0.023408;0.156394;1.000000;0.000115;-0.000446;0.001515;0.000068;0.001517;-0.000448;88.026678;0.001559;
971;562;0.126787;0.347950;0.999996;0.000498;-0.000425;0.001483;0.000340;0.001542;-0.000484;80.194531;0.001577;
1221;422;-0.031672;0.128677;1.000000;0.000078;-0.000390;0.001489;-0.000119;0.001497;-0.000397;-86.395340;0.001551;
1121;1052;1.267389;21.930042;0.997937;0.012217;-0.082921;0.232774;0.002063;0.232787;-0.082935;89.625615;0.235972;
1176;1387;-0.702092;82.599958;0.999922;0.002217;-0.016173;0.036604;0.002686;0.036741;-0.016310;87.094426;0.036818;
986;512;0.099043;0.275753;0.999999;0.000371;-0.000545;0.001504;0.000188;0.001521;-0.000562;84.788868;0.001539;
1116;1052;1.704429;21.979047;0.998009;0.011981;-0.083151;0.233341;0.002807;0.233366;-0.083176;89.491903;0.236552;
1191;692;-0.138099;0.795957;0.999996;0.000652;-0.002647;0.006601;-0.000972;0.006702;-0.002747;-84.067032;0.006738;
1086;1862;0.009932;86.341176;1.000000;0.000172;-0.000215;0.001371;-0.000084;0.001376;-0.000220;-86.992988;0.001478;
986;532;0.106934;0.306028;0.999999;0.000384;-0.000538;0.001514;0.000230;0.001540;-0.000563;83.679923;0.001558;
1151;1757;-0.011191;86.186544;1.000000;0.000063;-0.000611;0.001588;0.000022;0.001589;-0.000611;89.419518;0.001603;
1091;512;0.031380;0.266040;0.999999;0.000242;-0.000702;0.001657;0.000071;0.001659;-0.000704;88.280092;0.001666;
1081;447;0.024643;0.164371;1.000000;0.000110;-0.000464;0.001524;0.000066;0.001526;-0.000467;88.100946;0.001564;
1091;457;0.021417;0.178546;1.000000;0.000136;-0.000499;0.001536;0.000051;0.001537;-0.000500;88.572426;0.001568;
1151;1037;-1.144794;18.939861;0.998416;0.015295;-0.072449;0.192021;-0.002782;0.192050;-0.072478;-89.397486;0.193965;
1001;617;0.145816;0.456581;0.999995;0.000729;-0.000872;0.002539;0.000782;0.002710;-0.001042;77.678793;0.002734;
986;517;0.101618;0.283418;0.999999;0.000384;-0.000545;0.001516;0.000198;0.001535;-0.000564;84.554059;0.001553;
1056;1357;1.620364;81.370922;0.999908;0.002710;-0.021718;0.048389;-0.006487;0.048984;-0.022314;-84.757648;0.049049;
1156;1032;-1.479870;18.179430;0.998835;0.017009;-0.069409;0.181255;-0.003266;0.181298;-0.069451;-89.253715;0.182943;
986;537;0.108945;0.313125;0.999999;0.000396;-0.000537;0.001520;0.000247;0.001550;-0.000566;83.250314;0.001568;
1276;597;-0.132419;0.404821;0.999995;0.000476;-0.000627;0.001892;-0.000536;0.002001;-0.000736;-78.479212;0.002025;
961;1747;0.103112;86.157653;0.999999;0.000195;-0.000558;0.001385;-0.000176;0.001400;-0.000574;-84.877771;0.001408;
1086;512;0.035310;0.266405;0.999999;0.000344;-0.000697;0.001654;0.000079;0.001657;-0.000699;88.072059;0.001663;
1081;452;0.025896;0.171811;1.000000;0.000118;-0.000482;0.001531;0.000064;0.001533;-0.000485;88.187670;0.001567;
1106;1777;0.014239;86.217502;1.000000;0.000073;-0.000532;0.001551;-0.000033;0.001551;-0.000533;-89.088832;0.001577;
1001;622;0.152661;0.469815;0.999996;0.000606;-0.000946;0.002746;0.000862;0.002937;-0.001138;77.486790;0.002962;
986;522;0.103005;0.289811;0.999999;0.000321;-0.000542;0.001511;0.000209;0.001533;-0.000563;84.249847;0.001550;
1226;427;-0.035495;0.136715;1.000000;0.000101;-0.000413;0.001500;-0.000121;0.001507;-0.000420;-86.408269;0.001556;
1071;1077;7.036923;28.744249;0.997909;0.009568;-0.102496;0.302071;0.008282;0.302241;-0.102666;88.827767;0.307376;
1061;1357;1.504032;81.375137;0.999920;0.002774;-0.021665;0.048375;-0.006047;0.048893;-0.022183;-85.101741;0.048963;
1126;1027;0.587874;17.392806;0.999092;0.008270;-0.066242;0.172059;0.001018;0.172063;-0.066247;89.755358;0.173573;
991;537;0.106493;0.313676;0.999999;0.000360;-0.000554;0.001548;0.000237;0.001575;-0.000581;83.655024;0.001593;
961;1752;0.100947;86.164579;0.999999;0.000197;-0.000528;0.001364;-0.000154;0.001376;-0.000540;-85.362625;0.001387;
1076;517;0.043422;0.275470;0.999999;0.000218;-0.000706;0.001669;0.000098;0.001673;-0.000710;87.639862;0.001680;
1176;707;-0.125362;0.901380;0.999995;0.000633;-0.003178;0.007917;-0.000842;0.007980;-0.003242;-85.682603;0.008027;
1251;427;-0.046211;0.139694;1.000000;0.000115;-0.000432;0.001511;-0.000133;0.001520;-0.000441;-86.099587;0.001564;
1001;627;0.159451;0.481477;0.999996;0.000516;-0.001029;0.002996;0.000930;0.003201;-0.001233;77.592423;0.003229;
1166;1737;-0.023184;86.153263;1.000000;0.000070;-0.000693;0.001650;0.000053;0.001651;-0.000694;88.697780;0.001658;
986;527;0.104869;0.298481;0.999999;0.000322;-0.000539;0.001509;0.000219;0.001532;-0.000562;83.965283;0.001550;
1066;1357;1.395376;81.374723;0.999907;0.002587;-0.021549;0.048279;-0.005602;0.048726;-0.021996;-85.441863;0.048802;
1256;422;-0.046592;0.133048;1.000000;0.000116;-0.000421;0.001511;-0.000138;0.001520;-0.000431;-85.929370;0.001567;
1071;1082;7.307068;30.068452;0.997762;0.010905;-0.105288;0.315480;0.007730;0.315622;-0.105430;88.947849;0.321365;
1131;1027;0.253655;17.391171;0.999132;0.008269;-0.066153;0.171426;0.000362;0.171427;-0.066153;89.912665;0.172908;
996;537;0.103516;0.314022;0.999999;0.000378;-0.000567;0.001572;0.000225;0.001595;-0.000590;84.059629;0.001613;
961;1757;0.098571;86.171573;1.000000;0.000165;-0.000516;0.001375;-0.000135;0.001385;-0.000526;-85.953478;0.001398;
1076;522;0.044650;0.284816;0.999999;0.000200;-0.000725;0.001696;0.000105;0.001700;-0.000730;87.518179;0.001706;
1181;707;-0.139577;0.901703;0.999995;0.000808;-0.003197;0.007944;-0.000942;0.008023;-0.003276;-85.202889;0.008068;
1141;477;-0.003521;0.208364;1.000000;0.000123;-0.000568;0.001566;-0.000008;0.001566;-0.000568;-89.781454;0.001586;
1156;1757;-0.014125;86.186509;1.000000;0.000062;-0.000610;0.001590;0.000029;0.001590;-0.000611;89.241266;0.001604;
1306;527;-0.115087;0.295075;0.999998;0.000269;-0.000501;0.001344;-0.000252;0.001377;-0.000535;-82.372023;0.001389;
1206;697;-0.191311;0.831006;0.999995;0.000602;-0.002892;0.007173;-0.001317;0.007342;-0.003062;-82.665360;0.007376;
1136;1027;-0.074611;17.374148;0.999166;0.009225;-0.066072;0.171016;-0.000303;0.171017;-0.066072;-89.926785;0.172483;
1256;427;-0.048408;0.140535;1.000000;0.000107;-0.000435;0.001512;-0.000133;0.001521;-0.000444;-86.121088;0.001565;
1126;1032;0.621247;18.200554;0.999091;0.007520;-0.069235;0.182775;0.000974;0.182779;-0.069239;89.778511;0.184560;
1096;1362;0.721949;81.643567;0.999933;0.002945;-0.020220;0.045701;-0.002886;0.045827;-0.020346;-87.497677;0.045923;
956;487;0.102701;0.243297;0.999998;0.000341;-0.000694;0.001313;0.000021;0.001313;-0.000694;89.414685;0.001314;
1176;1892;-0.003502;86.381057;1.000000;0.000249;-0.000087;0.001339;0.000083;0.001344;-0.000092;86.689136;0.001502;
1076;527;0.045876;0.292889;0.999999;0.000223;-0.000744;0.001716;0.000113;0.001722;-0.000749;87.364494;0.001726;
1016;662;0.209595;0.624906;0.999996;0.000659;-0.001933;0.004952;0.001458;0.005248;-0.002230;78.520904;0.005268;
1161;1757;-0.017085;86.186537;1.000000;0.000069;-0.000609;0.001591;0.000036;0.001591;-0.000609;89.057553;0.001606;
1146;477;-0.006439;0.208346;1.000000;0.000111;-0.000569;0.001567;-0.000014;0.001567;-0.000570;-89.636291;0.001586;
1141;1027;-0.427318;17.367130;0.999088;0.010344;-0.066036;0.170852;-0.001062;0.170857;-0.066040;-89.743159;0.172317;
1211;697;-0.205729;0.831519;0.999996;0.000588;-0.002904;0.007216;-0.001411;0.007409;-0.003098;-82.207697;0.007442;
961;487;0.099937;0.241925;0.999998;0.000370;-0.000657;0.001351;0.000049;0.001352;-0.000658;88.605766;0.001352;
1126;1037;0.663647;19.019343;0.998934;0.008982;-0.072386;0.194131;0.000935;0.194135;-0.072389;89.799080;0.196215;
966;377;0.038905;0.075829;1.000000;0.000124;-0.000426;0.001598;0.000175;0.001613;-0.000441;85.090136;0.001668;
1071;1362;1.234733;81.616800;0.999890;0.002610;-0.020567;0.046110;-0.005012;0.046484;-0.020942;-85.725447;0.046560;
1116;502;0.012867;0.248373;1.000000;0.000248;-0.000677;0.001632;0.000031;0.001632;-0.000677;89.231404;0.001640;
1066;1892;0.005980;86.381503;1.000000;0.000166;-0.000093;0.001328;-0.000122;0.001338;-0.000103;-85.141121;0.001490;
1176;857;-0.669043;3.797486;0.999917;0.002316;-0.016197;0.036496;-0.002798;0.036644;-0.016346;-86.968555;0.036715;
1001;602;0.134079;0.421298;0.999994;0.000779;-0.000679;0.002042;0.000558;0.002152;-0.000789;78.852055;0.002178;
1151;477;-0.009159;0.208370;1.000000;0.000104;-0.000570;0.001568;-0.000020;0.001568;-0.000570;-89.475019;0.001587;
1131;1032;0.265969;18.180616;0.999160;0.009544;-0.069152;0.182045;0.000285;0.182046;-0.069152;89.935026;0.183789;
1121;1027;0.920117;17.410744;0.998838;0.008112;-0.066515;0.172816;0.001710;0.172829;-0.066527;89.590607;0.174348;
1216;697;-0.219646;0.831112;0.999996;0.000630;-0.002922;0.007259;-0.001507;0.007477;-0.003140;-81.752055;0.007509;
1156;557;-0.020070;0.346489;0.999998;0.000410;-0.000955;0.002053;-0.000062;0.002055;-0.000957;-88.812682;0.002056;
1116;507;0.013158;0.256326;1.000000;0.000221;-0.000702;0.001648;0.000034;0.001649;-0.000703;89.180753;0.001655;
966;382;0.043013;0.083911;1.000000;0.000132;-0.000449;0.001586;0.000159;0.001599;-0.000461;85.558088;0.001646;
1091;1357;0.868101;81.400229;0.999901;0.003612;-0.021240;0.047751;-0.003355;0.047914;-0.021402;-87.222607;0.048004;
986;592;0.134727;0.398194;0.999996;0.000593;-0.000550;0.001779;0.000516;0.001888;-0.000659;78.050504;0.001917;
1146;862;-0.199507;3.976341;0.999918;0.002752;-0.016696;0.037967;-0.000841;0.037980;-0.016709;-89.118292;0.038072;
1081;432;0.021434;0.141524;1.000000;0.000093;-0.000408;0.001492;0.000072;0.001495;-0.000411;87.829685;0.001545;
1136;1032;-0.069654;18.161942;0.999113;0.012321;-0.069072;0.181527;-0.000422;0.181527;-0.069072;-89.903493;0.183247;
1121;1032;0.970891;18.219512;0.998778;0.008001;-0.069552;0.183624;0.001725;0.183635;-0.069563;89.609616;0.185425;
1256;677;-0.257468;0.700366;0.999995;0.000684;-0.002347;0.005941;-0.001811;0.006320;-0.002726;-78.194961;0.006339;
1116;512;0.013440;0.264594;0.999999;0.000231;-0.000728;0.001669;0.000036;0.001670;-0.000729;89.129759;0.001675;
1086;562;0.047525;0.357040;0.999998;0.000343;-0.000927;0.002034;0.000141;0.002041;-0.000933;87.284128;0.002043;
1036;422;0.037048;0.130332;1.000000;0.000124;-0.000403;0.001505;0.000130;0.001514;-0.000412;86.127391;0.001566;
1191;1542;-0.165344;85.538964;0.999996;0.000496;-0.003060;0.007561;0.001067;0.007667;-0.003166;84.318534;0.007705;
1096;1357;0.758172;81.410349;0.999915;0.003210;-0.021145;0.047655;-0.002947;0.047781;-0.021271;-87.551532;0.047877;
1011;647;0.182122;0.555522;0.999995;0.000494;-0.001492;0.004056;0.001228;0.004316;-0.001752;78.065223;0.004341;
1151;862;-0.280975;3.978378;0.999902;0.003066;-0.016728;0.037991;-0.001168;0.038016;-0.016752;-88.777834;0.038105;
1076;442;0.025841;0.156991;1.000000;0.000106;-0.000448;0.001517;0.000074;0.001520;-0.000451;87.846637;0.001561;
1141;1032;-0.435029;18.160848;0.999042;0.012631;-0.069059;0.181231;-0.001214;0.181237;-0.069065;-89.722100;0.182938;
1146;1027;-0.758449;17.403451;0.998859;0.010014;-0.066000;0.170776;-0.001791;0.170790;-0.066013;-89.566612;0.172250;
1261;677;-0.268604;0.699950;0.999996;0.000637;-0.002350;0.005957;-0.001894;0.006368;-0.002761;-77.743494;0.006387;
1116;517;0.013985;0.272736;0.999999;0.000248;-0.000754;0.001701;0.000039;0.001701;-0.000755;89.089191;0.001705;
981;522;0.106433;0.289490;0.999999;0.000341;-0.000521;0.001485;0.000214;0.001507;-0.000544;83.988327;0.001526;
1041;422;0.035069;0.129676;1.000000;0.000119;-0.000399;0.001501;0.000127;0.001509;-0.000407;86.190126;0.001562;
1011;652;0.193153;0.575003;0.999996;0.000594;-0.001613;0.004346;0.001328;0.004629;-0.001895;77.989166;0.004654;
1266;677;-0.281938;0.699654;0.999996;0.000567;-0.002330;0.005956;-0.001975;0.006403;-0.002777;-77.254620;0.006422;
1076;447;0.026987;0.164739;1.000000;0.000110;-0.000466;0.001526;0.000072;0.001529;-0.000469;87.922071;0.001567;
1096;1537;0.109985;85.510174;0.999997;0.000399;-0.003143;0.007795;-0.000765;0.007848;-0.003196;-86.016050;0.007893;
1151;1027;-1.087498;17.414743;0.998621;0.013345;-0.066119;0.170851;-0.002476;0.170877;-0.066145;-89.401535;0.172323;
1156;1037;-1.531522;18.959166;0.998698;0.015966;-0.072734;0.192181;-0.003345;0.192223;-0.072776;-89.276610;0.194103;
1101;1357;0.656317;81.415553;0.999886;0.003124;-0.021025;0.047565;-0.002544;0.047659;-0.021120;-87.878521;0.047762;
1041;867;1.669655;4.205407;0.999896;0.003257;-0.018444;0.040544;0.006902;0.041341;-0.019241;83.414042;0.041373;
1101;502;0.022951;0.249276;1.000000;0.000171;-0.000670;0.001630;0.000051;0.001632;-0.000671;88.731185;0.001640;
981;527;0.108244;0.297562;0.999999;0.000358;-0.000524;0.001477;0.000232;0.001503;-0.000551;83.484354;0.001521;
1046;422;0.032892;0.129404;1.000000;0.000110;-0.000393;0.001497;0.000123;0.001505;-0.000401;86.302551;0.001559;
1011;657;0.206290;0.598844;0.999994;0.000672;-0.001749;0.004654;0.001433;0.004960;-0.002055;77.944656;0.004984;
1076;452;0.028112;0.172158;1.000000;0.000119;-0.000484;0.001534;0.000070;0.001536;-0.000486;88.009375;0.001570;
1156;1027;-1.442841;17.412325;0.998881;0.013241;-0.066349;0.171136;-0.003093;0.171176;-0.066390;-89.253932;0.172606;
1161;1027;-1.777771;17.431009;0.998945;0.009026;-0.066663;0.171719;-0.003759;0.171778;-0.066722;-89.096773;0.173198;
1091;1532;0.133774;85.469594;0.999997;0.000394;-0.003372;0.008292;-0.000904;0.008362;-0.003441;-85.595283;0.008405;
1266;612;-0.137864;0.442100;0.999996;0.000497;-0.000798;0.002377;-0.000659;0.002508;-0.000929;-78.727299;0.002536;
1091;502;0.029413;0.249895;0.999999;0.000229;-0.000663;0.001630;0.000060;0.001631;-0.000664;88.504751;0.001641;
1156;857;-0.346424;3.799155;0.999897;0.002882;-0.016033;0.036322;-0.001468;0.036363;-0.016074;-88.395685;0.036444;
1101;1362;0.623882;81.645848;0.999901;0.003543;-0.020103;0.045635;-0.002490;0.045730;-0.020198;-87.834007;0.045833;
981;532;0.109779;0.305504;0.999999;0.000367;-0.000525;0.001483;0.000243;0.001512;-0.000554;83.186109;0.001530;
971;592;0.140408;0.394794;0.999993;0.000615;-0.000477;0.001770;0.000578;0.001910;-0.000617;76.378817;0.001949;
1306;367;-0.033251;0.060671;1.000000;0.000132;-0.000361;0.001617;-0.000235;0.001644;-0.000389;-83.308999;0.001719;
1131;1017;0.222882;15.810275;0.999328;0.007670;-0.060526;0.153552;0.000301;0.153552;-0.060526;89.919388;0.154694;
1161;1032;-1.840737;18.196171;0.998906;0.009405;-0.069767;0.181806;-0.003938;0.181867;-0.069829;-89.103424;0.183493;
1096;1532;0.118436;85.470358;0.999997;0.000453;-0.003348;0.008280;-0.000797;0.008334;-0.003402;-86.098706;0.008381;
1291;402;-0.050880;0.111202;1.000000;0.000140;-0.000418;0.001527;-0.000124;0.001534;-0.000426;-86.355922;0.001584;
1096;502;0.026040;0.249658;1.000000;0.000209;-0.000667;0.001631;0.000055;0.001632;-0.000668;88.637734;0.001641;
1266;617;-0.143150;0.454767;0.999996;0.000507;-0.000864;0.002570;-0.000733;0.002720;-0.001014;-78.440505;0.002749;
1186;872;-0.941106;4.367315;0.999913;0.002635;-0.018582;0.041737;-0.003810;0.041977;-0.018822;-86.400474;0.042051;
981;512;0.101571;0.276376;0.999999;0.000453;-0.000528;0.001476;0.000190;0.001493;-0.000546;84.626530;0.001511;
976;592;0.139208;0.395904;0.999997;0.000512;-0.000502;0.001762;0.000559;0.001892;-0.000633;76.858545;0.001927;
1141;1047;-0.448706;20.781315;0.998421;0.009863;-0.079371;0.217109;-0.001183;0.217113;-0.079375;-89.771411;0.219712;
1086;1357;0.970171;81.395728;0.999894;0.003652;-0.021282;0.047849;-0.003777;0.048054;-0.021487;-86.881977;0.048144;
1136;1017;-0.072475;15.804673;0.999262;0.010509;-0.060476;0.153245;-0.000356;0.153245;-0.060476;-89.904475;0.154375;
1001;402;0.041317;0.104899;1.000000;0.000096;-0.000379;0.001515;0.000159;0.001528;-0.000392;85.234995;0.001587;
1131;1022;0.234668;16.569405;0.999115;0.009167;-0.063244;0.161687;0.000359;0.161688;-0.063245;89.908483;0.162960;
1116;522;0.014864;0.281281;0.999999;0.000298;-0.000779;0.001741;0.000040;0.001742;-0.000780;89.082453;0.001745;
981;592;0.137852;0.397998;0.999996;0.000657;-0.000534;0.001769;0.000534;0.001887;-0.000652;77.555077;0.001916;
981;517;0.104085;0.283367;0.999999;0.000392;-0.000527;0.001485;0.000202;0.001505;-0.000547;84.310624;0.001524;
1186;877;-0.986636;4.575732;0.999906;0.002225;-0.019413;0.043502;-0.003926;0.043746;-0.019657;-86.442862;0.043821;
1211;1567;-0.164116;85.697846;0.999996;0.000578;-0.002260;0.005626;0.001078;0.005771;-0.002404;82.355844;0.005798;
1146;1047;-0.861757;20.810442;0.998468;0.009875;-0.079461;0.216935;-0.001931;0.216947;-0.079474;-89.626686;0.219516;
1131;717;0.014524;0.983112;0.999995;0.000492;-0.003566;0.008881;0.000084;0.008882;-0.003567;89.614386;0.008939;
1046;1362;1.755738;81.604027;0.999914;0.003015;-0.020919;0.046299;-0.007224;0.047066;-0.021687;-83.935041;0.047114;
1141;1017;-0.380915;15.783963;0.999157;0.009831;-0.060413;0.153067;-0.001079;0.153072;-0.060418;-89.710305;0.154200;
1136;1022;-0.070938;16.563684;0.999075;0.009031;-0.063183;0.161380;-0.000295;0.161381;-0.063183;-89.924832;0.162642;
966;1797;0.078799;86.229655;0.999999;0.000277;-0.000507;0.001455;-0.000047;0.001457;-0.000508;-88.616027;0.001479;
1001;407;0.044111;0.112617;1.000000;0.000125;-0.000395;0.001518;0.000149;0.001529;-0.000406;85.560446;0.001584;
1106;1197;2.058972;65.573878;0.998403;0.010317;-0.082117;0.225369;-0.003488;0.225408;-0.082157;-89.350145;0.228152;
1101;1532;0.102117;85.472860;0.999996;0.000588;-0.003321;0.008266;-0.000690;0.008307;-0.003362;-86.603334;0.008357;
1091;1752;0.026369;86.177320;1.000000;0.000098;-0.000623;0.001600;-0.000054;0.001602;-0.000624;-88.605448;0.001615;
1036;1732;0.066719;86.140489;1.000000;0.000161;-0.000634;0.001627;-0.000132;0.001634;-0.000642;-86.677116;0.001647;
1311;527;-0.117279;0.293158;0.999999;0.000289;-0.000499;0.001298;-0.000259;0.001335;-0.000535;-81.968170;0.001343;
1266;627;-0.153583;0.479826;0.999996;0.000704;-0.001027;0.002980;-0.000887;0.003167;-0.001214;-78.059889;0.003196;
1161;1017;-1.617046;15.847385;0.998895;0.009063;-0.060952;0.153642;-0.003656;0.153705;-0.061015;-89.024263;0.154789;
1171;1382;-0.648092;82.425354;0.999903;0.002254;-0.016871;0.038298;0.002414;0.038403;-0.016977;87.499453;0.038489;
1296;402;-0.053153;0.113043;1.000000;0.000109;-0.000442;0.001523;-0.000110;0.001529;-0.000448;-86.811155;0.001572;
1141;1022;-0.399784;16.550485;0.998946;0.010120;-0.063155;0.161251;-0.001047;0.161256;-0.063159;-89.732591;0.162513;
1006;407;0.042198;0.112025;1.000000;0.000122;-0.000386;0.001514;0.000154;0.001526;-0.000399;85.381635;0.001583;
1286;1707;-0.110639;86.097223;1.000000;0.000164;-0.000507;0.001511;0.000241;0.001539;-0.000536;83.270112;0.001563;
1276;647;-0.206872;0.546405;0.999996;0.000538;-0.001409;0.004025;-0.001379;0.004355;-0.001739;-76.548003;0.004384;
1316;527;-0.118881;0.291700;0.999998;0.000339;-0.000485;0.001243;-0.000271;0.001284;-0.000527;-81.287570;0.001291;
1081;1197;4.310221;65.099924;0.998269;0.010139;-0.085347;0.231660;-0.007693;0.231846;-0.085534;-88.610591;0.234487;
1181;1537;-0.147832;85.503698;0.999997;0.000519;-0.003201;0.007996;0.000933;0.008074;-0.003278;85.269250;0.008121;
1091;1757;0.025491;86.185131;1.000000;0.000100;-0.000605;0.001592;-0.000053;0.001593;-0.000606;-88.629397;0.001608;
1151;1842;-0.005188;86.314312;1.000000;0.000182;-0.000283;0.001409;0.000030;0.001409;-0.000284;88.998423;0.001491;
1166;1017;-1.917864;15.872270;0.998858;0.008831;-0.061131;0.154223;-0.004303;0.154309;-0.061217;-88.855783;0.155403;
1126;1022;0.563733;16.570757;0.999031;0.009724;-0.063350;0.162207;0.001001;0.162211;-0.063354;89.745857;0.163501;
1301;402;-0.055553;0.114889;1.000000;0.000143;-0.000448;0.001521;-0.000105;0.001527;-0.000454;-86.945190;0.001568;
1176;1382;-0.728232;82.424063;0.999907;0.002500;-0.016933;0.038303;0.002762;0.038441;-0.017070;87.144060;0.038521;
1261;417;-0.046299;0.126519;1.000000;0.000122;-0.000414;0.001510;-0.000139;0.001520;-0.000424;-85.876912;0.001569;
1276;652;-0.218837;0.566436;0.999996;0.000528;-0.001563;0.004361;-0.001494;0.004717;-0.001918;-76.617818;0.004744;
961;1677;0.107316;86.056736;0.999519;0.006141;-0.000325;0.001469;-0.000319;0.001524;-0.000380;-80.214838;0.001586;
1111;1197;1.641382;65.625741;0.998197;0.009526;-0.081640;0.224236;-0.002632;0.224258;-0.081663;-89.507018;0.227001;
1186;562;-0.049262;0.355893;0.999998;0.000372;-0.000917;0.002032;-0.000155;0.002040;-0.000925;-86.999990;0.002043;
1186;1537;-0.164321;85.503314;0.999996;0.000443;-0.003229;0.008033;0.001033;0.008127;-0.003323;84.799876;0.008172;
1166;1757;-0.020134;86.185532;1.000000;0.000095;-0.000608;0.001591;0.000042;0.001592;-0.000609;88.896371;0.001607;
1151;1847;-0.004484;86.320602;0.999999;0.000183;-0.000264;0.001400;0.000030;0.001400;-0.000264;88.960851;0.001488;
1276;657;-0.233059;0.587564;0.999996;0.000519;-0.001674;0.004615;-0.001615;0.005005;-0.002065;-76.406727;0.005031;
1171;1017;-2.237588;15.899264;0.998948;0.008900;-0.061409;0.154892;-0.004939;0.155004;-0.061522;-88.692585;0.156099;
1121;1022;0.889039;16.571432;0.998973;0.009018;-0.063594;0.162905;0.001683;0.162918;-0.063606;89.574358;0.164217;
1056;1352;1.693947;81.127137;0.999884;0.002789;-0.022663;0.050612;-0.006604;0.051203;-0.023254;-84.890884;0.051274;
1266;417;-0.048197;0.127348;1.000000;0.000111;-0.000420;0.001511;-0.000134;0.001520;-0.000429;-86.047061;0.001568;
1246;437;-0.047923;0.154344;1.000000;0.000119;-0.000456;0.001521;-0.000123;0.001529;-0.000464;-86.464087;0.001568;
1076;1197;4.777164;65.014455;0.998415;0.009636;-0.086013;0.233020;-0.008548;0.233249;-0.086242;-88.466398;0.235872;
1091;1867;0.007815;86.348697;0.999999;0.000148;-0.000195;0.001360;-0.000075;0.001364;-0.000198;-87.230551;0.001473;
976;512;0.104384;0.275148;0.999999;0.000334;-0.000506;0.001437;0.000195;0.001456;-0.000525;84.324240;0.001475;
1266;1592;-0.207828;85.835644;0.999997;0.000512;-0.001665;0.004377;0.001411;0.004690;-0.001978;77.484168;0.004710;
1171;1737;-0.026559;86.152641;1.000000;0.000062;-0.000689;0.001648;0.000061;0.001649;-0.000690;88.496808;0.001657;
1171;1022;-2.336829;16.642381;0.999141;0.007906;-0.064222;0.163715;-0.005020;0.163825;-0.064332;-88.738835;0.165078;
1001;607;0.137416;0.430040;0.999995;0.000823;-0.000741;0.002182;0.000629;0.002311;-0.000870;78.360848;0.002334;
1146;1022;-0.716997;16.540325;0.998845;0.009009;-0.063130;0.161230;-0.001772;0.161244;-0.063144;-89.547562;0.162502;
1271;417;-0.050441;0.128587;1.000000;0.000138;-0.000424;0.001512;-0.000128;0.001520;-0.000432;-86.225772;0.001567;
1061;1352;1.577026;81.130671;0.999902;0.002933;-0.022590;0.050558;-0.006181;0.051077;-0.023109;-85.203604;0.051154;
1031;1662;0.098648;86.021386;1.000000;0.000155;-0.000733;0.001896;-0.000316;0.001934;-0.000771;-83.250858;0.001947;
1066;442;0.030428;0.157795;1.000000;0.000109;-0.000454;0.001523;0.000085;0.001527;-0.000458;87.532491;0.001567;
1071;1187;5.718663;62.678324;0.997510;0.012847;-0.093666;0.263923;-0.009500;0.264175;-0.093918;-88.479235;0.267826;
1091;1872;0.006939;86.355226;0.999999;0.000139;-0.000175;0.001349;-0.000077;0.001353;-0.000179;-87.125583;0.001469;
976;517;0.106862;0.282884;0.999999;0.000321;-0.000506;0.001447;0.000209;0.001469;-0.000528;83.948157;0.001488;
1271;1592;-0.216306;85.836829;0.999997;0.000465;-0.001665;0.004392;0.001476;0.004732;-0.002005;77.011090;0.004751;
1171;1742;-0.025672;86.161146;1.000000;0.000067;-0.000666;0.001630;0.000057;0.001631;-0.000667;88.584960;0.001640;
1001;612;0.140946;0.442193;0.999995;0.000766;-0.000802;0.002355;0.000706;0.002505;-0.000953;77.955070;0.002529;
1171;1027;-2.441045;17.493918;0.999058;0.008834;-0.067224;0.173175;-0.005121;0.173284;-0.067333;-88.780164;0.174712;
1311;377;-0.042641;0.079871;1.000000;0.000094;-0.000425;0.001613;-0.000172;0.001628;-0.000440;-85.198497;0.001684;
1171;522;-0.027855;0.282180;0.999999;0.000268;-0.000750;0.001711;-0.000072;0.001713;-0.000752;-88.315781;0.001717;
1066;1352;1.461706;81.136585;0.999895;0.002541;-0.022463;0.050409;-0.005718;0.050855;-0.022909;-85.540596;0.050938;
1036;1662;0.094993;86.020219;1.000000;0.000131;-0.000763;0.001936;-0.000307;0.001970;-0.000797;-83.599289;0.001982;
1056;432;0.031753;0.143004;1.000000;0.000115;-0.000424;0.001511;0.000102;0.001516;-0.000429;86.991690;0.001563;
1071;1192;5.470209;63.769771;0.998169;0.011968;-0.090177;0.249340;-0.009418;0.249601;-0.090438;-88.412248;0.252735;
976;522;0.108760;0.290099;0.999999;0.000295;-0.000501;0.001450;0.000222;0.001475;-0.000526;83.585750;0.001496;
1091;1877;0.006042;86.362241;1.000000;0.000155;-0.000154;0.001336;-0.000077;0.001340;-0.000158;-87.039243;0.001464;
1311;382;-0.046425;0.087786;1.000000;0.000113;-0.000446;0.001586;-0.000157;0.001598;-0.000458;-85.617045;0.001646;
1156;1017;-1.315596;15.826100;0.998908;0.008771;-0.060702;0.153223;-0.003069;0.153267;-0.060746;-89.178321;0.154361;
1171;1747;-0.024945;86.169328;1.000000;0.000077;-0.000645;0.001616;0.000053;0.001617;-0.000646;88.665942;0.001628;
1031;1582;0.176035;85.787266;0.999997;0.000535;-0.001850;0.004819;-0.001236;0.005041;-0.002071;-79.833405;0.005067;
1106;502;0.019659;0.248547;1.000000;0.000185;-0.000673;0.001631;0.000045;0.001631;-0.000674;88.882019;0.001640;
1271;602;-0.135261;0.416803;0.999995;0.000620;-0.000686;0.002037;-0.000574;0.002153;-0.000803;-78.563431;0.002176;
1196;1362;-1.278057;81.590655;0.999875;0.003788;-0.020414;0.045805;0.004870;0.046162;-0.020770;85.816613;0.046239;
1026;1662;0.102414;86.022487;1.000000;0.000184;-0.000701;0.001858;-0.000324;0.001899;-0.000741;-82.892223;0.001914;
1211;442;-0.033628;0.158012;1.000000;0.000111;-0.000453;0.001520;-0.000094;0.001524;-0.000458;-87.267194;0.001564;
1071;1197;5.211852;64.887690;0.998354;0.010684;-0.086642;0.234314;-0.009333;0.234585;-0.086913;-88.335748;0.237194;
976;527;0.110833;0.297223;0.999999;0.000336;-0.000506;0.001444;0.000243;0.001474;-0.000535;83.003918;0.001492;
1091;1862;0.008795;86.341002;1.000000;0.000182;-0.000215;0.001368;-0.000075;0.001372;-0.000218;-87.308363;0.001474;
1311;387;-0.050246;0.095743;1.000000;0.000127;-0.000454;0.001562;-0.000137;0.001571;-0.000463;-86.129373;0.001615;
971;597;0.146086;0.404667;0.999980;0.001036;-0.000550;0.001837;0.000617;0.001987;-0.000700;76.321889;0.002016;
1121;1017;0.831362;15.830260;0.999134;0.010397;-0.060855;0.154677;0.001635;0.154690;-0.060867;89.565305;0.155855;
1111;502;0.016474;0.248349;1.000000;0.000262;-0.000676;0.001631;0.000038;0.001632;-0.000676;89.059005;0.001640;
1076;507;0.040600;0.259459;0.999999;0.000303;-0.000672;0.001635;0.000084;0.001638;-0.000675;87.922801;0.001647;
1091;1527;0.145264;85.424472;0.999997;0.000459;-0.003588;0.008817;-0.000941;0.008888;-0.003659;-85.688528;0.008934;
1096;1727;0.027023;86.137254;1.000000;0.000077;-0.000730;0.001681;-0.000065;0.001683;-0.000732;-88.450472;0.001687;
1026;1667;0.099914;86.031076;1.000000;0.000157;-0.000686;0.001815;-0.000302;0.001851;-0.000722;-83.220595;0.001866;
1221;427;-0.033495;0.136242;1.000000;0.000091;-0.000408;0.001497;-0.000115;0.001504;-0.000415;-86.563524;0.001554;
976;507;0.103264;0.267361;0.999998;0.000356;-0.000504;0.001442;0.000181;0.001459;-0.000521;84.729565;0.001478;
1116;1197;1.218244;65.658848;0.998169;0.010381;-0.081207;0.223163;-0.001859;0.223175;-0.081218;-89.650152;0.225913;
1081;1857;0.012359;86.334339;1.000000;0.000199;-0.000237;0.001389;-0.000091;0.001394;-0.000242;-86.799476;0.001490;
1276;637;-0.183102;0.506761;0.999996;0.000557;-0.001159;0.003445;-0.001128;0.003706;-0.001421;-76.951837;0.003740;
1156;472;-0.011384;0.200676;1.000000;0.000111;-0.000551;0.001559;-0.000025;0.001560;-0.000551;-89.322764;0.001582;
1151;1017;-1.009560;15.810342;0.998870;0.007573;-0.060462;0.153011;-0.002481;0.153040;-0.060491;-89.334097;0.154155;
1121;497;0.008775;0.239623;1.000000;0.000171;-0.000654;0.001614;0.000021;0.001614;-0.000654;89.471780;0.001624;
1096;1527;0.128239;85.426887;0.999997;0.000564;-0.003563;0.008806;-0.000830;0.008862;-0.003618;-86.179637;0.008911;
1081;507;0.037491;0.258836;0.999999;0.000292;-0.000673;0.001635;0.000078;0.001638;-0.000676;88.076444;0.001646;
1136;1777;-0.001449;86.217988;1.000000;0.000079;-0.000531;0.001547;0.000004;0.001547;-0.000531;89.886509;0.001572;
1151;1852;-0.004171;86.327903;0.999999;0.000190;-0.000244;0.001391;0.000031;0.001392;-0.000245;88.905139;0.001486;
946;382;0.055258;0.093979;0.999992;0.000816;-0.000571;0.001611;0.000113;0.001617;-0.000577;87.054763;0.001639;
981;507;0.100153;0.268274;0.999999;0.000407;-0.000525;0.001474;0.000180;0.001490;-0.000541;84.905297;0.001509;
1071;1202;4.955160;65.983620;0.998288;0.010966;-0.083004;0.220176;-0.009316;0.220462;-0.083290;-88.241701;0.222646;
1271;642;-0.186903;0.529621;0.999996;0.000592;-0.001300;0.003719;-0.001209;0.003995;-0.001577;-77.136342;0.004025;
1086;1857;0.010818;86.334941;1.000000;0.000206;-0.000235;0.001386;-0.000083;0.001390;-0.000239;-87.086307;0.001486;
1011;412;0.042716;0.118952;1.000000;0.000111;-0.000394;0.001514;0.000150;0.001525;-0.000406;85.534740;0.001580;
1121;502;0.009232;0.248161;1.000000;0.000218;-0.000678;0.001634;0.000024;0.001634;-0.000678;89.404691;0.001642;
1126;1012;0.502572;15.154852;0.999134;0.006874;-0.058132;0.146636;0.000970;0.146641;-0.058137;89.728572;0.147685;
1101;1527;0.111088;85.427913;0.999995;0.000680;-0.003537;0.008791;-0.000718;0.008833;-0.003579;-86.677951;0.008885;
1106;497;0.018729;0.240370;0.999999;0.000253;-0.000651;0.001614;0.000040;0.001615;-0.000652;88.980521;0.001625;
1311;362;-0.031532;0.055635;1.000000;0.000119;-0.000353;0.001650;-0.000252;0.001682;-0.000384;-82.928069;0.001762;
1156;1762;-0.013613;86.193597;1.000000;0.000074;-0.000590;0.001581;0.000028;0.001581;-0.000590;89.250094;0.001598;
961;1682;0.138298;86.077579;0.999971;0.001309;-0.000348;0.001399;-0.000298;0.001449;-0.000397;-80.589272;0.001497;
1076;1202;4.539214;66.109060;0.998570;0.010902;-0.082347;0.218699;-0.008507;0.218939;-0.082587;-88.382665;0.221128;
986;507;0.096772;0.267884;0.999998;0.000366;-0.000541;0.001500;0.000179;0.001515;-0.000557;85.012645;0.001533;
1246;1657;-0.110484;86.011168;1.000000;0.000182;-0.000706;0.001934;0.000367;0.001984;-0.000756;82.239205;0.002002;
951;387;0.053497;0.100329;1.000000;0.000108;-0.000534;0.001568;0.000125;0.001576;-0.000541;86.609739;0.001601;
1161;712;-0.084380;0.940884;0.999996;0.000602;-0.003362;0.008390;-0.000564;0.008417;-0.003389;-87.257826;0.008470;
1121;507;0.009792;0.256650;1.000000;0.000194;-0.000704;0.001651;0.000025;0.001651;-0.000704;89.381470;0.001657;
1131;1012;0.207228;15.143327;0.999204;0.008054;-0.058043;0.146185;0.000309;0.146186;-0.058044;89.913184;0.147215;
1111;497;0.015639;0.240070;0.999999;0.000247;-0.000653;0.001613;0.000033;0.001613;-0.000654;89.161438;0.001623;
1311;367;-0.035270;0.063732;1.000000;0.000104;-0.000378;0.001641;-0.000236;0.001668;-0.000406;-83.421914;0.001740;
1066;1547;0.179315;85.576615;0.999997;0.000622;-0.002853;0.007067;-0.001232;0.007218;-0.003004;-83.026094;0.007252;
1161;1762;-0.016489;86.193354;1.000000;0.000079;-0.000589;0.001582;0.000035;0.001582;-0.000589;89.070177;0.001599;
1081;1202;4.089115;66.229976;0.998543;0.011115;-0.081698;0.217141;-0.007639;0.217336;-0.081893;-88.536718;0.219525;
976;532;0.112521;0.304080;0.999998;0.000350;-0.000508;0.001452;0.000256;0.001485;-0.000541;82.688707;0.001503;
956;387;0.051128;0.097153;1.000000;0.000122;-0.000502;0.001573;0.000135;0.001582;-0.000511;86.281230;0.001615;
1101;1617;0.041269;85.893390;0.999999;0.000173;-0.001297;0.003004;-0.000198;0.003013;-0.001306;-87.373111;0.003022;
1246;1662;-0.108208;86.019807;1.000000;0.000187;-0.000685;0.001867;0.000341;0.001911;-0.000729;82.523448;0.001929;
1161;717;-0.090898;0.984799;0.999996;0.000521;-0.003601;0.008966;-0.000599;0.008995;-0.003630;-87.275872;0.009050;
1311;372;-0.039079;0.071542;1.000000;0.000094;-0.000403;0.001625;-0.000202;0.001645;-0.000423;-84.364656;0.001708;
1121;512;0.010061;0.265016;0.999999;0.000194;-0.000730;0.001672;0.000027;0.001672;-0.000730;89.354398;0.001677;
1136;1012;-0.073993;15.133546;0.999170;0.009320;-0.057992;0.145880;-0.000362;0.145881;-0.057992;-89.898210;0.146899;
1116;497;0.011837;0.239634;1.000000;0.000208;-0.000654;0.001613;0.000027;0.001613;-0.000654;89.321166;0.001623;
1256;1587;-0.208241;85.807497;0.999996;0.000697;-0.001776;0.004648;0.001398;0.004939;-0.002067;78.239331;0.004961;
1166;1762;-0.019444;86.193157;1.000000;0.000086;-0.000588;0.001582;0.000041;0.001583;-0.000589;88.911062;0.001600;
1101;1202;2.359145;66.474234;0.998211;0.012647;-0.079084;0.211608;-0.004275;0.211671;-0.079147;-89.157696;0.213903;
1306;532;-0.116928;0.301154;0.999998;0.000353;-0.000505;0.001344;-0.000268;0.001382;-0.000543;-81.925689;0.001393;
961;387;0.049282;0.094348;1.000000;0.000144;-0.000479;0.001572;0.000141;0.001582;-0.000489;86.084923;0.001620;
1306;1692;-0.126646;86.080654;0.999999;0.000247;-0.000341;0.001444;0.000206;0.001467;-0.000364;83.487349;0.001528;
1246;1667;-0.106002;86.029005;1.000000;0.000181;-0.000668;0.001809;0.000317;0.001849;-0.000708;82.820121;0.001866;
1161;722;-0.097486;1.029852;0.999996;0.000482;-0.003850;0.009558;-0.000633;0.009588;-0.003879;-87.304760;0.009646;
1281;397;-0.043823;0.100101;1.000000;0.000119;-0.000386;0.001526;-0.000159;0.001539;-0.000399;-85.290231;0.001597;
1086;497;0.031458;0.241734;1.000000;0.000153;-0.000641;0.001618;0.000064;0.001620;-0.000643;88.382435;0.001631;
1141;1012;-0.374700;15.128723;0.999118;0.009424;-0.057906;0.145676;-0.001079;0.145681;-0.057912;-89.696361;0.146698;
1091;497;0.028440;0.241717;1.000000;0.000173;-0.000645;0.001618;0.000057;0.001619;-0.000647;88.560713;0.001630;
1146;1762;-0.007926;86.194345;1.000000;0.000071;-0.000590;0.001578;0.000016;0.001578;-0.000590;89.578628;0.001594;
1311;532;-0.119542;0.299372;0.999998;0.000334;-0.000505;0.001299;-0.000278;0.001340;-0.000547;-81.443535;0.001348;
1106;1202;1.977359;66.531509;0.998189;0.012441;-0.078400;0.210538;-0.003395;0.210578;-0.078440;-89.326902;0.212848;
976;387;0.043103;0.089232;1.000000;0.000099;-0.000390;0.001554;0.000158;0.001567;-0.000403;85.369399;0.001627;
1316;362;-0.033947;0.058786;1.000000;0.000098;-0.000377;0.001679;-0.000249;0.001708;-0.000406;-83.201112;0.001785;
1271;622;-0.153888;0.464032;0.999996;0.000521;-0.000942;0.002747;-0.000830;0.002925;-0.001120;-77.884717;0.002952;
1286;1867;-0.033685;86.339278;1.000000;0.000164;-0.000335;0.001544;0.000213;0.001567;-0.000359;83.625714;0.001642;
1316;532;-0.120816;0.300090;0.999997;0.000391;-0.000493;0.001245;-0.000294;0.001293;-0.000541;-80.649266;0.001299;
1151;1047;-1.274378;20.820399;0.998279;0.011827;-0.079693;0.216928;-0.002599;0.216950;-0.079716;-89.498094;0.219477;
1086;502;0.032484;0.249974;0.999999;0.000204;-0.000658;0.001629;0.000067;0.001631;-0.000660;88.323189;0.001641;
1096;497;0.025158;0.241480;1.000000;0.000192;-0.000648;0.001617;0.000051;0.001618;-0.000649;88.699883;0.001629;
1121;1012;0.797571;15.171044;0.999158;0.009347;-0.058301;0.147206;0.001660;0.147219;-0.058314;89.537296;0.148275;
1226;1782;-0.048035;86.219943;1.000000;0.000159;-0.000526;0.001562;0.000101;0.001567;-0.000531;87.235194;0.001594;
1151;1762;-0.010827;86.194187;1.000000;0.000069;-0.000589;0.001579;0.000022;0.001580;-0.000590;89.425088;0.001596;
1111;1202;1.582323;66.556986;0.998052;0.009390;-0.077919;0.209607;-0.002543;0.209629;-0.077942;-89.493222;0.211914;
1206;1552;-0.184496;85.611124;0.999996;0.000515;-0.002740;0.006738;0.001218;0.006892;-0.002894;82.791757;0.006922;
981;537;0.111676;0.312503;0.999998;0.000357;-0.000526;0.001490;0.000260;0.001523;-0.000559;82.760547;0.001541;
1161;472;-0.014329;0.200885;1.000000;0.000155;-0.000551;0.001561;-0.000031;0.001561;-0.000551;-89.146916;0.001584;
1031;862;1.773723;4.004955;0.999885;0.003797;-0.017752;0.038689;0.007507;0.039670;-0.018733;82.551411;0.039691;
1276;622;-0.158539;0.461678;0.999997;0.000408;-0.000927;0.002731;-0.000857;0.002922;-0.001118;-77.450231;0.002949;
1096;1722;0.027870;86.128893;1.000000;0.000099;-0.000754;0.001711;-0.000071;0.001713;-0.000756;-88.344058;0.001717;
1101;497;0.021855;0.240700;0.999999;0.000221;-0.000649;0.001615;0.000047;0.001616;-0.000650;88.810367;0.001627;
981;497;0.095563;0.252853;0.999998;0.000388;-0.000517;0.001476;0.000158;0.001488;-0.000529;85.497686;0.001509;
1141;1042;-0.434960;19.803846;0.998675;0.009966;-0.075732;0.204247;-0.001323;0.204253;-0.075738;-89.729277;0.206514;
1066;1192;5.958141;63.650750;0.998105;0.014044;-0.090447;0.250258;-0.010674;0.250592;-0.090781;-88.207278;0.253741;
1146;1012;-0.665785;15.147874;0.999156;0.008681;-0.057835;0.145552;-0.001806;0.145568;-0.057851;-89.491287;0.146585;
1226;1787;-0.046364;86.227562;1.000000;0.000170;-0.000512;0.001553;0.000102;0.001558;-0.000517;87.187587;0.001588;
1116;492;0.011447;0.233047;1.000000;0.000185;-0.000632;0.001600;0.000025;0.001601;-0.000632;89.368615;0.001612;
1221;432;-0.035201;0.143738;1.000000;0.000120;-0.000425;0.001508;-0.000111;0.001514;-0.000432;-86.730176;0.001560;
1091;562;0.042915;0.357290;0.999998;0.000342;-0.000940;0.002049;0.000128;0.002054;-0.000945;87.549863;0.002056;
1036;862;1.681362;4.004266;0.999891;0.003841;-0.017663;0.038723;0.007103;0.039604;-0.018544;82.929549;0.039630;
1271;617;-0.148623;0.451389;0.999997;0.000454;-0.000858;0.002544;-0.000748;0.002701;-0.001016;-78.129758;0.002728;
1146;1767;-0.007534;86.202218;1.000000;0.000073;-0.000569;0.001565;0.000015;0.001565;-0.000570;89.593796;0.001585;
1146;1017;-0.689375;15.794610;0.999058;0.007389;-0.060354;0.152962;-0.001810;0.152977;-0.060369;-89.513866;0.154105;
1121;492;0.008476;0.232873;1.000000;0.000124;-0.000631;0.001601;0.000019;0.001601;-0.000631;89.511151;0.001613;
971;512;0.106716;0.274557;0.999999;0.000297;-0.000560;0.001395;0.000178;0.001411;-0.000576;84.844349;0.001418;
1111;492;0.014686;0.233174;1.000000;0.000264;-0.000632;0.001601;0.000031;0.001601;-0.000632;89.216346;0.001613;
1226;1792;-0.044876;86.235567;1.000000;0.000139;-0.000497;0.001547;0.000103;0.001552;-0.000502;87.113415;0.001584;
976;597;0.143307;0.404132;0.999996;0.000477;-0.000566;0.001840;0.000605;0.001983;-0.000710;76.650877;0.002010;
1226;432;-0.037260;0.144292;1.000000;0.000109;-0.000429;0.001510;-0.000116;0.001517;-0.000436;-86.575877;0.001562;
1046;1572;0.168444;85.732853;0.999996;0.000599;-0.002079;0.005358;-0.001193;0.005544;-0.002266;-81.107028;0.005575;
971;487;0.096382;0.240226;0.999999;0.000358;-0.000614;0.001411;0.000084;0.001414;-0.000618;87.641900;0.001418;
1276;617;-0.152507;0.449269;0.999997;0.000387;-0.000845;0.002526;-0.000773;0.002694;-0.001014;-77.684165;0.002722;
1146;1772;-0.007096;86.209980;1.000000;0.000085;-0.000550;0.001556;0.000015;0.001556;-0.000550;89.588978;0.001578;
1131;887;0.072364;5.012883;0.999910;0.003252;-0.020567;0.046875;0.000178;0.046875;-0.020567;89.848632;0.046992;
1126;492;0.005525;0.232816;1.000000;0.000138;-0.000632;0.001601;0.000013;0.001601;-0.000632;89.666776;0.001613;
971;517;0.108900;0.282681;0.999999;0.000310;-0.000552;0.001392;0.000193;0.001411;-0.000571;84.381541;0.001420;
1176;1017;-2.554819;15.937419;0.999102;0.009088;-0.061858;0.155687;-0.005591;0.155830;-0.062001;-88.528799;0.156910;
1081;492;0.033630;0.234881;1.000000;0.000175;-0.000622;0.001604;0.000068;0.001606;-0.000624;88.254213;0.001619;
981;597;0.140862;0.406660;0.999996;0.000616;-0.000593;0.001854;0.000582;0.001986;-0.000725;77.285328;0.002010;
991;1672;0.117591;86.044743;1.000000;0.000146;-0.000509;0.001595;-0.000347;0.001651;-0.000565;-80.876638;0.001678;
1281;617;-0.156311;0.448209;0.999998;0.000424;-0.000828;0.002498;-0.000798;0.002680;-0.001009;-77.184886;0.002707;
1156;477;-0.011989;0.208634;1.000000;0.000116;-0.000569;0.001568;-0.000026;0.001568;-0.000570;-89.300060;0.001588;
1041;1572;0.179040;85.733867;0.999996;0.000643;-0.002092;0.005394;-0.001265;0.005602;-0.002300;-80.665088;0.005632;
986;542;0.111155;0.321292;0.999999;0.000359;-0.000517;0.001519;0.000255;0.001550;-0.000549;82.967253;0.001572;
1126;497;0.005858;0.239346;1.000000;0.000177;-0.000656;0.001615;0.000014;0.001615;-0.000656;89.641377;0.001624;
1141;1777;-0.004162;86.217873;1.000000;0.000095;-0.000531;0.001547;0.000009;0.001547;-0.000531;89.741658;0.001572;
971;522;0.111146;0.290638;0.999999;0.000281;-0.000542;0.001402;0.000207;0.001424;-0.000564;83.984769;0.001434;
1176;1022;-2.669494;16.687876;0.999223;0.009939;-0.064686;0.164598;-0.005699;0.164739;-0.064827;-88.576923;0.165980;
1121;487;0.008218;0.224387;1.000000;0.000125;-0.000609;0.001589;0.000018;0.001590;-0.000609;89.532556;0.001604;
1211;867;-1.352202;4.186805;0.999899;0.002640;-0.018145;0.040262;-0.005647;0.040803;-0.018686;-84.527947;0.040851;
1266;622;-0.148436;0.467819;0.999996;0.000546;-0.000945;0.002772;-0.000814;0.002943;-0.001115;-78.179895;0.002971;
1281;622;-0.162974;0.460457;0.999998;0.000411;-0.000906;0.002704;-0.000882;0.002908;-0.001110;-76.973133;0.002935;
1021;1662;0.105800;86.022880;1.000000;0.000153;-0.000672;0.001821;-0.000332;0.001864;-0.000715;-82.534514;0.001881;
1161;477;-0.014974;0.208729;1.000000;0.000147;-0.000569;0.001570;-0.000032;0.001570;-0.000570;-89.131071;0.001590;
1056;1562;0.168759;85.675716;0.999996;0.000590;-0.002369;0.005965;-0.001187;0.006131;-0.002535;-82.051620;0.006161;
991;542;0.107908;0.321648;0.999999;0.000374;-0.000550;0.001551;0.000252;0.001580;-0.000580;83.264290;0.001599;
971;527;0.113309;0.296557;0.999999;0.000305;-0.000543;0.001396;0.000231;0.001423;-0.000570;83.293894;0.001433;
1126;502;0.006112;0.248046;1.000000;0.000246;-0.000681;0.001635;0.000016;0.001635;-0.000681;89.597954;0.001643;
1176;1027;-2.791503;17.544514;0.999110;0.013927;-0.067735;0.174101;-0.005782;0.174239;-0.067873;-88.631199;0.175651;
1281;627;-0.170054;0.473761;0.999997;0.000473;-0.000978;0.002929;-0.000955;0.003150;-0.001199;-76.968904;0.003180;
1126;487;0.005364;0.224378;1.000000;0.000123;-0.000610;0.001589;0.000012;0.001589;-0.000610;89.688126;0.001603;
1161;1732;-0.020553;86.145553;1.000000;0.000086;-0.000720;0.001675;0.000049;0.001676;-0.000721;88.834211;0.001681;
1196;882;-1.236246;4.798121;0.999887;0.002354;-0.020420;0.045625;-0.004840;0.045978;-0.020772;-85.830909;0.046049;
956;392;0.055089;0.105087;1.000000;0.000095;-0.000509;0.001539;0.000128;0.001547;-0.000517;86.427191;0.001575;
1136;722;-0.002414;1.027596;0.999996;0.000545;-0.003835;0.009478;-0.000031;0.009478;-0.003835;-89.866362;0.009536;
1021;1667;0.103201;86.031850;1.000000;0.000153;-0.000658;0.001781;-0.000309;0.001820;-0.000697;-82.882662;0.001836;
1071;1537;0.188790;85.509249;0.999996;0.000495;-0.003219;0.007872;-0.001269;0.008015;-0.003363;-83.555133;0.008049;
1276;642;-0.195196;0.527394;0.999996;0.000533;-0.001273;0.003704;-0.001246;0.003998;-0.001567;-76.705121;0.004029;
986;497;0.092244;0.251394;0.999999;0.000280;-0.000530;0.001498;0.000161;0.001511;-0.000543;85.482856;0.001531;
1091;492;0.027610;0.233961;1.000000;0.000145;-0.000628;0.001603;0.000055;0.001604;-0.000630;88.591414;0.001617;
1191;567;-0.055865;0.366417;0.999998;0.000357;-0.000921;0.002049;-0.000175;0.002060;-0.000931;-86.645140;0.002063;
1131;487;0.002361;0.224250;1.000000;0.000127;-0.000609;0.001588;0.000006;0.001588;-0.000609;89.851279;0.001603;
1116;1012;1.097355;15.192408;0.999217;0.009448;-0.058585;0.147830;0.002380;0.147857;-0.058612;89.339575;0.148911;
1201;882;-1.337868;4.801288;0.999894;0.002309;-0.020518;0.045728;-0.005254;0.046142;-0.020932;-85.493376;0.046208;
1116;1782;0.008661;86.225469;1.000000;0.000078;-0.000513;0.001540;-0.000019;0.001540;-0.000513;-89.462400;0.001568;
961;392;0.053083;0.102278;1.000000;0.000118;-0.000487;0.001545;0.000131;0.001553;-0.000496;86.315855;0.001587;
1251;677;-0.244919;0.701108;0.999994;0.000686;-0.002348;0.005931;-0.001733;0.006279;-0.002697;-78.642122;0.006300;
1026;1657;0.104718;86.013052;1.000000;0.000161;-0.000721;0.001918;-0.000349;0.001964;-0.000766;-82.590599;0.001979;
971;602;0.152340;0.421477;0.999923;0.002122;-0.000586;0.001895;0.000687;0.002072;-0.000763;75.507950;0.002096;
1096;492;0.024323;0.233561;1.000000;0.000191;-0.000629;0.001603;0.000049;0.001604;-0.000630;88.746453;0.001616;
1151;1512;-0.078289;85.279092;0.999995;0.000602;-0.004363;0.010753;0.000425;0.010765;-0.004375;88.392512;0.010828;
996;502;0.088691;0.258559;0.999999;0.000237;-0.000562;0.001538;0.000167;0.001551;-0.000575;85.473152;0.001568;
1196;567;-0.060616;0.365588;0.999998;0.000318;-0.000901;0.002020;-0.000187;0.002032;-0.000913;-86.353666;0.002036;
1131;492;0.002487;0.232479;1.000000;0.000162;-0.000632;0.001601;0.000007;0.001601;-0.000632;89.832775;0.001612;
1116;1017;1.150574;15.846934;0.999054;0.011615;-0.061194;0.155419;0.002359;0.155444;-0.061220;89.376082;0.156608;
966;387;0.047065;0.091919;1.000000;0.000111;-0.000462;0.001568;0.000145;0.001578;-0.000472;85.935194;0.001620;
1121;1782;0.006064;86.225448;1.000000;0.000082;-0.000512;0.001538;-0.000013;0.001538;-0.000512;-89.634560;0.001567;
1206;882;-1.437420;4.802610;0.999881;0.002856;-0.020636;0.045844;-0.005696;0.046329;-0.021121;-85.138569;0.046389;
976;602;0.147719;0.412900;0.999997;0.000435;-0.000606;0.001921;0.000674;0.002090;-0.000774;75.967205;0.002113;
1031;1657;0.100978;86.011865;1.000000;0.000159;-0.000754;0.001958;-0.000339;0.002000;-0.000796;-82.986438;0.002014;
1046;627;0.111738;0.499585;0.999995;0.000615;-0.001175;0.003000;0.000583;0.003080;-0.001254;82.203218;0.003098;
1101;492;0.021308;0.233191;1.000000;0.000214;-0.000629;0.001602;0.000044;0.001603;-0.000629;88.870596;0.001615;
1006;532;0.094677;0.305958;0.999999;0.000368;-0.000596;0.001597;0.000199;0.001615;-0.000614;84.858503;0.001630;
1131;497;0.002328;0.239125;1.000000;0.000177;-0.000656;0.001615;0.000007;0.001615;-0.000656;89.812615;0.001625;
1026;1582;0.185216;85.786850;0.999996;0.000508;-0.001855;0.004858;-0.001301;0.005102;-0.002099;-79.408270;0.005128;
1201;567;-0.065393;0.365139;0.999998;0.000351;-0.000878;0.001992;-0.000197;0.002005;-0.000891;-86.093508;0.002009;
966;392;0.050673;0.099830;1.000000;0.000107;-0.000471;0.001546;0.000134;0.001555;-0.000480;86.214357;0.001592;
1181;1017;-2.875759;15.988500;0.999253;0.008202;-0.062429;0.156710;-0.006282;0.156890;-0.062609;-88.359308;0.157952;
981;602;0.144832;0.414454;0.999996;0.000553;-0.000636;0.001948;0.000647;0.002101;-0.000790;76.693670;0.002123;
1126;1782;0.003595;86.225612;1.000000;0.000091;-0.000511;0.001538;-0.000007;0.001538;-0.000511;-89.791065;0.001566;
1186;882;-1.030350;4.796326;0.999881;0.002288;-0.020278;0.045421;-0.004025;0.045667;-0.020523;-86.507296;0.045745;
1281;647;-0.214657;0.544480;0.999995;0.000735;-0.001358;0.004003;-0.001410;0.004351;-0.001707;-76.128703;0.004384;
1036;1657;0.097209;86.010674;1.000000;0.000119;-0.000784;0.001999;-0.000328;0.002037;-0.000822;-83.358491;0.002049;
1126;507;0.006478;0.256720;1.000000;0.000232;-0.000707;0.001654;0.000017;0.001654;-0.000707;89.595360;0.001659;
951;392;0.057198;0.107918;1.000000;0.000118;-0.000539;0.001526;0.000122;0.001533;-0.000546;86.640131;0.001554;
1036;1572;0.190154;85.735110;0.999996;0.000499;-0.002110;0.005433;-0.001337;0.005663;-0.002340;-80.237487;0.005691;
1281;652;-0.217528;0.565935;0.999902;0.003083;-0.001516;0.004345;-0.001531;0.004721;-0.001892;-76.206442;0.004752;
1181;1022;-3.005869;16.745585;0.999272;0.009007;-0.065278;0.165716;-0.006411;0.165894;-0.065456;-88.411335;0.167118;
1016;532;0.089466;0.305908;0.999999;0.000323;-0.000622;0.001628;0.000190;0.001644;-0.000638;85.194770;0.001658;
996;617;0.151129;0.453509;0.999995;0.000707;-0.000875;0.002501;0.000812;0.002686;-0.001060;77.162631;0.002706;
1011;532;0.091880;0.305351;0.999999;0.000306;-0.000608;0.001612;0.000196;0.001629;-0.000625;84.999065;0.001644;
1191;882;-1.132429;4.797560;0.999887;0.002539;-0.020348;0.045520;-0.004430;0.045816;-0.020644;-86.169568;0.045891;
1096;1767;0.020951;86.201420;1.000000;0.000101;-0.000569;0.001572;-0.000045;0.001573;-0.000570;-88.807661;0.001593;
1041;1657;0.093483;86.009504;1.000000;0.000152;-0.000812;0.002039;-0.000318;0.002074;-0.000848;-83.710565;0.002085;
1321;357;-0.033041;0.052359;0.999996;0.000528;-0.000380;0.001729;-0.000264;0.001762;-0.000413;-82.963875;0.001843;
1126;512;0.006616;0.265263;1.000000;0.000189;-0.000733;0.001674;0.000017;0.001675;-0.000733;89.598525;0.001679;
1181;1027;-3.148227;17.592451;0.999227;0.009543;-0.068372;0.175256;-0.006490;0.175429;-0.068545;-88.475151;0.176820;
1281;657;-0.227028;0.591710;0.999721;0.004595;-0.001618;0.004562;-0.001660;0.004980;-0.002036;-75.873846;0.005007;
996;542;0.105530;0.322345;0.999999;0.000501;-0.000562;0.001575;0.000239;0.001601;-0.000589;83.695281;0.001620;
996;622;0.156214;0.467967;0.999996;0.000655;-0.000952;0.002706;0.000893;0.002912;-0.001158;76.991576;0.002933;
1116;487;0.011175;0.224522;1.000000;0.000179;-0.000610;0.001590;0.000024;0.001590;-0.000611;89.387273;0.001605;
1001;537;0.101150;0.314135;0.999998;0.000488;-0.000582;0.001592;0.000216;0.001614;-0.000603;84.371976;0.001631;
986;1667;0.122255;86.038342;1.000000;0.000125;-0.000484;0.001599;-0.000386;0.001668;-0.000553;-79.831361;0.001699;
1046;872;1.644793;4.404275;0.999886;0.003088;-0.019165;0.042323;0.006734;0.043052;-0.019894;83.822309;0.043093;
1176;1717;-0.034682;86.119467;1.000000;0.000112;-0.000771;0.001743;0.000090;0.001747;-0.000774;87.950274;0.001750;
1186;447;-0.023544;0.163737;1.000000;0.000121;-0.000460;0.001520;-0.000065;0.001522;-0.000462;-88.118826;0.001561;
1096;482;0.022725;0.217380;1.000000;0.000212;-0.000589;0.001586;0.000045;0.001587;-0.000590;88.804869;0.001604;
1271;627;-0.159642;0.477071;0.999996;0.000577;-0.001021;0.002960;-0.000906;0.003157;-0.001217;-77.762880;0.003184;
1176;1522;-0.161538;85.375391;0.999995;0.000544;-0.003886;0.009602;0.000979;0.009672;-0.003957;85.868072;0.009725;
1111;1007;1.333457;14.567545;0.999364;0.006613;-0.056451;0.140864;0.003094;0.140913;-0.056500;89.101758;0.141832;
996;627;0.163596;0.479942;0.999995;0.000817;-0.001029;0.002965;0.000960;0.003184;-0.001247;77.164454;0.003209;
991;502;0.091455;0.259406;0.999999;0.000280;-0.000551;0.001519;0.000171;0.001533;-0.000565;85.304254;0.001550;
1086;487;0.029559;0.226624;1.000000;0.000124;-0.000608;0.001594;0.000059;0.001595;-0.000609;88.459351;0.001610;
986;1672;0.119531;86.045880;1.000000;0.000152;-0.000479;0.001582;-0.000358;0.001642;-0.000540;-80.415624;0.001674;
1046;532;0.069785;0.303440;0.999999;0.000338;-0.000692;0.001680;0.000160;0.001691;-0.000703;86.162131;0.001699;
1181;1717;-0.038525;86.119431;1.000000;0.000103;-0.000760;0.001735;0.000098;0.001739;-0.000764;87.745824;0.001743;
1066;877;1.315753;4.590917;0.999882;0.002662;-0.019710;0.044019;0.005259;0.044450;-0.020141;85.314181;0.044515;
1121;482;0.008038;0.215767;1.000000;0.000109;-0.000589;0.001579;0.000017;0.001579;-0.000589;89.548945;0.001596;
1271;632;-0.167906;0.490765;0.999996;0.000591;-0.001095;0.003216;-0.000993;0.003434;-0.001313;-77.632135;0.003465;
1061;442;0.032732;0.158215;1.000000;0.000108;-0.000457;0.001527;0.000091;0.001531;-0.000461;87.384987;0.001571;
1111;1012;1.394485;15.209979;0.999215;0.007294;-0.058976;0.148606;0.003122;0.148653;-0.059023;89.138424;0.149699;
1156;1022;-1.386597;16.563053;0.998982;0.010140;-0.063468;0.161690;-0.003026;0.161731;-0.063509;-89.230056;0.162968;
1276;612;-0.146618;0.435908;0.999997;0.000443;-0.000782;0.002329;-0.000691;0.002475;-0.000929;-78.029769;0.002501;
1026;512;0.075342;0.272451;0.999998;0.000335;-0.000624;0.001619;0.000151;0.001629;-0.000634;86.173533;0.001642;
1086;492;0.030585;0.234602;1.000000;0.000129;-0.000625;0.001603;0.000062;0.001604;-0.000627;88.411670;0.001617;
986;1677;0.117765;86.053791;1.000000;0.000189;-0.000479;0.001570;-0.000330;0.001622;-0.000531;-81.078619;0.001654;
1046;537;0.071047;0.311529;0.999999;0.000323;-0.000701;0.001700;0.000170;0.001712;-0.000713;85.961457;0.001720;
1071;877;1.223681;4.586099;0.999897;0.002642;-0.019604;0.043914;0.004851;0.044282;-0.019973;85.657599;0.044353;
1271;637;-0.176443;0.509263;0.999996;0.000609;-0.001185;0.003455;-0.001095;0.003701;-0.001431;-77.364530;0.003733;
1091;1727;0.030622;86.137173;1.000000;0.000108;-0.000725;0.001677;-0.000072;0.001679;-0.000727;-88.275035;0.001684;
1126;482;0.005337;0.215963;1.000000;0.000114;-0.000588;0.001578;0.000011;0.001578;-0.000589;89.699366;0.001595;
1281;612;-0.149603;0.434263;0.999997;0.000559;-0.000771;0.002305;-0.000713;0.002462;-0.000928;-77.557944;0.002487;
1111;1017;1.444580;15.876463;0.998917;0.009801;-0.061633;0.156278;0.003110;0.156322;-0.061678;89.182453;0.157477;
1066;447;0.031455;0.165363;1.000000;0.000114;-0.000471;0.001531;0.000083;0.001535;-0.000475;87.628480;0.001572;
1161;1022;-1.698376;16.590784;0.999060;0.008353;-0.063748;0.162253;-0.003659;0.162312;-0.063807;-89.072762;0.163543;
991;1667;0.119944;86.036811;1.000000;0.000144;-0.000512;0.001613;-0.000373;0.001677;-0.000576;-80.327090;0.001704;
1091;487;0.026774;0.226125;1.000000;0.000160;-0.000609;0.001594;0.000053;0.001595;-0.000611;88.632725;0.001610;
1026;517;0.077030;0.279830;0.999998;0.000327;-0.000631;0.001627;0.000157;0.001637;-0.000642;86.046138;0.001650;
1131;482;0.002403;0.215844;1.000000;0.000129;-0.000588;0.001577;0.000005;0.001577;-0.000588;89.855734;0.001594;
1286;612;-0.152550;0.432722;0.999997;0.000528;-0.000743;0.002274;-0.000728;0.002441;-0.000910;-77.112579;0.002467;
1106;1372;0.474939;82.061849;0.999886;0.003048;-0.018320;0.041622;-0.001928;0.041684;-0.018382;-88.159269;0.041781;
981;542;0.113319;0.321271;0.999998;0.000345;-0.000506;0.001488;0.000266;0.001523;-0.000541;82.544141;0.001544;
1316;367;-0.037935;0.067011;1.000000;0.000098;-0.000402;0.001664;-0.000232;0.001690;-0.000428;-83.682989;0.001757;
1146;1042;-0.828571;19.790150;0.998436;0.011002;-0.075777;0.203984;-0.002053;0.203999;-0.075792;-89.579657;0.206231;
1116;1007;1.057269;14.565184;0.999305;0.007593;-0.056124;0.140184;0.002379;0.140212;-0.056152;89.305647;0.141135;
1281;402;-0.046537;0.107738;1.000000;0.000123;-0.000400;0.001523;-0.000145;0.001533;-0.000411;-85.721384;0.001588;
1166;1022;-2.009956;16.614430;0.999068;0.007005;-0.063938;0.162938;-0.004346;0.163022;-0.064021;-88.903017;0.164268;
981;502;0.097208;0.260973;0.999998;0.000367;-0.000522;0.001474;0.000168;0.001488;-0.000536;85.216443;0.001507;
1076;1527;0.199704;85.421959;0.999995;0.000703;-0.003638;0.008853;-0.001284;0.008984;-0.003769;-84.191345;0.009022;
1276;1732;-0.095485;86.136013;1.000000;0.000200;-0.000561;0.001535;0.000186;0.001551;-0.000578;84.980758;0.001568;
1286;617;-0.159812;0.445350;0.999998;0.000534;-0.000795;0.002459;-0.000815;0.002652;-0.000988;-76.689673;0.002680;
1111;482;0.013574;0.216536;1.000000;0.000174;-0.000590;0.001581;0.000028;0.001582;-0.000590;89.260729;0.001599;
966;512;0.108697;0.275073;0.999998;0.000325;-0.000564;0.001353;0.000175;0.001368;-0.000579;84.824765;0.001374;
1316;372;-0.041494;0.074732;1.000000;0.000102;-0.000425;0.001640;-0.000192;0.001658;-0.000443;-84.721857;0.001716;
1106;1377;0.455818;82.258336;0.999902;0.003013;-0.017529;0.039740;-0.001862;0.039801;-0.017590;-88.139293;0.039890;
951;397;0.060022;0.115518;1.000000;0.000104;-0.000552;0.001483;0.000119;0.001490;-0.000559;86.654618;0.001505;
1151;1042;-1.198748;19.811915;0.998147;0.014692;-0.075985;0.203869;-0.002693;0.203895;-0.076011;-89.448768;0.206083;
1121;1007;0.761029;14.546212;0.999203;0.008273;-0.055898;0.139645;0.001674;0.139659;-0.055912;89.509605;0.140580;
1286;622;-0.167745;0.460004;0.999998;0.000519;-0.000870;0.002658;-0.000901;0.002875;-0.001087;-76.474886;0.002903;
1166;1027;-2.104657;17.460208;0.998971;0.006884;-0.066896;0.172403;-0.004443;0.172485;-0.066979;-88.936804;0.173914;
986;502;0.094353;0.260240;0.999999;0.000342;-0.000537;0.001498;0.000170;0.001512;-0.000551;85.253470;0.001530;
1081;1527;0.180516;85.422800;0.999997;0.000561;-0.003618;0.008840;-0.001170;0.008949;-0.003726;-84.681720;0.008990;
966;517;0.111105;0.282247;0.999998;0.000423;-0.000553;0.001344;0.000192;0.001363;-0.000572;84.288402;0.001368;
1116;482;0.010804;0.215939;1.000000;0.000149;-0.000590;0.001580;0.000023;0.001580;-0.000590;89.404587;0.001597;
1216;1872;-0.014201;86.353762;1.000000;0.000163;-0.000187;0.001379;0.000150;0.001393;-0.000201;84.581260;0.001506;
956;397;0.057965;0.112994;1.000000;0.000079;-0.000522;0.001504;0.000122;0.001512;-0.000529;86.561164;0.001534;
1286;627;-0.175843;0.473339;0.999997;0.000534;-0.000935;0.002892;-0.000970;0.003124;-0.001167;-76.565383;0.003157;
1051;432;0.033824;0.143925;1.000000;0.000120;-0.000426;0.001513;0.000108;0.001519;-0.000432;86.824222;0.001566;
1126;1007;0.473398;14.530683;0.999239;0.007482;-0.055788;0.139173;0.000983;0.139178;-0.055793;89.711197;0.140086;
1171;1377;-0.673301;82.246935;0.999902;0.002517;-0.017618;0.039984;0.002506;0.040093;-0.017727;87.513433;0.040183;
1126;1047;0.780224;20.823234;0.998659;0.012715;-0.079113;0.218430;0.001036;0.218434;-0.079116;89.800459;0.221182;
1166;1032;-2.195189;18.189332;0.998981;0.008389;-0.070054;0.182458;-0.004574;0.182540;-0.070137;-88.962666;0.184164;
1086;1527;0.163049;85.423513;0.999997;0.000453;-0.003606;0.008826;-0.001056;0.008915;-0.003695;-85.179576;0.008959;
966;522;0.112956;0.290879;0.999998;0.000409;-0.000542;0.001358;0.000205;0.001380;-0.000564;83.896611;0.001388;
1066;1197;5.657404;64.768599;0.998378;0.010629;-0.086950;0.235539;-0.010659;0.235890;-0.087301;-88.109015;0.238530;
1081;482;0.031243;0.218498;1.000000;0.000165;-0.000588;0.001590;0.000063;0.001591;-0.000589;88.339004;0.001609;
961;397;0.055812;0.110318;1.000000;0.000091;-0.000499;0.001517;0.000123;0.001525;-0.000507;86.528142;0.001553;
1271;612;-0.143151;0.438399;0.999996;0.000443;-0.000790;0.002354;-0.000674;0.002492;-0.000928;-78.395479;0.002519;
1281;1862;-0.035082;86.332593;1.000000;0.000160;-0.000340;0.001530;0.000205;0.001552;-0.000363;83.823282;0.001624;
961;402;0.058290;0.117971;1.000000;0.000115;-0.000513;0.001505;0.000109;0.001511;-0.000519;86.908195;0.001535;
1236;1367;-2.023366;81.783174;0.999890;0.002639;-0.019975;0.043630;0.008044;0.044631;-0.020976;82.903168;0.044658;
1131;1007;0.206274;14.519855;0.999294;0.008510;-0.055714;0.138806;0.000328;0.138806;-0.055715;89.903396;0.139703;
1126;1052;0.840656;21.888832;0.998018;0.014283;-0.082752;0.232319;0.001286;0.232325;-0.082757;89.766175;0.235505;
966;527;0.115326;0.295573;0.999998;0.000397;-0.000543;0.001351;0.000234;0.001379;-0.000572;83.075569;0.001386;
1161;1037;-1.907035;18.984849;0.998674;0.012215;-0.073151;0.192690;-0.003962;0.192749;-0.073210;-89.146369;0.194596;
991;1587;0.233390;85.822440;0.999996;0.000610;-0.001684;0.004569;-0.001633;0.004970;-0.002085;-76.207535;0.004991;
1081;487;0.032577;0.227312;1.000000;0.000148;-0.000606;0.001596;0.000066;0.001598;-0.000608;88.296240;0.001613;
1066;1202;5.395578;65.846468;0.998446;0.009919;-0.083325;0.221651;-0.010669;0.222024;-0.083698;-87.998839;0.224253;
966;397;0.053557;0.107737;1.000000;0.000102;-0.000483;0.001525;0.000124;0.001533;-0.000491;86.471900;0.001566;
1136;887;-0.030713;5.006158;0.999925;0.002513;-0.020563;0.046889;-0.000188;0.046890;-0.020564;-89.840520;0.047008;
1281;1867;-0.032136;86.340201;1.000000;0.000187;-0.000317;0.001529;0.000220;0.001554;-0.000343;83.294678;0.001633;
966;402;0.056174;0.115713;1.000000;0.000118;-0.000497;0.001515;0.000111;0.001521;-0.000503;86.845705;0.001550;
1136;1007;-0.082375;14.531413;0.999326;0.008103;-0.055663;0.138554;-0.000341;0.138554;-0.055664;-89.899392;0.139443;
1126;1057;0.883178;22.985484;0.997767;0.012445;-0.086510;0.247666;0.001489;0.247673;-0.086516;89.744748;0.251394;
1051;1357;1.727546;81.367190;0.999906;0.002680;-0.021780;0.048441;-0.006933;0.049119;-0.022458;-84.415259;0.049179;
971;507;0.105442;0.267437;0.999999;0.000353;-0.000576;0.001400;0.000157;0.001413;-0.000588;85.492845;0.001419;
1126;1017;0.536040;15.819628;0.999192;0.008017;-0.060637;0.154033;0.000948;0.154037;-0.060641;89.747049;0.155193;
1066;1542;0.192706;85.541555;0.999996;0.000531;-0.003040;0.007485;-0.001299;0.007643;-0.003198;-83.067408;0.007676;
1136;482;-0.000684;0.215785;1.000000;0.000146;-0.000589;0.001577;-0.000002;0.001577;-0.000589;-89.949835;0.001594;
1086;1202;3.645755;66.296627;0.998608;0.012351;-0.081082;0.215598;-0.006730;0.215751;-0.081235;-88.701182;0.217933;
971;387;0.044909;0.090439;1.000000;0.000099;-0.000447;0.001560;0.000146;0.001571;-0.000458;85.847416;0.001616;
1281;1872;-0.028837;86.347971;1.000000;0.000159;-0.000292;0.001518;0.000236;0.001548;-0.000323;82.697928;0.001633;
971;402;0.054184;0.114024;1.000000;0.000125;-0.000482;0.001521;0.000112;0.001527;-0.000488;86.815642;0.001560;
1141;887;-0.133184;5.005840;0.999916;0.003057;-0.020577;0.046907;-0.000551;0.046912;-0.020582;-89.531875;0.047029;
1141;1007;-0.357748;14.526694;0.999376;0.007879;-0.055572;0.138394;-0.001042;0.138400;-0.055577;-89.692191;0.139291;
1131;1047;0.342223;20.748992;0.998824;0.012493;-0.079166;0.217860;0.000335;0.217860;-0.079167;89.935405;0.220555;
1226;1362;-1.893037;81.571858;0.999897;0.002814;-0.020754;0.045979;0.007465;0.046804;-0.021579;83.694577;0.046851;
1131;997;0.180371;13.285701;0.999449;0.007546;-0.051257;0.124661;0.000432;0.124662;-0.051258;89.859240;0.125316;
1181;562;-0.045068;0.356642;0.999998;0.000342;-0.000935;0.002052;-0.000142;0.002059;-0.000941;-87.281108;0.002061;
1136;487;-0.000771;0.224072;1.000000;0.000139;-0.000610;0.001589;-0.000002;0.001589;-0.000610;-89.940293;0.001603;
1091;1202;3.228431;66.345276;0.998543;0.013534;-0.080513;0.214152;-0.005818;0.214267;-0.080628;-88.869229;0.216442;
1166;1517;-0.132429;85.328409;0.999995;0.000587;-0.004130;0.010177;0.000778;0.010219;-0.004172;86.895119;0.010276;
971;392;0.048385;0.098403;1.000000;0.000085;-0.000457;0.001544;0.000135;0.001553;-0.000466;86.153893;0.001594;
956;402;0.060455;0.120299;1.000000;0.000104;-0.000537;0.001491;0.000109;0.001497;-0.000543;86.936724;0.001515;
1286;1872;-0.030252;86.347093;1.000000;0.000152;-0.000310;0.001534;0.000230;0.001562;-0.000339;83.001186;0.001644;
1226;857;-1.489287;3.811431;0.999889;0.002865;-0.016795;0.036856;-0.006373;0.037603;-0.017542;-83.318051;0.037631;
1136;1002;-0.080879;13.881427;0.999458;0.006755;-0.053393;0.131345;-0.000283;0.131345;-0.053393;-89.912380;0.132108;
1136;1047;-0.039795;20.756306;0.998610;0.011048;-0.079234;0.217411;-0.000387;0.217412;-0.079234;-89.925273;0.220059;
1081;1357;1.079794;81.389821;0.999882;0.003501;-0.021322;0.047949;-0.004217;0.048205;-0.021577;-86.528980;0.048293;
1136;997;-0.076383;13.282156;0.999439;0.006303;-0.051227;0.124486;-0.000238;0.124486;-0.051227;-89.922341;0.125134;
1011;537;0.094092;0.314199;0.999998;0.000279;-0.000608;0.001624;0.000206;0.001642;-0.000627;84.763435;0.001658;
1086;477;0.027762;0.209605;1.000000;0.000124;-0.000572;0.001579;0.000055;0.001581;-0.000573;88.527177;0.001601;
1096;1202;2.788142;66.392603;0.998358;0.012287;-0.079775;0.212818;-0.005081;0.212906;-0.079863;-89.005531;0.215109;
951;402;0.062659;0.122923;1.000000;0.000114;-0.000570;0.001469;0.000107;0.001474;-0.000575;86.991525;0.001486;
971;397;0.051159;0.106327;1.000000;0.000101;-0.000469;0.001529;0.000125;0.001537;-0.000477;86.444895;0.001573;
1051;1567;0.168327;85.703587;0.999996;0.000512;-0.002224;0.005664;-0.001196;0.005841;-0.002401;-81.565620;0.005872;
1291;1872;-0.031766;86.346401;1.000000;0.000169;-0.000331;0.001551;0.000219;0.001576;-0.000357;83.457927;0.001653;
1226;862;-1.558196;3.996011;0.999882;0.003090;-0.017558;0.038544;-0.006530;0.039294;-0.018308;-83.447638;0.039325;
1136;1052;-0.054112;21.840674;0.998351;0.010920;-0.082943;0.231687;-0.000198;0.231687;-0.082943;-89.963864;0.234782;
1141;1002;-0.353635;13.883539;0.999432;0.006552;-0.053311;0.131255;-0.000963;0.131260;-0.053316;-89.700928;0.132028;
1046;1357;1.833533;81.366946;0.999907;0.002723;-0.021855;0.048482;-0.007393;0.049251;-0.022624;-84.064012;0.049305;
1141;997;-0.337962;13.278329;0.999413;0.006059;-0.051149;0.124406;-0.000925;0.124411;-0.051154;-89.698075;0.125063;
1091;477;0.025164;0.208971;1.000000;0.000127;-0.000572;0.001578;0.000050;0.001580;-0.000573;88.678160;0.001599;
986;1597;0.204378;85.868002;0.999961;0.001787;-0.001415;0.004030;-0.001456;0.004395;-0.001780;-75.933495;0.004422;
1016;537;0.091314;0.314233;0.999999;0.000352;-0.000623;0.001639;0.000201;0.001657;-0.000640;84.966089;0.001671;
1081;1207;3.862088;67.201350;0.998627;0.009712;-0.078022;0.204792;-0.007536;0.204992;-0.078223;-88.474792;0.206900;
1281;407;-0.049292;0.115740;1.000000;0.000120;-0.000412;0.001519;-0.000132;0.001528;-0.000421;-86.111497;0.001578;
1286;402;-0.048761;0.109841;1.000000;0.000138;-0.000410;0.001526;-0.000136;0.001535;-0.000420;-85.997189;0.001587;
1211;872;-1.412399;4.377176;0.999901;0.002831;-0.018946;0.042060;-0.005806;0.042607;-0.019494;-84.611754;0.042659;
1251;1647;-0.119783;85.993370;0.999999;0.000194;-0.000737;0.002065;0.000451;0.002136;-0.000807;81.081775;0.002157;
1136;1042;-0.040108;19.801500;0.998812;0.010426;-0.075631;0.204622;-0.000537;0.204623;-0.075632;-89.890136;0.206929;
1146;1002;-0.637924;13.885268;0.999411;0.007958;-0.053259;0.131261;-0.001682;0.131276;-0.053274;-89.477827;0.132050;
1146;997;-0.606365;13.274428;0.999414;0.007768;-0.051107;0.124419;-0.001641;0.124434;-0.051122;-89.464551;0.125092;
1096;477;0.021950;0.208757;1.000000;0.000174;-0.000570;0.001576;0.000044;0.001577;-0.000571;88.829131;0.001597;
946;387;0.060282;0.107347;0.999989;0.000796;-0.000581;0.001557;0.000110;0.001562;-0.000586;87.060048;0.001579;
1181;1367;-0.929183;81.832295;0.999887;0.003161;-0.019299;0.043625;0.003516;0.043821;-0.019495;86.811470;0.043909;
1021;527;0.084134;0.297083;0.999999;0.000346;-0.000634;0.001629;0.000178;0.001643;-0.000648;85.531597;0.001655;
1086;1207;3.471684;67.266103;0.998578;0.009960;-0.077424;0.203199;-0.006650;0.203356;-0.077581;-88.643232;0.205251;
1246;1582;-0.199706;85.783231;0.999996;0.000519;-0.001909;0.004939;0.001366;0.005201;-0.002171;79.124037;0.005225;
1016;417;0.043060;0.125407;1.000000;0.000133;-0.000402;0.001514;0.000145;0.001525;-0.000413;85.698764;0.001578;
1211;877;-1.479207;4.590538;0.999875;0.002984;-0.019783;0.043905;-0.005981;0.044462;-0.020340;-84.681646;0.044515;
1146;1007;-0.654823;14.517723;0.999378;0.008908;-0.055504;0.138335;-0.001766;0.138351;-0.055520;-89.478010;0.139247;
946;392;0.066687;0.121256;0.999981;0.000996;-0.000585;0.001502;0.000112;0.001508;-0.000591;86.925658;0.001520;
1151;997;-0.880797;13.298169;0.999300;0.010072;-0.051178;0.124516;-0.002323;0.124547;-0.051209;-89.242512;0.125201;
1271;1727;-0.094705;86.127842;1.000000;0.000190;-0.000576;0.001555;0.000191;0.001573;-0.000593;84.915886;0.001588;
1071;1067;6.505772;26.172106;0.997864;0.011181;-0.096768;0.275795;0.009164;0.276020;-0.096993;88.591818;0.280054;
1116;477;0.010470;0.208321;1.000000;0.000114;-0.000570;0.001569;0.000022;0.001569;-0.000571;89.419906;0.001589;
1091;1207;3.080580;67.317974;0.998530;0.011879;-0.076859;0.201735;-0.005774;0.201854;-0.076978;-88.813271;0.203740;
1021;532;0.086341;0.305109;0.999999;0.000313;-0.000636;0.001640;0.000185;0.001654;-0.000650;85.391461;0.001667;
1181;1372;-0.886287;82.046509;0.999906;0.002901;-0.018502;0.041858;0.003388;0.042047;-0.018691;86.797773;0.042133;
1251;1582;-0.210262;85.781955;0.999995;0.000561;-0.001919;0.004960;0.001437;0.005248;-0.002207;78.662905;0.005270;
1306;392;-0.051647;0.101074;1.000000;0.000138;-0.000444;0.001550;-0.000122;0.001557;-0.000452;-86.523773;0.001602;
946;397;0.065610;0.122318;0.999971;0.001211;-0.000598;0.001446;0.000115;0.001453;-0.000605;86.781381;0.001460;
986;597;0.137530;0.407384;0.999995;0.000594;-0.000605;0.001871;0.000562;0.001993;-0.000727;77.799987;0.002017;
1106;1002;1.562477;13.958178;0.999401;0.008379;-0.054432;0.134004;0.003784;0.134080;-0.054508;88.850128;0.134859;
1146;867;-0.206853;4.164664;0.999921;0.002802;-0.017438;0.039691;-0.000852;0.039703;-0.017451;-89.146004;0.039800;
1151;1002;-0.917818;13.904038;0.999265;0.010533;-0.053339;0.131372;-0.002367;0.131402;-0.053370;-89.266093;0.132172;
1121;477;0.007928;0.208111;1.000000;0.000096;-0.000569;0.001568;0.000016;0.001568;-0.000569;89.570687;0.001588;
1071;1072;6.763759;27.479822;0.997893;0.010397;-0.099683;0.288549;0.008830;0.288749;-0.099884;88.697797;0.293284;
1021;537;0.088247;0.313673;0.999999;0.000342;-0.000636;0.001651;0.000195;0.001667;-0.000653;85.162535;0.001680;
1181;1377;-0.849390;82.238819;0.999904;0.002730;-0.017726;0.040076;0.003256;0.040258;-0.017909;86.785599;0.040340;
1066;1857;0.015859;86.333544;0.999999;0.000283;-0.000240;0.001396;-0.000115;0.001404;-0.000248;-85.983791;0.001499;
1196;1542;-0.181343;85.537791;0.999996;0.000631;-0.003086;0.007597;0.001164;0.007722;-0.003211;83.852316;0.007758;
1016;422;0.045661;0.133030;1.000000;0.000146;-0.000417;0.001519;0.000140;0.001529;-0.000427;85.889205;0.001578;
1066;452;0.032883;0.172798;1.000000;0.000127;-0.000489;0.001539;0.000081;0.001542;-0.000492;87.719239;0.001575;
1106;1007;1.623377;14.580733;0.999350;0.008884;-0.056910;0.141620;0.003754;0.141691;-0.056981;88.917190;0.142593;
1151;867;-0.291966;4.157976;0.999909;0.002949;-0.017472;0.039706;-0.001182;0.039731;-0.017496;-88.816354;0.039825;
1151;1007;-0.952268;14.528774;0.999303;0.009254;-0.055566;0.138404;-0.002442;0.138435;-0.055596;-89.278927;0.139325;
1126;477;0.005103;0.208267;1.000000;0.000120;-0.000567;0.001567;0.000010;0.001567;-0.000568;89.721410;0.001587;
1031;672;0.206459;0.677260;0.999996;0.000515;-0.002162;0.005502;0.001418;0.005756;-0.002416;79.845097;0.005781;
1126;1042;0.698392;19.866324;0.998643;0.011952;-0.075660;0.205889;0.000953;0.205892;-0.075663;89.805985;0.208288;
966;487;0.098555;0.240720;0.999998;0.000427;-0.000632;0.001384;0.000069;0.001386;-0.000635;88.035720;0.001388;
1076;1362;1.128873;81.622712;0.999886;0.003068;-0.020480;0.046013;-0.004566;0.046325;-0.020792;-86.090130;0.046406;
1071;1857;0.014457;86.333783;0.999999;0.000242;-0.000238;0.001394;-0.000106;0.001400;-0.000245;-86.283310;0.001496;
1226;1582;-0.163202;85.779809;0.999996;0.000515;-0.001866;0.004767;0.001092;0.004942;-0.002041;80.885471;0.004967;
1181;452;-0.022055;0.170951;1.000000;0.000119;-0.000477;0.001527;-0.000058;0.001529;-0.000478;-88.353470;0.001564;
1106;1012;1.698192;15.235758;0.999204;0.008268;-0.059495;0.149452;0.003794;0.149521;-0.059564;88.960083;0.150547;
1276;627;-0.165539;0.475367;0.999996;0.000485;-0.001004;0.002950;-0.000933;0.003159;-0.001213;-77.369831;0.003187;
1191;452;-0.026742;0.171556;1.000000;0.000103;-0.000478;0.001532;-0.000069;0.001534;-0.000481;-88.032857;0.001570;
1111;477;0.013036;0.208254;1.000000;0.000132;-0.000571;0.001570;0.000027;0.001570;-0.000571;89.273728;0.001590;
1101;997;1.749524;13.377955;0.999519;0.006620;-0.052409;0.127641;0.004400;0.127749;-0.052516;88.600845;0.128420;
1096;862;0.646171;3.995138;0.999904;0.002627;-0.016925;0.038137;0.002674;0.038267;-0.017054;87.226234;0.038342;
1111;992;1.192039;12.718840;0.999549;0.008267;-0.049551;0.120441;0.003027;0.120495;-0.049605;88.980130;0.121120;
1211;1357;-1.651587;81.354472;0.999904;0.003713;-0.021558;0.048139;0.006362;0.048715;-0.022134;84.827035;0.048783;
1076;1857;0.013233;86.333629;1.000000;0.000190;-0.000236;0.001392;-0.000099;0.001398;-0.000242;-86.544984;0.001494;
1231;552;-0.083211;0.336309;0.999998;0.000366;-0.000706;0.001719;-0.000212;0.001737;-0.000724;-85.031422;0.001745;
1191;1537;-0.179065;85.499966;0.999996;0.000491;-0.003264;0.008069;0.001135;0.008182;-0.003377;84.338877;0.008223;
1151;1767;-0.010292;86.201960;1.000000;0.000081;-0.000569;0.001567;0.000021;0.001567;-0.000570;89.435108;0.001586;
1281;632;-0.178380;0.487948;0.999996;0.000532;-0.001042;0.003221;-0.001047;0.003465;-0.001285;-76.917551;0.003503;
1191;457;-0.027754;0.179398;1.000000;0.000117;-0.000495;0.001542;-0.000068;0.001544;-0.000497;-88.078499;0.001576;
1101;1002;1.826063;13.982797;0.999426;0.008634;-0.054820;0.134764;0.004439;0.134867;-0.054924;88.659525;0.135639;
1111;1002;1.292698;13.941880;0.999395;0.007880;-0.054023;0.133330;0.003146;0.133383;-0.054075;89.038328;0.134176;
1311;1697;-0.128434;86.092164;0.999981;0.001315;-0.000326;0.001401;0.000166;0.001417;-0.000342;84.561840;0.001478;
1111;997;1.232753;13.320129;0.999432;0.010437;-0.051732;0.126359;0.003151;0.126415;-0.051787;88.986708;0.127101;
1096;487;0.023423;0.225578;1.000000;0.000206;-0.000609;0.001594;0.000047;0.001595;-0.000610;88.783628;0.001609;
1216;1357;-1.751166;81.344628;0.999918;0.003437;-0.021604;0.048237;0.006803;0.048894;-0.022261;84.488204;0.048959;
996;1667;0.117658;86.035379;1.000000;0.000161;-0.000534;0.001631;-0.000361;0.001690;-0.000592;-80.769830;0.001715;
971;532;0.114864;0.303158;0.999998;0.000393;-0.000536;0.001410;0.000249;0.001442;-0.000567;82.833910;0.001452;
1286;632;-0.183789;0.486186;0.999989;0.000849;-0.000988;0.003218;-0.001062;0.003471;-0.001241;-76.606395;0.003517;
1091;1522;0.157074;85.379264;0.999996;0.000550;-0.003819;0.009367;-0.000981;0.009439;-0.003891;-85.767196;0.009488;
1151;1772;-0.009929;86.210047;1.000000;0.000086;-0.000550;0.001558;0.000021;0.001558;-0.000550;89.431829;0.001580;
1101;1007;1.908129;14.609274;0.999369;0.010078;-0.057349;0.142448;0.004435;0.142546;-0.057448;88.728874;0.143437;
1116;1002;1.011305;13.914207;0.999380;0.007573;-0.053728;0.132719;0.002438;0.132750;-0.053760;89.250836;0.133547;
1316;1707;-0.139698;86.105289;0.999974;0.001643;-0.000510;0.001317;0.000225;0.001344;-0.000537;83.072517;0.001353;
1276;417;-0.052373;0.129448;1.000000;0.000134;-0.000426;0.001511;-0.000122;0.001519;-0.000434;-86.422083;0.001565;
1221;1357;-1.864629;81.333173;0.999912;0.003244;-0.021655;0.048323;0.007249;0.049066;-0.022398;84.147856;0.049128;
1126;992;0.412163;12.667363;0.999530;0.008755;-0.049223;0.119270;0.001045;0.119276;-0.049230;89.644618;0.119880;
1111;487;0.014111;0.224861;1.000000;0.000237;-0.000610;0.001591;0.000029;0.001591;-0.000611;89.238079;0.001606;
996;1672;0.115364;86.043490;1.000000;0.000149;-0.000531;0.001612;-0.000336;0.001664;-0.000582;-81.293741;0.001688;
976;607;0.150654;0.422647;0.999995;0.000543;-0.000695;0.002053;0.000783;0.002260;-0.000902;75.165573;0.002276;
1316;492;-0.104660;0.249365;0.999998;0.000366;-0.000536;0.001288;-0.000131;0.001297;-0.000545;-85.918016;0.001303;
1096;1522;0.138408;85.380512;0.999997;0.000531;-0.003791;0.009359;-0.000867;0.009416;-0.003848;-86.244562;0.009468;
1106;997;1.489419;13.351448;0.999450;0.008744;-0.052088;0.126962;0.003766;0.127041;-0.052167;88.795556;0.127716;
1131;1002;0.188880;13.892670;0.999480;0.007929;-0.053428;0.131535;0.000391;0.131536;-0.053429;89.878843;0.132305;
1166;457;-0.015357;0.178001;1.000000;0.000102;-0.000494;0.001531;-0.000038;0.001532;-0.000495;-88.932741;0.001564;
1156;1717;-0.018737;86.119866;1.000000;0.000099;-0.000796;0.001765;0.000049;0.001766;-0.000797;88.895963;0.001769;
1281;1877;-0.025163;86.355263;1.000000;0.000175;-0.000264;0.001511;0.000249;0.001545;-0.000298;82.155413;0.001640;
1131;992;0.175338;12.687130;0.999538;0.006434;-0.049188;0.119044;0.000435;0.119045;-0.049189;89.851946;0.119641;
1106;487;0.017473;0.224997;1.000000;0.000182;-0.000609;0.001592;0.000036;0.001592;-0.000610;89.072614;0.001607;
1321;492;-0.113168;0.251084;0.999960;0.001968;-0.000545;0.001235;-0.000121;0.001244;-0.000553;-86.134447;0.001246;
981;607;0.148679;0.423826;0.999997;0.000553;-0.000720;0.002085;0.000746;0.002271;-0.000906;76.001765;0.002287;
1091;1352;0.909033;81.159313;0.999850;0.003903;-0.022187;0.049726;-0.003443;0.049890;-0.022352;-87.264921;0.049980;
1001;1667;0.114390;86.034287;1.000000;0.000157;-0.000558;0.001663;-0.000346;0.001716;-0.000610;-81.350366;0.001739;
986;1592;0.221362;85.840811;0.999690;0.004107;-0.001525;0.004259;-0.001554;0.004650;-0.001916;-75.876345;0.004674;
1121;1002;0.730704;13.900748;0.999314;0.007180;-0.053542;0.132250;0.001740;0.132266;-0.053558;89.463549;0.133061;
1096;992;1.934155;12.778276;0.999524;0.006566;-0.050496;0.122221;0.004896;0.122360;-0.050635;88.377673;0.122964;
1171;457;-0.017836;0.178377;1.000000;0.000105;-0.000494;0.001533;-0.000044;0.001534;-0.000495;-88.756922;0.001566;
1156;1722;-0.018047;86.128599;1.000000;0.000097;-0.000771;0.001731;0.000046;0.001732;-0.000771;88.942057;0.001735;
1136;992;-0.071579;12.691306;0.999506;0.005307;-0.049182;0.118924;-0.000210;0.118924;-0.049183;-89.928274;0.119515;
1286;1877;-0.026874;86.354262;1.000000;0.000173;-0.000282;0.001531;0.000245;0.001563;-0.000315;82.439922;0.001654;
986;602;0.141699;0.416461;0.999995;0.000588;-0.000650;0.001971;0.000624;0.002112;-0.000791;77.274954;0.002134;
1096;1352;0.793942;81.165410;0.999881;0.003026;-0.022095;0.049609;-0.003024;0.049737;-0.022223;-87.589744;0.049830;
1086;482;0.028405;0.218126;1.000000;0.000127;-0.000589;0.001588;0.000057;0.001589;-0.000591;88.489927;0.001607;
1041;532;0.072557;0.303384;0.999998;0.000278;-0.000679;0.001671;0.000161;0.001682;-0.000690;86.100253;0.001691;
1001;1672;0.112488;86.042626;1.000000;0.000116;-0.000553;0.001639;-0.000324;0.001686;-0.000600;-81.774162;0.001709;
1261;1587;-0.215564;85.809689;0.999996;0.000570;-0.001784;0.004650;0.001453;0.004963;-0.002097;77.848218;0.004983;
1126;1002;0.449276;13.892427;0.999311;0.007487;-0.053488;0.131865;0.001050;0.131871;-0.053494;89.675370;0.132651;
1096;997;2.006964;13.385514;0.999372;0.007026;-0.052784;0.128447;0.005026;0.128586;-0.052923;88.412759;0.129255;
1161;1717;-0.022779;86.119851;1.000000;0.000091;-0.000791;0.001761;0.000060;0.001763;-0.000792;88.647601;0.001766;
1096;457;0.019189;0.178415;1.000000;0.000145;-0.000496;0.001534;0.000045;0.001535;-0.000497;88.740160;0.001566;
1121;992;0.661768;12.668005;0.999573;0.007418;-0.049206;0.119581;0.001702;0.119598;-0.049223;89.422159;0.120220;
1291;1877;-0.028304;86.354005;1.000000;0.000193;-0.000304;0.001552;0.000236;0.001582;-0.000333;82.876181;0.001668;
1316;502;-0.109879;0.261306;0.999998;0.000465;-0.000523;0.001288;-0.000156;0.001301;-0.000537;-85.110834;0.001308;
1186;452;-0.024437;0.171189;1.000000;0.000111;-0.000477;0.001530;-0.000064;0.001532;-0.000479;-88.187061;0.001567;
1101;1352;0.681885;81.169438;0.999864;0.002878;-0.021980;0.049498;-0.002617;0.049594;-0.022075;-87.905651;0.049693;
1091;482;0.025777;0.217705;1.000000;0.000147;-0.000590;0.001587;0.000051;0.001589;-0.000591;88.652567;0.001606;
991;1662;0.122200;86.028986;1.000000;0.000174;-0.000519;0.001641;-0.000401;0.001713;-0.000591;-79.804170;0.001740;
1201;1542;-0.198557;85.536945;0.999995;0.000733;-0.003108;0.007628;0.001264;0.007775;-0.003255;83.376064;0.007809;
1126;997;0.433661;13.284788;0.999442;0.008813;-0.051305;0.124966;0.001080;0.124972;-0.051312;89.649097;0.125637;
1096;1002;2.105282;14.013677;0.999269;0.008404;-0.055244;0.135633;0.005088;0.135769;-0.055379;88.474177;0.136535;
1121;997;0.696499;13.273580;0.999410;0.008159;-0.051319;0.125352;0.001772;0.125369;-0.051337;89.425376;0.126052;
1166;1717;-0.026714;86.119686;1.000000;0.000099;-0.000786;0.001757;0.000070;0.001759;-0.000788;88.418404;0.001762;
1281;412;-0.051702;0.123448;1.000000;0.000137;-0.000422;0.001517;-0.000122;0.001524;-0.000430;-86.426414;0.001572;
1041;1357;1.943112;81.363079;0.999894;0.002789;-0.021978;0.048512;-0.007850;0.049376;-0.022841;-83.721758;0.049422;
1006;537;0.096303;0.314413;0.999998;0.000383;-0.000595;0.001609;0.000210;0.001629;-0.000615;84.595884;0.001645;
1201;1892;-0.005700;86.381683;1.000000;0.000210;-0.000095;0.001356;0.000121;0.001366;-0.000106;85.250649;0.001520;
1101;482;0.019838;0.217012;1.000000;0.000182;-0.000588;0.001584;0.000040;0.001584;-0.000588;88.941707;0.001602;
1181;457;-0.022761;0.178857;1.000000;0.000119;-0.000495;0.001538;-0.000057;0.001539;-0.000496;-88.397608;0.001571;
996;1662;0.120057;86.027641;1.000000;0.000162;-0.000540;0.001661;-0.000389;0.001728;-0.000607;-80.260083;0.001753;
1131;987;0.160655;12.161385;0.999619;0.005422;-0.047224;0.114049;0.000404;0.114050;-0.047225;89.856417;0.114610;
1081;1522;0.193607;85.377493;0.999996;0.000500;-0.003856;0.009392;-0.001215;0.009503;-0.003967;-84.801865;0.009546;
1101;992;1.679668;12.775118;0.999625;0.008203;-0.050156;0.121529;0.004262;0.121635;-0.050262;88.578752;0.122244;
1041;1362;1.860739;81.601103;0.999902;0.002934;-0.021027;0.046294;-0.007668;0.047156;-0.021889;-83.583435;0.047196;
1096;987;1.862022;12.228439;0.999542;0.006688;-0.048324;0.116395;0.004841;0.116537;-0.048466;88.318105;0.117085;
1171;1752;-0.024074;86.177290;1.000000;0.000081;-0.000625;0.001604;0.000050;0.001605;-0.000626;88.720725;0.001618;
1131;472;0.002160;0.200355;1.000000;0.000142;-0.000545;0.001556;0.000004;0.001556;-0.000545;89.890790;0.001579;
991;402;0.045106;0.107405;1.000000;0.000108;-0.000393;0.001527;0.000151;0.001539;-0.000405;85.524968;0.001595;
1186;457;-0.025462;0.179057;1.000000;0.000105;-0.000495;0.001540;-0.000063;0.001542;-0.000496;-88.233565;0.001574;
1001;1662;0.116968;86.026368;1.000000;0.000153;-0.000567;0.001693;-0.000372;0.001753;-0.000627;-80.885359;0.001777;
1246;537;-0.085746;0.312435;0.999998;0.000432;-0.000633;0.001635;-0.000199;0.001652;-0.000650;-85.015848;0.001664;
1136;987;-0.072345;12.169400;0.999589;0.004570;-0.047230;0.113986;-0.000234;0.113987;-0.047231;-89.916939;0.114543;
1086;1522;0.175428;85.377867;0.999996;0.000512;-0.003840;0.009376;-0.001098;0.009467;-0.003931;-85.283734;0.009512;
1106;992;1.425587;12.745473;0.999572;0.007798;-0.049866;0.120947;0.003636;0.121024;-0.049944;88.781201;0.121638;
1206;1357;-1.545238;81.354396;0.999904;0.003579;-0.021496;0.048105;0.005903;0.048602;-0.021993;85.186507;0.048675;
1101;987;1.615100;12.201352;0.999613;0.008844;-0.048021;0.115820;0.004201;0.115927;-0.048129;88.532086;0.116482;
1131;477;0.002229;0.208439;1.000000;0.000153;-0.000566;0.001565;0.000004;0.001565;-0.000566;89.882452;0.001585;
1176;1737;-0.029826;86.152369;1.000000;0.000083;-0.000682;0.001644;0.000069;0.001646;-0.000684;88.304479;0.001654;
996;402;0.043096;0.105961;1.000000;0.000096;-0.000386;0.001520;0.000155;0.001533;-0.000398;85.374576;0.001591;
981;1667;0.124574;86.039835;1.000000;0.000165;-0.000460;0.001573;-0.000398;0.001648;-0.000535;-79.312408;0.001682;
1116;467;0.009945;0.193092;1.000000;0.000092;-0.000531;0.001553;0.000022;0.001554;-0.000531;89.407675;0.001579;
1191;447;-0.025605;0.164101;1.000000;0.000105;-0.000461;0.001522;-0.000071;0.001525;-0.000463;-87.951667;0.001563;
1251;537;-0.089340;0.312727;0.999998;0.000413;-0.000621;0.001620;-0.000205;0.001639;-0.000639;-84.823237;0.001652;
1091;987;2.095712;12.262399;0.999532;0.004687;-0.048667;0.117031;0.005488;0.117213;-0.048849;88.105026;0.117753;
1221;1577;-0.163971;85.754644;0.999996;0.000514;-0.001985;0.005010;0.001090;0.005176;-0.002151;81.349188;0.005200;
1106;977;1.245407;11.176348;0.999618;0.005533;-0.043871;0.104572;0.003441;0.104652;-0.043951;88.672800;0.105098;
1231;1362;-2.000631;81.574351;0.999893;0.002335;-0.020834;0.045861;0.007919;0.046788;-0.021762;83.320825;0.046826;
1106;987;1.362088;12.188497;0.999577;0.006698;-0.047752;0.115361;0.003571;0.115439;-0.047831;88.746588;0.116003;
1081;477;0.030074;0.210367;1.000000;0.000183;-0.000570;0.001581;0.000061;0.001583;-0.000572;88.379214;0.001603;
981;1672;0.122064;86.047467;1.000000;0.000180;-0.000452;0.001552;-0.000366;0.001617;-0.000517;-79.975154;0.001652;
1176;1742;-0.028879;86.160859;1.000000;0.000079;-0.000661;0.001628;0.000064;0.001630;-0.000662;88.407766;0.001640;
1176;457;-0.020239;0.178656;1.000000;0.000115;-0.000494;0.001535;-0.000051;0.001536;-0.000495;-88.572817;0.001568;
1141;482;-0.003581;0.216034;1.000000;0.000149;-0.000590;0.001579;-0.000008;0.001579;-0.000590;-89.788655;0.001595;
1071;1207;4.715703;66.975670;0.998363;0.009960;-0.079369;0.207967;-0.009278;0.208267;-0.079668;-88.152471;0.210174;
1256;537;-0.092103;0.312207;0.999998;0.000313;-0.000603;0.001607;-0.000212;0.001627;-0.000623;-84.573104;0.001642;
1116;982;0.850392;11.675021;0.999608;0.006190;-0.045363;0.109367;0.002283;0.109400;-0.045397;89.154791;0.109926;
1276;632;-0.174100;0.489553;0.999996;0.000585;-0.001074;0.003219;-0.001023;0.003451;-0.001305;-77.262520;0.003485;
1001;1582;0.231723;85.793904;0.999996;0.000626;-0.001872;0.004922;-0.001626;0.005291;-0.002242;-77.208539;0.005312;
1201;1357;-1.448263;81.359185;0.999904;0.002736;-0.021404;0.047965;0.005455;0.048392;-0.021830;85.530682;0.048469;
1116;987;0.884471;12.174868;0.999670;0.005389;-0.047283;0.114652;0.002319;0.114685;-0.047316;89.179633;0.115268;
981;1677;0.120339;86.055207;1.000000;0.000187;-0.000449;0.001548;-0.000334;0.001603;-0.000503;-80.752177;0.001639;
1106;477;0.015946;0.208711;1.000000;0.000166;-0.000570;0.001571;0.000033;0.001572;-0.000571;89.125671;0.001591;
1176;462;-0.020945;0.186048;1.000000;0.000150;-0.000512;0.001548;-0.000049;0.001549;-0.000514;-88.639248;0.001578;
1176;1747;-0.028052;86.168980;1.000000;0.000082;-0.000641;0.001616;0.000059;0.001618;-0.000642;88.496549;0.001629;
1146;482;-0.006522;0.216124;1.000000;0.000142;-0.000591;0.001579;-0.000014;0.001579;-0.000591;-89.628858;0.001596;
1291;617;-0.160508;0.443514;0.999990;0.001173;-0.000732;0.002410;-0.000808;0.002605;-0.000927;-76.393267;0.002641;
1076;1207;4.274660;67.114481;0.998574;0.011546;-0.078680;0.206426;-0.008435;0.206675;-0.078929;-88.306829;0.208588;
1121;982;0.625576;11.668798;0.999611;0.005777;-0.045312;0.109158;0.001627;0.109175;-0.045330;89.396725;0.109697;
1001;542;0.103511;0.322426;0.999998;0.000538;-0.000578;0.001597;0.000230;0.001621;-0.000602;84.039676;0.001639;
1006;1582;0.221790;85.794102;0.999996;0.000470;-0.001873;0.004922;-0.001560;0.005263;-0.002214;-77.670049;0.005286;
1191;1362;-1.175530;81.595961;0.999863;0.002592;-0.020313;0.045690;0.004455;0.045990;-0.020612;86.155537;0.046072;
1116;992;0.917184;12.684060;0.999598;0.006734;-0.049322;0.119974;0.002372;0.120007;-0.049355;89.197452;0.120635;
981;1662;0.126800;86.031887;1.000000;0.000180;-0.000474;0.001606;-0.000424;0.001689;-0.000557;-78.911321;0.001721;
1106;482;0.016816;0.216710;1.000000;0.000173;-0.000589;0.001582;0.000034;0.001583;-0.000589;89.099504;0.001600;
1181;462;-0.023800;0.186377;1.000000;0.000133;-0.000513;0.001551;-0.000055;0.001552;-0.000515;-88.460988;0.001581;
1151;482;-0.009503;0.216277;1.000000;0.000122;-0.000590;0.001579;-0.000020;0.001579;-0.000591;-89.461013;0.001596;
1271;607;-0.138988;0.427368;0.999996;0.000576;-0.000745;0.002167;-0.000632;0.002299;-0.000876;-78.266324;0.002320;
1091;1762;0.024594;86.192779;1.000000;0.000097;-0.000587;0.001583;-0.000051;0.001584;-0.000588;-88.666808;0.001602;
1096;1207;2.674030;67.343844;0.998361;0.010725;-0.076138;0.200319;-0.005029;0.200411;-0.076230;-88.958175;0.202314;
1126;982;0.394238;11.664502;0.999561;0.006194;-0.045350;0.109054;0.000974;0.109060;-0.045356;89.638447;0.109573;
1011;1582;0.213443;85.791245;0.999996;0.000540;-0.001861;0.004923;-0.001503;0.005241;-0.002178;-78.054195;0.005266;
1026;527;0.080794;0.296884;0.999998;0.000348;-0.000644;0.001636;0.000172;0.001649;-0.000657;85.718556;0.001660;
1211;1352;-1.733984;81.121382;0.999891;0.003220;-0.022523;0.050260;0.006521;0.050840;-0.023103;84.920828;0.050910;
1116;997;0.954614;13.287510;0.999477;0.008471;-0.051471;0.125811;0.002471;0.125845;-0.051505;89.201725;0.126534;
986;1662;0.124455;86.030689;1.000000;0.000160;-0.000491;0.001625;-0.000415;0.001704;-0.000570;-79.291473;0.001735;
1101;477;0.019019;0.208956;1.000000;0.000170;-0.000569;0.001573;0.000039;0.001574;-0.000570;88.968803;0.001593;
1186;462;-0.026432;0.186548;1.000000;0.000119;-0.000513;0.001553;-0.000061;0.001555;-0.000514;-88.299892;0.001584;
1276;607;-0.140945;0.424376;0.999996;0.000600;-0.000740;0.002133;-0.000653;0.002274;-0.000882;-77.774202;0.002293;
981;397;0.046992;0.103010;1.000000;0.000116;-0.000400;0.001540;0.000145;0.001551;-0.000411;85.762696;0.001607;
1156;1767;-0.013019;86.201735;1.000000;0.000099;-0.000570;0.001568;0.000028;0.001569;-0.000570;89.258518;0.001588;
1061;1197;6.106806;64.686650;0.998442;0.009532;-0.087266;0.236802;-0.011942;0.237241;-0.087705;-87.892441;0.239912;
1111;982;1.072556;11.678194;0.999608;0.005789;-0.045521;0.109603;0.002902;0.109658;-0.045575;88.928554;0.110177;
1266;1587;-0.223791;85.810831;0.999996;0.000532;-0.001790;0.004660;0.001519;0.005000;-0.002129;77.391941;0.005018;
1026;532;0.082619;0.304591;0.999998;0.000327;-0.000647;0.001646;0.000179;0.001660;-0.000661;85.556334;0.001672;
1216;1352;-1.844643;81.113757;0.999906;0.003246;-0.022584;0.050391;0.006970;0.051051;-0.023244;84.592830;0.051119;
1121;987;0.656418;12.168753;0.999673;0.006688;-0.047204;0.114382;0.001658;0.114399;-0.047221;89.412123;0.114978;
1321;362;-0.036328;0.060723;0.999995;0.000513;-0.000409;0.001711;-0.000240;0.001738;-0.000436;-83.627402;0.001809;
1316;377;-0.045250;0.082748;1.000000;0.000123;-0.000447;0.001623;-0.000159;0.001635;-0.000459;-85.628399;0.001687;
1106;472;0.015365;0.200937;1.000000;0.000147;-0.000551;0.001560;0.000032;0.001561;-0.000552;89.131529;0.001583;
1031;1652;0.103065;86.001942;1.000000;0.000149;-0.000780;0.002032;-0.000365;0.002078;-0.000827;-82.715407;0.002093;
1281;607;-0.143390;0.421984;0.999996;0.000623;-0.000737;0.002097;-0.000682;0.002253;-0.000892;-77.145634;0.002269;
1271;1587;-0.232339;85.811794;0.999996;0.000500;-0.001787;0.004659;0.001585;0.005027;-0.002155;76.908393;0.005044;
1131;982;0.163712;11.661064;0.999466;0.006774;-0.045312;0.108968;0.000395;0.108969;-0.045313;89.853214;0.109483;
1261;1792;-0.062353;86.230191;1.000000;0.000149;-0.000490;0.001538;0.000116;0.001544;-0.000497;86.733853;0.001577;
1061;1202;5.816678;65.761250;0.998449;0.009760;-0.083653;0.223249;-0.011974;0.223715;-0.084119;-87.769114;0.225997;
1026;537;0.084967;0.313329;0.999998;0.000369;-0.000649;0.001660;0.000190;0.001676;-0.000664;85.328583;0.001688;
1291;612;-0.154429;0.429953;0.999992;0.000856;-0.000693;0.002243;-0.000722;0.002411;-0.000860;-76.908271;0.002444;
1111;977;1.019128;11.166276;0.999582;0.005381;-0.043668;0.104340;0.002833;0.104395;-0.043723;88.903667;0.104852;
1126;987;0.415142;12.162754;0.999651;0.005725;-0.047240;0.114192;0.001000;0.114198;-0.047246;89.645065;0.114763;
1046;427;0.034504;0.136826;1.000000;0.000101;-0.000412;0.001507;0.000118;0.001514;-0.000419;86.485410;0.001563;
1286;607;-0.147232;0.421533;0.999996;0.000553;-0.000719;0.002054;-0.000708;0.002224;-0.000889;-76.465328;0.002239;
1106;982;1.302444;11.694997;0.999618;0.005420;-0.045762;0.109882;0.003517;0.109961;-0.045841;88.706021;0.110466;
1121;467;0.007464;0.192979;1.000000;0.000104;-0.000529;0.001553;0.000015;0.001553;-0.000529;89.576741;0.001579;
1176;467;-0.021842;0.193652;1.000000;0.000159;-0.000531;0.001560;-0.000048;0.001561;-0.000533;-88.682833;0.001587;
1061;1207;5.532550;66.740077;0.998577;0.011340;-0.080045;0.211192;-0.011942;0.211681;-0.080534;-87.655790;0.213688;
1286;602;-0.142620;0.411960;0.999996;0.000624;-0.000653;0.001933;-0.000638;0.002081;-0.000802;-76.867396;0.002100;
1291;607;-0.150763;0.419705;0.999995;0.000542;-0.000684;0.002006;-0.000721;0.002187;-0.000866;-75.906968;0.002203;
1261;1797;-0.060269;86.238417;1.000000;0.000176;-0.000481;0.001536;0.000117;0.001543;-0.000488;86.691603;0.001577;
1071;567;0.063447;0.365932;0.999998;0.000502;-0.000891;0.002022;0.000193;0.002035;-0.000904;86.227580;0.002039;
1111;987;1.126190;12.186692;0.999624;0.005811;-0.047475;0.114980;0.002958;0.115034;-0.047529;88.957094;0.115611;
1116;977;0.807297;11.151607;0.999565;0.005089;-0.043546;0.104150;0.002227;0.104183;-0.043580;89.136458;0.104646;
1196;447;-0.027892;0.164546;1.000000;0.000102;-0.000462;0.001524;-0.000077;0.001527;-0.000465;-87.778562;0.001565;
1136;982;-0.061812;11.653658;0.999477;0.005154;-0.045324;0.108920;-0.000226;0.108920;-0.045324;-89.915978;0.109430;
1126;467;0.004678;0.192696;1.000000;0.000131;-0.000528;0.001553;0.000010;0.001553;-0.000528;89.738185;0.001579;
1066;1207;5.126328;66.841991;0.998637;0.009326;-0.079689;0.209522;-0.010640;0.209913;-0.080080;-87.895904;0.211869;
1291;602;-0.146323;0.410714;0.999996;0.000630;-0.000620;0.001891;-0.000648;0.002048;-0.000777;-76.357167;0.002068;
976;612;0.162745;0.434398;0.999966;0.001764;-0.000765;0.002211;0.000864;0.002443;-0.000997;74.928621;0.002457;
1181;467;-0.024458;0.194089;1.000000;0.000171;-0.000532;0.001561;-0.000055;0.001563;-0.000534;-88.506605;0.001589;
1121;977;0.588996;11.144577;0.999585;0.005635;-0.043500;0.103979;0.001592;0.103996;-0.043517;89.381592;0.104456;
1116;972;0.776607;10.652373;0.999507;0.004743;-0.041764;0.099320;0.002178;0.099353;-0.041798;89.115765;0.099769;
1076;567;0.058387;0.366073;0.999998;0.000484;-0.000914;0.002044;0.000176;0.002055;-0.000924;86.598210;0.002058;
1111;472;0.012749;0.200956;1.000000;0.000103;-0.000551;0.001559;0.000026;0.001559;-0.000551;89.281284;0.001582;
1221;1872;-0.015074;86.353686;1.000000;0.000132;-0.000189;0.001384;0.000159;0.001400;-0.000205;84.288482;0.001512;
1156;482;-0.012333;0.216369;1.000000;0.000108;-0.000590;0.001579;-0.000027;0.001579;-0.000590;-89.283631;0.001596;
1096;982;1.773439;11.722348;0.999558;0.007286;-0.046269;0.110731;0.004782;0.110876;-0.046414;88.257108;0.111365;
1106;467;0.014810;0.193447;1.000000;0.000122;-0.000532;0.001556;0.000033;0.001556;-0.000532;89.105188;0.001582;
1061;1192;6.421975;63.533120;0.997998;0.012222;-0.090755;0.251121;-0.011894;0.251534;-0.091168;-88.009899;0.254687;
981;612;0.153571;0.433954;0.999997;0.000623;-0.000794;0.002250;0.000831;0.002462;-0.001007;75.685115;0.002476;
1186;467;-0.027008;0.194514;1.000000;0.000120;-0.000531;0.001563;-0.000061;0.001565;-0.000532;-88.336600;0.001591;
1221;697;-0.233572;0.831603;0.999995;0.000738;-0.002950;0.007300;-0.001604;0.007545;-0.003195;-81.308990;0.007574;
1121;972;0.563829;10.647137;0.999496;0.005520;-0.041711;0.099173;0.001574;0.099191;-0.041728;89.359798;0.099606;
1126;977;0.376783;11.154594;0.999528;0.007175;-0.043511;0.103895;0.000964;0.103901;-0.043517;89.625141;0.104357;
1081;567;0.053726;0.366492;0.999998;0.000512;-0.000934;0.002066;0.000162;0.002075;-0.000942;86.913551;0.002078;
1116;472;0.010184;0.200982;1.000000;0.000094;-0.000550;0.001558;0.000021;0.001559;-0.000550;89.428626;0.001581;
1101;982;1.541491;11.710170;0.999607;0.007441;-0.045998;0.110238;0.004150;0.110348;-0.046109;88.479618;0.110843;
1181;472;-0.025539;0.202112;1.000000;0.000166;-0.000551;0.001565;-0.000055;0.001566;-0.000552;-88.516530;0.001589;
1111;467;0.012393;0.193490;1.000000;0.000084;-0.000531;0.001555;0.000027;0.001555;-0.000531;89.250576;0.001581;
986;607;0.145483;0.425870;0.999995;0.000542;-0.000728;0.002110;0.000713;0.002279;-0.000897;76.662800;0.002296;
1056;1857;0.017939;86.333555;0.999999;0.000243;-0.000243;0.001403;-0.000132;0.001413;-0.000253;-85.456054;0.001507;
1101;1207;2.275691;67.380466;0.998324;0.010285;-0.075463;0.199017;-0.004181;0.199080;-0.075527;-89.127497;0.201002;
1191;462;-0.028914;0.187171;1.000000;0.000128;-0.000512;0.001554;-0.000067;0.001556;-0.000514;-88.135985;0.001586;
1126;972;0.358140;10.649591;0.999439;0.007397;-0.041704;0.099119;0.000961;0.099126;-0.041711;89.608958;0.099539;
1096;977;1.682971;11.203071;0.999590;0.007301;-0.044290;0.105297;0.004680;0.105443;-0.044437;88.209947;0.105876;
1086;472;0.027009;0.202501;1.000000;0.000147;-0.000555;0.001569;0.000055;0.001570;-0.000556;88.526435;0.001592;
1186;472;-0.028081;0.202548;1.000000;0.000146;-0.000548;0.001566;-0.000061;0.001568;-0.000550;-88.359533;0.001591;
1036;692;0.255662;0.800519;0.999994;0.000595;-0.002810;0.006948;0.001713;0.007240;-0.003102;80.327370;0.007265;
1141;982;-0.290875;11.651551;0.999526;0.004772;-0.045281;0.108893;-0.000874;0.108898;-0.045286;-89.675091;0.109411;
986;612;0.150580;0.435830;0.999995;0.000487;-0.000803;0.002280;0.000798;0.002474;-0.000997;76.310845;0.002489;
986;547;0.113529;0.328274;0.999998;0.000446;-0.000510;0.001526;0.000272;0.001562;-0.000546;82.531932;0.001585;
1101;467;0.017726;0.193698;1.000000;0.000153;-0.000532;0.001557;0.000038;0.001558;-0.000533;88.960020;0.001584;
1061;1212;5.276957;67.604678;0.998842;0.010904;-0.076484;0.199295;-0.011686;0.199790;-0.076978;-87.577872;0.201535;
1061;1857;0.016454;86.333407;0.999999;0.000345;-0.000241;0.001399;-0.000124;0.001408;-0.000250;-85.708964;0.001502;
1191;467;-0.029886;0.194881;1.000000;0.000116;-0.000529;0.001564;-0.000067;0.001566;-0.000531;-88.156518;0.001592;
1131;977;0.151238;11.146968;0.999514;0.006952;-0.043452;0.103819;0.000406;0.103820;-0.043453;89.842206;0.104279;
1086;987;2.339191;12.296671;0.999498;0.005383;-0.049148;0.117747;0.006125;0.117972;-0.049373;87.900982;0.118493;
1091;472;0.024391;0.202297;1.000000;0.000170;-0.000554;0.001567;0.000049;0.001568;-0.000556;88.684047;0.001590;
1191;472;-0.030765;0.202756;1.000000;0.000140;-0.000546;0.001567;-0.000067;0.001570;-0.000548;-88.191284;0.001593;
1141;987;-0.305249;12.159234;0.999533;0.005300;-0.047177;0.113951;-0.000894;0.113956;-0.047182;-89.682066;0.114516;
1131;467;0.001856;0.192580;1.000000;0.000133;-0.000526;0.001552;0.000004;0.001552;-0.000526;89.899721;0.001578;
991;547;0.110766;0.328775;0.999998;0.000546;-0.000542;0.001556;0.000268;0.001589;-0.000576;82.841270;0.001609;
1066;1212;4.880264;67.708821;0.998885;0.009195;-0.076108;0.197614;-0.010380;0.198007;-0.076501;-87.831355;0.199704;
1191;697;-0.146688;0.830271;0.999996;0.000632;-0.002831;0.007058;-0.001036;0.007165;-0.002938;-84.084875;0.007204;
1101;712;0.110594;0.942882;0.999996;0.000571;-0.003334;0.008366;0.000690;0.008407;-0.003374;86.637742;0.008461;
1321;367;-0.041783;0.070069;0.999995;0.000545;-0.000434;0.001689;-0.000222;0.001712;-0.000457;-84.095262;0.001773;
1091;977;1.907733;11.223543;0.999546;0.008021;-0.044543;0.105844;0.005285;0.106029;-0.044729;87.989622;0.106460;
1086;992;2.435200;12.824466;0.999566;0.005990;-0.051382;0.123795;0.006190;0.124014;-0.051600;87.978685;0.124594;
1136;1867;-0.000378;86.348843;1.000000;0.000215;-0.000183;0.001355;0.000004;0.001355;-0.000183;89.837299;0.001470;
1096;472;0.021416;0.202013;1.000000;0.000164;-0.000553;0.001565;0.000043;0.001565;-0.000554;88.836315;0.001588;
1176;472;-0.022752;0.201924;1.000000;0.000141;-0.000550;0.001564;-0.000049;0.001565;-0.000552;-88.673282;0.001587;
1141;992;-0.317718;12.677089;0.999489;0.006425;-0.049117;0.118875;-0.000882;0.118879;-0.049122;-89.699164;0.119475;
996;547;0.107919;0.329143;0.999999;0.000443;-0.000554;0.001581;0.000255;0.001611;-0.000584;83.287965;0.001631;
1136;467;-0.000676;0.192652;1.000000;0.000107;-0.000527;0.001552;-0.000003;0.001552;-0.000527;-89.921555;0.001578;
1321;372;-0.046519;0.078580;0.999993;0.000668;-0.000456;0.001652;-0.000176;0.001667;-0.000470;-85.270650;0.001719;
1071;1212;4.482072;67.815587;0.998663;0.007864;-0.075801;0.196024;-0.009012;0.196322;-0.076099;-88.103180;0.197968;
1096;867;0.673169;4.187392;0.999918;0.002774;-0.017673;0.039896;0.002744;0.040027;-0.017804;87.277577;0.040108;
1021;667;0.212800;0.650051;0.999995;0.000711;-0.002043;0.005259;0.001465;0.005542;-0.002326;79.070764;0.005566;
1091;982;2.008126;11.748068;0.999514;0.006357;-0.046568;0.111304;0.005409;0.111489;-0.046753;88.040003;0.111971;
1086;997;2.546352;13.438185;0.999414;0.007471;-0.053742;0.130265;0.006328;0.130482;-0.053959;88.032800;0.131131;
1121;472;0.007602;0.200937;1.000000;0.000095;-0.000548;0.001558;0.000015;0.001558;-0.000548;89.584799;0.001580;
1141;1867;-0.001443;86.348866;1.000000;0.000165;-0.000184;0.001356;0.000013;0.001356;-0.000184;89.520735;0.001471;
1101;977;1.466993;11.183265;0.999615;0.006043;-0.044058;0.104858;0.004064;0.104969;-0.044169;88.437842;0.105407;
996;407;0.045986;0.113683;1.000000;0.000111;-0.000400;0.001522;0.000144;0.001533;-0.000411;85.728421;0.001586;
1136;472;-0.000656;0.200384;1.000000;0.000135;-0.000546;0.001556;-0.000003;0.001556;-0.000546;-89.931321;0.001579;
1076;1212;4.084666;67.951585;0.998643;0.009872;-0.075091;0.194399;-0.008144;0.194645;-0.075337;-88.270614;0.196293;
1061;562;0.070127;0.355973;0.999998;0.000326;-0.000834;0.001926;0.000204;0.001941;-0.000849;85.796815;0.001946;
976;392;0.046263;0.097067;1.000000;0.000100;-0.000401;0.001548;0.000144;0.001558;-0.000412;85.801251;0.001615;
1196;697;-0.161367;0.829926;0.999995;0.000656;-0.002852;0.007093;-0.001134;0.007221;-0.002979;-83.575793;0.007257;
1091;992;2.183075;12.796160;0.999577;0.005363;-0.050869;0.122970;0.005546;0.123147;-0.051046;88.174610;0.123745;
1091;997;2.277641;13.414523;0.999398;0.007022;-0.053201;0.129324;0.005680;0.129501;-0.053378;88.219394;0.130165;
1126;472;0.004907;0.200757;1.000000;0.000127;-0.000547;0.001557;0.000010;0.001557;-0.000547;89.734431;0.001580;
1176;862;-0.697466;3.988692;0.999913;0.002627;-0.016937;0.038201;-0.002877;0.038350;-0.017087;-87.021561;0.038426;
1146;1867;-0.002271;86.348854;1.000000;0.000147;-0.000184;0.001358;0.000021;0.001358;-0.000184;89.212349;0.001473;
1096;967;1.558609;10.251700;0.999571;0.004561;-0.040601;0.095586;0.004403;0.095728;-0.040743;88.150008;0.096080;
1136;477;-0.000633;0.208359;1.000000;0.000157;-0.000567;0.001565;-0.000002;0.001565;-0.000567;-89.933348;0.001585;
1081;1212;3.677009;68.038976;0.998575;0.010386;-0.074432;0.192781;-0.007236;0.192977;-0.074628;-88.449957;0.194621;
1251;432;-0.048133;0.147253;1.000000;0.000116;-0.000445;0.001516;-0.000129;0.001524;-0.000454;-86.261455;0.001565;
1041;537;0.074401;0.311817;0.999998;0.000306;-0.000685;0.001689;0.000171;0.001701;-0.000698;85.903074;0.001711;
1201;697;-0.176328;0.830113;0.999995;0.000672;-0.002872;0.007132;-0.001226;0.007280;-0.003020;-83.112800;0.007315;
1021;427;0.045220;0.139761;1.000000;0.000148;-0.000428;0.001521;0.000135;0.001530;-0.000437;86.059653;0.001577;
1146;982;-0.528181;11.665184;0.999512;0.006261;-0.045234;0.108914;-0.001518;0.108929;-0.045249;-89.435736;0.109448;
1081;987;2.596872;12.349186;0.999320;0.006040;-0.049602;0.118579;0.006777;0.118851;-0.049875;87.696246;0.119362;
1081;472;0.029655;0.202805;1.000000;0.000150;-0.000553;0.001570;0.000061;0.001572;-0.000555;88.362044;0.001595;
1181;862;-0.780436;3.987489;0.999913;0.002659;-0.016961;0.038232;-0.003257;0.038424;-0.017153;-86.634271;0.038497;
1116;967;0.758053;10.187426;0.999531;0.005119;-0.040052;0.094743;0.002103;0.094776;-0.040085;89.106352;0.095151;
1281;1882;-0.021973;86.362593;1.000000;0.000226;-0.000235;0.001509;0.000260;0.001547;-0.000273;81.698829;0.001651;
1081;467;0.028649;0.195387;1.000000;0.000145;-0.000537;0.001563;0.000061;0.001565;-0.000539;88.332809;0.001590;
1086;1212;3.323675;68.093119;0.998659;0.008251;-0.073853;0.191234;-0.006352;0.191386;-0.074005;-88.628181;0.193018;
1161;482;-0.015322;0.216520;1.000000;0.000138;-0.000589;0.001580;-0.000034;0.001581;-0.000590;-89.113069;0.001597;
1281;637;-0.189991;0.505605;0.999996;0.000510;-0.001117;0.003429;-0.001151;0.003703;-0.001392;-76.567132;0.003741;
1041;542;0.076570;0.320483;0.999998;0.000376;-0.000695;0.001708;0.000183;0.001722;-0.000708;85.676153;0.001731;
1026;427;0.042702;0.139376;1.000000;0.000125;-0.000426;0.001520;0.000132;0.001528;-0.000435;86.145571;0.001575;
1101;972;1.411006;10.686791;0.999543;0.006304;-0.042189;0.099906;0.003937;0.100015;-0.042298;88.414317;0.100410;
1081;992;2.706667;12.871498;0.999348;0.007013;-0.051853;0.124733;0.006873;0.125000;-0.052120;87.774371;0.125573;
1101;472;0.018361;0.201667;1.000000;0.000158;-0.000551;0.001562;0.000038;0.001563;-0.000552;88.981599;0.001585;
1091;967;1.763737;10.269094;0.999525;0.005873;-0.040808;0.096012;0.004990;0.096194;-0.040989;87.914016;0.096544;
1131;892;0.079835;5.247130;0.999927;0.003663;-0.021430;0.048841;0.000159;0.048841;-0.021430;89.870388;0.048963;
1286;637;-0.173147;0.517193;0.999466;0.005796;-0.001044;0.003392;-0.001161;0.003677;-0.001329;-76.189600;0.003724;
1286;1882;-0.023223;86.362285;1.000000;0.000218;-0.000254;0.001530;0.000257;0.001566;-0.000290;81.970757;0.001667;
1091;1212;2.968894;68.168046;0.998541;0.009683;-0.073279;0.189781;-0.005514;0.189897;-0.073394;-88.799823;0.191521;
1086;467;0.026332;0.194823;1.000000;0.000185;-0.000538;0.001562;0.000055;0.001564;-0.000539;88.502075;0.001589;
991;407;0.048069;0.115426;1.000000;0.000108;-0.000407;0.001527;0.000139;0.001537;-0.000417;85.894806;0.001590;
1106;972;1.204761;10.666441;0.999565;0.005717;-0.042038;0.099667;0.003335;0.099746;-0.042117;88.652386;0.100147;
1031;427;0.040911;0.138609;1.000000;0.000131;-0.000424;0.001517;0.000127;0.001525;-0.000432;86.257708;0.001572;
1281;517;-0.098025;0.280578;0.999998;0.000357;-0.000550;0.001505;-0.000200;0.001524;-0.000569;-84.492670;0.001540;
1081;997;2.826229;13.474463;0.999212;0.008613;-0.054243;0.131303;0.007012;0.131567;-0.054508;87.838684;0.132210;
1126;462;0.004512;0.184947;1.000000;0.000127;-0.000509;0.001538;0.000009;0.001538;-0.000509;89.735864;0.001567;
1096;962;1.490610;9.832869;0.999631;0.004537;-0.038913;0.091311;0.004312;0.091454;-0.039056;88.105420;0.091778;
1136;892;-0.030559;5.241900;0.999926;0.003002;-0.021433;0.048845;-0.000214;0.048846;-0.021433;-89.825694;0.048968;
1056;1202;6.239123;65.625159;0.998318;0.010575;-0.083962;0.224948;-0.013211;0.225512;-0.084526;-87.555599;0.227855;
1291;1882;-0.024445;86.361169;1.000000;0.000167;-0.000278;0.001554;0.000249;0.001587;-0.000311;82.391808;0.001682;
1231;672;-0.186128;0.673457;0.999996;0.000409;-0.002137;0.005417;-0.001319;0.005641;-0.002361;-80.372039;0.005666;
1116;462;0.009666;0.185403;1.000000;0.000098;-0.000511;0.001539;0.000021;0.001540;-0.000511;89.403512;0.001568;
1196;452;-0.028946;0.172105;1.000000;0.000129;-0.000479;0.001534;-0.000075;0.001536;-0.000482;-87.862190;0.001572;
1316;387;-0.052436;0.098520;1.000000;0.000119;-0.000473;0.001557;-0.000125;0.001565;-0.000481;-86.483237;0.001603;
1111;972;0.990292;10.654903;0.999540;0.005548;-0.041862;0.099481;0.002754;0.099535;-0.041916;88.884097;0.099947;
1286;517;-0.100483;0.280341;0.999998;0.000423;-0.000533;0.001479;-0.000209;0.001501;-0.000554;-84.145071;0.001518;
1101;967;1.360550;10.233904;0.999595;0.005590;-0.040415;0.095246;0.003817;0.095354;-0.040522;88.389758;0.095711;
1106;462;0.014489;0.185658;1.000000;0.000116;-0.000512;0.001543;0.000033;0.001543;-0.000513;89.084163;0.001572;
1141;892;-0.130873;5.232191;0.999924;0.002999;-0.021455;0.048858;-0.000579;0.048863;-0.021459;-89.528084;0.048983;
1056;1207;5.959844;66.624154;0.998526;0.011374;-0.080394;0.212971;-0.013165;0.213560;-0.080984;-87.435662;0.215628;
1101;962;1.296681;9.810626;0.999603;0.005070;-0.038727;0.091056;0.003716;0.091163;-0.038833;88.361483;0.091495;
1296;1872;-0.033108;86.345263;1.000000;0.000165;-0.000375;0.001569;0.000204;0.001590;-0.000396;84.068139;0.001656;
1121;462;0.007134;0.185281;1.000000;0.000109;-0.000510;0.001538;0.000015;0.001539;-0.000510;89.575383;0.001568;
1196;457;-0.029954;0.180168;1.000000;0.000150;-0.000495;0.001543;-0.000075;0.001546;-0.000498;-87.901657;0.001578;
1096;972;1.622266;10.698715;0.999536;0.005979;-0.042390;0.100290;0.004520;0.100433;-0.042533;88.187199;0.100824;
1036;637;0.134350;0.527506;0.999994;0.000692;-0.001293;0.003427;0.000792;0.003557;-0.001422;80.724083;0.003580;
981;547;0.115759;0.327613;0.999998;0.000382;-0.000500;0.001497;0.000281;0.001535;-0.000539;82.142703;0.001558;
1106;967;1.158059;10.220254;0.999569;0.005783;-0.040301;0.095035;0.003226;0.095112;-0.040378;88.635476;0.095473;
1056;1212;5.682592;67.501434;0.998798;0.011789;-0.076881;0.201102;-0.012916;0.201701;-0.077480;-87.345510;0.203498;
1071;457;0.031307;0.180077;1.000000;0.000136;-0.000505;0.001546;0.000075;0.001549;-0.000507;87.918142;0.001579;
1106;962;1.105400;9.800271;0.999587;0.006001;-0.038634;0.090873;0.003122;0.090948;-0.038709;88.619668;0.091283;
1146;1777;-0.006992;86.217688;1.000000;0.000103;-0.000531;0.001548;0.000015;0.001548;-0.000531;89.590925;0.001573;
1221;1352;-1.953807;81.093882;0.999906;0.003240;-0.022662;0.050518;0.007423;0.051263;-0.023407;84.265758;0.051328;
1146;872;-0.206120;4.354422;0.999872;0.002539;-0.018204;0.041372;-0.000856;0.041385;-0.018216;-89.176638;0.041483;
1276;1587;-0.241815;85.813934;0.999997;0.000622;-0.001775;0.004632;0.001653;0.005034;-0.002177;76.352383;0.005049;
1201;447;-0.030114;0.164938;1.000000;0.000124;-0.000463;0.001525;-0.000083;0.001528;-0.000466;-87.614737;0.001567;
1111;457;0.011589;0.178007;1.000000;0.000098;-0.000493;0.001528;0.000028;0.001528;-0.000493;89.198645;0.001560;
1296;1877;-0.029651;86.353413;1.000000;0.000153;-0.000348;0.001577;0.000225;0.001603;-0.000374;83.411712;0.001677;
1226;557;-0.080510;0.346101;0.999998;0.000430;-0.000738;0.001767;-0.000218;0.001785;-0.000757;-85.073635;0.001792;
1041;697;0.259358;0.837654;0.999995;0.000618;-0.002979;0.007340;0.001715;0.007618;-0.003256;80.804066;0.007644;
1096;1212;2.588551;68.214276;0.998544;0.010640;-0.072598;0.188361;-0.004770;0.188448;-0.072685;-88.953137;0.190082;
1091;962;1.690031;9.853139;0.999645;0.005458;-0.039121;0.091661;0.004892;0.091844;-0.039304;87.860974;0.092161;
1226;1352;-2.071910;81.077176;0.999902;0.002766;-0.022708;0.050625;0.007903;0.051467;-0.023550;83.918264;0.051529;
1231;442;-0.043021;0.159777;1.000000;0.000155;-0.000465;0.001527;-0.000113;0.001533;-0.000472;-86.773585;0.001570;
1181;1737;-0.033227;86.152336;1.000000;0.000106;-0.000675;0.001641;0.000075;0.001644;-0.000677;88.146188;0.001652;
1321;377;-0.048760;0.085409;0.999994;0.000617;-0.000476;0.001628;-0.000138;0.001637;-0.000485;-86.266273;0.001682;
1151;872;-0.294596;4.347626;0.999861;0.002749;-0.018231;0.041386;-0.001194;0.041410;-0.018255;-88.853036;0.041506;
1276;1592;-0.225387;85.839167;0.999997;0.000530;-0.001657;0.004392;0.001541;0.004762;-0.002026;76.503943;0.004780;
1141;457;-0.003054;0.177379;1.000000;0.000075;-0.000491;0.001525;-0.000007;0.001525;-0.000491;-89.809196;0.001557;
1296;1882;-0.026049;86.360421;1.000000;0.000132;-0.000325;0.001580;0.000242;0.001610;-0.000355;82.874135;0.001692;
1056;1197;6.564877;64.575063;0.998238;0.010671;-0.087530;0.238072;-0.013187;0.238605;-0.088063;-87.684506;0.241316;
1226;1357;-1.972611;81.333539;0.999911;0.002905;-0.021680;0.048372;0.007722;0.049213;-0.022521;83.783377;0.049272;
1111;962;0.901369;9.786546;0.999525;0.006903;-0.038482;0.090736;0.002564;0.090787;-0.038533;88.863908;0.091132;
1231;557;-0.084705;0.345303;0.999997;0.000422;-0.000715;0.001743;-0.000224;0.001763;-0.000736;-84.836779;0.001771;
1236;442;-0.045321;0.160657;1.000000;0.000131;-0.000467;0.001528;-0.000114;0.001535;-0.000474;-86.737418;0.001572;
1106;712;0.094677;0.941498;0.999996;0.000614;-0.003317;0.008341;0.000584;0.008370;-0.003346;87.137273;0.008426;
1181;1742;-0.032166;86.160634;1.000000;0.000106;-0.000655;0.001628;0.000070;0.001630;-0.000657;88.256037;0.001640;
1171;862;-0.610346;3.987923;0.999907;0.003435;-0.016901;0.038157;-0.002509;0.038271;-0.017015;-87.396211;0.038349;
1011;417;0.045338;0.126564;1.000000;0.000136;-0.000408;0.001517;0.000144;0.001528;-0.000418;85.748676;0.001579;
1146;457;-0.005482;0.177580;1.000000;0.000072;-0.000492;0.001526;-0.000012;0.001526;-0.000492;-89.645785;0.001558;
1061;1217;5.029953;68.461841;0.998959;0.008732;-0.072997;0.187250;-0.011458;0.187754;-0.073501;-87.484006;0.189222;
1276;1872;-0.027158;86.348977;1.000000;0.000171;-0.000277;0.001501;0.000236;0.001532;-0.000308;82.580115;0.001620;
1181;1532;-0.159232;85.462892;0.999996;0.000580;-0.003418;0.008503;0.000992;0.008585;-0.003500;85.274837;0.008634;
1116;962;0.719844;9.763742;0.999563;0.005569;-0.038406;0.090636;0.002018;0.090668;-0.038438;89.104231;0.091017;
1241;442;-0.047613;0.161288;1.000000;0.000111;-0.000469;0.001528;-0.000116;0.001535;-0.000476;-86.679607;0.001572;
1016;542;0.093295;0.322543;0.999999;0.000320;-0.000622;0.001645;0.000211;0.001665;-0.000641;84.719796;0.001679;
1111;712;0.078083;0.940605;0.999996;0.000587;-0.003310;0.008322;0.000483;0.008342;-0.003330;87.626402;0.008399;
1181;1747;-0.031172;86.168482;1.000000;0.000103;-0.000636;0.001617;0.000066;0.001619;-0.000638;88.332743;0.001631;
1171;1372;-0.706590;82.055309;0.999893;0.002550;-0.018365;0.041699;0.002597;0.041811;-0.018477;87.528862;0.041904;
1011;422;0.047500;0.133862;1.000000;0.000129;-0.000421;0.001520;0.000139;0.001530;-0.000431;85.933088;0.001578;
1146;462;-0.005823;0.185114;1.000000;0.000074;-0.000512;0.001539;-0.000012;0.001539;-0.000512;-89.657418;0.001567;
1066;1217;4.663568;68.542691;0.999021;0.008900;-0.072599;0.185526;-0.010133;0.185923;-0.072997;-87.755405;0.187347;
1216;867;-1.447009;4.187824;0.999907;0.002565;-0.018208;0.040213;-0.005978;0.040818;-0.018813;-84.216886;0.040860;
1276;1877;-0.023828;86.356199;1.000000;0.000162;-0.000248;0.001494;0.000248;0.001528;-0.000283;82.064558;0.001626;
1186;1532;-0.175885;85.463036;0.999996;0.000516;-0.003445;0.008533;0.001099;0.008633;-0.003545;84.802143;0.008679;
1146;987;-0.549710;12.148381;0.999445;0.006649;-0.047131;0.113954;-0.001555;0.113969;-0.047146;-89.447105;0.114534;
1021;542;0.091040;0.321838;0.999999;0.000347;-0.000636;0.001657;0.000205;0.001676;-0.000655;84.930541;0.001689;
1166;1732;-0.024147;86.145536;1.000000;0.000069;-0.000716;0.001673;0.000057;0.001674;-0.000717;88.632230;0.001680;
1316;382;-0.048765;0.090691;1.000000;0.000117;-0.000468;0.001587;-0.000145;0.001597;-0.000479;-85.991280;0.001639;
1031;677;0.221044;0.706077;0.999996;0.000516;-0.002317;0.005860;0.001509;0.006129;-0.002587;79.869393;0.006154;
1051;1352;1.805531;81.125116;0.999878;0.002582;-0.022731;0.050713;-0.007059;0.051385;-0.023403;-84.559623;0.051453;
1276;517;-0.095533;0.281373;0.999998;0.000319;-0.000562;0.001527;-0.000196;0.001546;-0.000580;-84.680939;0.001561;
1146;467;-0.006108;0.192759;1.000000;0.000076;-0.000531;0.001553;-0.000013;0.001553;-0.000531;-89.653342;0.001579;
1221;867;-1.536842;4.192337;0.999897;0.003069;-0.018264;0.040204;-0.006363;0.040889;-0.018949;-83.860721;0.040925;
1071;1217;4.267690;68.638139;0.999005;0.008731;-0.072302;0.183929;-0.008760;0.184228;-0.072601;-88.044116;0.185601;
1276;1882;-0.020470;86.363205;1.000000;0.000194;-0.000220;0.001491;0.000257;0.001529;-0.000258;81.628160;0.001637;
1281;1587;-0.245207;85.812443;0.999968;0.001691;-0.001766;0.004577;0.001719;0.005013;-0.002202;75.767258;0.005025;
1146;992;-0.575427;12.676233;0.999430;0.008105;-0.049069;0.118901;-0.001577;0.118916;-0.049084;-89.462270;0.119518;
1026;542;0.087287;0.321439;0.999998;0.000387;-0.000650;0.001670;0.000200;0.001687;-0.000668;85.100601;0.001699;
1171;1732;-0.027574;86.144894;1.000000;0.000078;-0.000711;0.001670;0.000066;0.001671;-0.000713;88.419663;0.001677;
1281;1592;-0.234633;85.840170;0.999993;0.000886;-0.001648;0.004374;0.001600;0.004772;-0.002047;76.003216;0.004789;
1056;1217;5.409104;68.348748;0.998903;0.008268;-0.073444;0.189095;-0.012712;0.189709;-0.074058;-87.234392;0.191223;
1146;472;-0.006142;0.200077;1.000000;0.000079;-0.000550;0.001558;-0.000013;0.001558;-0.000550;-89.650052;0.001580;
1231;852;-1.507527;3.634241;0.999896;0.003243;-0.016106;0.035327;-0.006542;0.036146;-0.016925;-82.863413;0.036170;
1041;432;0.038500;0.144990;1.000000;0.000126;-0.000434;0.001519;0.000119;0.001526;-0.000442;86.532738;0.001571;
1131;722;0.016037;1.028118;0.999996;0.000571;-0.003826;0.009471;0.000085;0.009472;-0.003826;89.635317;0.009530;
1176;1377;-0.757193;82.245944;0.999907;0.002794;-0.017689;0.040025;0.002878;0.040168;-0.017832;87.152636;0.040252;
1026;522;0.079258;0.288529;0.999998;0.000379;-0.000638;0.001633;0.000164;0.001645;-0.000650;85.880563;0.001657;
1141;1872;-0.001244;86.355859;1.000000;0.000164;-0.000164;0.001342;0.000013;0.001342;-0.000164;89.510578;0.001465;
1121;962;0.529321;9.753144;0.999478;0.005090;-0.038365;0.090583;0.001449;0.090600;-0.038381;89.356228;0.090951;
1001;547;0.105323;0.329468;0.999998;0.000429;-0.000572;0.001602;0.000245;0.001630;-0.000599;83.654499;0.001649;
1171;1722;-0.029744;86.128454;1.000000;0.000114;-0.000756;0.001720;0.000075;0.001722;-0.000758;88.264280;0.001726;
1051;1207;6.403053;66.473976;0.998426;0.010517;-0.080700;0.214703;-0.014549;0.215418;-0.081415;-87.187157;0.217547;
1046;432;0.036245;0.144569;1.000000;0.000113;-0.000429;0.001516;0.000114;0.001523;-0.000436;86.646539;0.001568;
1041;1352;2.033093;81.116302;0.999874;0.003129;-0.022953;0.050905;-0.007990;0.051759;-0.023807;-83.896008;0.051814;
1166;857;-0.500084;3.799521;0.999908;0.003225;-0.016122;0.036425;-0.002113;0.036510;-0.016207;-87.701420;0.036586;
1116;452;0.008781;0.170121;1.000000;0.000108;-0.000473;0.001517;0.000022;0.001518;-0.000473;89.352733;0.001553;
1311;492;-0.102841;0.247326;0.999999;0.000350;-0.000527;0.001329;-0.000139;0.001339;-0.000537;-85.753757;0.001348;
996;632;0.172396;0.494199;0.999995;0.000761;-0.001106;0.003246;0.001052;0.003487;-0.001346;77.102686;0.003517;
1066;1537;0.204581;85.507218;0.999995;0.000465;-0.003238;0.007894;-0.001370;0.008061;-0.003404;-83.086434;0.008093;
1146;1872;-0.001956;86.355594;1.000000;0.000140;-0.000164;0.001343;0.000022;0.001344;-0.000164;89.173985;0.001466;
1051;1212;6.104073;67.366398;0.998662;0.010774;-0.077230;0.202857;-0.014264;0.203582;-0.077955;-87.092116;0.205434;
1121;967;0.551001;10.182680;0.999436;0.006089;-0.040000;0.094644;0.001517;0.094661;-0.040018;89.354519;0.095037;
1016;547;0.095523;0.330507;0.999998;0.000318;-0.000620;0.001652;0.000223;0.001674;-0.000641;84.442177;0.001689;
1176;1722;-0.033352;86.128115;1.000000;0.000114;-0.000748;0.001713;0.000084;0.001716;-0.000751;88.042286;0.001721;
1046;1352;1.916544;81.120740;0.999881;0.002875;-0.022816;0.050807;-0.007526;0.051569;-0.023577;-84.222834;0.051632;
1121;452;0.006300;0.170201;1.000000;0.000086;-0.000472;0.001517;0.000016;0.001517;-0.000472;89.549049;0.001552;
996;637;0.182256;0.511694;0.999995;0.000599;-0.001206;0.003495;0.001148;0.003760;-0.001471;76.989031;0.003790;
1251;437;-0.050140;0.155058;1.000000;0.000141;-0.000458;0.001521;-0.000125;0.001529;-0.000466;-86.399825;0.001567;
1146;877;-0.212922;4.566208;0.999900;0.002609;-0.018988;0.043067;-0.000875;0.043080;-0.019001;-89.192599;0.043179;
1051;1217;5.810202;68.231546;0.998737;0.010814;-0.073809;0.190939;-0.014028;0.191681;-0.074550;-86.975462;0.193251;
966;507;0.106931;0.267599;0.999998;0.000320;-0.000583;0.001362;0.000151;0.001374;-0.000594;85.585515;0.001378;
1206;1547;-0.198783;85.574129;0.999995;0.000682;-0.002929;0.007171;0.001291;0.007333;-0.003091;82.830946;0.007363;
1151;1862;-0.003516;86.341964;0.999999;0.000214;-0.000204;0.001367;0.000032;0.001368;-0.000205;88.830449;0.001475;
1131;972;0.143499;10.643081;0.999489;0.006902;-0.041637;0.099058;0.000406;0.099059;-0.041639;89.834700;0.099477;
1021;547;0.093030;0.330628;0.999998;0.000324;-0.000637;0.001665;0.000216;0.001685;-0.000657;84.690049;0.001698;
1181;1722;-0.037008;86.127770;1.000000;0.000109;-0.000738;0.001706;0.000092;0.001710;-0.000742;87.849178;0.001715;
1071;1352;1.355964;81.140082;0.999874;0.003356;-0.022368;0.050255;-0.005232;0.050630;-0.022743;-85.900216;0.050717;
1126;452;0.004003;0.169977;1.000000;0.000078;-0.000471;0.001516;0.000010;0.001516;-0.000471;89.722685;0.001552;
1146;882;-0.224462;4.783473;0.999897;0.003525;-0.019799;0.044930;-0.000892;0.044943;-0.019811;-89.210315;0.045047;
1256;432;-0.050610;0.148321;1.000000;0.000120;-0.000447;0.001516;-0.000128;0.001524;-0.000455;-86.284144;0.001564;
1076;1217;3.878434;68.744385;0.999068;0.007517;-0.071591;0.182280;-0.007842;0.182522;-0.071833;-88.232285;0.183895;
1236;677;-0.210243;0.701203;0.999995;0.000577;-0.002312;0.005828;-0.001492;0.006093;-0.002577;-79.935393;0.006117;
1291;1887;-0.021310;86.369365;1.000000;0.000175;-0.000249;0.001555;0.000265;0.001594;-0.000287;81.803746;0.001699;
1181;1527;-0.170035;85.422743;0.999995;0.000557;-0.003653;0.009027;0.001048;0.009113;-0.003739;85.308852;0.009161;
1026;547;0.089724;0.331010;0.999998;0.000407;-0.000653;0.001678;0.000211;0.001697;-0.000672;84.861858;0.001709;
1136;977;-0.057775;11.148343;0.999506;0.005653;-0.043463;0.103756;-0.000200;0.103756;-0.043464;-89.922003;0.104210;
1176;562;-0.040229;0.356750;0.999998;0.000439;-0.000952;0.002070;-0.000127;0.002075;-0.000957;-87.602573;0.002078;
1071;1357;1.294539;81.380751;0.999896;0.003037;-0.021453;0.048176;-0.005131;0.048553;-0.021829;-85.807975;0.048635;
1091;1722;0.031613;86.128655;1.000000;0.000116;-0.000747;0.001705;-0.000079;0.001708;-0.000750;-88.148531;0.001712;
1131;452;0.001783;0.169747;1.000000;0.000080;-0.000470;0.001516;0.000004;0.001516;-0.000470;89.883915;0.001552;
1256;437;-0.052779;0.155861;1.000000;0.000140;-0.000459;0.001519;-0.000125;0.001527;-0.000467;-86.406879;0.001565;
1296;1887;-0.021657;86.368480;1.000000;0.000155;-0.000297;0.001585;0.000263;0.001621;-0.000333;82.202526;0.001712;
1126;892;0.184643;5.252970;0.999929;0.003331;-0.021456;0.048864;0.000558;0.048869;-0.021461;89.545760;0.048989;
996;642;0.193458;0.531296;0.999994;0.000600;-0.001334;0.003780;0.001250;0.004069;-0.001623;76.970490;0.004097;
1081;1217;3.526885;68.824295;0.999050;0.008139;-0.070937;0.180644;-0.006916;0.180834;-0.071127;-88.426619;0.182200;
1086;957;1.819368;9.434114;0.999699;0.004557;-0.037811;0.087800;0.005434;0.088034;-0.038045;87.527607;0.088304;
1231;1352;-2.188795;81.068806;0.999892;0.002601;-0.022782;0.050689;0.008393;0.051636;-0.023729;83.565231;0.051692;
1061;1552;0.181034;85.612529;0.999995;0.000485;-0.002689;0.006677;-0.001248;0.006840;-0.002853;-82.538152;0.006872;
1031;532;0.079329;0.304844;0.999998;0.000342;-0.000656;0.001653;0.000173;0.001666;-0.000668;85.748024;0.001677;
1151;562;-0.015585;0.357795;0.999998;0.000372;-0.000985;0.002122;-0.000049;0.002123;-0.000986;-89.094348;0.002125;
1136;452;-0.000565;0.169847;1.000000;0.000084;-0.000472;0.001516;-0.000002;0.001516;-0.000472;-89.936589;0.001552;
1171;1757;-0.023430;86.184774;1.000000;0.000094;-0.000607;0.001592;0.000048;0.001593;-0.000608;88.745164;0.001608;
1281;642;-0.202095;0.526026;0.999996;0.000527;-0.001223;0.003678;-0.001269;0.003987;-0.001532;-76.312509;0.004022;
1301;1877;-0.031250;86.352421;1.000000;0.000151;-0.000362;0.001602;0.000227;0.001628;-0.000388;83.505182;0.001701;
1196;467;-0.032514;0.195359;1.000000;0.000138;-0.000528;0.001564;-0.000074;0.001567;-0.000531;-87.970583;0.001594;
1126;897;0.197815;5.486921;0.999930;0.003164;-0.022346;0.050897;0.000581;0.050901;-0.022350;89.545650;0.051027;
1086;1217;3.191662;68.867983;0.999165;0.007515;-0.070368;0.179128;-0.006028;0.179273;-0.070513;-88.616759;0.180628;
1231;1357;-2.088240;81.327121;0.999907;0.002512;-0.021751;0.048364;0.008204;0.049311;-0.022698;83.414651;0.049363;
1086;962;1.892044;9.871657;0.999641;0.005471;-0.039460;0.092077;0.005514;0.092308;-0.039690;87.603717;0.092609;
1036;532;0.076043;0.304235;0.999998;0.000313;-0.000666;0.001662;0.000166;0.001674;-0.000678;85.950613;0.001684;
1061;1557;0.169438;85.645718;0.999996;0.000473;-0.002523;0.006284;-0.001176;0.006439;-0.002677;-82.525978;0.006469;
1141;452;-0.002934;0.169689;1.000000;0.000078;-0.000472;0.001516;-0.000008;0.001516;-0.000472;-89.771574;0.001552;
1186;567;-0.051287;0.366690;0.999998;0.000408;-0.000938;0.002074;-0.000162;0.002083;-0.000947;-86.938725;0.002086;
1271;677;-0.291263;0.698488;0.999996;0.000559;-0.002305;0.005934;-0.002052;0.006417;-0.002787;-76.762938;0.006435;
1301;1882;-0.027513;86.358952;1.000000;0.000142;-0.000340;0.001608;0.000245;0.001638;-0.000370;82.937069;0.001718;
1131;897;0.087468;5.483264;0.999934;0.003300;-0.022328;0.050867;0.000180;0.050868;-0.022328;89.859211;0.050994;
1091;1217;2.842489;68.964646;0.998812;0.009420;-0.069795;0.177751;-0.005212;0.177860;-0.069904;-88.794408;0.179212;
1021;432;0.047194;0.146794;1.000000;0.000164;-0.000443;0.001525;0.000130;0.001534;-0.000452;86.246665;0.001576;
1106;1717;0.020983;86.120773;1.000000;0.000087;-0.000790;0.001761;-0.000057;0.001762;-0.000791;-88.711227;0.001765;
1086;967;1.973508;10.295720;0.999520;0.006985;-0.041165;0.096505;0.005623;0.096735;-0.041394;87.665097;0.097069;
1011;542;0.096067;0.322393;0.999998;0.000334;-0.000606;0.001630;0.000218;0.001651;-0.000627;84.488472;0.001666;
1301;1887;-0.023110;86.367017;1.000000;0.000180;-0.000312;0.001615;0.000268;0.001651;-0.000349;82.221101;0.001741;
1146;452;-0.005277;0.169848;1.000000;0.000066;-0.000473;0.001517;-0.000014;0.001517;-0.000473;-89.595760;0.001553;
1076;1522;0.213473;85.376308;0.999995;0.000713;-0.003882;0.009407;-0.001338;0.009541;-0.004015;-84.306786;0.009580;
1166;552;-0.028714;0.335625;0.999998;0.000396;-0.000917;0.001974;-0.000089;0.001977;-0.000920;-88.238384;0.001979;
1031;682;0.235768;0.737640;0.999996;0.000507;-0.002486;0.006222;0.001600;0.006507;-0.002771;79.908956;0.006531;
1136;897;-0.029544;5.472900;0.999923;0.003575;-0.022329;0.050867;-0.000206;0.050868;-0.022330;-89.838946;0.050994;
1026;432;0.044766;0.146829;1.000000;0.000132;-0.000441;0.001525;0.000127;0.001533;-0.000449;86.333184;0.001576;
1096;1217;2.483228;69.026050;0.998596;0.009668;-0.069141;0.176414;-0.004496;0.176497;-0.069224;-88.951438;0.177858;
1176;1372;-0.793697;82.051911;0.999907;0.003160;-0.018452;0.041778;0.002990;0.041926;-0.018600;87.164682;0.042015;
1161;1767;-0.015849;86.201686;1.000000;0.000096;-0.000569;0.001570;0.000035;0.001570;-0.000570;89.074732;0.001590;
1166;557;-0.029032;0.346209;0.999998;0.000507;-0.000944;0.002036;-0.000094;0.002039;-0.000947;-88.197693;0.002041;
1091;957;1.631771;9.413758;0.999689;0.005540;-0.037492;0.087425;0.004819;0.087611;-0.037678;87.793938;0.087896;
1111;452;0.011185;0.170155;1.000000;0.000121;-0.000474;0.001518;0.000029;0.001519;-0.000474;89.160891;0.001554;
1271;1872;-0.025732;86.349728;1.000000;0.000129;-0.000266;0.001483;0.000231;0.001513;-0.000296;82.595572;0.001604;
1026;1577;0.196769;85.763414;0.999995;0.000546;-0.001993;0.005176;-0.001391;0.005436;-0.002253;-79.393764;0.005463;
1031;687;0.251622;0.767618;0.999994;0.000607;-0.002661;0.006598;0.001700;0.006901;-0.002963;79.919793;0.006923;
1111;462;0.012130;0.185578;1.000000;0.000083;-0.000512;0.001541;0.000027;0.001541;-0.000512;89.237026;0.001570;
1031;432;0.042704;0.146354;1.000000;0.000105;-0.000440;0.001524;0.000123;0.001532;-0.000447;86.435783;0.001575;
1141;897;-0.143356;5.470948;0.999907;0.002849;-0.022355;0.050872;-0.000582;0.050876;-0.022360;-89.544499;0.051000;
1166;1767;-0.018727;86.201260;1.000000;0.000088;-0.000569;0.001570;0.000041;0.001571;-0.000570;88.910127;0.001591;
1081;1222;3.366705;69.600827;0.999079;0.007667;-0.067496;0.168838;-0.006794;0.169033;-0.067691;-88.354616;0.170146;
1211;1347;-1.801763;80.868842;0.999847;0.003121;-0.023483;0.052426;0.006674;0.053008;-0.024065;85.013827;0.053083;
1151;452;-0.007601;0.170059;1.000000;0.000074;-0.000473;0.001518;-0.000020;0.001518;-0.000474;-89.427896;0.001553;
1096;957;1.436444;9.402235;0.999657;0.004604;-0.037308;0.087105;0.004236;0.087249;-0.037452;88.051993;0.087540;
1271;1877;-0.022450;86.356792;1.000000;0.000120;-0.000238;0.001475;0.000242;0.001508;-0.000272;82.106272;0.001608;
1091;972;1.837851;10.717388;0.999445;0.006740;-0.042608;0.100789;0.005111;0.100971;-0.042790;87.961167;0.101361;
1101;462;0.017247;0.185925;1.000000;0.000155;-0.000513;0.001545;0.000038;0.001546;-0.000514;88.934575;0.001574;
1031;1577;0.187246;85.762609;0.999996;0.000480;-0.001987;0.005137;-0.001324;0.005375;-0.002225;-79.806325;0.005401;
1206;702;-0.205560;0.870783;0.999993;0.000589;-0.003091;0.007633;-0.001391;0.007811;-0.003269;-82.726368;0.007845;
1226;437;-0.039033;0.151882;1.000000;0.000129;-0.000446;0.001519;-0.000113;0.001525;-0.000452;-86.722705;0.001567;
1086;1222;3.051125;69.640304;0.999043;0.008015;-0.066939;0.167432;-0.005941;0.167583;-0.067090;-88.548828;0.168689;
1146;887;-0.229018;5.006438;0.999898;0.003977;-0.020645;0.046940;-0.000916;0.046952;-0.020657;-89.223637;0.047065;
1151;457;-0.007868;0.177660;1.000000;0.000081;-0.000493;0.001527;-0.000018;0.001527;-0.000493;-89.481698;0.001559;
1216;1347;-1.921471;80.864649;0.999852;0.002824;-0.023554;0.052580;0.007125;0.053241;-0.024215;84.699642;0.053314;
1101;957;1.246812;9.394544;0.999632;0.004941;-0.037137;0.086875;0.003627;0.086981;-0.037243;88.326375;0.087280;
1086;1732;0.033144;86.145005;1.000000;0.000135;-0.000697;0.001652;-0.000074;0.001654;-0.000699;-88.209267;0.001661;
1271;1882;-0.019348;86.364507;1.000000;0.000119;-0.000210;0.001472;0.000251;0.001509;-0.000247;81.704217;0.001618;
1096;952;1.386485;8.979779;0.999697;0.004179;-0.035763;0.083168;0.004115;0.083310;-0.035905;88.020548;0.083574;
1131;462;0.001701;0.185003;1.000000;0.000138;-0.000508;0.001537;0.000004;0.001537;-0.000508;89.885459;0.001566;
1211;702;-0.219678;0.870031;0.999995;0.000622;-0.003104;0.007674;-0.001492;0.007876;-0.003307;-82.262638;0.007910;
1231;1577;-0.182606;85.756351;0.999996;0.000618;-0.002021;0.005116;0.001235;0.005323;-0.002229;80.451892;0.005347;
1166;462;-0.015944;0.185769;1.000000;0.000116;-0.000513;0.001544;-0.000037;0.001545;-0.000513;-88.979348;0.001574;
1221;1347;-2.041195;80.858819;0.999881;0.003065;-0.023649;0.052747;0.007573;0.053491;-0.024392;84.393415;0.053560;
1091;1222;2.718831;69.718330;0.998895;0.008869;-0.066369;0.166194;-0.005168;0.166309;-0.066483;-88.727510;0.167419;
1146;892;-0.237770;5.236033;0.999901;0.003566;-0.021524;0.048895;-0.000954;0.048908;-0.021537;-89.224028;0.049024;
1151;462;-0.008285;0.185340;1.000000;0.000080;-0.000512;0.001540;-0.000018;0.001540;-0.000512;-89.505385;0.001568;
1106;957;1.061502;9.381838;0.999609;0.006136;-0.037045;0.086705;0.003027;0.086778;-0.037119;88.599747;0.087080;
1301;1872;-0.035020;86.343850;1.000000;0.000198;-0.000389;0.001589;0.000203;0.001609;-0.000410;84.205359;0.001673;
1086;1737;0.032252;86.153340;1.000000;0.000123;-0.000677;0.001632;-0.000069;0.001634;-0.000679;-88.298016;0.001642;
1101;952;1.205699;8.969216;0.999667;0.004911;-0.035616;0.082938;0.003517;0.083042;-0.035720;88.302228;0.083312;
1136;462;-0.000576;0.185015;1.000000;0.000101;-0.000509;0.001537;-0.000002;0.001537;-0.000509;-89.947505;0.001566;
1216;702;-0.235563;0.869396;0.999995;0.000601;-0.003120;0.007712;-0.001594;0.007942;-0.003350;-81.800942;0.007974;
1236;1577;-0.192675;85.757814;0.999995;0.000538;-0.002026;0.005166;0.001310;0.005397;-0.002257;79.996086;0.005421;
1226;1347;-2.154792;80.851481;0.999871;0.003311;-0.023712;0.052921;0.008059;0.053759;-0.024551;84.061139;0.053826;
1171;462;-0.018470;0.185987;1.000000;0.000135;-0.000512;0.001546;-0.000043;0.001547;-0.000513;-88.812580;0.001576;
1146;897;-0.257657;5.479328;0.999893;0.002784;-0.022435;0.050912;-0.000970;0.050925;-0.022448;-89.242490;0.051044;
1071;1222;4.083121;69.466414;0.999097;0.009306;-0.068878;0.172100;-0.008557;0.172403;-0.069182;-87.968826;0.173520;
1111;957;0.871637;9.370432;0.999596;0.005945;-0.036885;0.086588;0.002454;0.086637;-0.036933;88.862044;0.086950;
1271;1887;-0.016454;86.371082;1.000000;0.000142;-0.000182;0.001468;0.000260;0.001508;-0.000222;81.269207;0.001628;
1106;452;0.013570;0.170032;1.000000;0.000123;-0.000475;0.001520;0.000035;0.001520;-0.000476;88.989314;0.001555;
1086;1742;0.031185;86.160763;1.000000;0.000125;-0.000658;0.001619;-0.000064;0.001621;-0.000660;-88.378959;0.001631;
1081;967;2.176673;10.324786;0.999487;0.006143;-0.041488;0.097035;0.006259;0.097317;-0.041771;87.418037;0.097642;
1226;692;-0.231962;0.795583;0.999996;0.000628;-0.002786;0.006911;-0.001601;0.007168;-0.003043;-80.862004;0.007196;
1141;462;-0.003209;0.185126;1.000000;0.000081;-0.000510;0.001537;-0.000007;0.001538;-0.000510;-89.805488;0.001566;
1241;1577;-0.201476;85.758325;0.999994;0.000581;-0.002031;0.005213;0.001386;0.005470;-0.002287;79.529560;0.005494;
1176;1367;-0.830764;81.839979;0.999879;0.003240;-0.019236;0.043522;0.003100;0.043675;-0.019389;87.178549;0.043766;
1221;437;-0.036825;0.151385;1.000000;0.000115;-0.000442;0.001517;-0.000108;0.001523;-0.000448;-86.856251;0.001565;
1076;1222;3.715462;69.542576;0.999076;0.007234;-0.068145;0.170426;-0.007673;0.170673;-0.068392;-88.159761;0.171791;
1276;1887;-0.017421;86.371070;1.000000;0.000219;-0.000191;0.001488;0.000268;0.001530;-0.000233;81.149600;0.001648;
1116;957;0.686179;9.361037;0.999596;0.005739;-0.036813;0.086502;0.001903;0.086532;-0.036842;89.116319;0.086849;
1136;447;-0.000648;0.162089;1.000000;0.000073;-0.000453;0.001507;-0.000003;0.001507;-0.000453;-89.911196;0.001546;
1161;857;-0.420499;3.799822;0.999901;0.003018;-0.016072;0.036374;-0.001785;0.036435;-0.016132;-88.052746;0.036515;
1106;952;1.022836;8.959074;0.999614;0.006293;-0.035537;0.082744;0.002933;0.082817;-0.035610;88.580624;0.083087;
1161;1727;-0.021192;86.137015;1.000000;0.000095;-0.000743;0.001699;0.000052;0.001700;-0.000744;88.770176;0.001705;
1231;692;-0.245832;0.797387;0.999993;0.000544;-0.002809;0.006958;-0.001688;0.007242;-0.003092;-80.468123;0.007267;
1141;467;-0.003414;0.192712;1.000000;0.000090;-0.000529;0.001552;-0.000008;0.001552;-0.000529;-89.787917;0.001578;
1021;1582;0.192785;85.787404;0.999996;0.000507;-0.001866;0.004892;-0.001372;0.005160;-0.002134;-78.949042;0.005185;
1206;1352;-1.609172;81.123004;0.999884;0.003539;-0.022439;0.050192;0.006072;0.050696;-0.022943;85.253895;0.050772;
1281;1887;-0.018759;86.370783;1.000000;0.000263;-0.000206;0.001506;0.000272;0.001548;-0.000249;81.172057;0.001663;
976;397;0.049155;0.104686;1.000000;0.000110;-0.000411;0.001543;0.000130;0.001551;-0.000419;86.214822;0.001605;
1141;447;-0.002908;0.162274;1.000000;0.000073;-0.000453;0.001507;-0.000009;0.001507;-0.000453;-89.737252;0.001546;
1121;957;0.504473;9.355426;0.999516;0.005339;-0.036776;0.086476;0.001348;0.086491;-0.036791;89.373685;0.086812;
1176;867;-0.727061;4.172250;0.999911;0.002645;-0.017689;0.039901;-0.002950;0.040051;-0.017840;-87.075526;0.040131;
1111;952;0.836481;8.942891;0.999600;0.006165;-0.035386;0.082613;0.002374;0.082661;-0.035434;88.848014;0.082941;
1161;1722;-0.022043;86.128557;1.000000;0.000099;-0.000766;0.001728;0.000056;0.001729;-0.000767;88.704468;0.001733;
1286;407;-0.051370;0.117577;1.000000;0.000141;-0.000420;0.001520;-0.000123;0.001528;-0.000428;-86.379696;0.001576;
1256;682;-0.275744;0.732388;0.999995;0.000641;-0.002521;0.006308;-0.001919;0.006707;-0.002920;-78.252428;0.006726;
1141;472;-0.003505;0.200295;1.000000;0.000118;-0.000548;0.001557;-0.000008;0.001557;-0.000548;-89.790938;0.001579;
1201;1352;-1.502225;81.130214;0.999875;0.003277;-0.022318;0.050036;0.005617;0.050469;-0.022751;85.587407;0.050551;
1051;1562;0.179319;85.675846;0.999996;0.000579;-0.002378;0.006000;-0.001263;0.006186;-0.002565;-81.608362;0.006216;
1266;1872;-0.024512;86.350483;1.000000;0.000130;-0.000255;0.001467;0.000225;0.001496;-0.000284;82.690377;0.001589;
976;402;0.051932;0.112480;1.000000;0.000138;-0.000419;0.001536;0.000117;0.001543;-0.000426;86.589549;0.001594;
1146;447;-0.005158;0.162360;1.000000;0.000071;-0.000454;0.001507;-0.000015;0.001507;-0.000454;-89.551637;0.001547;
1181;867;-0.814548;4.173681;0.999914;0.002825;-0.017719;0.039949;-0.003334;0.040142;-0.017912;-86.701815;0.040219;
1261;682;-0.288332;0.731438;0.999996;0.000611;-0.002525;0.006318;-0.002002;0.006750;-0.002957;-77.818066;0.006767;
1116;952;0.657567;8.942443;0.999609;0.005289;-0.035325;0.082515;0.001834;0.082543;-0.035354;89.108576;0.082826;
1141;977;-0.276498;11.153069;0.999537;0.005037;-0.043431;0.103713;-0.000844;0.103717;-0.043436;-89.671560;0.104172;
1166;1722;-0.025941;86.128330;1.000000;0.000096;-0.000762;0.001724;0.000066;0.001726;-0.000764;88.488034;0.001730;
1196;462;-0.031587;0.187771;1.000000;0.000146;-0.000512;0.001555;-0.000074;0.001558;-0.000514;-87.952671;0.001588;
1081;462;0.027534;0.187265;1.000000;0.000152;-0.000520;0.001553;0.000062;0.001555;-0.000522;88.280897;0.001583;
1196;1352;-1.389196;81.132954;0.999816;0.003619;-0.022196;0.049887;0.005164;0.050255;-0.022564;85.922805;0.050342;
1266;1877;-0.021413;86.357755;1.000000;0.000115;-0.000228;0.001457;0.000234;0.001489;-0.000260;82.242701;0.001590;
1061;1542;0.206936;85.541499;0.999995;0.000651;-0.003051;0.007513;-0.001390;0.007693;-0.003231;-82.628257;0.007726;
1266;682;-0.301064;0.730950;0.999996;0.000654;-0.002507;0.006313;-0.002083;0.006780;-0.002974;-77.358283;0.006797;
1126;447;0.003894;0.162460;1.000000;0.000081;-0.000453;0.001507;0.000009;0.001507;-0.000453;89.730510;0.001546;
1061;447;0.033860;0.165859;1.000000;0.000129;-0.000474;0.001534;0.000088;0.001538;-0.000478;87.494567;0.001574;
1171;867;-0.635735;4.170432;0.999900;0.003369;-0.017656;0.039849;-0.002567;0.039963;-0.017770;-87.448762;0.040045;
1121;952;0.478585;8.943540;0.999536;0.005426;-0.035290;0.082466;0.001297;0.082481;-0.035304;89.369159;0.082765;
1166;1727;-0.025093;86.136895;1.000000;0.000093;-0.000739;0.001697;0.000061;0.001698;-0.000741;88.561505;0.001703;
1146;977;-0.506659;11.153713;0.999566;0.006303;-0.043399;0.103744;-0.001482;0.103759;-0.043414;-89.422864;0.104218;
1036;427;0.038905;0.137960;1.000000;0.000132;-0.000421;0.001514;0.000125;0.001522;-0.000429;86.313344;0.001569;
1116;457;0.009196;0.177575;1.000000;0.000093;-0.000492;0.001526;0.000022;0.001527;-0.000492;89.374367;0.001558;
1196;1357;-1.331998;81.360365;0.999847;0.003447;-0.021297;0.047824;0.005006;0.048184;-0.021658;85.878964;0.048266;
1266;1882;-0.018628;86.365380;1.000000;0.000114;-0.000202;0.001454;0.000241;0.001488;-0.000236;81.886713;0.001599;
946;402;0.070523;0.122093;0.999955;0.001572;-0.000619;0.001432;0.000105;0.001438;-0.000624;87.067248;0.001442;
1061;1547;0.193666;85.576606;0.999995;0.000559;-0.002864;0.007096;-0.001320;0.007268;-0.003036;-82.576698;0.007300;
1241;677;-0.222006;0.700852;0.999995;0.000634;-0.002340;0.005874;-0.001574;0.006165;-0.002632;-79.514515;0.006187;
1131;447;0.001701;0.162449;1.000000;0.000074;-0.000452;0.001506;0.000003;0.001506;-0.000452;89.900483;0.001546;
1126;902;0.203450;5.732840;0.999928;0.002703;-0.023292;0.053024;0.000588;0.053028;-0.023297;89.558567;0.053158;
1081;952;1.921358;9.026829;0.999735;0.003814;-0.036473;0.084228;0.005912;0.084517;-0.036761;87.202663;0.084755;
1081;947;1.839633;8.634031;0.999747;0.004358;-0.034933;0.080612;0.005776;0.080900;-0.035221;87.145465;0.081125;
1236;1352;-2.291222;81.063446;0.999503;0.006476;-0.022728;0.050689;0.008836;0.051738;-0.023776;83.232983;0.051794;
1111;1782;0.011149;86.225244;1.000000;0.000083;-0.000513;0.001541;-0.000026;0.001541;-0.000513;-89.279827;0.001570;
1121;457;0.006604;0.177456;1.000000;0.000094;-0.000491;0.001526;0.000016;0.001526;-0.000491;89.555300;0.001558;
1041;427;0.036677;0.137241;1.000000;0.000126;-0.000417;0.001510;0.000123;0.001518;-0.000425;86.372562;0.001566;
1306;1877;-0.033487;86.350420;1.000000;0.000146;-0.000379;0.001630;0.000226;0.001655;-0.000404;83.653336;0.001725;
1271;1582;-0.248339;85.786373;0.999995;0.000538;-0.001925;0.004975;0.001692;0.005368;-0.002318;76.936760;0.005384;
1216;442;-0.036058;0.158549;1.000000;0.000101;-0.000456;0.001522;-0.000101;0.001527;-0.000461;-87.097884;0.001566;
1246;677;-0.235010;0.701472;0.999993;0.000630;-0.002342;0.005905;-0.001659;0.006226;-0.002663;-79.042201;0.006248;
1151;447;-0.007338;0.162455;1.000000;0.000081;-0.000455;0.001507;-0.000021;0.001508;-0.000455;-89.375891;0.001547;
1236;1357;-2.207255;81.335188;0.999784;0.004489;-0.021697;0.048272;0.008644;0.049324;-0.022750;83.060340;0.049373;
1131;902;0.085648;5.729993;0.999931;0.003107;-0.023273;0.052996;0.000187;0.052997;-0.023273;89.859226;0.053128;
1081;957;2.007786;9.448032;0.999693;0.003938;-0.038084;0.088234;0.006063;0.088524;-0.038375;87.258245;0.088785;
1086;947;1.660697;8.617338;0.999761;0.004608;-0.034682;0.080227;0.005170;0.080459;-0.034914;87.428956;0.080693;
1321;382;-0.052359;0.094186;0.999995;0.000594;-0.000497;0.001580;-0.000126;0.001588;-0.000505;-86.544801;0.001623;
1126;457;0.004202;0.177389;1.000000;0.000089;-0.000490;0.001525;0.000010;0.001525;-0.000490;89.716743;0.001557;
1101;1717;0.024796;86.120681;1.000000;0.000102;-0.000784;0.001755;-0.000067;0.001756;-0.000786;-88.485941;0.001760;
1306;1882;-0.029690;86.357220;1.000000;0.000160;-0.000357;0.001637;0.000246;0.001666;-0.000387;83.060311;0.001744;
1276;1582;-0.258739;85.788682;0.999995;0.000650;-0.001918;0.004932;0.001762;0.005359;-0.002345;76.385339;0.005373;
1236;1362;-2.112636;81.570600;0.999885;0.002674;-0.020807;0.045619;0.008333;0.046648;-0.021836;82.957282;0.046680;
1206;447;-0.032535;0.165236;1.000000;0.000130;-0.000467;0.001527;-0.000088;0.001531;-0.000471;-87.473017;0.001568;
1121;447;0.006157;0.162568;1.000000;0.000079;-0.000453;0.001508;0.000015;0.001508;-0.000454;89.551410;0.001548;
1136;902;-0.031296;5.721293;0.999913;0.003628;-0.023269;0.053004;-0.000203;0.053004;-0.023269;-89.847723;0.053136;
1321;387;-0.057685;0.102567;0.999991;0.000819;-0.000498;0.001543;-0.000107;0.001548;-0.000504;-87.020334;0.001579;
1126;712;0.030364;0.939032;0.999996;0.000582;-0.003307;0.008305;0.000186;0.008308;-0.003310;89.084407;0.008365;
1091;947;1.493830;8.603671;0.999740;0.005375;-0.034433;0.079888;0.004588;0.080071;-0.034617;87.705372;0.080316;
1081;962;2.087915;9.890969;0.999651;0.005255;-0.039749;0.092552;0.006151;0.092837;-0.040035;87.343747;0.093129;
1306;1887;-0.025359;86.365265;1.000000;0.000222;-0.000330;0.001645;0.000272;0.001682;-0.000367;82.298181;0.001769;
1131;457;0.001771;0.177498;1.000000;0.000097;-0.000489;0.001525;0.000005;0.001525;-0.000489;89.871521;0.001557;
1096;1772;0.020298;86.209310;1.000000;0.000102;-0.000551;0.001562;-0.000046;0.001563;-0.000552;-88.751313;0.001586;
1211;1562;-0.175130;85.670631;0.999995;0.000611;-0.002421;0.006023;0.001160;0.006179;-0.002578;82.321179;0.006207;
1211;447;-0.035151;0.165741;1.000000;0.000118;-0.000471;0.001529;-0.000093;0.001533;-0.000475;-87.350829;0.001570;
1171;1367;-0.742175;81.842103;0.999869;0.002876;-0.019135;0.043420;0.002689;0.043535;-0.019251;87.543155;0.043632;
976;622;0.175180;0.459218;0.999909;0.003156;-0.000878;0.002457;0.001032;0.002751;-0.001171;74.126266;0.002761;
1116;447;0.008467;0.162678;1.000000;0.000092;-0.000454;0.001510;0.000022;0.001510;-0.000454;89.354937;0.001549;
1121;892;0.293609;5.256389;0.999929;0.002842;-0.021496;0.048894;0.000975;0.048908;-0.021510;89.206472;0.049026;
1096;947;1.321391;8.587528;0.999713;0.004721;-0.034299;0.079593;0.004027;0.079736;-0.034441;87.977484;0.079981;
1086;952;1.741302;9.012252;0.999767;0.004080;-0.036210;0.083828;0.005294;0.084061;-0.036443;87.479543;0.084308;
1266;1887;-0.015760;86.371456;1.000000;0.000125;-0.000175;0.001449;0.000248;0.001486;-0.000212;81.497353;0.001608;
1261;422;-0.048525;0.133985;1.000000;0.000105;-0.000427;0.001512;-0.000135;0.001521;-0.000436;-86.049506;0.001567;
1136;457;-0.000484;0.177309;1.000000;0.000096;-0.000490;0.001525;-0.000001;0.001525;-0.000490;-89.959389;0.001557;
1131;1782;0.001129;86.225561;1.000000;0.000086;-0.000511;0.001537;-0.000003;0.001537;-0.000511;-89.927061;0.001566;
981;622;0.170035;0.460907;0.999996;0.000584;-0.000928;0.002563;0.000999;0.002829;-0.001193;75.106371;0.002840;
1226;1577;-0.173615;85.754900;0.999995;0.000692;-0.002004;0.005063;0.001164;0.005249;-0.002191;80.886561;0.005273;
986;402;0.047576;0.108951;1.000000;0.000104;-0.000403;0.001533;0.000143;0.001543;-0.000413;85.790366;0.001598;
1156;447;-0.009611;0.162444;1.000000;0.000086;-0.000456;0.001508;-0.000028;0.001509;-0.000456;-89.196962;0.001547;
1121;897;0.303145;5.483312;0.999919;0.003023;-0.022397;0.050940;0.001003;0.050953;-0.022410;89.216772;0.051076;
1296;1892;-0.018022;86.375836;1.000000;0.000143;-0.000261;0.001582;0.000285;0.001625;-0.000304;81.408009;0.001727;
1106;1367;0.492699;81.866240;0.999879;0.003249;-0.019142;0.043577;-0.002010;0.043641;-0.019207;-88.165901;0.043745;
1106;1782;0.013678;86.225193;1.000000;0.000091;-0.000513;0.001541;-0.000033;0.001542;-0.000514;-89.088101;0.001570;
986;622;0.166249;0.462086;0.999996;0.000693;-0.000948;0.002630;0.000967;0.002875;-0.001192;75.798429;0.002889;
1171;552;-0.033940;0.335873;0.999999;0.000316;-0.000908;0.001965;-0.000102;0.001968;-0.000912;-87.965191;0.001970;
1061;1222;4.791057;69.308523;0.999063;0.008035;-0.069629;0.175618;-0.011208;0.176129;-0.070140;-87.388757;0.177341;
976;617;0.168976;0.447839;0.999933;0.002430;-0.000823;0.002298;0.000949;0.002564;-0.001089;74.343788;0.002574;
1156;452;-0.009837;0.170106;1.000000;0.000104;-0.000475;0.001518;-0.000026;0.001519;-0.000475;-89.251919;0.001554;
1036;1362;1.967886;81.592533;0.999900;0.002992;-0.021086;0.046222;-0.008125;0.047189;-0.022053;-83.213333;0.047222;
1196;472;-0.033491;0.202772;1.000000;0.000144;-0.000545;0.001569;-0.000073;0.001571;-0.000547;-88.026742;0.001595;
1121;902;0.319624;5.736226;0.999921;0.002811;-0.023342;0.053070;0.001012;0.053083;-0.023355;89.241493;0.053211;
1016;1582;0.203552;85.788827;0.999996;0.000543;-0.001867;0.004911;-0.001441;0.005205;-0.002160;-78.481429;0.005230;
1106;1787;0.013361;86.233076;1.000000;0.000109;-0.000495;0.001532;-0.000033;0.001533;-0.000495;-89.062888;0.001564;
1171;557;-0.034822;0.346420;0.999998;0.000432;-0.000935;0.002024;-0.000107;0.002028;-0.000939;-87.934195;0.002030;
1026;672;0.215646;0.676413;0.999996;0.000632;-0.002187;0.005547;0.001495;0.005826;-0.002466;79.430506;0.005849;
1066;1222;4.447167;69.366569;0.999156;0.009060;-0.069190;0.173770;-0.009894;0.174172;-0.069592;-87.671800;0.175340;
1316;497;-0.107781;0.255484;0.999998;0.000436;-0.000532;0.001284;-0.000144;0.001295;-0.000543;-85.487153;0.001301;
981;617;0.160663;0.446408;0.999996;0.000683;-0.000864;0.002377;0.000917;0.002619;-0.001106;75.247992;0.002629;
1156;457;-0.010302;0.177836;1.000000;0.000089;-0.000494;0.001528;-0.000025;0.001528;-0.000494;-89.303805;0.001560;
1141;902;-0.154136;5.724611;0.999887;0.003209;-0.023300;0.053016;-0.000583;0.053021;-0.023305;-89.562640;0.053150;
1036;437;0.042374;0.153042;1.000000;0.000124;-0.000453;0.001530;0.000117;0.001537;-0.000460;86.621661;0.001578;
1111;1372;0.388768;82.059207;0.999885;0.003450;-0.018276;0.041571;-0.001545;0.041611;-0.018316;-88.522320;0.041710;
1111;1787;0.010797;86.233053;1.000000;0.000111;-0.000494;0.001531;-0.000026;0.001531;-0.000495;-89.259931;0.001563;
1076;1517;0.226122;85.331982;0.999993;0.000745;-0.004140;0.009980;-0.001399;0.010117;-0.004277;-84.395748;0.010158;
1056;1222;5.139275;69.216501;0.998979;0.007951;-0.070101;0.177616;-0.012450;0.178240;-0.070725;-87.129936;0.179501;
1026;677;0.231377;0.704961;0.999995;0.000515;-0.002342;0.005904;0.001591;0.006200;-0.002638;79.448790;0.006223;
986;617;0.156682;0.447339;0.999995;0.000581;-0.000877;0.002432;0.000884;0.002654;-0.001098;75.945944;0.002667;
1156;462;-0.010765;0.185640;1.000000;0.000086;-0.000513;0.001541;-0.000024;0.001541;-0.000513;-89.337273;0.001570;
1156;562;-0.020375;0.357606;0.999998;0.000484;-0.000983;0.002116;-0.000066;0.002117;-0.000984;-88.789094;0.002119;
966;497;0.102873;0.253614;0.999999;0.000277;-0.000614;0.001366;0.000110;0.001372;-0.000620;86.839949;0.001374;
1176;872;-0.757557;4.359242;0.999913;0.002960;-0.018469;0.041586;-0.003032;0.041739;-0.018622;-87.116805;0.041820;
1041;437;0.040059;0.152530;1.000000;0.000122;-0.000451;0.001528;0.000115;0.001535;-0.000457;86.674741;0.001576;
1051;1222;5.525387;69.117622;0.998636;0.010818;-0.070486;0.179669;-0.013758;0.180424;-0.071240;-86.861460;0.181749;
1116;1787;0.008419;86.233145;1.000000;0.000107;-0.000494;0.001529;-0.000020;0.001529;-0.000494;-89.444525;0.001560;
1111;1377;0.376090;82.259705;0.999891;0.002905;-0.017479;0.039695;-0.001500;0.039734;-0.017518;-88.498350;0.039827;
1081;1517;0.205604;85.332916;0.999995;0.000556;-0.004109;0.009965;-0.001268;0.010079;-0.004223;-84.891945;0.010123;
1091;952;1.565629;8.995078;0.999741;0.005101;-0.035927;0.083473;0.004693;0.083657;-0.036111;87.752591;0.083917;
1116;712;0.062428;0.940344;0.999995;0.000546;-0.003300;0.008309;0.000386;0.008322;-0.003313;88.095649;0.008380;
1136;442;-0.000564;0.154579;1.000000;0.000083;-0.000434;0.001499;-0.000003;0.001499;-0.000434;-89.913341;0.001542;
966;492;0.100484;0.246129;0.999999;0.000296;-0.000621;0.001369;0.000090;0.001373;-0.000625;87.403383;0.001375;
971;497;0.100830;0.253170;0.999999;0.000334;-0.000601;0.001401;0.000119;0.001408;-0.000608;86.620882;0.001412;
1181;872;-0.849378;4.362366;0.999915;0.002995;-0.018514;0.041655;-0.003424;0.041849;-0.018709;-86.753619;0.041927;
1046;437;0.037986;0.151942;1.000000;0.000150;-0.000446;0.001525;0.000111;0.001531;-0.000452;86.791647;0.001574;
1036;1357;2.053690;81.355873;0.999891;0.003429;-0.022062;0.048474;-0.008327;0.049443;-0.023032;-83.357470;0.049482;
1136;1782;-0.001382;86.225617;1.000000;0.000090;-0.000511;0.001536;0.000004;0.001536;-0.000512;89.901478;0.001565;
1086;1517;0.187418;85.333436;0.999995;0.000687;-0.004092;0.009948;-0.001145;0.010041;-0.004185;-85.369220;0.010087;
1106;947;0.979488;8.563665;0.999681;0.004929;-0.034113;0.079133;0.002862;0.079205;-0.034185;88.553281;0.079452;
1096;1222;2.368148;69.804097;0.998621;0.009782;-0.065745;0.165032;-0.004496;0.165119;-0.065833;-88.884292;0.166245;
1141;442;-0.003018;0.154651;1.000000;0.000080;-0.000434;0.001498;-0.000009;0.001499;-0.000434;-89.725243;0.001542;
1121;712;0.046690;0.939744;0.999995;0.000569;-0.003297;0.008303;0.000287;0.008310;-0.003304;88.582590;0.008368;
971;492;0.098509;0.246689;0.999999;0.000331;-0.000606;0.001402;0.000102;0.001407;-0.000611;87.099997;0.001411;
976;497;0.098349;0.253146;0.999998;0.000412;-0.000500;0.001450;0.000156;0.001462;-0.000513;85.448747;0.001484;
1231;1347;-2.278819;80.844101;0.999857;0.003528;-0.023815;0.053084;0.008548;0.054023;-0.024754;83.732937;0.054086;
1066;457;0.033999;0.180636;1.000000;0.000151;-0.000506;0.001549;0.000079;0.001552;-0.000510;87.788898;0.001582;
1141;1782;-0.003942;86.225693;1.000000;0.000090;-0.000511;0.001537;0.000009;0.001537;-0.000511;89.752819;0.001565;
1046;1212;6.529639;67.221209;0.998170;0.011007;-0.077632;0.204569;-0.015757;0.205446;-0.078509;-86.814063;0.207340;
1216;1572;-0.163404;85.726705;0.999996;0.000436;-0.002119;0.005294;0.001080;0.005448;-0.002273;81.873495;0.005473;
1181;877;-0.886210;4.570883;0.999897;0.002671;-0.019341;0.043417;-0.003528;0.043615;-0.019538;-86.792919;0.043693;
1076;967;2.383214;10.346682;0.999440;0.005637;-0.041830;0.097644;0.006914;0.097986;-0.042172;87.168988;0.098302;
981;627;0.180296;0.475290;0.999988;0.001035;-0.000977;0.002849;0.001052;0.003119;-0.001247;75.594810;0.003140;
1146;442;-0.005228;0.154617;1.000000;0.000075;-0.000434;0.001499;-0.000016;0.001499;-0.000434;-89.521704;0.001543;
961;492;0.102998;0.248238;0.999999;0.000383;-0.000642;0.001327;0.000073;0.001330;-0.000645;87.872692;0.001330;
1056;1347;1.761324;80.887074;0.999872;0.003472;-0.023633;0.052749;-0.006756;0.053342;-0.024226;-84.984211;0.053417;
1046;1217;6.220155;68.117687;0.998316;0.010130;-0.074190;0.192738;-0.015506;0.193636;-0.075088;-86.686475;0.195255;
1051;437;0.035773;0.151445;1.000000;0.000144;-0.000443;0.001523;0.000105;0.001528;-0.000448;86.961750;0.001571;
1121;1787;0.005901;86.232992;1.000000;0.000107;-0.000492;0.001527;-0.000013;0.001527;-0.000492;-89.618961;0.001559;
976;492;0.095619;0.246460;0.999998;0.000392;-0.000496;0.001447;0.000148;0.001458;-0.000507;85.675705;0.001480;
1266;1582;-0.239324;85.785536;0.999995;0.000571;-0.001930;0.004986;0.001626;0.005349;-0.002293;77.409830;0.005367;
986;627;0.175892;0.476185;0.999997;0.000800;-0.001011;0.002910;0.001029;0.003163;-0.001264;76.154888;0.003185;
1111;947;0.800397;8.545579;0.999626;0.006425;-0.033980;0.078977;0.002317;0.079024;-0.034027;88.825523;0.079278;
1111;897;0.529118;5.486278;0.999861;0.003724;-0.022436;0.051067;0.001893;0.051116;-0.022485;88.525778;0.051239;
961;497;0.105076;0.255337;0.999999;0.000363;-0.000632;0.001321;0.000096;0.001325;-0.000637;87.199577;0.001326;
1151;442;-0.007330;0.154594;1.000000;0.000079;-0.000435;0.001499;-0.000023;0.001499;-0.000435;-89.327588;0.001543;
1061;1227;4.564667;70.150646;0.999211;0.006638;-0.066595;0.164832;-0.010531;0.165311;-0.067073;-87.400019;0.166287;
1061;1347;1.644461;80.889604;0.999880;0.003711;-0.023534;0.052670;-0.006348;0.053195;-0.024060;-85.270277;0.053276;
1126;1787;0.003426;86.232841;1.000000;0.000120;-0.000492;0.001526;-0.000008;0.001527;-0.000492;-89.780669;0.001558;
1056;442;0.035204;0.158577;1.000000;0.000115;-0.000458;0.001530;0.000096;0.001534;-0.000463;87.252423;0.001574;
991;617;0.154029;0.449839;0.999995;0.000579;-0.000880;0.002471;0.000848;0.002674;-0.001082;76.572753;0.002690;
1081;942;1.768559;8.275209;0.999759;0.004855;-0.033485;0.077209;0.005649;0.077496;-0.033773;87.086378;0.077709;
1061;1537;0.219749;85.507239;0.999994;0.000597;-0.003253;0.007923;-0.001466;0.008112;-0.003442;-82.649246;0.008143;
1116;892;0.394813;5.250356;0.999931;0.003023;-0.021521;0.048942;0.001403;0.048970;-0.021549;88.859731;0.049088;
1041;547;0.079265;0.329797;0.999998;0.000394;-0.000704;0.001723;0.000193;0.001738;-0.000720;85.485892;0.001747;
1156;442;-0.009370;0.154853;1.000000;0.000072;-0.000437;0.001500;-0.000029;0.001501;-0.000437;-89.139587;0.001544;
1066;1227;4.241431;70.187152;0.999280;0.007084;-0.066090;0.163094;-0.009373;0.163477;-0.066472;-87.662066;0.164424;
1066;1347;1.525957;80.897040;0.999868;0.003085;-0.023399;0.052502;-0.005882;0.052955;-0.023852;-85.595172;0.053042;
1066;567;0.068004;0.366601;0.999998;0.000415;-0.000872;0.001999;0.000206;0.002013;-0.000886;85.910971;0.002018;
1056;447;0.036183;0.166046;1.000000;0.000120;-0.000476;0.001537;0.000093;0.001541;-0.000480;87.372056;0.001577;
991;622;0.162107;0.464715;0.999996;0.000724;-0.000953;0.002675;0.000932;0.002900;-0.001178;76.406690;0.002917;
1171;1727;-0.028571;86.136760;1.000000;0.000101;-0.000734;0.001693;0.000070;0.001695;-0.000736;88.341703;0.001700;
1086;942;1.592577;8.262413;0.999778;0.004837;-0.033251;0.076862;0.005049;0.077093;-0.033482;87.380072;0.077314;
1261;1582;-0.230751;85.784567;0.999995;0.000591;-0.001925;0.004979;0.001558;0.005314;-0.002260;77.853882;0.005334;
1116;897;0.413698;5.479863;0.999909;0.003551;-0.022423;0.050990;0.001441;0.051019;-0.022451;88.876196;0.051141;
1161;442;-0.011438;0.154972;1.000000;0.000077;-0.000438;0.001502;-0.000036;0.001502;-0.000439;-88.949051;0.001545;
1071;1227;3.894836;70.254495;0.999258;0.007328;-0.065597;0.161828;-0.008420;0.162139;-0.065908;-87.882599;0.163082;
1041;552;0.081584;0.337833;0.999998;0.000410;-0.000715;0.001754;0.000204;0.001770;-0.000732;85.303006;0.001779;
1106;1357;0.545368;81.416493;0.999897;0.003258;-0.020928;0.047459;-0.002127;0.047525;-0.020994;-88.220302;0.047632;
991;627;0.170270;0.478259;0.999995;0.001063;-0.001024;0.002946;0.000997;0.003182;-0.001260;76.664084;0.003205;
1211;562;-0.071790;0.354427;0.999998;0.000445;-0.000817;0.001892;-0.000208;0.001908;-0.000833;-85.636461;0.001913;
1091;942;1.427953;8.242957;0.999776;0.004422;-0.033022;0.076544;0.004472;0.076726;-0.033204;87.666851;0.076957;
1126;907;0.214874;6.000148;0.999918;0.002776;-0.024271;0.055398;0.000578;0.055402;-0.024275;89.584486;0.055543;
1176;1752;-0.027127;86.176778;1.000000;0.000083;-0.000622;0.001605;0.000056;0.001607;-0.000624;88.553851;0.001620;
1161;447;-0.012021;0.162548;1.000000;0.000094;-0.000457;0.001510;-0.000034;0.001511;-0.000458;-89.014317;0.001549;
1076;1227;3.557645;70.317051;0.999261;0.007071;-0.064840;0.160209;-0.007601;0.160465;-0.065096;-88.067708;0.161414;
1196;1537;-0.194563;85.497365;0.999996;0.000549;-0.003292;0.008103;0.001240;0.008236;-0.003425;83.861490;0.008275;
1106;1362;0.518571;81.651221;0.999899;0.003637;-0.020010;0.045561;-0.002077;0.045627;-0.020076;-88.187585;0.045736;
1011;547;0.098676;0.329320;0.999999;0.000401;-0.000603;0.001636;0.000231;0.001660;-0.000626;84.176564;0.001676;
1006;647;0.190340;0.552975;0.999995;0.000539;-0.001512;0.004066;0.001280;0.004346;-0.001791;77.670890;0.004368;
1006;542;0.099400;0.321919;0.999998;0.000439;-0.000593;0.001615;0.000223;0.001637;-0.000615;84.292344;0.001654;
1076;942;1.931945;8.283953;0.999740;0.004603;-0.033701;0.077569;0.006230;0.077917;-0.034049;86.805280;0.078123;
1131;907;0.093251;5.998207;0.999921;0.002926;-0.024254;0.055345;0.000169;0.055346;-0.024254;89.878240;0.055486;
1161;452;-0.012504;0.170246;1.000000;0.000125;-0.000475;0.001520;-0.000032;0.001520;-0.000476;-89.067850;0.001555;
1081;1227;3.235239;70.366172;0.999203;0.007143;-0.064177;0.158726;-0.006817;0.158934;-0.064385;-88.249848;0.159885;
1181;1752;-0.030265;86.176446;1.000000;0.000097;-0.000618;0.001608;0.000063;0.001609;-0.000620;88.386797;0.001623;
1216;1567;-0.175450;85.696811;0.999995;0.000506;-0.002274;0.005673;0.001162;0.005839;-0.002440;81.850678;0.005866;
1086;1352;1.016447;81.157256;0.999850;0.003633;-0.022213;0.049846;-0.003868;0.050053;-0.022420;-86.936243;0.050144;
1006;547;0.102229;0.329456;0.999999;0.000470;-0.000588;0.001621;0.000237;0.001646;-0.000613;83.940214;0.001664;
1096;942;1.265848;8.231246;0.999755;0.004136;-0.032895;0.076264;0.003918;0.076404;-0.033035;87.946782;0.076637;
1046;702;0.261636;0.873841;0.999995;0.000858;-0.003158;0.007747;0.001708;0.008009;-0.003420;81.301702;0.008037;
1241;542;-0.085085;0.320949;0.999998;0.000403;-0.000649;0.001661;-0.000207;0.001679;-0.000668;-84.928380;0.001691;
1131;442;0.001672;0.154550;1.000000;0.000073;-0.000433;0.001498;0.000004;0.001498;-0.000433;89.888129;0.001542;
1031;1357;2.160479;81.351538;0.999106;0.009132;-0.022082;0.048312;-0.008836;0.049404;-0.023175;-82.954038;0.049436;
1086;1227;2.937271;70.405085;0.999210;0.007346;-0.063628;0.157433;-0.006071;0.157600;-0.063795;-88.428049;0.158549;
1181;1522;-0.181016;85.374541;0.999995;0.000656;-0.003905;0.009612;0.001100;0.009701;-0.003994;85.379879;0.009751;
1051;442;0.037507;0.159057;1.000000;0.000139;-0.000459;0.001532;0.000101;0.001537;-0.000464;87.095435;0.001576;
1086;1747;0.030328;86.168907;1.000000;0.000140;-0.000639;0.001610;-0.000061;0.001612;-0.000641;-88.443184;0.001623;
1031;1362;2.090901;81.600955;0.999300;0.006317;-0.021088;0.046039;-0.008610;0.047126;-0.022175;-82.805821;0.047153;
1071;942;2.099669;8.298402;0.999678;0.004775;-0.033957;0.077979;0.006797;0.078390;-0.034369;86.538095;0.078588;
1006;552;0.104412;0.337515;0.999998;0.000436;-0.000583;0.001629;0.000250;0.001657;-0.000611;83.626273;0.001676;
1051;702;0.244486;0.872608;0.999994;0.000679;-0.003141;0.007701;0.001605;0.007934;-0.003374;81.753604;0.007964;
1121;442;0.006029;0.154848;1.000000;0.000074;-0.000435;0.001499;0.000016;0.001499;-0.000435;89.522379;0.001542;
1056;1227;4.902978;70.080560;0.999118;0.008187;-0.067148;0.166656;-0.011620;0.167232;-0.067725;-87.161764;0.168235;
1291;522;-0.105826;0.287966;0.999997;0.000503;-0.000517;0.001449;-0.000228;0.001475;-0.000543;-83.456373;0.001492;
1136;907;-0.034770;5.999459;0.999896;0.003221;-0.024250;0.055339;-0.000227;0.055339;-0.024251;-89.836727;0.055480;
1201;1537;-0.211907;85.496191;0.999994;0.000665;-0.003313;0.008132;0.001345;0.008288;-0.003469;83.386131;0.008324;
1051;447;0.038632;0.166616;1.000000;0.000121;-0.000476;0.001538;0.000098;0.001542;-0.000481;87.215270;0.001578;
1146;1782;-0.006465;86.225102;1.000000;0.000101;-0.000511;0.001537;0.000015;0.001537;-0.000511;89.591711;0.001566;
1076;1357;1.182982;81.386636;0.999892;0.003173;-0.021371;0.048053;-0.004670;0.048366;-0.021684;-86.168998;0.048452;
1011;552;0.101081;0.337729;0.999998;0.000382;-0.000601;0.001647;0.000243;0.001673;-0.000626;83.900278;0.001690;
1071;947;2.193386;8.669167;0.999627;0.006147;-0.035454;0.081480;0.006949;0.081891;-0.035865;86.611189;0.082101;
1126;442;0.003857;0.155009;1.000000;0.000074;-0.000434;0.001498;0.000010;0.001498;-0.000434;89.703135;0.001542;
1016;667;0.222823;0.649770;0.999995;0.000712;-0.002075;0.005290;0.001543;0.005600;-0.002385;78.636762;0.005621;
1091;1227;2.601750;70.464870;0.998970;0.007118;-0.063068;0.156346;-0.005376;0.156477;-0.063200;-88.597339;0.157438;
1061;567;0.071764;0.366974;0.999998;0.000296;-0.000855;0.001972;0.000217;0.001989;-0.000872;85.626669;0.001994;
1121;907;0.332439;6.002806;0.999910;0.002855;-0.024320;0.055459;0.001008;0.055472;-0.024333;89.276292;0.055611;
996;1582;0.240972;85.795931;0.999995;0.000670;-0.001867;0.004908;-0.001688;0.005305;-0.002265;-76.758595;0.005324;
1016;552;0.097714;0.337701;0.999998;0.000308;-0.000619;0.001666;0.000235;0.001690;-0.000643;84.186594;0.001706;
1071;952;2.290121;9.061667;0.999562;0.006288;-0.037041;0.085191;0.007126;0.085605;-0.037455;86.674829;0.085827;
1011;662;0.219759;0.624183;0.999994;0.000664;-0.001899;0.004969;0.001529;0.005294;-0.002224;78.000018;0.005316;
1051;1227;5.257146;69.963619;0.998874;0.010040;-0.067589;0.168422;-0.012763;0.169110;-0.068278;-86.913579;0.170152;
1166;1367;-0.648473;81.841386;0.999866;0.002771;-0.019063;0.043351;0.002312;0.043437;-0.019148;87.881083;0.043538;
1116;442;0.008219;0.154871;1.000000;0.000080;-0.000435;0.001499;0.000023;0.001500;-0.000435;89.320866;0.001543;
1276;422;-0.055068;0.137117;1.000000;0.000141;-0.000433;0.001508;-0.000117;0.001515;-0.000440;-86.557024;0.001559;
1156;1772;-0.012528;86.209705;1.000000;0.000098;-0.000550;0.001560;0.000027;0.001560;-0.000550;89.260101;0.001582;
971;502;0.102735;0.260634;0.999998;0.000355;-0.000592;0.001396;0.000135;0.001405;-0.000601;86.145844;0.001410;
1116;902;0.425855;5.734513;0.999906;0.003503;-0.023363;0.053121;0.001455;0.053149;-0.023390;88.910195;0.053276;
1191;1532;-0.193546;85.460469;0.999996;0.000442;-0.003480;0.008566;0.001205;0.008685;-0.003599;84.342569;0.008727;
956;492;0.105501;0.250107;0.999999;0.000385;-0.000676;0.001278;0.000050;0.001279;-0.000678;88.546953;0.001280;
1096;1227;2.272159;70.525751;0.998755;0.007871;-0.062480;0.155364;-0.004739;0.155467;-0.062583;-88.754321;0.156449;
1136;437;-0.000545;0.147230;1.000000;0.000073;-0.000415;0.001488;-0.000003;0.001488;-0.000415;-89.918425;0.001536;
1106;457;0.014087;0.178025;1.000000;0.000129;-0.000494;0.001529;0.000034;0.001530;-0.000494;89.039267;0.001562;
1101;942;1.104385;8.227570;0.999752;0.004236;-0.032795;0.076029;0.003337;0.076131;-0.032897;88.245255;0.076365;
1266;422;-0.050590;0.134990;1.000000;0.000129;-0.000431;0.001511;-0.000129;0.001520;-0.000440;-86.208969;0.001564;
1076;947;2.012365;8.653579;0.999738;0.004994;-0.035180;0.081017;0.006371;0.081365;-0.035528;86.870966;0.081583;
981;402;0.049566;0.110802;1.000000;0.000113;-0.000411;0.001536;0.000131;0.001544;-0.000420;86.155294;0.001597;
1236;682;-0.225429;0.733424;0.999994;0.000617;-0.002476;0.006203;-0.001588;0.006484;-0.002757;-79.950683;0.006508;
1246;1577;-0.212239;85.759567;0.999995;0.000596;-0.002051;0.005260;0.001463;0.005541;-0.002333;79.094748;0.005564;
1046;1222;5.916960;69.008066;0.998420;0.010089;-0.070865;0.181694;-0.015232;0.182609;-0.071781;-86.561062;0.183996;
1301;1892;-0.018917;86.374585;1.000000;0.000179;-0.000275;0.001613;0.000293;0.001658;-0.000319;81.377121;0.001759;
1076;1352;1.241130;81.146467;0.999858;0.004314;-0.022290;0.050097;-0.004763;0.050409;-0.022602;-86.251802;0.050498;
1276;602;-0.136260;0.414110;0.999996;0.000527;-0.000679;0.002006;-0.000592;0.002130;-0.000803;-78.107224;0.002152;
1131;437;0.001534;0.147246;1.000000;0.000085;-0.000415;0.001488;0.000004;0.001488;-0.000415;89.873435;0.001536;
1076;952;2.102738;9.045488;0.999692;0.005042;-0.036741;0.084674;0.006521;0.085023;-0.037090;86.934539;0.085254;
1141;437;-0.002632;0.147189;1.000000;0.000073;-0.000415;0.001488;-0.000009;0.001488;-0.000415;-89.717155;0.001536;
1106;942;0.934545;8.204751;0.999711;0.004541;-0.032723;0.075815;0.002772;0.075886;-0.032793;88.537910;0.076119;
1046;1207;6.847283;66.307142;0.998252;0.010678;-0.081107;0.216355;-0.016078;0.217222;-0.081973;-86.915054;0.219389;
1306;1892;-0.020803;86.373237;1.000000;0.000212;-0.000292;0.001646;0.000300;0.001692;-0.000337;81.404428;0.001791;
1276;662;-0.249943;0.614985;0.999995;0.000612;-0.001808;0.004880;-0.001755;0.005312;-0.002241;-76.150340;0.005334;
1251;1577;-0.223671;85.758300;0.999994;0.000633;-0.002063;0.005287;0.001538;0.005596;-0.002372;78.648770;0.005618;
1201;457;-0.032746;0.180603;1.000000;0.000172;-0.000497;0.001543;-0.000081;0.001546;-0.000500;-87.735359;0.001578;
956;497;0.107478;0.256758;0.999999;0.000361;-0.000662;0.001267;0.000077;0.001270;-0.000665;87.729859;0.001270;
1126;437;0.003571;0.147283;1.000000;0.000074;-0.000415;0.001488;0.000011;0.001488;-0.000416;89.673764;0.001535;
1076;957;2.192862;9.471267;0.999645;0.004925;-0.038367;0.088734;0.006683;0.089085;-0.038717;86.998291;0.089338;
1146;437;-0.004792;0.147340;1.000000;0.000078;-0.000415;0.001488;-0.000016;0.001489;-0.000415;-89.505518;0.001536;
1071;957;2.391956;9.495302;0.999555;0.005394;-0.038689;0.089308;0.007305;0.089723;-0.039105;86.744004;0.089969;
1281;602;-0.138611;0.412334;0.999995;0.000584;-0.000672;0.001973;-0.000615;0.002109;-0.000809;-77.522469;0.002128;
1061;1232;4.364176;70.836467;0.999270;0.007716;-0.063541;0.155502;-0.010209;0.155977;-0.064016;-87.337218;0.156809;
981;632;0.203562;0.491023;0.999936;0.002830;-0.001017;0.003176;0.001136;0.003464;-0.001305;75.773676;0.003498;
1286;1887;-0.020261;86.369742;1.000000;0.000227;-0.000225;0.001529;0.000271;0.001570;-0.000266;81.401916;0.001680;
991;1582;0.251270;85.797169;0.999994;0.000772;-0.001827;0.004875;-0.001733;0.005297;-0.002248;-76.327299;0.005317;
961;502;0.106677;0.262284;0.999998;0.000282;-0.000616;0.001308;0.000113;0.001315;-0.000623;86.642915;0.001315;
1116;437;0.007742;0.147437;1.000000;0.000068;-0.000416;0.001489;0.000024;0.001489;-0.000417;89.274074;0.001536;
1151;437;-0.006860;0.147358;1.000000;0.000078;-0.000416;0.001489;-0.000023;0.001489;-0.000416;-89.303114;0.001537;
1201;462;-0.034114;0.187876;1.000000;0.000161;-0.000513;0.001556;-0.000080;0.001559;-0.000516;-87.778410;0.001588;
1101;947;1.154866;8.573580;0.999699;0.004297;-0.034180;0.079349;0.003434;0.079453;-0.034284;88.268819;0.079701;
1111;942;0.773608;8.191975;0.999665;0.005326;-0.032597;0.075638;0.002235;0.075684;-0.032643;88.817546;0.075922;
986;632;0.184768;0.490299;0.999997;0.000763;-0.001068;0.003215;0.001120;0.003490;-0.001343;76.198419;0.003521;
1066;1232;4.044411;70.926474;0.999285;0.007296;-0.063014;0.153920;-0.009121;0.154303;-0.063397;-87.596696;0.155118;
1126;717;0.031034;0.982720;0.999995;0.000655;-0.003548;0.008875;0.000195;0.008878;-0.003551;89.102734;0.008937;
1266;1867;-0.027523;86.343228;1.000000;0.000159;-0.000280;0.001481;0.000214;0.001507;-0.000306;83.159531;0.001593;
966;502;0.104601;0.260897;0.999998;0.000313;-0.000602;0.001357;0.000126;0.001365;-0.000610;86.334455;0.001367;
1211;1557;-0.185377;85.642960;0.999995;0.000542;-0.002589;0.006405;0.001239;0.006572;-0.002757;82.299432;0.006601;
1121;437;0.005678;0.147218;1.000000;0.000082;-0.000416;0.001488;0.000017;0.001488;-0.000416;89.479695;0.001536;
1156;437;-0.009015;0.147519;1.000000;0.000069;-0.000418;0.001490;-0.000030;0.001490;-0.000418;-89.109753;0.001538;
1081;937;1.699764;7.926456;0.999744;0.005156;-0.032115;0.073757;0.005527;0.074045;-0.032403;87.019776;0.074237;
991;632;0.177667;0.492436;0.999995;0.000833;-0.001092;0.003238;0.001089;0.003496;-0.001351;76.651838;0.003526;
1076;962;2.287263;9.915271;0.999641;0.005065;-0.040055;0.093122;0.006793;0.093467;-0.040400;87.087754;0.093753;
1201;467;-0.035428;0.195523;1.000000;0.000162;-0.000529;0.001564;-0.000081;0.001568;-0.000532;-87.800016;0.001594;
1271;682;-0.312552;0.729846;0.999995;0.000800;-0.002484;0.006284;-0.002158;0.006787;-0.002986;-76.893501;0.006803;
1071;1232;3.707924;71.010797;0.999316;0.007684;-0.062447;0.152878;-0.008347;0.153201;-0.062770;-87.783506;0.154031;
1296;1897;-0.014077;86.383684;1.000000;0.000166;-0.000213;0.001581;0.000311;0.001634;-0.000266;80.435472;0.001753;
1276;667;-0.269278;0.641865;0.999993;0.000723;-0.001998;0.005301;-0.001868;0.005751;-0.002448;-76.449786;0.005772;
1111;437;0.009879;0.147589;1.000000;0.000070;-0.000417;0.001490;0.000031;0.001490;-0.000417;89.065077;0.001538;
1161;437;-0.010963;0.147591;1.000000;0.000074;-0.000420;0.001491;-0.000036;0.001492;-0.000420;-88.910873;0.001538;
1086;937;1.523857;7.912101;0.999759;0.005150;-0.031903;0.073447;0.004939;0.073678;-0.032134;87.321718;0.073878;
1031;1572;0.199869;85.736710;0.999995;0.000501;-0.002127;0.005470;-0.001414;0.005725;-0.002382;-79.794071;0.005752;
1111;932;0.698535;7.520531;0.999717;0.003816;-0.030012;0.069181;0.002150;0.069228;-0.030059;88.758774;0.069427;
1261;527;-0.090967;0.296729;0.999999;0.000334;-0.000588;0.001585;-0.000201;0.001603;-0.000607;-84.752192;0.001619;
1001;647;0.197448;0.551630;0.999994;0.000538;-0.001525;0.004066;0.001331;0.004367;-0.001826;77.267423;0.004386;
1301;1897;-0.014794;86.383575;1.000000;0.000184;-0.000225;0.001616;0.000323;0.001671;-0.000280;80.326118;0.001790;
1076;1232;3.398092;71.051929;0.999283;0.008230;-0.061673;0.151352;-0.007568;0.151620;-0.061941;-87.968031;0.152463;
1286;412;-0.053827;0.125077;1.000000;0.000157;-0.000428;0.001516;-0.000113;0.001522;-0.000435;-86.689723;0.001568;
981;637;0.198540;0.501921;0.999876;0.002893;-0.001077;0.003381;0.001219;0.003693;-0.001389;75.658620;0.003730;
951;507;0.112721;0.269242;0.999999;0.000434;-0.000649;0.001208;0.000103;0.001214;-0.000655;86.827429;0.001215;
1111;442;0.010481;0.155219;1.000000;0.000083;-0.000436;0.001501;0.000030;0.001501;-0.000436;89.114393;0.001545;
1306;1897;-0.016377;86.381559;0.999999;0.000217;-0.000239;0.001653;0.000335;0.001711;-0.000296;80.258858;0.001828;
1091;937;1.365763;7.896248;0.999767;0.004109;-0.031698;0.073170;0.004378;0.073352;-0.031881;87.613604;0.073561;
1106;432;0.011442;0.140428;1.000000;0.000059;-0.000400;0.001481;0.000039;0.001482;-0.000401;88.802867;0.001533;
1081;932;1.632733;7.567359;0.999758;0.005013;-0.030768;0.070489;0.005384;0.070775;-0.031053;86.964957;0.070951;
1196;1532;-0.208202;85.458036;0.999995;0.000458;-0.003506;0.008595;0.001315;0.008736;-0.003648;83.871141;0.008776;
1166;712;-0.100037;0.940447;0.999996;0.000678;-0.003373;0.008411;-0.000676;0.008450;-0.003412;-86.729536;0.008502;
1081;1232;3.109841;71.094754;0.999337;0.007727;-0.061028;0.150000;-0.006821;0.150221;-0.061249;-88.150666;0.151071;
1306;397;-0.054881;0.109301;1.000000;0.000138;-0.000451;0.001535;-0.000111;0.001541;-0.000458;-86.799555;0.001583;
986;637;0.195612;0.507387;0.999996;0.000632;-0.001148;0.003444;0.001214;0.003745;-0.001449;76.065974;0.003777;
956;507;0.111194;0.269299;0.999999;0.000363;-0.000612;0.001264;0.000127;0.001272;-0.000620;86.144266;0.001272;
1096;937;1.215089;7.885620;0.999763;0.004167;-0.031576;0.072927;0.003832;0.073068;-0.031716;87.902808;0.073279;
1141;432;-0.002483;0.139937;1.000000;0.000069;-0.000395;0.001477;-0.000010;0.001477;-0.000395;-89.707181;0.001529;
1106;437;0.011976;0.147800;1.000000;0.000068;-0.000419;0.001492;0.000038;0.001492;-0.000420;88.863669;0.001539;
1071;932;1.925891;7.582133;0.999748;0.003904;-0.031175;0.071147;0.006463;0.071553;-0.031581;86.400298;0.071717;
1271;1867;-0.028794;86.342220;1.000000;0.000160;-0.000291;0.001497;0.000219;0.001523;-0.000317;83.108869;0.001608;
1056;1232;4.690365;70.771486;0.999256;0.007832;-0.064138;0.157113;-0.011228;0.157681;-0.064706;-87.102219;0.158524;
1171;712;-0.117054;0.941121;0.999995;0.000699;-0.003385;0.008431;-0.000788;0.008483;-0.003438;-86.202418;0.008534;
1156;1512;-0.099547;85.278221;0.999994;0.000670;-0.004375;0.010773;0.000556;0.010793;-0.004396;87.900472;0.010855;
991;637;0.189075;0.509576;0.999995;0.000646;-0.001185;0.003480;0.001186;0.003764;-0.001469;76.522956;0.003794;
1076;462;0.029997;0.187727;1.000000;0.000142;-0.000520;0.001555;0.000069;0.001557;-0.000522;88.100372;0.001585;
961;507;0.109103;0.268946;0.999998;0.000330;-0.000594;0.001316;0.000142;0.001326;-0.000604;85.774741;0.001328;
1076;937;1.853211;7.933819;0.999749;0.004096;-0.032312;0.074083;0.006097;0.074431;-0.032660;86.730694;0.074617;
1146;427;-0.004102;0.132630;1.000000;0.000057;-0.000377;0.001465;-0.000018;0.001465;-0.000377;-89.447552;0.001522;
1146;432;-0.004457;0.140040;1.000000;0.000064;-0.000396;0.001477;-0.000017;0.001477;-0.000396;-89.482283;0.001529;
1076;932;1.778304;7.570932;0.999759;0.004641;-0.030952;0.070794;0.005932;0.071139;-0.031297;86.674395;0.071310;
1276;1867;-0.030367;86.341291;1.000000;0.000201;-0.000303;0.001513;0.000222;0.001539;-0.000329;83.132367;0.001621;
1086;1232;2.801258;71.139198;0.999196;0.006817;-0.060496;0.148823;-0.006096;0.149000;-0.060673;-88.333322;0.149853;
1166;717;-0.107939;0.985825;0.999996;0.000555;-0.003611;0.008985;-0.000717;0.009026;-0.003651;-86.753010;0.009080;
1016;1577;0.216883;85.765758;0.999994;0.000659;-0.002015;0.005234;-0.001534;0.005546;-0.002326;-78.532704;0.005569;
1086;462;0.025006;0.186794;1.000000;0.000162;-0.000520;0.001552;0.000056;0.001553;-0.000521;88.456844;0.001581;
1166;722;-0.116415;1.031340;0.999996;0.000512;-0.003856;0.009575;-0.000754;0.009618;-0.003898;-86.797522;0.009675;
1101;937;1.056036;7.876835;0.999772;0.004484;-0.031478;0.072730;0.003266;0.072833;-0.031580;88.206665;0.073046;
1261;532;-0.092811;0.305233;0.999998;0.000323;-0.000587;0.001588;-0.000210;0.001608;-0.000607;-84.524569;0.001624;
1291;1892;-0.017423;86.376345;1.000000;0.000176;-0.000217;0.001549;0.000283;0.001593;-0.000261;81.109127;0.001709;
1066;932;2.086652;7.600367;0.999755;0.004146;-0.031461;0.071539;0.007035;0.072017;-0.031940;86.110827;0.072170;
1151;432;-0.006463;0.140202;1.000000;0.000064;-0.000397;0.001478;-0.000024;0.001478;-0.000398;-89.269646;0.001530;
1151;427;-0.006071;0.132730;1.000000;0.000060;-0.000378;0.001466;-0.000025;0.001467;-0.000379;-89.220662;0.001523;
1091;1232;2.487533;71.178353;0.999052;0.006518;-0.059975;0.147809;-0.005430;0.147951;-0.060117;-88.504051;0.148814;
1191;702;-0.159290;0.867265;0.999996;0.000581;-0.003033;0.007523;-0.001093;0.007635;-0.003145;-84.149333;0.007674;
1021;1577;0.206082;85.764641;0.999994;0.000650;-0.002010;0.005213;-0.001465;0.005498;-0.002296;-78.960712;0.005523;
1116;907;0.454630;6.004807;0.999885;0.002738;-0.024333;0.055526;0.001464;0.055553;-0.024360;88.950266;0.055693;
1171;717;-0.127007;0.988310;0.999995;0.000703;-0.003620;0.009002;-0.000837;0.009057;-0.003676;-86.222181;0.009111;
1016;427;0.047352;0.140690;1.000000;0.000143;-0.000431;0.001522;0.000135;0.001531;-0.000441;86.058437;0.001576;
1291;1897;-0.013377;86.383879;1.000000;0.000183;-0.000180;0.001543;0.000302;0.001595;-0.000231;80.342858;0.001723;
1106;937;0.895609;7.867824;0.999765;0.004099;-0.031399;0.072532;0.002710;0.072603;-0.031470;88.507330;0.072817;
1266;522;-0.092388;0.288377;0.999998;0.000382;-0.000580;0.001567;-0.000198;0.001585;-0.000598;-84.774771;0.001601;
1051;1232;5.014388;70.678086;0.999097;0.010800;-0.064600;0.158678;-0.012286;0.159352;-0.065274;-86.859844;0.160217;
1061;932;2.255748;7.618807;0.999783;0.004035;-0.031572;0.071769;0.007613;0.072327;-0.032130;85.809364;0.072477;
1131;432;0.001462;0.140050;1.000000;0.000067;-0.000395;0.001477;0.000004;0.001477;-0.000395;89.865741;0.001529;
1271;422;-0.052829;0.136007;1.000000;0.000175;-0.000433;0.001511;-0.000124;0.001518;-0.000441;-86.370368;0.001562;
1121;717;0.049079;0.982747;0.999995;0.000618;-0.003535;0.008870;0.000304;0.008878;-0.003543;88.596926;0.008938;
1056;1557;0.179968;85.645965;0.999996;0.000581;-0.002529;0.006321;-0.001253;0.006495;-0.002703;-82.094604;0.006525;
946;407;0.078763;0.131778;0.999953;0.001816;-0.000640;0.001407;0.000083;0.001410;-0.000643;87.675442;0.001412;
1171;722;-0.135360;1.032272;0.999996;0.000694;-0.003864;0.009590;-0.000877;0.009647;-0.003921;-86.284944;0.009704;
1306;1872;-0.037272;86.341474;1.000000;0.000199;-0.000406;0.001610;0.000200;0.001630;-0.000425;84.392649;0.001690;
1071;937;2.011178;7.942866;0.999746;0.003760;-0.032544;0.074456;0.006652;0.074868;-0.032956;86.455975;0.075046;
1266;527;-0.094210;0.296463;0.999998;0.000350;-0.000578;0.001571;-0.000208;0.001591;-0.000598;-84.519729;0.001607;
1096;1232;2.183008;71.219213;0.998822;0.007689;-0.059448;0.146881;-0.004784;0.146992;-0.059559;-88.672547;0.147870;
1061;937;2.350973;7.983004;0.999757;0.004961;-0.032969;0.075104;0.007811;0.075666;-0.033530;85.887478;0.075829;
1176;877;-0.792420;4.571552;0.999895;0.003378;-0.019281;0.043337;-0.003119;0.043492;-0.019436;-87.155294;0.043574;
1136;432;-0.000557;0.139948;1.000000;0.000074;-0.000396;0.001477;-0.000003;0.001477;-0.000396;-89.917822;0.001529;
1056;437;0.033392;0.150808;1.000000;0.000120;-0.000441;0.001520;0.000099;0.001525;-0.000446;87.127232;0.001568;
951;407;0.065487;0.130454;1.000000;0.000141;-0.000587;0.001447;0.000087;0.001451;-0.000590;87.548451;0.001459;
991;642;0.199711;0.529233;0.999995;0.000605;-0.001311;0.003766;0.001293;0.004076;-0.001621;76.500143;0.004104;
1171;1517;-0.153552;85.325511;0.999995;0.000511;-0.004138;0.010195;0.000901;0.010251;-0.004195;86.417179;0.010307;
1046;1227;5.623643;69.835856;0.998587;0.009875;-0.067982;0.169941;-0.013969;0.170758;-0.068799;-86.651296;0.171828;
991;602;0.139825;0.418960;0.999995;0.000609;-0.000659;0.001994;0.000600;0.002123;-0.000788;77.835465;0.002146;
1266;532;-0.095628;0.304691;0.999998;0.000329;-0.000575;0.001574;-0.000217;0.001595;-0.000597;-84.300766;0.001612;
1111;937;0.735859;7.853708;0.999719;0.003995;-0.031273;0.072363;0.002172;0.072408;-0.031319;88.800157;0.072628;
1056;927;2.314293;7.275197;0.999781;0.004387;-0.030339;0.068923;0.008011;0.069566;-0.030981;85.415392;0.069704;
1156;432;-0.008396;0.140217;1.000000;0.000065;-0.000399;0.001479;-0.000030;0.001480;-0.000399;-89.073924;0.001531;
1171;872;-0.667953;4.358996;0.999901;0.003467;-0.018425;0.041527;-0.002643;0.041643;-0.018541;-87.480715;0.041726;
1111;967;0.959915;10.196955;0.999541;0.005534;-0.040139;0.094875;0.002659;0.094928;-0.040191;88.872189;0.095298;
1036;432;0.040736;0.145563;1.000000;0.000125;-0.000437;0.001522;0.000121;0.001530;-0.000445;86.477881;0.001574;
956;407;0.063068;0.127678;1.000000;0.000124;-0.000552;0.001472;0.000090;0.001476;-0.000556;87.452172;0.001491;
1046;1232;5.370401;70.558048;0.998948;0.010089;-0.064936;0.159966;-0.013400;0.160762;-0.065732;-86.602205;0.161649;
1161;727;-0.103497;1.075343;0.999995;0.000475;-0.004113;0.010163;-0.000672;0.010195;-0.004145;-87.309943;0.010254;
946;502;0.124009;0.273326;0.999895;0.002546;-0.000768;0.001103;0.000026;0.001104;-0.000768;89.218171;0.001131;
996;602;0.136891;0.420398;0.999995;0.000799;-0.000664;0.002016;0.000577;0.002135;-0.000783;78.350278;0.002160;
1256;1582;-0.220793;85.782145;0.999995;0.000568;-0.001920;0.004972;0.001498;0.005284;-0.002232;78.250949;0.005305;
1066;937;2.179209;7.961681;0.999730;0.004572;-0.032836;0.074872;0.007237;0.075356;-0.033320;86.172943;0.075524;
1056;932;2.417556;7.626461;0.999772;0.003943;-0.031649;0.072110;0.008224;0.072758;-0.032296;85.496411;0.072910;
1171;877;-0.695812;4.571489;0.999879;0.003350;-0.019226;0.043273;-0.002719;0.043391;-0.019344;-87.513967;0.043476;
1086;972;2.055148;10.743307;0.999402;0.006881;-0.042976;0.101338;0.005749;0.101567;-0.043205;87.722312;0.101943;
1161;432;-0.010410;0.140325;1.000000;0.000062;-0.000401;0.001480;-0.000037;0.001481;-0.000401;-88.870485;0.001532;
946;507;0.123251;0.272665;0.999937;0.002820;-0.000718;0.001143;0.000071;0.001146;-0.000721;87.818879;0.001159;
981;407;0.052325;0.118413;1.000000;0.000101;-0.000421;0.001530;0.000119;0.001538;-0.000428;86.523418;0.001587;
1076;1237;3.260610;71.720095;0.999342;0.007232;-0.058712;0.143374;-0.007524;0.143654;-0.058992;-87.870718;0.144417;
1166;727;-0.124040;1.076775;0.999996;0.000568;-0.004119;0.010176;-0.000797;0.010220;-0.004163;-86.817658;0.010278;
1006;652;0.202324;0.574515;0.999996;0.000582;-0.001636;0.004352;0.001379;0.004654;-0.001938;77.632896;0.004676;
1056;937;2.524940;7.997947;0.999743;0.004290;-0.033066;0.075465;0.008438;0.076117;-0.033718;85.581065;0.076282;
1171;467;-0.019216;0.193527;1.000000;0.000146;-0.000531;0.001558;-0.000042;0.001559;-0.000532;-88.848402;0.001585;
1141;907;-0.158385;5.998846;0.999871;0.003922;-0.024293;0.055340;-0.000609;0.055345;-0.024298;-89.562033;0.055482;
946;512;0.127498;0.277625;0.999939;0.002524;-0.000669;0.001115;0.000124;0.001123;-0.000677;86.043730;0.001131;
986;407;0.050382;0.116600;1.000000;0.000113;-0.000414;0.001530;0.000131;0.001539;-0.000423;86.163845;0.001590;
1081;1237;2.977613;71.753843;0.999415;0.007207;-0.058114;0.142149;-0.006774;0.142378;-0.058342;-88.064845;0.143148;
976;502;0.100285;0.260210;0.999998;0.000387;-0.000503;0.001445;0.000168;0.001460;-0.000518;85.095837;0.001480;
1171;727;-0.144603;1.077955;0.999995;0.000721;-0.004126;0.010186;-0.000922;0.010245;-0.004185;-86.327961;0.010302;
1071;1347;1.411927;80.900866;0.999849;0.003756;-0.023295;0.052344;-0.005397;0.052727;-0.023678;-85.939272;0.052818;
1006;657;0.216070;0.598149;0.999995;0.000630;-0.001773;0.004662;0.001487;0.004989;-0.002100;77.600414;0.005010;
1086;1727;0.034012;86.136938;1.000000;0.000150;-0.000718;0.001674;-0.000080;0.001677;-0.000720;-88.081427;0.001682;
1061;927;2.155285;7.268177;0.999806;0.004080;-0.030279;0.068616;0.007415;0.069169;-0.030832;85.735828;0.069304;
1176;1517;-0.173588;85.323957;0.999995;0.000521;-0.004147;0.010211;0.001025;0.010283;-0.004220;85.935473;0.010338;
951;512;0.115730;0.275483;0.999998;0.000382;-0.000612;0.001189;0.000144;0.001200;-0.000624;85.463668;0.001201;
1246;442;-0.049800;0.161832;1.000000;0.000129;-0.000471;0.001527;-0.000118;0.001534;-0.000478;-86.620032;0.001570;
956;502;0.108796;0.263523;0.999999;0.000319;-0.000641;0.001250;0.000094;0.001255;-0.000645;87.146707;0.001255;
1086;1237;2.684212;71.814047;0.999385;0.005358;-0.057634;0.141055;-0.006042;0.141239;-0.057818;-88.259735;0.142010;
1201;452;-0.031458;0.172570;1.000000;0.000161;-0.000481;0.001535;-0.000081;0.001538;-0.000484;-87.702919;0.001573;
1151;727;-0.063899;1.075623;0.999995;0.000633;-0.004117;0.010138;-0.000414;0.010150;-0.004129;-88.338289;0.010208;
1141;727;-0.022337;1.074850;0.999995;0.000581;-0.004110;0.010107;-0.000160;0.010109;-0.004111;-89.355930;0.010167;
1066;927;1.997678;7.254915;0.999787;0.003777;-0.030186;0.068399;0.006843;0.068872;-0.030659;86.048272;0.069010;
956;512;0.113386;0.275555;0.999998;0.000378;-0.000583;0.001249;0.000160;0.001263;-0.000597;85.043951;0.001263;
1186;1362;-1.075396;81.596688;0.999856;0.002621;-0.020211;0.045579;0.004044;0.045827;-0.020459;86.495616;0.045914;
1161;1512;-0.120260;85.277529;0.999993;0.000716;-0.004389;0.010790;0.000689;0.010821;-0.004420;87.405153;0.010881;
1121;1702;0.010082;86.093216;1.000000;0.000099;-0.000880;0.001905;-0.000034;0.001905;-0.000880;-89.310022;0.001907;
1036;1652;0.099186;86.000543;1.000000;0.000129;-0.000810;0.002070;-0.000353;0.002113;-0.000853;-83.120388;0.002126;
991;412;0.050867;0.123283;1.000000;0.000101;-0.000417;0.001525;0.000130;0.001533;-0.000426;86.199728;0.001583;
1066;1237;3.863843;71.578989;0.999281;0.007148;-0.060012;0.145731;-0.009062;0.146130;-0.060410;-87.482822;0.146859;
1001;552;0.107320;0.337870;0.999998;0.000365;-0.000565;0.001611;0.000258;0.001641;-0.000596;83.317615;0.001661;
1166;467;-0.016626;0.193552;1.000000;0.000144;-0.000532;0.001557;-0.000036;0.001558;-0.000532;-89.008133;0.001584;
961;512;0.110761;0.275281;0.999998;0.000388;-0.000570;0.001304;0.000170;0.001319;-0.000586;84.861230;0.001322;
1146;727;-0.043174;1.074536;0.999995;0.000579;-0.004116;0.010123;-0.000287;0.010129;-0.004121;-88.844934;0.010187;
1041;632;0.121781;0.512672;0.999992;0.000670;-0.001227;0.003197;0.000682;0.003300;-0.001330;81.437627;0.003320;
1071;927;1.851231;7.236042;0.999792;0.003605;-0.029907;0.068028;0.006287;0.068430;-0.030309;86.341661;0.068579;
1081;1352;1.129139;81.150542;0.999844;0.004267;-0.022248;0.049970;-0.004308;0.050226;-0.022504;-86.598604;0.050316;
996;412;0.048910;0.121520;1.000000;0.000102;-0.000412;0.001522;0.000135;0.001531;-0.000421;86.024435;0.001582;
1071;1527;0.217524;85.422193;0.999995;0.000869;-0.003656;0.008868;-0.001399;0.009023;-0.003810;-83.701044;0.009059;
1071;1237;3.557268;71.660961;0.999257;0.006924;-0.059466;0.144772;-0.008315;0.145110;-0.059804;-87.672493;0.145855;
1151;1777;-0.009474;86.217419;1.000000;0.000102;-0.000530;0.001550;0.000021;0.001550;-0.000531;89.428696;0.001576;
986;642;0.207754;0.528012;0.999995;0.000609;-0.001267;0.003728;0.001323;0.004056;-0.001595;76.045390;0.004087;
996;1657;0.122442;86.019413;1.000000;0.000167;-0.000554;0.001716;-0.000425;0.001793;-0.000631;-79.738759;0.001819;
1156;727;-0.084482;1.075417;0.999996;0.000544;-0.004113;0.010149;-0.000544;0.010170;-0.004134;-87.820662;0.010229;
1306;402;-0.057442;0.116584;1.000000;0.000146;-0.000454;0.001518;-0.000101;0.001523;-0.000460;-87.069524;0.001563;
1076;927;1.708424;7.222384;0.999796;0.004687;-0.029683;0.067695;0.005772;0.068036;-0.030024;86.619493;0.068192;
1161;562;-0.025582;0.357656;0.999998;0.000455;-0.000978;0.002108;-0.000084;0.002111;-0.000980;-88.450394;0.002112;
1161;557;-0.024547;0.346342;0.999998;0.000426;-0.000951;0.002046;-0.000079;0.002048;-0.000953;-88.486051;0.002050;
1001;412;0.046752;0.120410;1.000000;0.000134;-0.000408;0.001519;0.000141;0.001529;-0.000418;85.848442;0.001581;
1111;1357;0.433152;81.421079;0.999890;0.003401;-0.020863;0.047357;-0.001726;0.047400;-0.020906;-88.551418;0.047510;
1061;1237;4.180395;71.496834;0.999310;0.007996;-0.060511;0.147130;-0.010111;0.147621;-0.061002;-87.218765;0.148360;
1071;1532;0.202657;85.468998;0.999996;0.000676;-0.003428;0.008344;-0.001333;0.008493;-0.003577;-83.618519;0.008528;
1151;732;-0.067790;1.127521;0.999995;0.000570;-0.004397;0.010766;-0.000438;0.010779;-0.004410;-88.347608;0.010838;
1116;1702;0.014560;86.093394;1.000000;0.000104;-0.000878;0.001902;-0.000045;0.001902;-0.000879;-89.063394;0.001904;
1001;1657;0.119588;86.018178;1.000000;0.000150;-0.000583;0.001749;-0.000405;0.001817;-0.000651;-80.419072;0.001841;
1081;927;1.561326;7.214993;0.999765;0.004797;-0.029504;0.067408;0.005239;0.067690;-0.029786;86.914643;0.067852;
1126;722;0.033995;1.028796;0.999996;0.000720;-0.003806;0.009465;0.000203;0.009469;-0.003809;89.125234;0.009529;
1321;497;-0.118550;0.255157;0.999951;0.002302;-0.000539;0.001232;-0.000135;0.001242;-0.000549;-85.650859;0.001245;
1151;487;-0.009828;0.224148;1.000000;0.000129;-0.000611;0.001592;-0.000021;0.001592;-0.000611;-89.452659;0.001606;
1056;1237;4.482396;71.404395;0.999317;0.008145;-0.061086;0.148540;-0.011089;0.149125;-0.061671;-86.980456;0.149866;
1111;1362;0.414643;81.653344;0.999893;0.002812;-0.019958;0.045483;-0.001676;0.045526;-0.020001;-88.533798;0.045638;
1201;472;-0.036443;0.203264;1.000000;0.000162;-0.000545;0.001571;-0.000079;0.001574;-0.000548;-87.862562;0.001598;
1206;567;-0.069075;0.364358;0.999998;0.000393;-0.000857;0.001962;-0.000206;0.001977;-0.000872;-85.833634;0.001982;
1156;732;-0.090698;1.128455;0.999995;0.000599;-0.004392;0.010773;-0.000577;0.010795;-0.004414;-87.823461;0.010855;
1211;1552;-0.197936;85.610396;0.999995;0.000561;-0.002767;0.006788;0.001313;0.006965;-0.002944;82.316185;0.006993;
1006;1657;0.117022;86.017247;1.000000;0.000133;-0.000600;0.001776;-0.000392;0.001839;-0.000662;-80.872305;0.001862;
1086;927;1.404408;7.199883;0.999747;0.004216;-0.029314;0.067123;0.004688;0.067350;-0.029541;87.223751;0.067519;
1126;727;0.036849;1.074687;0.999996;0.000776;-0.004077;0.010080;0.000216;0.010083;-0.004081;89.125348;0.010144;
1186;1707;-0.045095;86.100948;1.000000;0.000149;-0.000795;0.001796;0.000119;0.001801;-0.000800;87.364695;0.001805;
1051;1237;4.797503;71.335886;0.999268;0.011664;-0.061548;0.149935;-0.012104;0.150626;-0.062238;-86.734827;0.151381;
1156;567;-0.021024;0.368356;0.999999;0.000452;-0.001010;0.002164;-0.000069;0.002165;-0.001012;-88.754605;0.002167;
1156;487;-0.012742;0.224450;1.000000;0.000109;-0.000610;0.001592;-0.000027;0.001592;-0.000610;-89.285271;0.001606;
1111;1367;0.396030;81.864258;0.999873;0.003378;-0.019101;0.043516;-0.001613;0.043558;-0.019143;-88.525111;0.043664;
976;537;0.113863;0.311132;0.999998;0.000384;-0.000511;0.001460;0.000273;0.001497;-0.000548;82.246253;0.001515;
1291;407;-0.053515;0.119030;1.000000;0.000143;-0.000426;0.001519;-0.000112;0.001525;-0.000432;-86.722134;0.001572;
1161;732;-0.111245;1.128013;0.999994;0.000557;-0.004390;0.010780;-0.000715;0.010814;-0.004424;-87.306786;0.010874;
1046;1567;0.179534;85.704641;0.999995;0.000534;-0.002227;0.005701;-0.001270;0.005900;-0.002425;-81.116707;0.005931;
1006;1662;0.114345;86.025695;1.000000;0.000145;-0.000587;0.001722;-0.000361;0.001777;-0.000642;-81.324781;0.001799;
1056;942;2.623521;8.361280;0.999647;0.004193;-0.034574;0.079102;0.008586;0.079747;-0.035219;85.704913;0.079927;
1131;727;0.016750;1.073653;0.999996;0.000710;-0.004097;0.010086;0.000092;0.010087;-0.004098;89.626465;0.010146;
1186;1712;-0.043852;86.110084;1.000000;0.000130;-0.000772;0.001758;0.000112;0.001763;-0.000777;87.460459;0.001767;
1161;567;-0.026524;0.367970;0.999999;0.000396;-0.001005;0.002157;-0.000088;0.002159;-0.001007;-88.411042;0.002161;
1091;1237;2.396925;71.863363;0.999387;0.005643;-0.057158;0.140109;-0.005368;0.140255;-0.057304;-88.442454;0.141035;
1161;487;-0.015788;0.224602;1.000000;0.000141;-0.000609;0.001592;-0.000034;0.001593;-0.000609;-89.113315;0.001608;
1106;1352;0.568343;81.169155;0.999884;0.002861;-0.021878;0.049372;-0.002205;0.049441;-0.021947;-88.229402;0.049544;
1296;602;-0.153419;0.415548;0.999959;0.001725;-0.000561;0.001853;-0.000638;0.002011;-0.000719;-76.062525;0.002038;
1151;567;-0.016171;0.368192;0.999998;0.000443;-0.001012;0.002170;-0.000052;0.002170;-0.001013;-89.071702;0.002172;
1296;407;-0.055848;0.120257;1.000000;0.000109;-0.000446;0.001516;-0.000095;0.001521;-0.000451;-87.235066;0.001562;
1046;1237;5.128412;71.255682;0.999247;0.011214;-0.061886;0.151145;-0.013171;0.151956;-0.062698;-86.475435;0.152728;
1061;942;2.451028;8.338534;0.999679;0.004543;-0.034444;0.078702;0.007946;0.079257;-0.035000;86.002569;0.079437;
1006;1667;0.112117;86.034002;1.000000;0.000156;-0.000579;0.001690;-0.000335;0.001738;-0.000627;-81.763502;0.001760;
1136;727;-0.002970;1.074436;0.999995;0.000598;-0.004105;0.010093;-0.000032;0.010093;-0.004105;-89.871652;0.010151;
1211;1547;-0.214157;85.572756;0.999995;0.000715;-0.002955;0.007212;0.001391;0.007399;-0.003142;82.349306;0.007427;
1186;1717;-0.042180;86.119054;1.000000;0.000088;-0.000751;0.001727;0.000105;0.001731;-0.000755;87.572243;0.001736;
1141;572;-0.005934;0.378538;0.999998;0.000359;-0.001040;0.002232;-0.000020;0.002232;-0.001040;-89.648153;0.002233;
1111;1352;0.456236;81.169358;0.999879;0.003388;-0.021803;0.049258;-0.001807;0.049304;-0.021849;-88.544388;0.049410;
1281;417;-0.054443;0.130974;1.000000;0.000149;-0.000430;0.001511;-0.000114;0.001518;-0.000437;-86.650306;0.001563;
951;492;0.107865;0.251226;0.999998;0.000375;-0.000735;0.001223;0.000014;0.001223;-0.000735;89.598293;0.001231;
1301;407;-0.058002;0.122066;1.000000;0.000121;-0.000451;0.001514;-0.000089;0.001518;-0.000455;-87.406785;0.001558;
1221;702;-0.251059;0.870919;0.999993;0.000725;-0.003148;0.007750;-0.001697;0.008008;-0.003406;-81.352364;0.008038;
1096;1237;2.104445;71.891707;0.999353;0.006518;-0.056706;0.139228;-0.004711;0.139342;-0.056819;-88.623576;0.140130;
1006;1672;0.109938;86.041870;1.000000;0.000136;-0.000573;0.001664;-0.000314;0.001707;-0.000617;-82.170425;0.001729;
1101;927;0.968975;7.185913;0.999751;0.005664;-0.028975;0.066449;0.003129;0.066551;-0.029077;88.123825;0.066728;
1121;722;0.052551;1.030032;0.999996;0.000657;-0.003789;0.009463;0.000321;0.009471;-0.003797;88.614636;0.009533;
1051;1557;0.192009;85.646597;0.999996;0.000685;-0.002539;0.006354;-0.001334;0.006549;-0.002735;-81.649149;0.006579;
1146;572;-0.011622;0.378347;0.999998;0.000360;-0.001039;0.002230;-0.000036;0.002230;-0.001040;-89.360571;0.002232;
951;497;0.110052;0.257870;0.999998;0.000334;-0.000715;0.001204;0.000048;0.001206;-0.000716;88.555916;0.001213;
1036;1352;2.148552;81.107442;0.999882;0.003176;-0.023069;0.050945;-0.008476;0.051904;-0.024027;-83.550153;0.051951;
1086;1722;0.035460;86.128570;1.000000;0.000145;-0.000739;0.001700;-0.000088;0.001703;-0.000743;-87.932550;0.001707;
1141;487;-0.003917;0.224276;1.000000;0.000153;-0.000611;0.001591;-0.000009;0.001591;-0.000611;-89.775643;0.001605;
1021;437;0.049523;0.154995;1.000000;0.000204;-0.000458;0.001531;0.000126;0.001539;-0.000466;86.401686;0.001578;
1101;717;0.119670;0.985026;0.999995;0.000548;-0.003567;0.008918;0.000734;0.008961;-0.003610;86.645844;0.009018;
1101;1227;1.962495;70.556013;0.998838;0.010073;-0.061949;0.154539;-0.004024;0.154614;-0.062024;-88.935453;0.155618;
1121;727;0.056676;1.075736;0.999996;0.000641;-0.004059;0.010080;0.000340;0.010088;-0.004067;88.623244;0.010151;
1056;922;2.221427;6.959598;0.999812;0.004407;-0.029095;0.066011;0.007803;0.066647;-0.029731;85.340904;0.066775;
1221;1572;-0.174162;85.726274;0.999995;0.000552;-0.002131;0.005343;0.001163;0.005520;-0.002308;81.357522;0.005544;
1041;1652;0.095447;85.999039;1.000000;0.000137;-0.000838;0.002108;-0.000340;0.002147;-0.000876;-83.498027;0.002159;
1001;557;0.108288;0.346026;0.999998;0.000356;-0.000560;0.001618;0.000273;0.001652;-0.000593;82.969204;0.001674;
1206;1347;-1.677273;80.870845;0.999860;0.004017;-0.023384;0.052336;0.006241;0.052847;-0.023895;85.319614;0.052928;
1146;487;-0.006787;0.224502;1.000000;0.000150;-0.000612;0.001591;-0.000015;0.001591;-0.000612;-89.614822;0.001606;
1101;1777;0.016797;86.217326;1.000000;0.000088;-0.000532;0.001553;-0.000041;0.001554;-0.000533;-88.885434;0.001579;
1026;437;0.046500;0.154134;1.000000;0.000149;-0.000456;0.001531;0.000122;0.001539;-0.000464;86.489564;0.001579;
1056;557;0.072320;0.345418;0.999998;0.000439;-0.000795;0.001860;0.000200;0.001875;-0.000810;85.706010;0.001881;
1106;717;0.101853;0.983317;0.999995;0.000517;-0.003550;0.008897;0.000624;0.008928;-0.003581;87.138489;0.008986;
1076;1242;3.121205;72.329896;0.999428;0.006590;-0.055974;0.135590;-0.007518;0.135884;-0.056268;-87.756088;0.136551;
1121;732;0.061202;1.124933;0.999996;0.000718;-0.004351;0.010706;0.000364;0.010714;-0.004360;88.614205;0.010776;
1061;922;2.071520;6.951388;0.999838;0.004293;-0.029052;0.065733;0.007212;0.066279;-0.029598;85.673935;0.066405;
1026;1647;0.109522;85.993175;1.000000;0.000180;-0.000776;0.002075;-0.000410;0.002133;-0.000834;-81.984656;0.002150;
1186;1527;-0.187847;85.422403;0.999995;0.000625;-0.003679;0.009048;0.001159;0.009153;-0.003784;84.839203;0.009199;
1006;557;0.106371;0.346680;0.999998;0.000334;-0.000580;0.001637;0.000264;0.001668;-0.000611;83.302114;0.001688;
1006;412;0.044801;0.119864;1.000000;0.000133;-0.000401;0.001516;0.000146;0.001528;-0.000412;85.664589;0.001581;
1176;1352;-0.941823;81.148303;0.999842;0.003382;-0.021765;0.049449;0.003445;0.049615;-0.021932;87.236891;0.049726;
1031;437;0.044497;0.153723;1.000000;0.000119;-0.000455;0.001531;0.000119;0.001538;-0.000462;86.586853;0.001578;
1091;1767;0.023844;86.201055;1.000000;0.000120;-0.000569;0.001575;-0.000050;0.001576;-0.000570;-88.671671;0.001596;
991;552;0.111801;0.336099;0.999998;0.000548;-0.000534;0.001567;0.000283;0.001605;-0.000572;82.464144;0.001627;
1121;737;0.065736;1.179607;0.999996;0.000780;-0.004661;0.011347;0.000387;0.011356;-0.004671;88.615441;0.011416;
1081;1242;2.852536;72.376107;0.999474;0.005864;-0.055439;0.134459;-0.006751;0.134699;-0.055678;-87.966434;0.135371;
1126;732;0.040071;1.124608;0.999997;0.000715;-0.004368;0.010707;0.000237;0.010711;-0.004372;89.099561;0.010771;
1066;922;1.915234;6.939641;0.999822;0.003967;-0.028964;0.065529;0.006652;0.065995;-0.029430;85.992782;0.066123;
1026;1652;0.107084;86.003186;1.000000;0.000153;-0.000746;0.001993;-0.000378;0.002044;-0.000797;-82.282820;0.002061;
1056;1552;0.192778;85.612364;0.999996;0.000507;-0.002693;0.006709;-0.001328;0.006893;-0.002877;-82.110629;0.006924;
1011;557;0.103350;0.347147;0.999998;0.000332;-0.000599;0.001657;0.000256;0.001686;-0.000628;83.608964;0.001704;
1176;1362;-0.872283;81.613195;0.999865;0.003161;-0.020042;0.045375;0.003197;0.045531;-0.020198;87.208677;0.045628;
1211;452;-0.036323;0.173442;1.000000;0.000124;-0.000488;0.001538;-0.000091;0.001542;-0.000492;-87.446176;0.001575;
1216;447;-0.037488;0.166279;1.000000;0.000102;-0.000473;0.001530;-0.000098;0.001534;-0.000478;-87.195558;0.001571;
996;552;0.109086;0.337017;0.999998;0.000366;-0.000546;0.001590;0.000269;0.001624;-0.000579;82.927915;0.001646;
1126;737;0.042548;1.179950;0.999996;0.000628;-0.004674;0.011354;0.000256;0.011358;-0.004678;89.086342;0.011417;
1161;1772;-0.015106;86.209583;1.000000;0.000095;-0.000550;0.001562;0.000034;0.001562;-0.000550;89.082873;0.001585;
1086;1242;2.577627;72.428197;0.999500;0.005113;-0.055011;0.133481;-0.006021;0.133674;-0.055203;-88.172236;0.134347;
1131;732;0.018408;1.124505;0.999996;0.000544;-0.004381;0.010717;0.000108;0.010718;-0.004382;89.590669;0.010777;
1071;922;1.774912;6.921345;0.999832;0.003402;-0.028702;0.065189;0.006104;0.065584;-0.029098;86.296045;0.065723;
1031;1647;0.105280;85.991590;1.000000;0.000159;-0.000809;0.002111;-0.000395;0.002163;-0.000861;-82.429804;0.002178;
1221;1567;-0.186677;85.696582;0.999995;0.000495;-0.002287;0.005723;0.001250;0.005913;-0.002478;81.333891;0.005939;
1181;1362;-0.973093;81.602905;0.999850;0.003176;-0.020113;0.045481;0.003616;0.045680;-0.020312;86.854504;0.045773;
951;502;0.110689;0.264255;0.999998;0.000368;-0.000687;0.001184;0.000066;0.001187;-0.000690;87.977257;0.001192;
1096;567;0.039368;0.367783;0.999998;0.000386;-0.000973;0.002115;0.000120;0.002120;-0.000977;87.776613;0.002122;
1166;862;-0.520906;3.983250;0.999893;0.002995;-0.016856;0.038112;-0.002159;0.038197;-0.016941;-87.754578;0.038278;
1216;452;-0.038738;0.173781;1.000000;0.000108;-0.000489;0.001538;-0.000096;0.001543;-0.000494;-87.286817;0.001575;
1086;977;2.141630;11.244853;0.999469;0.006799;-0.044932;0.106448;0.005917;0.106679;-0.045163;87.764970;0.107096;
1116;737;0.088004;1.179477;0.999995;0.000698;-0.004657;0.011339;0.000517;0.011356;-0.004674;88.150144;0.011415;
1066;942;2.272901;8.322565;0.999657;0.005338;-0.034278;0.078443;0.007389;0.078925;-0.034760;86.265429;0.079112;
1116;432;0.007447;0.139981;1.000000;0.000070;-0.000398;0.001478;0.000025;0.001478;-0.000398;89.234667;0.001530;
981;412;0.054887;0.126041;1.000000;0.000124;-0.000429;0.001524;0.000108;0.001530;-0.000435;86.833429;0.001577;
1091;1242;2.303787;72.465921;0.999424;0.006209;-0.054580;0.132653;-0.005339;0.132805;-0.054732;-88.367996;0.133487;
1076;922;1.637556;6.912559;0.999803;0.003687;-0.028499;0.064886;0.005592;0.065220;-0.028833;86.585197;0.065366;
1036;1647;0.101048;85.989979;1.000000;0.000138;-0.000838;0.002146;-0.000380;0.002194;-0.000886;-82.851602;0.002208;
1026;1572;0.210118;85.737671;0.999994;0.000576;-0.002133;0.005507;-0.001485;0.005786;-0.002412;-79.377837;0.005812;
1051;557;0.076171;0.346255;0.999998;0.000399;-0.000771;0.001836;0.000206;0.001852;-0.000788;85.508077;0.001859;
1066;947;2.356098;8.690773;0.999617;0.006725;-0.035800;0.082010;0.007552;0.082492;-0.036282;86.346972;0.082691;
1111;717;0.084598;0.982432;0.999994;0.000605;-0.003546;0.008881;0.000516;0.008902;-0.003567;87.626942;0.008961;
1221;442;-0.038424;0.158915;1.000000;0.000110;-0.000458;0.001524;-0.000105;0.001530;-0.000464;-86.970394;0.001569;
1096;1242;2.027713;72.511012;0.999378;0.007062;-0.054178;0.131883;-0.004672;0.132000;-0.054295;-88.562591;0.132690;
986;412;0.052889;0.124348;1.000000;0.000124;-0.000424;0.001525;0.000120;0.001533;-0.000431;86.475980;0.001581;
1086;982;2.246460;11.776227;0.999466;0.006307;-0.047009;0.111948;0.006037;0.112177;-0.047237;87.828282;0.112642;
1126;912;0.219030;6.280141;0.999865;0.003955;-0.025298;0.057847;0.000581;0.057851;-0.025302;89.599980;0.058003;
1121;432;0.005384;0.139877;1.000000;0.000070;-0.000397;0.001477;0.000018;0.001478;-0.000397;89.446452;0.001529;
1081;922;1.499334;6.906985;0.999780;0.004377;-0.028330;0.064622;0.005067;0.064897;-0.028606;86.888837;0.065049;
1016;1662;0.108976;86.023943;1.000000;0.000136;-0.000643;0.001785;-0.000341;0.001832;-0.000690;-82.156416;0.001850;
1046;1562;0.192156;85.675548;0.999996;0.000507;-0.002387;0.006038;-0.001341;0.006246;-0.002595;-81.170538;0.006276;
1156;427;-0.008061;0.132902;1.000000;0.000057;-0.000380;0.001467;-0.000032;0.001468;-0.000380;-89.015551;0.001523;
1031;537;0.081580;0.312919;0.999998;0.000351;-0.000659;0.001669;0.000183;0.001683;-0.000673;85.521319;0.001695;
1096;932;1.162669;7.538363;0.999736;0.004616;-0.030287;0.069691;0.003761;0.069832;-0.030428;87.848536;0.070024;
1221;447;-0.039604;0.166498;1.000000;0.000116;-0.000474;0.001531;-0.000103;0.001536;-0.000479;-87.079219;0.001572;
1061;917;1.980450;6.656033;0.999863;0.003650;-0.027870;0.062910;0.007019;0.063449;-0.028410;85.604892;0.063564;
1051;922;2.360481;6.982274;0.999772;0.003886;-0.029241;0.066313;0.008378;0.067042;-0.029970;85.026875;0.067167;
1101;1232;1.888528;71.259034;0.998927;0.009789;-0.059006;0.146087;-0.004068;0.146167;-0.059086;-88.864178;0.147058;
976;407;0.054838;0.120224;1.000000;0.000126;-0.000427;0.001529;0.000105;0.001534;-0.000432;86.945304;0.001582;
1131;912;0.092355;6.279523;0.999877;0.003729;-0.025284;0.057777;0.000160;0.057777;-0.025285;89.889366;0.057927;
1166;1772;-0.017839;86.209164;1.000000;0.000090;-0.000550;0.001563;0.000040;0.001564;-0.000551;88.912421;0.001586;
996;1652;0.125368;86.011039;1.000000;0.000154;-0.000580;0.001786;-0.000475;0.001878;-0.000672;-79.063725;0.001903;
1051;1552;0.206226;85.612679;0.999996;0.000644;-0.002703;0.006739;-0.001415;0.006946;-0.002911;-81.656727;0.006976;
1141;427;-0.002310;0.132621;1.000000;0.000062;-0.000377;0.001465;-0.000010;0.001465;-0.000377;-89.687162;0.001522;
1101;932;1.011752;7.540922;0.999746;0.004738;-0.030205;0.069502;0.003215;0.069606;-0.030308;88.154871;0.069799;
1221;452;-0.041049;0.173933;1.000000;0.000134;-0.000490;0.001539;-0.000101;0.001544;-0.000495;-87.164515;0.001576;
1036;537;0.077923;0.313176;0.999998;0.000338;-0.000671;0.001680;0.000176;0.001693;-0.000684;85.751318;0.001703;
1051;927;2.465026;7.288914;0.999776;0.004071;-0.030491;0.069254;0.008598;0.069990;-0.031227;85.109434;0.070125;
1066;917;1.836967;6.648082;0.999839;0.003607;-0.027772;0.062690;0.006486;0.063152;-0.028235;85.919735;0.063270;
1101;1237;1.825866;71.927393;0.999297;0.007759;-0.056353;0.138443;-0.004007;0.138526;-0.056435;-88.822202;0.139315;
1136;912;-0.033995;6.275090;0.999859;0.003439;-0.025276;0.057750;-0.000248;0.057751;-0.025277;-89.829114;0.057900;
1216;457;-0.040116;0.181572;1.000000;0.000115;-0.000504;0.001543;-0.000096;0.001548;-0.000509;-87.309019;0.001578;
1001;1652;0.122798;86.009462;1.000000;0.000202;-0.000608;0.001820;-0.000451;0.001901;-0.000689;-79.813321;0.001925;
1171;1762;-0.022544;86.193124;1.000000;0.000098;-0.000588;0.001583;0.000047;0.001584;-0.000589;88.771436;0.001601;
1066;1527;0.235686;85.421315;0.999994;0.000775;-0.003679;0.008887;-0.001519;0.009068;-0.003860;-83.201988;0.009101;
1106;932;0.852966;7.526193;0.999755;0.004673;-0.030127;0.069325;0.002672;0.069397;-0.030198;88.462132;0.069591;
1161;427;-0.009827;0.132869;1.000000;0.000056;-0.000381;0.001468;-0.000039;0.001469;-0.000382;-88.805248;0.001524;
1226;442;-0.040706;0.159627;1.000000;0.000128;-0.000461;0.001526;-0.000110;0.001532;-0.000467;-86.855345;0.001570;
1051;932;2.575390;7.638281;0.999769;0.004714;-0.031816;0.072478;0.008832;0.073221;-0.032559;85.193779;0.073370;
1056;562;0.074548;0.356054;0.999998;0.000428;-0.000814;0.001900;0.000212;0.001916;-0.000830;85.568079;0.001922;
1071;917;1.701441;6.643204;0.999840;0.003323;-0.027538;0.062395;0.005949;0.062787;-0.027930;86.231863;0.062914;
1101;1242;1.757396;72.536823;0.999337;0.008599;-0.053871;0.131245;-0.003991;0.131331;-0.053957;-88.765500;0.132025;
1221;457;-0.042633;0.181844;1.000000;0.000143;-0.000506;0.001544;-0.000101;0.001549;-0.000511;-87.192887;0.001578;
1121;912;0.348533;6.286213;0.999865;0.003065;-0.025344;0.057928;0.001018;0.057941;-0.025356;89.299546;0.058091;
1006;1652;0.119854;86.008245;1.000000;0.000175;-0.000619;0.001855;-0.000429;0.001927;-0.000692;-80.435984;0.001952;
1171;1767;-0.021517;86.200950;1.000000;0.000086;-0.000569;0.001572;0.000046;0.001573;-0.000570;88.766063;0.001592;
1066;1532;0.218810;85.467165;0.999995;0.000574;-0.003449;0.008364;-0.001444;0.008538;-0.003623;-83.133420;0.008571;
1051;937;2.685223;8.015667;0.999726;0.004080;-0.033245;0.075856;0.009065;0.076604;-0.033993;85.282730;0.076765;
1086;932;1.464486;7.554720;0.999750;0.004889;-0.030566;0.070187;0.004821;0.070417;-0.030797;87.266541;0.070601;
1226;447;-0.042064;0.166993;1.000000;0.000130;-0.000476;0.001534;-0.000106;0.001539;-0.000482;-86.980325;0.001575;
1166;427;-0.011701;0.133044;1.000000;0.000066;-0.000383;0.001469;-0.000045;0.001470;-0.000384;-88.601785;0.001525;
1076;917;1.569778;6.630668;0.999800;0.004020;-0.027363;0.062138;0.005446;0.062468;-0.027693;86.530946;0.062602;
1151;572;-0.016265;0.378363;0.999998;0.000412;-0.001039;0.002225;-0.000054;0.002226;-0.001040;-89.052866;0.002228;
1071;1242;3.398823;72.280924;0.999269;0.006080;-0.056685;0.136898;-0.008313;0.137255;-0.057042;-87.545617;0.137905;
1226;457;-0.044983;0.182627;1.000000;0.000168;-0.000507;0.001545;-0.000104;0.001551;-0.000512;-87.109078;0.001580;
1236;852;-1.587239;3.634518;0.999911;0.002790;-0.016121;0.035300;-0.006895;0.036209;-0.017029;-82.493999;0.036230;
1011;1652;0.116562;86.007204;1.000000;0.000144;-0.000651;0.001886;-0.000416;0.001952;-0.000717;-80.930248;0.001975;
1171;1772;-0.020635;86.208955;1.000000;0.000100;-0.000550;0.001564;0.000045;0.001565;-0.000551;88.768118;0.001588;
1036;1567;0.202400;85.706510;0.999996;0.000582;-0.002259;0.005776;-0.001422;0.006021;-0.002503;-80.251797;0.006049;
1091;932;1.311604;7.548028;0.999754;0.004796;-0.030386;0.069921;0.004285;0.070104;-0.030569;87.558419;0.070295;
1086;922;1.350457;6.894371;0.999768;0.004850;-0.028147;0.064356;0.004536;0.064578;-0.028369;87.199601;0.064736;
1226;452;-0.043422;0.174473;1.000000;0.000156;-0.000492;0.001541;-0.000104;0.001546;-0.000497;-87.064822;0.001579;
1051;917;2.262587;6.678135;0.999755;0.004200;-0.028095;0.063306;0.008050;0.064010;-0.028799;85.004828;0.064117;
1051;1242;4.578719;72.031857;0.999350;0.010082;-0.058557;0.141631;-0.012009;0.142348;-0.059275;-86.579260;0.143010;
1166;432;-0.012261;0.140479;1.000000;0.000077;-0.000402;0.001481;-0.000044;0.001482;-0.000403;-88.669266;0.001533;
1156;572;-0.021709;0.378839;0.999999;0.000385;-0.001036;0.002219;-0.000072;0.002220;-0.001038;-88.741627;0.002222;
1116;912;0.475906;6.292187;0.999842;0.002676;-0.025348;0.058027;0.001487;0.058054;-0.025374;88.978837;0.058207;
1011;1657;0.114090;86.016363;1.000000;0.000155;-0.000630;0.001807;-0.000380;0.001865;-0.000688;-81.334184;0.001886;
1176;477;-0.023189;0.209685;1.000000;0.000191;-0.000569;0.001573;-0.000050;0.001574;-0.000570;-88.674216;0.001594;
1041;1567;0.191432;85.705222;0.999995;0.000581;-0.002240;0.005738;-0.001346;0.005959;-0.002462;-80.675372;0.005989;
1176;1732;-0.031118;86.144454;1.000000;0.000090;-0.000703;0.001665;0.000074;0.001667;-0.000706;88.206740;0.001674;
1056;1242;4.289394;72.094026;0.999325;0.010283;-0.058106;0.140325;-0.011039;0.140937;-0.058719;-86.825616;0.141589;
1051;912;2.172700;6.376009;0.999797;0.004505;-0.026952;0.060589;0.007779;0.061275;-0.027638;84.960991;0.061373;
1106;927;0.819976;7.171487;0.999790;0.004876;-0.028885;0.066274;0.002606;0.066345;-0.028956;88.432626;0.066523;
1081;917;1.435254;6.619616;0.999786;0.004671;-0.027207;0.061906;0.004934;0.062178;-0.027480;86.840246;0.062318;
1241;447;-0.049237;0.168862;1.000000;0.000130;-0.000482;0.001535;-0.000113;0.001542;-0.000488;-86.794762;0.001576;
1166;437;-0.012930;0.147680;1.000000;0.000086;-0.000421;0.001492;-0.000043;0.001493;-0.000422;-88.713356;0.001540;
1161;572;-0.026973;0.377976;0.999999;0.000356;-0.001029;0.002212;-0.000091;0.002215;-0.001032;-88.394740;0.002217;
1011;1662;0.111521;86.024681;1.000000;0.000159;-0.000615;0.001752;-0.000351;0.001802;-0.000666;-81.743093;0.001823;
1181;477;-0.026212;0.209781;1.000000;0.000194;-0.000569;0.001574;-0.000055;0.001576;-0.000571;-88.520043;0.001595;
1111;902;0.549975;5.740109;0.999853;0.003684;-0.023380;0.053189;0.001922;0.053237;-0.023428;88.563164;0.053365;
1181;1732;-0.034481;86.144061;1.000000;0.000094;-0.000696;0.001660;0.000081;0.001663;-0.000698;88.034849;0.001670;
1226;1572;-0.184443;85.727140;0.999995;0.000642;-0.002151;0.005395;0.001245;0.005595;-0.002351;80.870611;0.005619;
1061;1242;3.994787;72.145787;0.999339;0.007422;-0.057592;0.139059;-0.010093;0.139576;-0.058109;-87.069568;0.140226;
1081;912;1.376396;6.330946;0.999803;0.004119;-0.026109;0.059132;0.004806;0.059402;-0.026379;86.783416;0.059525;
1056;917;2.127864;6.665771;0.999834;0.003636;-0.027951;0.063061;0.007518;0.063678;-0.028568;85.309566;0.063790;
1101;922;0.926082;6.866800;0.999751;0.004244;-0.027805;0.063684;0.003029;0.063784;-0.027905;88.105768;0.063950;
1136;427;-0.000387;0.132526;1.000000;0.000061;-0.000377;0.001465;-0.000003;0.001465;-0.000377;-89.911159;0.001522;
1281;422;-0.057321;0.138768;1.000000;0.000144;-0.000435;0.001505;-0.000110;0.001512;-0.000442;-86.779076;0.001555;
1166;562;-0.030742;0.357432;0.999998;0.000467;-0.000971;0.002098;-0.000098;0.002101;-0.000974;-88.165110;0.002103;
1011;1667;0.109095;86.032943;1.000000;0.000157;-0.000605;0.001717;-0.000326;0.001762;-0.000650;-82.147637;0.001782;
1186;477;-0.029108;0.209989;1.000000;0.000185;-0.000566;0.001576;-0.000061;0.001578;-0.000568;-88.377117;0.001598;
1156;862;-0.357726;3.978953;0.999879;0.002668;-0.016752;0.038012;-0.001488;0.038053;-0.016792;-88.444233;0.038140;
1046;1552;0.219556;85.613565;0.999996;0.000658;-0.002719;0.006773;-0.001502;0.007005;-0.002951;-81.219391;0.007034;
1081;1247;2.722460;72.975568;0.999482;0.005835;-0.052930;0.127388;-0.006819;0.127646;-0.053187;-87.837537;0.128235;
1086;912;1.237446;6.316832;0.999835;0.003432;-0.025956;0.058939;0.004300;0.059156;-0.026173;87.107783;0.059287;
1106;1712;0.021827;86.112237;1.000000;0.000088;-0.000816;0.001804;-0.000061;0.001805;-0.000817;-88.657078;0.001808;
1096;907;0.950973;6.023178;0.999824;0.003119;-0.024705;0.055955;0.003296;0.056089;-0.024839;87.663836;0.056211;
1106;922;0.792921;6.856029;0.999770;0.004221;-0.027686;0.063506;0.002532;0.063576;-0.027756;88.410592;0.063747;
1291;412;-0.055915;0.126639;1.000000;0.000147;-0.000431;0.001513;-0.000102;0.001519;-0.000437;-87.020082;0.001564;
1166;567;-0.031070;0.367382;0.999998;0.000368;-0.000997;0.002147;-0.000103;0.002150;-0.001001;-88.128059;0.002152;
1101;427;0.012776;0.133225;1.000000;0.000064;-0.000383;0.001473;0.000047;0.001474;-0.000384;88.546965;0.001530;
1016;1657;0.111053;86.015241;1.000000;0.000163;-0.000660;0.001842;-0.000369;0.001895;-0.000713;-81.788431;0.001914;
1011;427;0.049626;0.141578;1.000000;0.000122;-0.000434;0.001521;0.000134;0.001531;-0.000444;86.092941;0.001575;
1046;1557;0.205731;85.646995;0.999996;0.000587;-0.002551;0.006391;-0.001417;0.006610;-0.002770;-81.210465;0.006639;
1156;867;-0.369443;4.155846;0.999891;0.002353;-0.017496;0.039719;-0.001508;0.039759;-0.017535;-88.490900;0.039851;
1086;1247;2.462365;73.008415;0.999495;0.005522;-0.052550;0.126565;-0.006116;0.126774;-0.052758;-88.046687;0.127367;
1091;912;1.109819;6.310743;0.999830;0.003390;-0.025832;0.058745;0.003821;0.058917;-0.026004;87.418357;0.059052;
1111;922;0.651389;6.857113;0.999772;0.004453;-0.027552;0.063355;0.002047;0.063401;-0.027598;88.710507;0.063578;
1111;1712;0.017777;86.112368;1.000000;0.000083;-0.000820;0.001809;-0.000051;0.001810;-0.000821;-88.887039;0.001813;
1096;912;0.985985;6.305268;0.999827;0.003206;-0.025738;0.058565;0.003359;0.058699;-0.025871;87.721568;0.058836;
1166;572;-0.032223;0.378108;0.999998;0.000399;-0.001021;0.002202;-0.000107;0.002205;-0.001024;-88.099661;0.002207;
1296;412;-0.058225;0.127746;1.000000;0.000150;-0.000449;0.001510;-0.000084;0.001513;-0.000453;-87.560751;0.001553;
1101;432;0.013436;0.140475;1.000000;0.000060;-0.000402;0.001483;0.000046;0.001484;-0.000403;88.609082;0.001535;
1016;1667;0.106210;86.032175;1.000000;0.000150;-0.000631;0.001747;-0.000317;0.001789;-0.000672;-82.532029;0.001807;
1311;392;-0.053638;0.103700;1.000000;0.000128;-0.000455;0.001549;-0.000114;0.001555;-0.000462;-86.757285;0.001598;
1091;1247;2.208141;73.045438;0.999429;0.007075;-0.052164;0.125871;-0.005455;0.126038;-0.052331;-88.246706;0.126641;
1156;872;-0.386925;4.353715;0.999856;0.002893;-0.018247;0.041392;-0.001532;0.041432;-0.018287;-88.529670;0.041527;
1091;917;1.154594;6.597470;0.999777;0.003967;-0.026895;0.061463;0.003931;0.061638;-0.027070;87.457926;0.061790;
1206;1542;-0.214860;85.533999;0.999994;0.000928;-0.003128;0.007660;0.001370;0.007831;-0.003299;82.873172;0.007863;
1111;927;0.672620;7.172395;0.999760;0.004737;-0.028770;0.066134;0.002102;0.066181;-0.028816;88.731505;0.066364;
1176;1757;-0.026321;86.184720;1.000000;0.000091;-0.000604;0.001595;0.000054;0.001596;-0.000606;88.593986;0.001611;
1096;917;1.023448;6.587192;0.999794;0.003517;-0.026793;0.061255;0.003453;0.061390;-0.026929;87.757553;0.061544;
1301;412;-0.060287;0.129576;1.000000;0.000129;-0.000452;0.001506;-0.000077;0.001509;-0.000455;-87.760355;0.001548;
1101;437;0.013992;0.147888;1.000000;0.000063;-0.000420;0.001494;0.000044;0.001495;-0.000421;88.676288;0.001541;
1021;1657;0.108138;86.014173;1.000000;0.000149;-0.000691;0.001879;-0.000359;0.001929;-0.000740;-82.196502;0.001946;
1081;577;0.056538;0.389332;0.999998;0.000305;-0.000976;0.002176;0.000181;0.002186;-0.000986;86.715126;0.002190;
1231;447;-0.044428;0.167595;1.000000;0.000138;-0.000479;0.001535;-0.000109;0.001541;-0.000485;-86.904836;0.001576;
1076;1247;2.989517;72.940697;0.999441;0.006394;-0.053409;0.128404;-0.007557;0.128718;-0.053722;-87.624095;0.129303;
1091;922;1.206858;6.880360;0.999751;0.004034;-0.027989;0.064109;0.004028;0.064285;-0.028165;87.500353;0.064449;
1041;1552;0.233560;85.613434;0.999996;0.000525;-0.002742;0.006812;-0.001591;0.007070;-0.003000;-80.789940;0.007097;
1086;917;1.292470;6.604636;0.999804;0.004816;-0.027037;0.061679;0.004420;0.061898;-0.027257;87.154557;0.062045;
1061;877;1.419107;4.593636;0.999862;0.002749;-0.019816;0.044144;0.005689;0.044646;-0.020318;84.956280;0.044706;
1051;902;2.000578;5.804344;0.999863;0.003093;-0.024735;0.055338;0.007443;0.056024;-0.025421;84.734382;0.056104;
1181;1757;-0.029425;86.184607;1.000000;0.000104;-0.000601;0.001598;0.000060;0.001600;-0.000602;88.437695;0.001616;
1311;397;-0.056863;0.111242;1.000000;0.000115;-0.000462;0.001532;-0.000105;0.001537;-0.000467;-86.996502;0.001576;
976;1662;0.129933;86.033554;1.000000;0.000195;-0.000456;0.001586;-0.000433;0.001674;-0.000544;-78.523888;0.001708;
1321;512;-0.118534;0.273746;0.999940;0.002404;-0.000510;0.001185;-0.000174;0.001202;-0.000528;-84.208129;0.001205;
1146;422;-0.003935;0.125360;1.000000;0.000050;-0.000358;0.001454;-0.000018;0.001454;-0.000358;-89.426371;0.001515;
1216;462;-0.041459;0.189180;1.000000;0.000131;-0.000518;0.001554;-0.000097;0.001558;-0.000523;-87.325370;0.001586;
1046;922;2.514120;6.997530;0.999797;0.003979;-0.029400;0.066611;0.008971;0.067442;-0.030231;84.707686;0.067563;
1071;1247;3.257421;72.888414;0.999349;0.006306;-0.054067;0.129637;-0.008294;0.130011;-0.054440;-87.420142;0.130582;
1056;912;2.042820;6.366576;0.999847;0.003209;-0.026814;0.060315;0.007272;0.060917;-0.027417;85.261895;0.061019;
1056;902;1.874197;5.793631;0.999862;0.003982;-0.024642;0.055124;0.006949;0.055725;-0.025243;85.058292;0.055807;
1321;517;-0.118296;0.276202;0.999951;0.002094;-0.000503;0.001185;-0.000206;0.001210;-0.000528;-83.128027;0.001213;
1126;432;0.003367;0.139907;1.000000;0.000065;-0.000396;0.001477;0.000011;0.001477;-0.000396;89.653144;0.001529;
1131;737;0.019163;1.180758;0.999996;0.000597;-0.004678;0.011370;0.000122;0.011371;-0.004679;89.564722;0.011430;
1161;862;-0.435138;3.980216;0.999876;0.002613;-0.016796;0.038060;-0.001819;0.038120;-0.016856;-88.103192;0.038205;
1231;457;-0.047840;0.183318;1.000000;0.000190;-0.000509;0.001546;-0.000107;0.001551;-0.000514;-87.025323;0.001580;
976;1667;0.127441;86.041286;1.000000;0.000193;-0.000442;0.001550;-0.000407;0.001630;-0.000522;-78.886540;0.001665;
1221;462;-0.043991;0.189525;1.000000;0.000144;-0.000520;0.001554;-0.000101;0.001558;-0.000525;-87.210085;0.001586;
1321;522;-0.121563;0.286199;0.999957;0.001575;-0.000495;0.001189;-0.000241;0.001223;-0.000529;-82.014119;0.001226;
1056;907;1.961550;6.061208;0.999864;0.003607;-0.025710;0.057579;0.007110;0.058182;-0.026312;85.155598;0.058270;
1061;902;1.753394;5.783959;0.999849;0.004672;-0.024567;0.054971;0.006477;0.055495;-0.025091;85.374529;0.055580;
1061;912;1.903938;6.369192;0.999863;0.003146;-0.026719;0.060149;0.006809;0.060679;-0.027249;85.545244;0.060784;
1096;1247;1.940704;73.078102;0.999402;0.007451;-0.051808;0.125256;-0.004797;0.125386;-0.051937;-88.449181;0.125999;
1161;1337;-0.717252;80.422934;0.999872;0.003273;-0.024509;0.055624;0.002326;0.055691;-0.024577;88.338419;0.055819;
1231;857;-1.574456;3.805248;0.999902;0.002901;-0.016853;0.036871;-0.006718;0.037699;-0.017681;-82.979938;0.037723;
1156;422;-0.007534;0.125415;1.000000;0.000055;-0.000360;0.001456;-0.000033;0.001457;-0.000361;-88.968678;0.001517;
1231;462;-0.049880;0.190974;1.000000;0.000194;-0.000522;0.001553;-0.000107;0.001559;-0.000527;-87.058959;0.001586;
1001;1647;0.125811;86.000485;1.000000;0.000230;-0.000635;0.001911;-0.000496;0.002005;-0.000728;-79.361101;0.002029;
1116;717;0.066822;0.981958;0.999993;0.000609;-0.003537;0.008871;0.000412;0.008885;-0.003550;88.101030;0.008945;
1226;462;-0.047119;0.190381;1.000000;0.000196;-0.000520;0.001554;-0.000104;0.001559;-0.000526;-87.138983;0.001587;
1061;907;1.828271;6.052664;0.999850;0.004185;-0.025612;0.057400;0.006649;0.057929;-0.026141;85.449726;0.058021;
1066;912;1.766377;6.356697;0.999857;0.003174;-0.026592;0.059830;0.006322;0.060290;-0.027052;85.837922;0.060396;
1066;902;1.626859;5.778805;0.999841;0.003960;-0.024428;0.054718;0.005984;0.055168;-0.024878;85.700579;0.055257;
1101;1247;1.671109;73.105477;0.999410;0.007174;-0.051549;0.124794;-0.004116;0.124890;-0.051645;-88.663577;0.125511;
1161;1362;-0.572988;81.619530;0.999843;0.002785;-0.019841;0.045145;0.002045;0.045209;-0.019906;88.199494;0.045317;
1196;702;-0.174274;0.867944;0.999995;0.000671;-0.003053;0.007556;-0.001198;0.007690;-0.003187;-83.639239;0.007727;
1161;422;-0.009386;0.125457;1.000000;0.000059;-0.000362;0.001457;-0.000040;0.001458;-0.000363;-88.750614;0.001518;
1006;1647;0.122835;85.999180;1.000000;0.000225;-0.000651;0.001948;-0.000471;0.002031;-0.000734;-80.037112;0.002057;
1116;722;0.071282;1.030083;0.999995;0.000594;-0.003790;0.009463;0.000438;0.009477;-0.003804;88.110632;0.009539;
1151;492;-0.010033;0.232561;1.000000;0.000137;-0.000633;0.001604;-0.000022;0.001604;-0.000633;-89.446210;0.001616;
966;532;0.116937;0.302388;0.999998;0.000371;-0.000536;0.001368;0.000252;0.001401;-0.000569;82.589747;0.001409;
1211;457;-0.037559;0.181277;1.000000;0.000125;-0.000503;0.001544;-0.000091;0.001548;-0.000507;-87.462605;0.001579;
1066;907;1.694631;6.045062;0.999830;0.003549;-0.025482;0.057109;0.006163;0.057566;-0.025939;85.756142;0.057660;
1046;1242;4.896325;71.966118;0.999330;0.009174;-0.058839;0.142849;-0.013019;0.143686;-0.059676;-86.321828;0.144371;
1071;912;1.634106;6.351171;0.999862;0.003017;-0.026389;0.059573;0.005799;0.059963;-0.026778;86.158329;0.060077;
1071;902;1.505410;5.772218;0.999856;0.003079;-0.024260;0.054499;0.005496;0.054880;-0.024641;86.027557;0.054975;
1166;422;-0.011110;0.125637;1.000000;0.000059;-0.000364;0.001458;-0.000046;0.001460;-0.000365;-88.539066;0.001519;
1121;742;0.070576;1.239370;0.999994;0.000614;-0.004984;0.012042;0.000409;0.012052;-0.004993;88.625431;0.012111;
1011;1647;0.119331;85.997831;1.000000;0.000153;-0.000682;0.001977;-0.000454;0.002052;-0.000758;-80.562610;0.002075;
1101;1347;0.709284;80.924500;0.999832;0.002875;-0.022971;0.051598;-0.002713;0.051697;-0.023069;-87.919466;0.051796;
1116;727;0.076134;1.076027;0.999996;0.000536;-0.004057;0.010080;0.000463;0.010095;-0.004072;88.125840;0.010158;
1156;492;-0.013191;0.232366;1.000000;0.000146;-0.000631;0.001604;-0.000029;0.001604;-0.000631;-89.268922;0.001617;
1211;462;-0.039160;0.188729;1.000000;0.000141;-0.000518;0.001555;-0.000091;0.001559;-0.000522;-87.477618;0.001587;
1046;1247;4.671813;72.635530;0.999477;0.006063;-0.055933;0.135164;-0.012864;0.136026;-0.056795;-86.165978;0.136641;
1071;907;1.570737;6.044140;0.999837;0.003111;-0.025297;0.056878;0.005654;0.057265;-0.025684;86.082459;0.057366;
1261;522;-0.088985;0.288007;0.999999;0.000400;-0.000590;0.001581;-0.000191;0.001598;-0.000606;-85.009341;0.001613;
1076;912;1.508817;6.340822;0.999818;0.004011;-0.026246;0.059342;0.005301;0.059669;-0.026573;86.469350;0.059788;
1076;902;1.388933;5.770280;0.999849;0.003240;-0.024144;0.054279;0.005030;0.054601;-0.024465;86.345196;0.054699;
1141;422;-0.002141;0.125332;1.000000;0.000046;-0.000358;0.001453;-0.000010;0.001453;-0.000358;-89.675773;0.001514;
1126;742;0.045234;1.239673;0.999994;0.000562;-0.004994;0.012057;0.000269;0.012061;-0.004998;89.097668;0.012120;
996;1647;0.128633;86.002159;1.000000;0.000167;-0.000608;0.001878;-0.000523;0.001984;-0.000713;-78.585782;0.002010;
1106;1347;0.590837;80.917556;0.999850;0.003133;-0.022884;0.051480;-0.002284;0.051550;-0.022954;-88.242785;0.051653;
1051;1247;4.373352;72.718104;0.999367;0.007260;-0.055664;0.133970;-0.011890;0.134712;-0.056407;-86.426361;0.135304;
1161;492;-0.016510;0.232700;1.000000;0.000157;-0.000629;0.001605;-0.000035;0.001605;-0.000630;-89.093389;0.001618;
1136;732;-0.003858;1.125613;0.999995;0.000591;-0.004386;0.010729;-0.000025;0.010729;-0.004387;-89.906892;0.010788;
1231;452;-0.046213;0.175424;1.000000;0.000151;-0.000494;0.001542;-0.000108;0.001548;-0.000499;-86.973981;0.001580;
1076;907;1.449321;6.045788;0.999815;0.003288;-0.025168;0.056666;0.005171;0.056991;-0.025493;86.398801;0.057097;
1051;897;1.917461;5.547543;0.999879;0.002965;-0.023690;0.052966;0.007272;0.053650;-0.024374;84.628698;0.053724;
1171;567;-0.036367;0.367313;0.999998;0.000372;-0.000988;0.002132;-0.000117;0.002137;-0.000992;-87.856201;0.002139;
1086;902;1.137965;5.755725;0.999849;0.003397;-0.023890;0.053890;0.004108;0.054107;-0.024107;86.984956;0.054214;
1151;422;-0.005666;0.125340;1.000000;0.000063;-0.000358;0.001455;-0.000026;0.001455;-0.000359;-89.186611;0.001516;
1131;742;0.018585;1.238677;0.999994;0.000781;-0.004989;0.012077;0.000128;0.012078;-0.004990;89.568805;0.012138;
1056;1247;4.077007;72.758337;0.999370;0.008507;-0.055265;0.132744;-0.010961;0.133381;-0.055902;-86.674601;0.133962;
1016;1652;0.113351;86.006033;1.000000;0.000138;-0.000683;0.001919;-0.000402;0.001980;-0.000744;-81.407341;0.002000;
1051;1347;1.880391;80.884231;0.999876;0.002740;-0.023713;0.052889;-0.007214;0.053562;-0.024386;-84.666434;0.053634;
1136;737;-0.005794;1.181288;0.999995;0.000699;-0.004678;0.011387;-0.000017;0.011387;-0.004678;-89.938798;0.011448;
1251;442;-0.052122;0.162378;1.000000;0.000165;-0.000472;0.001526;-0.000121;0.001533;-0.000479;-86.550197;0.001569;
1236;447;-0.047283;0.168570;1.000000;0.000152;-0.000480;0.001536;-0.000111;0.001542;-0.000486;-86.853800;0.001577;
1051;907;2.084922;6.078961;0.999833;0.003394;-0.025831;0.057836;0.007608;0.058522;-0.026517;84.846038;0.058608;
1056;897;1.798157;5.543521;0.999870;0.003697;-0.023610;0.052813;0.006783;0.053410;-0.024208;84.967103;0.053488;
1171;572;-0.037445;0.378049;0.999999;0.000374;-0.001012;0.002187;-0.000122;0.002191;-0.001016;-87.810030;0.002193;
1091;902;1.020048;5.756922;0.999848;0.002835;-0.023792;0.053716;0.003661;0.053889;-0.023965;87.301534;0.053998;
1136;417;-0.000415;0.117888;1.000000;0.000043;-0.000339;0.001442;-0.000002;0.001442;-0.000339;-89.931923;0.001508;
1061;1247;3.811813;72.800873;0.999285;0.006139;-0.054831;0.131593;-0.010039;0.132132;-0.055370;-86.926477;0.132708;
1021;1652;0.110363;86.004683;1.000000;0.000139;-0.000716;0.001955;-0.000390;0.002011;-0.000771;-81.856903;0.002029;
1111;722;0.090480;1.029669;0.999995;0.000644;-0.003795;0.009468;0.000551;0.009491;-0.003818;87.626151;0.009551;
1116;732;0.081453;1.125329;0.999996;0.000647;-0.004348;0.010702;0.000491;0.010718;-0.004364;88.134500;0.010779;
1256;442;-0.054733;0.162961;1.000000;0.000181;-0.000472;0.001525;-0.000121;0.001532;-0.000479;-86.531897;0.001568;
1166;1357;-0.701892;81.382433;0.999857;0.002592;-0.020734;0.047186;0.002522;0.047279;-0.020828;87.876212;0.047391;
1041;897;2.159097;5.557955;0.999875;0.003212;-0.023934;0.053270;0.008262;0.054144;-0.024808;83.959269;0.054208;
1081;907;1.317419;6.040760;0.999796;0.003550;-0.025040;0.056461;0.004693;0.056730;-0.025309;86.714880;0.056840;
1041;1557;0.218364;85.646960;0.999996;0.000562;-0.002573;0.006433;-0.001502;0.006677;-0.002816;-80.778361;0.006704;
1171;577;-0.038156;0.389624;0.999999;0.000365;-0.001033;0.002245;-0.000127;0.002250;-0.001038;-87.776933;0.002252;
1096;902;0.910106;5.754238;0.999826;0.003094;-0.023710;0.053561;0.003231;0.053696;-0.023845;87.609750;0.053807;
1131;417;0.001229;0.118024;1.000000;0.000045;-0.000339;0.001442;0.000005;0.001442;-0.000339;89.838086;0.001508;
1081;1252;2.597094;73.588204;0.999581;0.006745;-0.050590;0.121033;-0.006827;0.121304;-0.050861;-87.725673;0.121830;
1016;1647;0.115920;85.996677;1.000000;0.000131;-0.000715;0.002007;-0.000439;0.002076;-0.000784;-81.056570;0.002097;
1111;727;0.096345;1.078391;0.999995;0.000602;-0.004059;0.010080;0.000581;0.010104;-0.004082;87.650202;0.010166;
1041;902;2.250877;5.812105;0.999852;0.003582;-0.025010;0.055764;0.008448;0.056638;-0.025884;84.093100;0.056708;
1171;1357;-0.804739;81.388160;0.999869;0.002524;-0.020794;0.047261;0.002903;0.047384;-0.020918;87.561793;0.047493;
1141;492;-0.004121;0.232695;1.000000;0.000123;-0.000633;0.001603;-0.000008;0.001603;-0.000633;-89.783329;0.001614;
1086;907;1.186616;6.023971;0.999833;0.002915;-0.024905;0.056288;0.004205;0.056505;-0.025122;87.043393;0.056621;
1041;702;0.278165;0.874616;0.999993;0.000908;-0.003186;0.007794;0.001805;0.008083;-0.003475;80.901013;0.008110;
1041;1562;0.203817;85.676612;0.999996;0.000596;-0.002405;0.006078;-0.001421;0.006310;-0.002636;-80.736132;0.006338;
1081;902;1.262732;5.761987;0.999841;0.003472;-0.024019;0.054063;0.004577;0.054331;-0.024286;86.656627;0.054432;
1086;1252;2.353504;73.602822;0.999603;0.005611;-0.050237;0.120327;-0.006176;0.120550;-0.050461;-87.929138;0.121082;
976;1672;0.124948;86.049085;1.000000;0.000183;-0.000433;0.001528;-0.000371;0.001596;-0.000501;-79.629829;0.001633;
1171;417;-0.012226;0.118420;1.000000;0.000067;-0.000346;0.001449;-0.000054;0.001451;-0.000348;-88.286815;0.001515;
1041;907;2.348010;6.081929;0.999841;0.003422;-0.026107;0.058378;0.008605;0.059245;-0.026974;84.243187;0.059324;
1111;732;0.103549;1.126483;0.999995;0.000611;-0.004347;0.010698;0.000612;0.010723;-0.004372;87.674919;0.010784;
1081;597;0.061864;0.434228;0.999998;0.000321;-0.001069;0.002432;0.000227;0.002447;-0.001084;86.307461;0.002452;
1176;1357;-0.903310;81.383194;0.999834;0.003544;-0.020879;0.047361;0.003312;0.047522;-0.021040;87.228088;0.047625;
1146;492;-0.007004;0.232600;1.000000;0.000140;-0.000633;0.001603;-0.000015;0.001604;-0.000633;-89.614844;0.001615;
1091;907;1.067846;6.021096;0.999835;0.002822;-0.024795;0.056112;0.003740;0.056285;-0.024967;87.358793;0.056404;
1046;902;2.125035;5.809050;0.999862;0.002949;-0.024889;0.055559;0.007943;0.056336;-0.025666;84.414936;0.056410;
1116;1697;0.014811;86.083439;1.000000;0.000136;-0.000906;0.001952;-0.000047;0.001953;-0.000906;-89.049504;0.001954;
1191;707;-0.171388;0.902734;0.999994;0.000592;-0.003244;0.008007;-0.001151;0.008123;-0.003360;-84.219640;0.008164;
1041;1547;0.250159;85.577971;0.999996;0.000694;-0.002923;0.007217;-0.001683;0.007489;-0.003195;-80.817313;0.007516;
1091;1252;2.108804;73.615197;0.999530;0.006361;-0.049890;0.119733;-0.005555;0.119915;-0.050072;-88.126189;0.120457;
1061;897;1.672502;5.536159;0.999843;0.004139;-0.023550;0.052708;0.006296;0.053224;-0.024067;85.312065;0.053306;
1126;417;0.002927;0.118125;1.000000;0.000052;-0.000339;0.001443;0.000012;0.001443;-0.000339;89.604971;0.001509;
1136;742;-0.007128;1.238837;0.999994;0.000838;-0.004983;0.012096;-0.000017;0.012096;-0.004983;-89.942997;0.012158;
1151;582;-0.017147;0.402602;0.999999;0.000376;-0.001089;0.002344;-0.000059;0.002345;-0.001090;-89.018711;0.002347;
1036;902;2.377912;5.818891;0.999833;0.003948;-0.025029;0.055941;0.008916;0.056911;-0.025999;83.789753;0.056981;
1216;1662;-0.085562;86.015404;1.000000;0.000160;-0.000864;0.002082;0.000273;0.002107;-0.000889;84.739995;0.002115;
1201;1347;-1.564443;80.876328;0.999856;0.003291;-0.023244;0.052158;0.005777;0.052598;-0.023684;85.644450;0.052685;
1046;907;2.214088;6.079743;0.999830;0.003480;-0.025998;0.058113;0.008109;0.058888;-0.026772;84.543053;0.058969;
1076;1252;2.849773;73.563156;0.999551;0.006197;-0.051026;0.121942;-0.007507;0.122267;-0.051351;-87.519666;0.122788;
1046;1547;0.234267;85.578124;0.999996;0.000748;-0.002899;0.007182;-0.001590;0.007427;-0.003143;-81.246312;0.007456;
1276;672;-0.288458;0.670091;0.999922;0.002196;-0.002133;0.005568;-0.001991;0.006052;-0.002617;-76.330795;0.006070;
1196;707;-0.187969;0.904534;0.999994;0.000756;-0.003263;0.008036;-0.001259;0.008175;-0.003402;-83.716953;0.008213;
1121;1697;0.010378;86.083401;1.000000;0.000100;-0.000907;0.001955;-0.000035;0.001955;-0.000908;-89.290784;0.001957;
1066;897;1.558910;5.530601;0.999848;0.003400;-0.023418;0.052497;0.005809;0.052939;-0.023860;85.649740;0.053025;
1041;892;2.067268;5.315546;0.999870;0.002938;-0.022906;0.050710;0.008115;0.051594;-0.023790;83.783842;0.051646;
1126;422;0.003108;0.125409;1.000000;0.000060;-0.000358;0.001454;0.000011;0.001454;-0.000358;89.636705;0.001515;
1156;582;-0.023101;0.402735;0.999999;0.000298;-0.001085;0.002335;-0.000078;0.002336;-0.001086;-88.691759;0.002338;
1046;897;2.034835;5.548182;0.999874;0.002884;-0.023824;0.053123;0.007763;0.053898;-0.024600;84.296436;0.053967;
1166;1337;-0.835999;80.418938;0.999862;0.003706;-0.024548;0.055679;0.002744;0.055773;-0.024641;88.043443;0.055899;
1041;1252;4.747152;73.176110;0.998610;0.010126;-0.053350;0.129163;-0.013688;0.130184;-0.054371;-85.734844;0.130771;
1011;1797;0.056975;86.239267;1.000000;0.000247;-0.000483;0.001517;-0.000119;0.001524;-0.000490;-86.598695;0.001556;
1051;1547;0.220200;85.578751;0.999996;0.000597;-0.002878;0.007152;-0.001497;0.007370;-0.003097;-81.688618;0.007402;
1071;897;1.448796;5.522564;0.999858;0.003317;-0.023262;0.052316;0.005335;0.052691;-0.023637;85.982323;0.052784;
1126;427;0.003307;0.132667;1.000000;0.000058;-0.000377;0.001465;0.000011;0.001465;-0.000377;89.644389;0.001522;
1071;892;1.386879;5.289988;0.999868;0.003674;-0.022298;0.050103;0.005218;0.050477;-0.022672;85.898844;0.050564;
1256;687;-0.296750;0.767061;0.999995;0.000621;-0.002705;0.006721;-0.002007;0.007131;-0.003114;-78.468158;0.007150;
1011;667;0.233638;0.649321;0.999994;0.000635;-0.002049;0.005311;0.001613;0.005649;-0.002387;78.162599;0.005672;
1161;582;-0.028373;0.402038;0.999999;0.000299;-0.001076;0.002324;-0.000099;0.002327;-0.001079;-88.325447;0.002329;
1081;1742;0.034534;86.160401;1.000000;0.000131;-0.000653;0.001619;-0.000070;0.001622;-0.000655;-88.230354;0.001632;
1046;1252;4.465207;73.247434;0.999519;0.005564;-0.053253;0.128179;-0.012662;0.129058;-0.054132;-86.026968;0.129615;
1171;1337;-0.961344;80.407041;0.999846;0.003509;-0.024598;0.055763;0.003191;0.055889;-0.024725;87.729688;0.056013;
1091;897;0.978959;5.497091;0.999882;0.002721;-0.022830;0.051619;0.003572;0.051790;-0.023001;87.259305;0.051898;
1261;687;-0.309286;0.765616;0.999994;0.000759;-0.002709;0.006739;-0.002086;0.007179;-0.003149;-78.088532;0.007197;
1106;1847;0.007238;86.320358;1.000000;0.000133;-0.000267;0.001406;-0.000045;0.001407;-0.000268;-88.462433;0.001495;
1031;1562;0.226288;85.676685;0.999996;0.000842;-0.002442;0.006156;-0.001586;0.006439;-0.002725;-79.872371;0.006464;
1076;897;1.342874;5.520384;0.999875;0.003730;-0.023158;0.052125;0.004883;0.052441;-0.023473;86.304488;0.052537;
1076;892;1.281880;5.284121;0.999887;0.004441;-0.022199;0.049949;0.004782;0.050265;-0.022515;86.224706;0.050355;
1151;412;-0.005198;0.110868;1.000000;0.000040;-0.000320;0.001435;-0.000025;0.001436;-0.000320;-89.192129;0.001507;
1001;652;0.209857;0.572547;0.999995;0.000525;-0.001644;0.004363;0.001443;0.004692;-0.001972;77.168440;0.004712;
1051;1252;4.185768;73.332674;0.999502;0.006584;-0.053011;0.127041;-0.011694;0.127797;-0.053767;-86.299335;0.128332;
1166;582;-0.033467;0.401674;0.999999;0.000307;-0.001066;0.002312;-0.000118;0.002316;-0.001070;-88.003381;0.002318;
1036;1347;2.245471;80.859413;0.999881;0.003055;-0.024078;0.053244;-0.008626;0.054195;-0.025029;-83.711090;0.054248;
1081;1747;0.033741;86.168629;1.000000;0.000138;-0.000635;0.001610;-0.000067;0.001612;-0.000637;-88.299585;0.001624;
1096;887;0.801189;5.028213;0.999886;0.002366;-0.020925;0.047234;0.003039;0.047370;-0.021060;87.452135;0.047467;
1266;687;-0.323895;0.765558;0.999993;0.000843;-0.002693;0.006746;-0.002160;0.007217;-0.003164;-77.704098;0.007235;
1081;892;1.165947;5.274559;0.999891;0.003571;-0.022090;0.049786;0.004359;0.050049;-0.022353;86.541952;0.050144;
1031;1567;0.211892;85.706523;0.999996;0.000678;-0.002277;0.005813;-0.001503;0.006083;-0.002547;-79.805573;0.006110;
1001;657;0.223394;0.595548;0.999995;0.000529;-0.001780;0.004672;0.001555;0.005027;-0.002135;77.135780;0.005046;
1081;897;1.219412;5.510866;0.999873;0.003397;-0.023041;0.051931;0.004453;0.052195;-0.023305;86.612609;0.052294;
1061;452;0.035319;0.173430;1.000000;0.000166;-0.000492;0.001542;0.000086;0.001546;-0.000496;87.583642;0.001578;
1171;582;-0.038564;0.401401;0.999999;0.000369;-0.001055;0.002297;-0.000136;0.002302;-0.001061;-87.689063;0.002305;
1081;1752;0.032659;86.176852;1.000000;0.000122;-0.000618;0.001601;-0.000065;0.001603;-0.000620;-88.317347;0.001617;
1236;857;-1.660652;3.805057;0.999902;0.002880;-0.016870;0.036837;-0.007065;0.037750;-0.017784;-82.629824;0.037771;
1166;1637;-0.040721;85.946833;1.000000;0.000163;-0.001184;0.002652;0.000159;0.002659;-0.001191;87.627145;0.002664;
1261;1872;-0.023487;86.351463;1.000000;0.000150;-0.000242;0.001453;0.000219;0.001480;-0.000270;82.765952;0.001577;
1096;892;0.833050;5.259698;0.999872;0.002649;-0.021805;0.049376;0.003094;0.049510;-0.021940;87.515874;0.049617;
1036;697;0.274431;0.836904;0.999993;0.000681;-0.003001;0.007384;0.001811;0.007691;-0.003307;80.386654;0.007716;
1311;402;-0.059613;0.118582;1.000000;0.000151;-0.000463;0.001512;-0.000096;0.001517;-0.000467;-87.230341;0.001553;
1086;892;1.050051;5.266882;0.999886;0.002630;-0.021982;0.049652;0.003922;0.049866;-0.022196;86.875557;0.049966;
1116;742;0.094178;1.239324;0.999995;0.000679;-0.004977;0.012028;0.000547;0.012045;-0.004995;88.160190;0.012104;
1086;897;1.094190;5.497147;0.999871;0.002980;-0.022921;0.051781;0.004004;0.051995;-0.023135;86.940606;0.052100;
1086;1752;0.029986;86.177070;1.000000;0.000156;-0.000621;0.001601;-0.000060;0.001603;-0.000622;-88.462157;0.001616;
1176;572;-0.042345;0.377472;0.999998;0.000384;-0.000999;0.002167;-0.000140;0.002174;-0.001005;-87.481194;0.002176;
1261;427;-0.050477;0.141419;1.000000;0.000119;-0.000439;0.001512;-0.000129;0.001520;-0.000447;-86.223831;0.001563;
1216;872;-1.514352;4.381778;0.999904;0.003256;-0.019002;0.042029;-0.006171;0.042646;-0.019620;-84.284205;0.042692;
1136;422;-0.000356;0.125306;1.000000;0.000044;-0.000358;0.001453;-0.000003;0.001453;-0.000358;-89.908514;0.001514;
1001;1642;0.128842;85.991895;1.000000;0.000254;-0.000675;0.002021;-0.000548;0.002129;-0.000782;-78.939171;0.002153;
1076;882;1.170543;4.810297;0.999891;0.002988;-0.020392;0.045619;0.004593;0.045937;-0.020710;86.038999;0.046011;
1031;692;0.267689;0.800691;0.999993;0.000743;-0.002841;0.006998;0.001807;0.007319;-0.003162;79.916427;0.007342;
1091;892;0.941611;5.258390;0.999886;0.002422;-0.021896;0.049509;0.003500;0.049680;-0.022067;87.200301;0.049783;
1046;892;1.948133;5.312092;0.999859;0.003463;-0.022807;0.050649;0.007624;0.051431;-0.023590;84.136549;0.051490;
1091;462;0.022219;0.186321;1.000000;0.000166;-0.000518;0.001550;0.000050;0.001551;-0.000519;88.620162;0.001579;
1096;717;0.136337;0.985904;0.999995;0.000459;-0.003597;0.008938;0.000842;0.008994;-0.003653;86.173735;0.009047;
1176;577;-0.043418;0.388825;0.999998;0.000387;-0.001021;0.002224;-0.000146;0.002230;-0.001027;-87.433400;0.002232;
966;407;0.058926;0.123449;1.000000;0.000118;-0.000510;0.001502;0.000096;0.001506;-0.000514;87.283278;0.001531;
1221;872;-1.603473;4.387995;0.999885;0.003428;-0.019060;0.042025;-0.006573;0.042724;-0.019759;-83.927132;0.042764;
1186;1722;-0.040578;86.127132;1.000000;0.000105;-0.000730;0.001700;0.000099;0.001704;-0.000734;87.680809;0.001709;
1131;422;0.001458;0.125360;1.000000;0.000054;-0.000358;0.001453;0.000004;0.001453;-0.000358;89.862308;0.001515;
1006;1642;0.125880;85.990386;1.000000;0.000272;-0.000693;0.002059;-0.000520;0.002154;-0.000788;-79.643935;0.002179;
1081;882;1.065734;4.806144;0.999909;0.002809;-0.020312;0.045485;0.004188;0.045751;-0.020577;86.372231;0.045828;
1076;887;1.224929;5.052953;0.999893;0.003542;-0.021270;0.047723;0.004703;0.048043;-0.021589;86.118200;0.048125;
1051;892;1.842101;5.308269;0.999858;0.003945;-0.022690;0.050565;0.007146;0.051256;-0.023381;84.479944;0.051322;
1111;737;0.110949;1.180630;0.999994;0.000555;-0.004652;0.011335;0.000643;0.011361;-0.004678;87.700359;0.011420;
1176;717;-0.144436;0.987598;0.999995;0.000586;-0.003634;0.009018;-0.000954;0.009090;-0.003706;-85.711619;0.009141;
1191;477;-0.031820;0.210489;1.000000;0.000162;-0.000563;0.001577;-0.000067;0.001579;-0.000565;-88.214123;0.001601;
1176;582;-0.044714;0.400121;0.999998;0.000443;-0.001042;0.002279;-0.000155;0.002286;-0.001049;-87.336519;0.002289;
971;407;0.056859;0.121554;1.000000;0.000142;-0.000495;0.001511;0.000098;0.001515;-0.000499;87.217435;0.001544;
1081;1737;0.035378;86.152270;1.000000;0.000137;-0.000671;0.001632;-0.000075;0.001635;-0.000674;-88.135444;0.001643;
1131;427;0.001436;0.132683;1.000000;0.000057;-0.000377;0.001465;0.000004;0.001465;-0.000377;89.863775;0.001521;
1011;1642;0.122173;85.989232;1.000000;0.000188;-0.000722;0.002082;-0.000501;0.002169;-0.000809;-80.165861;0.002192;
1146;902;-0.270726;5.726714;0.999879;0.002645;-0.023385;0.053054;-0.000976;0.053066;-0.023398;-89.268703;0.053189;
1086;882;0.958521;4.801470;0.999909;0.002890;-0.020237;0.045381;0.003778;0.045597;-0.020454;86.715822;0.045678;
1056;892;1.722064;5.300737;0.999842;0.003489;-0.022623;0.050468;0.006664;0.051071;-0.023226;84.833263;0.051140;
1081;887;1.119987;5.044035;0.999910;0.003387;-0.021176;0.047579;0.004287;0.047845;-0.021443;86.446132;0.047931;
1176;722;-0.155025;1.033487;0.999995;0.000536;-0.003877;0.009604;-0.001000;0.009678;-0.003950;-85.782098;0.009732;
1026;682;0.247804;0.737187;0.999995;0.000515;-0.002507;0.006271;0.001685;0.006583;-0.002819;79.498945;0.006606;
1176;567;-0.041525;0.366764;0.999998;0.000437;-0.000976;0.002115;-0.000133;0.002120;-0.000981;-87.539944;0.002122;
1206;452;-0.033858;0.173105;1.000000;0.000145;-0.000484;0.001537;-0.000086;0.001540;-0.000488;-87.561193;0.001574;
1086;1757;0.028514;86.184909;1.000000;0.000132;-0.000603;0.001593;-0.000058;0.001594;-0.000604;-88.484377;0.001610;
1051;452;0.040233;0.174537;1.000000;0.000119;-0.000493;0.001545;0.000097;0.001550;-0.000498;87.286060;0.001582;
1016;1642;0.118575;85.987244;1.000000;0.000143;-0.000752;0.002110;-0.000482;0.002189;-0.000831;-80.688293;0.002210;
1036;892;2.186272;5.326984;0.999889;0.002780;-0.022938;0.050714;0.008610;0.051707;-0.023932;83.420423;0.051755;
1091;882;0.866081;4.800933;0.999900;0.002819;-0.020169;0.045275;0.003364;0.045448;-0.020341;87.064974;0.045531;
1171;422;-0.012896;0.125838;1.000000;0.000068;-0.000365;0.001460;-0.000053;0.001462;-0.000367;-88.334805;0.001521;
1166;867;-0.542231;4.168091;0.999898;0.003108;-0.017607;0.039793;-0.002202;0.039877;-0.017691;-87.806456;0.039962;
1086;887;1.007904;5.037648;0.999900;0.003108;-0.021086;0.047465;0.003859;0.047681;-0.021303;86.787776;0.047771;
1176;727;-0.165989;1.078963;0.999995;0.000704;-0.004138;0.010195;-0.001047;0.010271;-0.004214;-85.845985;0.010326;
1166;732;-0.132768;1.128735;0.999994;0.000580;-0.004393;0.010786;-0.000849;0.010833;-0.004441;-86.809971;0.010892;
1171;562;-0.035500;0.356659;0.999998;0.000475;-0.000962;0.002086;-0.000112;0.002090;-0.000966;-87.902912;0.002092;
981;417;0.057826;0.133750;1.000000;0.000172;-0.000435;0.001517;0.000102;0.001522;-0.000440;87.026023;0.001567;
1036;897;2.284868;5.567464;0.999859;0.003821;-0.023956;0.053379;0.008745;0.054356;-0.024932;83.627989;0.054418;
1056;452;0.037522;0.173989;1.000000;0.000128;-0.000494;0.001545;0.000091;0.001549;-0.000498;87.455929;0.001581;
1031;887;2.202004;5.063616;0.998215;0.011285;-0.021983;0.048114;0.008921;0.049231;-0.023100;82.859520;0.049262;
1021;1642;0.115239;85.985339;1.000000;0.000136;-0.000783;0.002140;-0.000463;0.002211;-0.000855;-81.205721;0.002230;
1096;882;0.766792;4.798652;0.999893;0.002628;-0.020083;0.045187;0.002971;0.045322;-0.020218;87.398977;0.045410;
1171;427;-0.013578;0.133169;1.000000;0.000090;-0.000384;0.001471;-0.000052;0.001473;-0.000386;-88.407675;0.001527;
1186;1702;-0.046194;86.091850;1.000000;0.000158;-0.000818;0.001837;0.000126;0.001843;-0.000824;87.280401;0.001846;
1051;877;1.620637;4.597249;0.999873;0.002970;-0.019920;0.044139;0.006544;0.044800;-0.020581;84.226680;0.044850;
1276;677;-0.306641;0.703519;0.999904;0.002971;-0.002287;0.005862;-0.002130;0.006385;-0.002810;-76.199259;0.006400;
1171;732;-0.155565;1.130350;0.999994;0.000774;-0.004399;0.010793;-0.000979;0.010855;-0.004462;-86.329408;0.010913;
986;417;0.055685;0.131783;1.000000;0.000137;-0.000431;0.001520;0.000114;0.001527;-0.000438;86.672240;0.001572;
1031;892;2.305167;5.310126;0.996851;0.014259;-0.022983;0.050606;0.009118;0.051719;-0.024096;83.040731;0.051759;
1086;877;0.919271;4.576854;0.999920;0.002995;-0.019410;0.043582;0.003664;0.043795;-0.019623;86.681978;0.043873;
1071;882;1.276234;4.811397;0.999876;0.003040;-0.020461;0.045741;0.005006;0.046117;-0.020837;85.700209;0.046188;
1086;597;0.056335;0.435971;0.999998;0.000350;-0.001087;0.002452;0.000208;0.002464;-0.001099;86.640987;0.002469;
1021;1647;0.112883;85.994724;1.000000;0.000141;-0.000747;0.002040;-0.000424;0.002103;-0.000810;-81.540540;0.002122;
1171;432;-0.014213;0.140550;1.000000;0.000097;-0.000403;0.001484;-0.000050;0.001485;-0.000404;-88.487748;0.001535;
1056;877;1.515084;4.595416;0.999875;0.003236;-0.019846;0.044160;0.006172;0.044750;-0.020436;84.542312;0.044806;
1156;1777;-0.012105;86.217366;1.000000;0.000095;-0.000531;0.001552;0.000027;0.001552;-0.000531;89.256444;0.001578;
1026;687;0.264617;0.767892;0.999994;0.000735;-0.002681;0.006658;0.001781;0.006986;-0.003009;79.561685;0.007009;
1226;697;-0.248761;0.832073;0.999995;0.000719;-0.002976;0.007341;-0.001702;0.007615;-0.003249;-80.872199;0.007642;
1036;887;2.087416;5.073134;0.999876;0.002659;-0.021929;0.048280;0.008427;0.049277;-0.022926;83.250837;0.049317;
961;407;0.060973;0.125618;1.000000;0.000127;-0.000527;0.001489;0.000092;0.001494;-0.000531;87.383667;0.001514;
1036;442;0.044085;0.160764;1.000000;0.000144;-0.000469;0.001536;0.000114;0.001543;-0.000475;86.752379;0.001580;
1091;877;0.826953;4.577124;0.999912;0.003059;-0.019347;0.043482;0.003268;0.043652;-0.019517;87.030584;0.043733;
1226;867;-1.627567;4.194283;0.999900;0.003735;-0.018330;0.040155;-0.006751;0.040924;-0.019099;-83.500025;0.040954;
1096;897;0.870446;5.501459;0.999857;0.002979;-0.022746;0.051471;0.003159;0.051605;-0.022880;87.567274;0.051716;
1151;417;-0.005419;0.118026;1.000000;0.000050;-0.000339;0.001444;-0.000025;0.001444;-0.000339;-89.183357;0.001511;
1091;597;0.051891;0.437522;0.999998;0.000603;-0.001099;0.002471;0.000188;0.002481;-0.001109;86.993539;0.002485;
1096;1717;0.028962;86.120231;1.000000;0.000106;-0.000777;0.001748;-0.000077;0.001750;-0.000780;-88.256352;0.001754;
1041;887;1.976495;5.067150;0.999866;0.003126;-0.021893;0.048330;0.007944;0.049218;-0.022780;83.625901;0.049263;
1231;1652;-0.102147;85.998194;1.000000;0.000176;-0.000822;0.002107;0.000357;0.002149;-0.000865;83.155151;0.002163;
1021;672;0.225446;0.676989;0.999995;0.000585;-0.002195;0.005589;0.001569;0.005893;-0.002499;79.024179;0.005916;
1231;697;-0.263555;0.832208;0.999993;0.000698;-0.002998;0.007384;-0.001792;0.007684;-0.003299;-80.479183;0.007710;
1096;462;0.019555;0.186145;1.000000;0.000158;-0.000515;0.001547;0.000044;0.001548;-0.000516;88.785166;0.001576;
1041;442;0.042027;0.160362;1.000000;0.000138;-0.000467;0.001535;0.000112;0.001542;-0.000473;86.813305;0.001579;
1076;877;1.122348;4.579357;0.999907;0.002697;-0.019545;0.043805;0.004449;0.044116;-0.019856;86.002415;0.044189;
1101;882;0.665626;4.800676;0.999903;0.002845;-0.019971;0.045114;0.002584;0.045216;-0.020073;87.729810;0.045311;
1181;882;-0.927896;4.795367;0.999887;0.002186;-0.020196;0.045339;-0.003613;0.045537;-0.020395;-86.854302;0.045620;
1151;587;-0.017636;0.414251;0.999999;0.000419;-0.001115;0.002403;-0.000061;0.002404;-0.001116;-89.005178;0.002406;
1071;887;1.335576;5.052622;0.999872;0.003443;-0.021351;0.047855;0.005130;0.048233;-0.021729;85.783319;0.048312;
1176;1762;-0.025500;86.192860;1.000000;0.000098;-0.000586;0.001585;0.000052;0.001587;-0.000587;88.640930;0.001604;
1236;1652;-0.106141;85.999524;1.000000;0.000200;-0.000794;0.002072;0.000370;0.002119;-0.000841;82.770381;0.002133;
1021;677;0.243123;0.705900;0.999995;0.000569;-0.002340;0.005932;0.001670;0.006257;-0.002664;79.006352;0.006280;
1201;702;-0.190374;0.869354;0.999993;0.000626;-0.003072;0.007594;-0.001295;0.007749;-0.003227;-83.174950;0.007785;
1286;417;-0.056966;0.132953;1.000000;0.000160;-0.000434;0.001509;-0.000106;0.001515;-0.000440;-86.899697;0.001559;
1046;442;0.039669;0.159604;1.000000;0.000151;-0.000463;0.001534;0.000108;0.001539;-0.000468;86.925516;0.001578;
1106;882;0.564068;4.802672;0.999921;0.003793;-0.019879;0.045047;0.002191;0.045121;-0.019953;88.068982;0.045221;
1101;887;0.693549;5.028473;0.999903;0.003100;-0.020817;0.047132;0.002645;0.047234;-0.020920;87.774398;0.047337;
1211;882;-1.547721;4.808781;0.999876;0.002692;-0.020686;0.045868;-0.006163;0.046434;-0.021252;-84.754001;0.046490;
1036;1562;0.215101;85.676877;0.999996;0.000755;-0.002424;0.006118;-0.001501;0.006374;-0.002680;-80.318471;0.006401;
1271;687;-0.336320;0.764494;0.999992;0.000951;-0.002670;0.006735;-0.002225;0.007235;-0.003170;-77.340206;0.007254;
1156;587;-0.023479;0.413748;0.999999;0.000302;-0.001109;0.002392;-0.000082;0.002394;-0.001111;-88.665160;0.002396;
1091;887;0.903469;5.032593;0.999894;0.002471;-0.021011;0.047341;0.003441;0.047514;-0.021184;87.125705;0.047607;
1076;1747;0.037049;86.168554;1.000000;0.000110;-0.000631;0.001611;-0.000072;0.001613;-0.000634;-88.168715;0.001625;
1241;1652;-0.109730;86.001057;1.000000;0.000164;-0.000764;0.002038;0.000383;0.002090;-0.000816;82.348868;0.002106;
946;412;0.078652;0.137545;0.999957;0.001693;-0.000663;0.001416;0.000068;0.001418;-0.000665;88.133673;0.001419;
1036;632;0.128416;0.512002;0.999994;0.000725;-0.001206;0.003209;0.000728;0.003326;-0.001323;80.871014;0.003349;
1106;887;0.587255;5.028020;0.999920;0.004371;-0.020720;0.047047;0.002242;0.047121;-0.020794;88.107115;0.047229;
1021;442;0.051949;0.162584;1.000000;0.000203;-0.000471;0.001535;0.000123;0.001542;-0.000479;86.513080;0.001579;
1101;892;0.721402;5.254523;0.999899;0.002868;-0.021702;0.049235;0.002691;0.049337;-0.021804;87.830270;0.049447;
1111;907;0.578461;6.012132;0.999832;0.003781;-0.024353;0.055605;0.001943;0.055652;-0.024400;88.609001;0.055792;
1056;1547;0.206845;85.577202;0.999995;0.000513;-0.002866;0.007125;-0.001404;0.007318;-0.003059;-82.152824;0.007351;
1161;587;-0.028755;0.414473;0.999999;0.000251;-0.001099;0.002380;-0.000104;0.002383;-0.001102;-88.283065;0.002386;
1156;737;-0.097109;1.185055;0.999995;0.000664;-0.004676;0.011426;-0.000601;0.011449;-0.004698;-87.863758;0.011510;
951;412;0.068502;0.137979;1.000000;0.000170;-0.000606;0.001449;0.000072;0.001451;-0.000608;87.985287;0.001458;
1111;872;0.427423;4.367465;0.999940;0.002215;-0.018230;0.041465;0.001681;0.041512;-0.018277;88.388714;0.041611;
1076;1752;0.035647;86.176516;1.000000;0.000085;-0.000615;0.001602;-0.000070;0.001604;-0.000617;-88.183401;0.001618;
1206;1712;-0.058514;86.108749;1.000000;0.000146;-0.000721;0.001718;0.000139;0.001726;-0.000729;86.755112;0.001733;
1031;882;2.124741;4.815204;0.998977;0.007783;-0.021083;0.045687;0.008571;0.046769;-0.022166;82.800555;0.046790;
1106;892;0.611189;5.248841;0.999910;0.003487;-0.021595;0.049115;0.002280;0.049188;-0.021668;88.155211;0.049304;
1251;682;-0.263530;0.732943;0.999994;0.000610;-0.002516;0.006300;-0.001837;0.006668;-0.002884;-78.687457;0.006688;
1026;442;0.049105;0.162175;1.000000;0.000169;-0.000470;0.001535;0.000119;0.001542;-0.000477;86.606720;0.001579;
1216;877;-1.576939;4.595754;0.999864;0.002807;-0.019812;0.043974;-0.006415;0.044613;-0.020451;-84.313612;0.044664;
956;412;0.066003;0.135192;1.000000;0.000170;-0.000568;0.001470;0.000076;0.001473;-0.000571;87.873123;0.001485;
1011;1577;0.226962;85.768208;0.999994;0.000633;-0.002015;0.005245;-0.001594;0.005579;-0.002349;-78.147407;0.005602;
1166;587;-0.033991;0.414608;0.999999;0.000303;-0.001089;0.002368;-0.000125;0.002372;-0.001093;-87.935778;0.002375;
1161;737;-0.119697;1.186117;0.999994;0.000660;-0.004672;0.011429;-0.000749;0.011464;-0.004707;-87.342664;0.011525;
1111;877;0.445116;4.574318;0.999918;0.002748;-0.019015;0.043197;0.001726;0.043245;-0.019063;88.412120;0.043346;
1076;1757;0.034300;86.184476;1.000000;0.000097;-0.000599;0.001594;-0.000069;0.001596;-0.000601;-88.197628;0.001612;
1036;882;2.006683;4.825964;0.999869;0.002952;-0.021016;0.045953;0.008099;0.046919;-0.021982;83.201414;0.046950;
1211;1712;-0.062228;86.108121;1.000000;0.000160;-0.000709;0.001708;0.000143;0.001716;-0.000717;86.631353;0.001724;
1096;877;0.728035;4.576175;0.999900;0.003134;-0.019259;0.043396;0.002892;0.043529;-0.019392;87.363154;0.043615;
1221;877;-1.673797;4.589510;0.999843;0.002935;-0.019869;0.044021;-0.006840;0.044745;-0.020593;-83.956951;0.044793;
1181;717;-0.161135;0.987766;0.999995;0.000667;-0.003650;0.009034;-0.001068;0.009123;-0.003739;-85.220810;0.009172;
1031;442;0.046463;0.161552;1.000000;0.000145;-0.000470;0.001536;0.000116;0.001542;-0.000477;86.706833;0.001579;
1001;1577;0.246680;85.768341;0.999996;0.000526;-0.002029;0.005272;-0.001733;0.005662;-0.002419;-77.302896;0.005682;
1016;432;0.049530;0.148204;1.000000;0.000163;-0.000446;0.001524;0.000130;0.001533;-0.000454;86.240272;0.001575;
1071;1252;3.115204;73.519235;0.999532;0.006492;-0.051635;0.123084;-0.008191;0.123467;-0.052018;-87.321746;0.123976;
1171;587;-0.039631;0.413287;0.999999;0.000424;-0.001078;0.002353;-0.000144;0.002359;-0.001084;-87.599371;0.002361;
1111;882;0.465927;4.796974;0.999916;0.003499;-0.019829;0.044982;0.001781;0.045031;-0.019878;88.426730;0.045134;
991;612;0.148869;0.438248;0.999995;0.000584;-0.000805;0.002303;0.000764;0.002481;-0.000983;76.908919;0.002499;
1081;1757;0.031484;86.184827;1.000000;0.000114;-0.000601;0.001593;-0.000064;0.001595;-0.000602;-88.331248;0.001611;
1081;877;1.015461;4.578202;0.999924;0.002501;-0.019474;0.043685;0.004055;0.043945;-0.019733;86.341094;0.044021;
1041;1347;2.123400;80.869582;0.999875;0.003564;-0.023948;0.053162;-0.008147;0.054014;-0.024799;-84.034108;0.054074;
1156;412;-0.006786;0.111020;1.000000;0.000049;-0.000321;0.001436;-0.000032;0.001437;-0.000322;-88.952201;0.001508;
1026;1812;0.044293;86.264962;1.000000;0.000152;-0.000444;0.001514;-0.000127;0.001522;-0.000452;-86.313843;0.001563;
1231;862;-1.644809;3.992773;0.999902;0.002896;-0.017620;0.038533;-0.006882;0.039364;-0.018451;-83.113386;0.039390;
1101;877;0.635656;4.578401;0.999904;0.002470;-0.019147;0.043329;0.002518;0.043430;-0.019249;87.695868;0.043523;
976;412;0.057274;0.127500;1.000000;0.000108;-0.000433;0.001520;0.000094;0.001524;-0.000438;87.254539;0.001570;
1156;417;-0.007095;0.118074;1.000000;0.000053;-0.000340;0.001445;-0.000033;0.001446;-0.000341;-88.955025;0.001511;
1031;1557;0.244973;85.646103;0.999996;0.000922;-0.002613;0.006513;-0.001675;0.006810;-0.002911;-79.919218;0.006834;
1016;437;0.052020;0.155997;1.000000;0.000212;-0.000460;0.001529;0.000126;0.001537;-0.000468;86.395775;0.001576;
1176;587;-0.045958;0.412612;0.999998;0.000439;-0.001064;0.002335;-0.000164;0.002343;-0.001072;-87.236942;0.002346;
1176;712;-0.133606;0.943079;0.999995;0.000675;-0.003402;0.008452;-0.000897;0.008520;-0.003469;-85.697916;0.008569;
1236;862;-1.738611;3.991646;0.999902;0.003102;-0.017645;0.038471;-0.007236;0.039389;-0.018563;-82.769299;0.039411;
1111;887;0.486210;5.023164;0.999908;0.003697;-0.020664;0.046971;0.001821;0.047020;-0.020713;88.459113;0.047131;
1106;877;0.537862;4.578902;0.999922;0.002724;-0.019063;0.043264;0.002132;0.043337;-0.019136;88.043253;0.043436;
1161;412;-0.008431;0.111134;1.000000;0.000054;-0.000323;0.001437;-0.000040;0.001438;-0.000324;-88.711174;0.001508;
1031;1812;0.042334;86.265357;1.000000;0.000191;-0.000438;0.001513;-0.000123;0.001520;-0.000446;-86.406289;0.001563;
1261;1877;-0.020520;86.358450;1.000000;0.000144;-0.000217;0.001443;0.000226;0.001473;-0.000247;82.392212;0.001578;
1161;417;-0.008908;0.118190;1.000000;0.000063;-0.000342;0.001446;-0.000040;0.001447;-0.000343;-88.724084;0.001512;
991;417;0.053459;0.130534;1.000000;0.000106;-0.000426;0.001522;0.000123;0.001529;-0.000434;86.404768;0.001576;
1036;1557;0.231488;85.646828;0.999997;0.000696;-0.002593;0.006475;-0.001586;0.006744;-0.002863;-80.362372;0.006770;
1006;417;0.047233;0.127403;1.000000;0.000123;-0.000413;0.001518;0.000140;0.001528;-0.000423;85.870484;0.001578;
1181;712;-0.149713;0.941847;0.999995;0.000819;-0.003418;0.008475;-0.001002;0.008559;-0.003502;-85.217963;0.008605;
1146;577;-0.011781;0.390808;0.999998;0.000364;-0.001065;0.002293;-0.000039;0.002294;-0.001066;-89.337282;0.002295;
1166;872;-0.572400;4.361140;0.999875;0.002833;-0.018365;0.041462;-0.002259;0.041548;-0.018450;-87.840265;0.041634;
1111;892;0.503719;5.246242;0.999913;0.003950;-0.021523;0.049010;0.001850;0.049058;-0.021572;88.498739;0.049177;
1101;897;0.753830;5.494869;0.999874;0.002660;-0.022644;0.051321;0.002747;0.051423;-0.022746;87.876215;0.051537;
1141;412;-0.002006;0.110849;1.000000;0.000048;-0.000319;0.001434;-0.000009;0.001434;-0.000319;-89.707384;0.001506;
1146;417;-0.003738;0.117876;1.000000;0.000041;-0.000338;0.001443;-0.000018;0.001443;-0.000338;-89.436689;0.001509;
996;417;0.051497;0.129339;1.000000;0.000118;-0.000421;0.001520;0.000129;0.001529;-0.000429;86.227650;0.001577;
1036;1812;0.039865;86.266040;0.999999;0.000190;-0.000432;0.001511;-0.000119;0.001518;-0.000439;-86.499236;0.001562;
1261;1882;-0.017706;86.365350;1.000000;0.000155;-0.000191;0.001439;0.000231;0.001471;-0.000223;82.079239;0.001586;
1036;1552;0.247581;85.614011;0.999997;0.000544;-0.002766;0.006853;-0.001679;0.007138;-0.003050;-80.375151;0.007163;
1006;422;0.049715;0.135129;1.000000;0.000135;-0.000425;0.001520;0.000135;0.001530;-0.000434;86.042542;0.001576;
1166;877;-0.599558;4.572722;0.999880;0.002482;-0.019146;0.043199;-0.002321;0.043285;-0.019232;-87.870823;0.043375;
1186;712;-0.166625;0.941663;0.999995;0.000890;-0.003440;0.008499;-0.001109;0.008601;-0.003542;-84.738539;0.008645;
1091;872;0.797818;4.370174;0.999907;0.003018;-0.018533;0.041729;0.003191;0.041897;-0.018702;86.977601;0.041977;
1216;1342;-2.004705;80.594228;0.999875;0.003139;-0.024582;0.054884;0.007325;0.055553;-0.025251;84.777291;0.055630;
1261;1887;-0.015084;86.371992;1.000000;0.000142;-0.000164;0.001434;0.000237;0.001468;-0.000199;81.741270;0.001593;
1166;417;-0.010535;0.118353;1.000000;0.000055;-0.000344;0.001447;-0.000047;0.001449;-0.000346;-88.502577;0.001513;
1001;417;0.049418;0.128277;1.000000;0.000117;-0.000419;0.001519;0.000135;0.001528;-0.000428;86.047077;0.001577;
1106;897;0.638976;5.485961;0.999875;0.003117;-0.022521;0.051188;0.002328;0.051261;-0.022595;88.192561;0.051381;
1096;1852;0.009401;86.327527;1.000000;0.000184;-0.000252;0.001401;-0.000064;0.001404;-0.000254;-87.789008;0.001496;
1036;1547;0.264110;85.577875;0.999996;0.000683;-0.002947;0.007253;-0.001775;0.007554;-0.003247;-80.403859;0.007578;
1146;412;-0.003560;0.110875;1.000000;0.000035;-0.000319;0.001434;-0.000017;0.001434;-0.000319;-89.449631;0.001506;
1151;887;-0.336929;5.015048;0.999880;0.003473;-0.020667;0.046979;-0.001271;0.047002;-0.020691;-88.923653;0.047114;
1186;717;-0.179161;0.987839;0.999995;0.000927;-0.003670;0.009053;-0.001182;0.009162;-0.003779;-84.735190;0.009208;
1051;457;0.041773;0.182244;1.000000;0.000138;-0.000508;0.001554;0.000096;0.001558;-0.000513;87.343540;0.001589;
1096;872;0.706597;4.370239;0.999907;0.003203;-0.018456;0.041651;0.002823;0.041783;-0.018588;87.317248;0.041868;
1296;1902;-0.010065;86.393168;0.999999;0.000208;-0.000149;0.001591;0.000344;0.001657;-0.000214;79.199977;0.001803;
1221;1342;-2.121213;80.603033;0.999866;0.003585;-0.024693;0.055075;0.007790;0.055829;-0.025447;84.473876;0.055901;
1141;417;-0.002084;0.117928;1.000000;0.000042;-0.000338;0.001442;-0.000010;0.001442;-0.000338;-89.694025;0.001508;
1076;872;1.074156;4.376005;0.999918;0.002643;-0.018725;0.042024;0.004325;0.042330;-0.019031;85.947673;0.042402;
996;1572;0.274766;85.742262;0.999996;0.000566;-0.002156;0.005539;-0.001904;0.005984;-0.002602;-76.835261;0.006001;
1101;1852;0.008002;86.327427;1.000000;0.000182;-0.000249;0.001400;-0.000054;0.001401;-0.000251;-88.117518;0.001495;
1136;412;-0.000463;0.110848;1.000000;0.000054;-0.000319;0.001434;-0.000002;0.001434;-0.000319;-89.949348;0.001505;
1056;457;0.039299;0.181857;1.000000;0.000130;-0.000510;0.001554;0.000089;0.001557;-0.000514;87.522432;0.001587;
1301;1902;-0.010616;86.391780;0.999999;0.000224;-0.000156;0.001630;0.000362;0.001701;-0.000226;78.966632;0.001847;
1186;722;-0.191839;1.034686;0.999994;0.000904;-0.003913;0.009633;-0.001242;0.009746;-0.004026;-84.806180;0.009795;
1151;892;-0.352614;5.244197;0.999885;0.003446;-0.021548;0.048943;-0.001321;0.048968;-0.021572;-88.926409;0.049083;
1226;1342;-2.247269;80.598172;0.999857;0.004585;-0.024782;0.055276;0.008291;0.056126;-0.025631;84.148953;0.056196;
1106;867;0.496942;4.183382;0.999934;0.002604;-0.017518;0.039781;0.002014;0.039851;-0.017589;87.989113;0.039943;
971;417;0.062036;0.136554;1.000000;0.000125;-0.000523;0.001494;0.000087;0.001498;-0.000527;87.533670;0.001520;
1121;412;0.004262;0.110891;1.000000;0.000048;-0.000319;0.001435;0.000020;0.001435;-0.000320;89.330888;0.001507;
1081;872;0.984279;4.371146;0.999926;0.002743;-0.018659;0.041917;0.003942;0.042173;-0.018915;86.292188;0.042247;
996;1577;0.258012;85.769597;0.999996;0.000587;-0.002027;0.005270;-0.001800;0.005690;-0.002447;-76.869301;0.005708;
1306;1902;-0.011916;86.389940;0.999999;0.000244;-0.000164;0.001671;0.000380;0.001747;-0.000239;78.741268;0.001894;
1106;1852;0.006587;86.327998;1.000000;0.000180;-0.000247;0.001398;-0.000047;0.001399;-0.000248;-88.366551;0.001494;
1131;412;0.001126;0.110874;1.000000;0.000048;-0.000319;0.001434;0.000006;0.001434;-0.000319;89.810909;0.001506;
986;647;0.212642;0.546620;0.999871;0.002995;-0.001488;0.004005;0.001497;0.004387;-0.001869;75.700309;0.004403;
1036;1342;2.337928;80.610907;0.999855;0.003427;-0.025166;0.055608;-0.008835;0.056563;-0.026121;-83.830249;0.056618;
1061;457;0.036674;0.181364;1.000000;0.000139;-0.000509;0.001552;0.000085;0.001555;-0.000513;87.654692;0.001585;
1151;897;-0.370219;5.477838;0.999886;0.003069;-0.022468;0.050968;-0.001355;0.050993;-0.022493;-88.942939;0.051110;
1111;867;0.411639;4.182805;0.999942;0.002104;-0.017483;0.039727;0.001623;0.039773;-0.017529;88.376356;0.039866;
1001;1572;0.261892;85.741166;0.999996;0.000479;-0.002164;0.005562;-0.001836;0.005976;-0.002578;-77.291757;0.005995;
1166;487;-0.019015;0.224828;1.000000;0.000178;-0.000607;0.001593;-0.000040;0.001594;-0.000608;-88.956343;0.001609;
1121;417;0.004609;0.118063;1.000000;0.000057;-0.000339;0.001444;0.000020;0.001444;-0.000340;89.368872;0.001510;
1086;872;0.887150;4.371618;0.999921;0.002673;-0.018594;0.041819;0.003567;0.042029;-0.018804;86.633004;0.042106;
1256;1867;-0.025058;86.344325;1.000000;0.000182;-0.000255;0.001454;0.000206;0.001478;-0.000279;83.232875;0.001570;
991;647;0.211999;0.548261;0.999995;0.000641;-0.001514;0.004048;0.001448;0.004403;-0.001868;76.244237;0.004420;
1041;1342;2.210206;80.617062;0.999853;0.003204;-0.025013;0.055495;-0.008358;0.056353;-0.025871;-84.135213;0.056416;
1166;412;-0.010020;0.111286;1.000000;0.000057;-0.000326;0.001438;-0.000047;0.001440;-0.000327;-88.478261;0.001509;
991;1657;0.124767;86.021142;1.000000;0.000199;-0.000536;0.001695;-0.000438;0.001777;-0.000618;-79.284551;0.001805;
1151;877;-0.307576;4.566103;0.999886;0.002571;-0.019010;0.043082;-0.001220;0.043106;-0.019034;-88.874458;0.043204;
976;417;0.059873;0.134940;1.000000;0.000130;-0.000438;0.001512;0.000088;0.001516;-0.000442;87.432209;0.001559;
1116;867;0.323547;4.180496;0.999948;0.001659;-0.017463;0.039683;0.001234;0.039709;-0.017490;88.763890;0.039803;
1006;1572;0.252097;85.742330;0.999996;0.000642;-0.002160;0.005565;-0.001765;0.005949;-0.002544;-77.722435;0.005969;
1031;542;0.083544;0.321649;0.999998;0.000368;-0.000663;0.001683;0.000194;0.001699;-0.000679;85.295000;0.001710;
1166;492;-0.019607;0.233445;1.000000;0.000167;-0.000627;0.001605;-0.000042;0.001606;-0.000628;-88.923086;0.001619;
1141;407;-0.001880;0.103699;1.000000;0.000051;-0.000300;0.001424;-0.000009;0.001424;-0.000300;-89.706960;0.001502;
1101;872;0.609294;4.369096;0.999909;0.002525;-0.018349;0.041588;0.002457;0.041689;-0.018450;87.656368;0.041781;
1256;1872;-0.022133;86.351800;1.000000;0.000192;-0.000230;0.001440;0.000213;0.001467;-0.000257;82.861967;0.001567;
991;607;0.144407;0.428478;0.999995;0.000660;-0.000732;0.002132;0.000682;0.002286;-0.000886;77.273375;0.002305;
1096;1252;1.852657;73.645674;0.999528;0.006559;-0.049576;0.119254;-0.004936;0.119398;-0.049720;-88.326923;0.119953;
1126;412;0.002691;0.110900;1.000000;0.000040;-0.000319;0.001434;0.000013;0.001434;-0.000319;89.571987;0.001506;
1151;882;-0.321491;4.788085;0.999893;0.002991;-0.019823;0.044959;-0.001243;0.044983;-0.019847;-88.900947;0.045086;
1116;872;0.332043;4.370210;0.999945;0.002106;-0.018217;0.041416;0.001282;0.041443;-0.018244;88.768791;0.041542;
1071;462;0.032546;0.187754;1.000000;0.000148;-0.000522;0.001556;0.000075;0.001558;-0.000524;87.948207;0.001586;
966;412;0.061462;0.130707;1.000000;0.000133;-0.000522;0.001496;0.000082;0.001499;-0.000526;87.667165;0.001522;
1146;407;-0.003398;0.103694;1.000000;0.000042;-0.000299;0.001424;-0.000017;0.001425;-0.000300;-89.443098;0.001502;
1006;1577;0.237059;85.769175;0.999995;0.000555;-0.002025;0.005262;-0.001663;0.005624;-0.002386;-77.737040;0.005645;
1036;542;0.080286;0.321176;0.999998;0.000412;-0.000679;0.001697;0.000187;0.001711;-0.000694;85.532032;0.001722;
1256;1877;-0.018856;86.358941;0.999999;0.000219;-0.000205;0.001431;0.000218;0.001459;-0.000234;82.530409;0.001568;
1011;672;0.249124;0.675105;0.999994;0.000729;-0.002217;0.005636;0.001721;0.005997;-0.002578;78.169924;0.006016;
1226;872;-1.701767;4.391834;0.999896;0.003040;-0.019119;0.041968;-0.006981;0.042756;-0.019906;-83.562962;0.042790;
1171;412;-0.011725;0.111346;1.000000;0.000080;-0.000328;0.001440;-0.000054;0.001442;-0.000330;-88.244449;0.001511;
1101;1252;1.609915;73.676951;0.999410;0.005558;-0.049360;0.118915;-0.004287;0.119024;-0.049469;-88.541442;0.119587;
1116;877;0.348054;4.574232;0.999937;0.002516;-0.019013;0.043143;0.001319;0.043171;-0.019041;88.784415;0.043271;
1046;447;0.041191;0.167343;1.000000;0.000171;-0.000480;0.001539;0.000105;0.001545;-0.000485;87.039475;0.001580;
1076;1737;0.038633;86.151926;1.000000;0.000116;-0.000665;0.001631;-0.000081;0.001634;-0.000668;-87.984109;0.001643;
966;417;0.064335;0.138164;1.000000;0.000161;-0.000541;0.001485;0.000087;0.001488;-0.000544;87.539955;0.001506;
1151;407;-0.004934;0.103882;1.000000;0.000041;-0.000300;0.001425;-0.000025;0.001426;-0.000301;-89.183448;0.001503;
1151;577;-0.016992;0.391382;0.999998;0.000338;-0.001064;0.002288;-0.000056;0.002289;-0.001065;-89.038732;0.002290;
1041;1542;0.268457;85.540700;0.999995;0.000839;-0.003117;0.007633;-0.001771;0.007917;-0.003402;-80.882317;0.007943;
1231;867;-1.723391;4.193825;0.999919;0.003326;-0.018382;0.040038;-0.007136;0.040897;-0.019241;-83.135497;0.040921;
1261;1867;-0.026300;86.343747;1.000000;0.000176;-0.000267;0.001466;0.000210;0.001491;-0.000292;83.189568;0.001580;
1016;672;0.237830;0.675965;0.999995;0.000603;-0.002234;0.005619;0.001644;0.005949;-0.002564;78.641153;0.005968;
1151;402;-0.004603;0.096874;1.000000;0.000046;-0.000281;0.001413;-0.000025;0.001413;-0.000282;-89.143743;0.001496;
1101;867;0.585563;4.184948;0.999918;0.002579;-0.017578;0.039840;0.002386;0.039939;-0.017677;87.624139;0.040027;
1106;1242;1.488374;72.542278;0.999265;0.008253;-0.053690;0.130754;-0.003309;0.130814;-0.053750;-88.972441;0.131504;
1051;462;0.043299;0.189829;1.000000;0.000151;-0.000522;0.001559;0.000096;0.001564;-0.000527;87.366066;0.001591;
1316;392;-0.056055;0.106597;1.000000;0.000120;-0.000472;0.001543;-0.000099;0.001548;-0.000477;-87.181311;0.001586;
1076;1742;0.037532;86.159984;1.000000;0.000119;-0.000648;0.001619;-0.000076;0.001622;-0.000650;-88.087767;0.001632;
1236;867;-1.815881;4.195127;0.999920;0.002550;-0.018394;0.039800;-0.007537;0.040761;-0.019354;-82.738932;0.040778;
1156;407;-0.006399;0.103954;1.000000;0.000046;-0.000302;0.001426;-0.000032;0.001427;-0.000303;-88.937919;0.001504;
1156;577;-0.022409;0.391224;0.999999;0.000331;-0.001061;0.002281;-0.000074;0.002283;-0.001062;-88.732157;0.002284;
1046;1542;0.252012;85.540351;0.999995;0.000790;-0.003091;0.007600;-0.001675;0.007856;-0.003347;-81.302205;0.007885;
1256;1882;-0.016668;86.364764;1.000000;0.000201;-0.000179;0.001425;0.000223;0.001456;-0.000210;82.244879;0.001574;
1156;402;-0.006029;0.096961;1.000000;0.000049;-0.000283;0.001414;-0.000033;0.001414;-0.000283;-88.890018;0.001497;
1111;742;0.118125;1.239721;0.999994;0.000559;-0.004968;0.012018;0.000681;0.012045;-0.004995;87.707277;0.012103;
1316;397;-0.058953;0.114159;1.000000;0.000153;-0.000477;0.001524;-0.000092;0.001529;-0.000481;-87.362441;0.001563;
1076;867;1.024606;4.191347;0.999934;0.003258;-0.017932;0.040194;0.004203;0.040496;-0.018235;85.886042;0.040563;
1231;872;-1.800037;4.394993;0.999903;0.003017;-0.019158;0.041822;-0.007387;0.042704;-0.020040;-83.190903;0.042731;
1106;1247;1.410280;73.119004;0.999257;0.007668;-0.051382;0.124432;-0.003443;0.124500;-0.051449;-88.878602;0.125123;
1056;462;0.040423;0.189286;1.000000;0.000127;-0.000525;0.001561;0.000089;0.001564;-0.000529;87.548447;0.001591;
1081;1762;0.030455;86.192642;1.000000;0.000107;-0.000584;0.001586;-0.000062;0.001587;-0.000586;-88.357975;0.001605;
1161;407;-0.007922;0.104042;1.000000;0.000055;-0.000304;0.001427;-0.000040;0.001428;-0.000305;-88.684289;0.001504;
1161;577;-0.027639;0.390851;0.999999;0.000308;-0.001052;0.002272;-0.000094;0.002275;-0.001055;-88.381250;0.002277;
1266;1892;-0.012933;86.378900;1.000000;0.000174;-0.000148;0.001440;0.000256;0.001480;-0.000188;81.065649;0.001611;
1051;1542;0.235769;85.542834;0.999995;0.000565;-0.003067;0.007571;-0.001577;0.007800;-0.003296;-81.744812;0.007831;
1316;402;-0.061681;0.121417;1.000000;0.000162;-0.000476;0.001502;-0.000085;0.001506;-0.000480;-87.534240;0.001538;
1161;402;-0.007422;0.096978;1.000000;0.000063;-0.000285;0.001415;-0.000041;0.001416;-0.000286;-88.628885;0.001497;
1041;872;1.743796;4.412923;0.999905;0.002412;-0.019260;0.042287;0.007148;0.043107;-0.020079;83.462035;0.043140;
1096;722;0.145272;1.030803;0.999994;0.000548;-0.003846;0.009516;0.000896;0.009576;-0.003906;86.179179;0.009630;
1081;867;0.940202;4.188246;0.999927;0.003117;-0.017867;0.040108;0.003835;0.040360;-0.018120;86.232128;0.040430;
1061;462;0.038000;0.189151;1.000000;0.000129;-0.000525;0.001559;0.000085;0.001563;-0.000529;87.672634;0.001590;
1081;1257;2.492663;74.131480;0.999562;0.007392;-0.048436;0.115407;-0.006707;0.115681;-0.048710;-87.659788;0.116161;
1086;1762;0.027524;86.192792;1.000000;0.000114;-0.000586;0.001584;-0.000056;0.001586;-0.000587;-88.516494;0.001604;
1271;1892;-0.013800;86.378699;1.000000;0.000171;-0.000154;0.001458;0.000269;0.001502;-0.000198;80.778523;0.001632;
1166;407;-0.009448;0.104205;1.000000;0.000059;-0.000307;0.001428;-0.000047;0.001430;-0.000308;-88.439981;0.001505;
1166;577;-0.032734;0.390274;0.999999;0.000381;-0.001043;0.002261;-0.000111;0.002265;-0.001047;-88.078508;0.002267;
1031;1547;0.278853;85.578349;0.999995;0.000666;-0.002968;0.007286;-0.001873;0.007618;-0.003299;-79.966851;0.007640;
1306;407;-0.060196;0.124143;1.000000;0.000129;-0.000456;0.001510;-0.000084;0.001514;-0.000459;-87.561730;0.001552;
1036;867;1.762230;4.210871;0.999885;0.003176;-0.018505;0.040529;0.007298;0.041417;-0.019394;83.055829;0.041445;
1111;402;0.006641;0.096917;1.000000;0.000054;-0.000282;0.001416;0.000038;0.001416;-0.000283;88.714083;0.001499;
1086;867;0.851073;4.184653;0.999922;0.002330;-0.017804;0.040026;0.003469;0.040233;-0.018012;86.579361;0.040307;
1101;722;0.127362;1.030837;0.999994;0.000527;-0.003816;0.009498;0.000782;0.009544;-0.003861;86.649617;0.009602;
1276;1892;-0.014599;86.378020;1.000000;0.000188;-0.000161;0.001478;0.000279;0.001524;-0.000207;80.598634;0.001653;
1046;452;0.043049;0.175256;1.000000;0.000198;-0.000496;0.001547;0.000104;0.001552;-0.000501;87.103396;0.001584;
1086;1257;2.256300;74.153755;0.999510;0.006224;-0.048099;0.114699;-0.006103;0.114928;-0.048328;-87.855936;0.115411;
1131;407;0.001090;0.103824;1.000000;0.000057;-0.000299;0.001424;0.000006;0.001424;-0.000299;89.794509;0.001502;
1076;572;0.060603;0.376996;0.999998;0.000396;-0.000935;0.002100;0.000187;0.002111;-0.000946;86.478054;0.002115;
1311;407;-0.062917;0.126398;1.000000;0.000162;-0.000462;0.001505;-0.000077;0.001508;-0.000465;-87.754025;0.001545;
1111;407;0.007017;0.103955;1.000000;0.000062;-0.000302;0.001428;0.000037;0.001428;-0.000303;88.762673;0.001505;
1091;867;0.765441;4.184922;0.999915;0.002277;-0.017747;0.039959;0.003103;0.040125;-0.017914;86.930902;0.040202;
1121;857;0.213337;3.796142;0.999952;0.001864;-0.016005;0.036269;0.000783;0.036281;-0.016017;89.142349;0.036364;
1046;457;0.044197;0.182750;1.000000;0.000161;-0.000510;0.001555;0.000103;0.001560;-0.000515;87.163410;0.001590;
1136;407;-0.000418;0.103720;1.000000;0.000060;-0.000300;0.001424;-0.000001;0.001424;-0.000300;-89.956056;0.001501;
1251;687;-0.282703;0.765485;0.999995;0.000508;-0.002693;0.006696;-0.001925;0.007076;-0.003072;-78.851115;0.007096;
1146;582;-0.011624;0.402611;0.999998;0.000396;-0.001091;0.002351;-0.000041;0.002351;-0.001091;-89.325288;0.002353;
1256;1887;-0.013830;86.371324;1.000000;0.000178;-0.000153;0.001419;0.000227;0.001451;-0.000186;81.935021;0.001579;
1091;1347;0.942504;80.919608;0.999810;0.003704;-0.023140;0.051811;-0.003581;0.051982;-0.023311;-87.270700;0.052074;
1106;872;0.515280;4.371166;0.999927;0.002269;-0.018271;0.041527;0.002080;0.041599;-0.018343;88.010651;0.041696;
1316;407;-0.064769;0.128805;1.000000;0.000147;-0.000473;0.001498;-0.000065;0.001500;-0.000475;-88.112621;0.001533;
1076;577;0.061348;0.388320;0.999998;0.000339;-0.000955;0.002153;0.000198;0.002166;-0.000968;86.376396;0.002170;
1111;412;0.007555;0.111074;1.000000;0.000054;-0.000321;0.001437;0.000036;0.001438;-0.000322;88.819140;0.001509;
1126;857;0.135473;3.793337;0.999946;0.002388;-0.015970;0.036267;0.000420;0.036271;-0.015973;89.538903;0.036357;
1281;1892;-0.015349;86.377578;0.999999;0.000263;-0.000176;0.001495;0.000286;0.001543;-0.000223;80.559544;0.001668;
1046;462;0.046006;0.190542;1.000000;0.000168;-0.000524;0.001559;0.000102;0.001564;-0.000529;87.198997;0.001591;
1071;867;1.114484;4.190326;0.999948;0.002833;-0.017982;0.040277;0.004577;0.040634;-0.018340;85.535056;0.040698;
1126;407;0.002574;0.103867;1.000000;0.000046;-0.000300;0.001424;0.000014;0.001424;-0.000300;89.543699;0.001502;
996;607;0.140659;0.429860;0.999995;0.000778;-0.000734;0.002154;0.000652;0.002294;-0.000874;77.859016;0.002316;
1146;587;-0.011967;0.414474;0.999999;0.000367;-0.001117;0.002408;-0.000041;0.002409;-0.001117;-89.331015;0.002411;
1056;862;1.323403;3.998457;0.999952;0.002846;-0.017447;0.038652;0.005605;0.039206;-0.018002;84.350118;0.039250;
1096;1347;0.826745;80.924091;0.999831;0.003657;-0.023066;0.051698;-0.003136;0.051829;-0.023197;-87.602445;0.051924;
1236;452;-0.048656;0.175777;1.000000;0.000169;-0.000494;0.001541;-0.000110;0.001547;-0.000500;-86.907338;0.001579;
1076;582;0.062763;0.398692;0.999998;0.000356;-0.000977;0.002201;0.000207;0.002214;-0.000991;86.288252;0.002219;
1116;402;0.005251;0.096802;1.000000;0.000046;-0.000281;0.001414;0.000030;0.001415;-0.000282;88.988777;0.001498;
1286;1892;-0.016551;86.377220;1.000000;0.000213;-0.000193;0.001519;0.000287;0.001566;-0.000240;80.733613;0.001687;
1126;862;0.142703;3.985039;0.999950;0.002656;-0.016660;0.037928;0.000444;0.037932;-0.016664;89.534388;0.038025;
1071;872;1.169170;4.384765;0.999919;0.002812;-0.018777;0.042119;0.004715;0.042482;-0.019140;85.598310;0.042552;
1116;407;0.005556;0.103783;1.000000;0.000050;-0.000301;0.001426;0.000029;0.001427;-0.000301;89.030841;0.001504;
1166;472;-0.017228;0.201306;1.000000;0.000171;-0.000551;0.001562;-0.000038;0.001563;-0.000551;-88.981572;0.001585;
1046;1347;2.000477;80.877134;0.999877;0.003269;-0.023804;0.053025;-0.007684;0.053786;-0.024565;-84.344075;0.053854;
1076;852;0.900485;3.626479;0.999940;0.002214;-0.015687;0.035112;0.003846;0.035401;-0.015976;85.695101;0.035457;
1236;687;-0.241947;0.765667;0.999994;0.000609;-0.002650;0.006594;-0.001677;0.006889;-0.002944;-80.029968;0.006913;
1241;452;-0.051096;0.176293;1.000000;0.000152;-0.000495;0.001539;-0.000113;0.001545;-0.000501;-86.832268;0.001576;
1001;562;0.110717;0.353659;0.999998;0.000365;-0.000555;0.001619;0.000293;0.001658;-0.000594;82.464384;0.001680;
1081;572;0.055584;0.378119;0.999998;0.000400;-0.000955;0.002122;0.000172;0.002132;-0.000964;86.806106;0.002135;
1286;1897;-0.012761;86.384430;1.000000;0.000233;-0.000158;0.001511;0.000302;0.001564;-0.000211;80.044285;0.001697;
1236;1772;-0.056764;86.203310;1.000000;0.000131;-0.000551;0.001575;0.000109;0.001581;-0.000557;87.064342;0.001604;
1126;867;0.150693;4.179726;0.999951;0.002603;-0.017374;0.039646;0.000475;0.039650;-0.017378;89.522594;0.039751;
1066;862;1.157140;3.994711;0.999952;0.002234;-0.017287;0.038503;0.004832;0.038918;-0.017702;85.086520;0.038971;
1116;412;0.005966;0.110847;1.000000;0.000055;-0.000320;0.001436;0.000028;0.001436;-0.000320;89.080380;0.001508;
986;652;0.218468;0.579493;0.999737;0.005228;-0.001588;0.004277;0.001617;0.004694;-0.002004;75.564771;0.004710;
1166;477;-0.017588;0.208814;1.000000;0.000153;-0.000569;0.001571;-0.000038;0.001572;-0.000570;-88.975743;0.001591;
1056;1342;1.830940;80.629816;0.999891;0.004658;-0.024651;0.054992;-0.006937;0.055591;-0.025250;-85.059149;0.055669;
1111;852;0.358045;3.622309;0.999943;0.002199;-0.015374;0.034808;0.001475;0.034852;-0.015418;88.317327;0.034929;
1306;412;-0.062601;0.131866;1.000000;0.000134;-0.000456;0.001501;-0.000070;0.001504;-0.000459;-87.940440;0.001542;
1006;562;0.108382;0.354179;0.999998;0.000295;-0.000577;0.001643;0.000283;0.001678;-0.000613;82.848117;0.001698;
1171;592;-0.041095;0.423272;0.999999;0.000430;-0.001102;0.002417;-0.000152;0.002424;-0.001108;-87.531979;0.002427;
1266;1862;-0.030282;86.335666;1.000000;0.000205;-0.000302;0.001486;0.000205;0.001509;-0.000325;83.554024;0.001589;
1126;872;0.154627;4.373193;0.999950;0.002284;-0.018140;0.041353;0.000523;0.041357;-0.018144;89.496452;0.041461;
991;652;0.226500;0.569860;0.999996;0.000719;-0.001623;0.004337;0.001568;0.004725;-0.002010;76.125097;0.004742;
1066;867;1.207235;4.190724;0.999940;0.002546;-0.018067;0.040357;0.004964;0.040776;-0.018486;85.177473;0.040835;
1116;417;0.006349;0.118108;1.000000;0.000056;-0.000340;0.001445;0.000027;0.001446;-0.000340;89.123108;0.001512;
1256;1722;-0.087512;86.120811;1.000000;0.000184;-0.000613;0.001607;0.000184;0.001622;-0.000628;85.285329;0.001636;
1166;482;-0.018299;0.216957;1.000000;0.000160;-0.000588;0.001581;-0.000039;0.001581;-0.000589;-88.957021;0.001599;
1061;1342;1.708320;80.634531;0.999896;0.004041;-0.024529;0.054906;-0.006537;0.055440;-0.025064;-85.327049;0.055525;
1311;412;-0.064709;0.134048;1.000000;0.000158;-0.000461;0.001496;-0.000063;0.001498;-0.000463;-88.170931;0.001534;
1116;852;0.280681;3.619089;0.999957;0.002074;-0.015362;0.034788;0.001114;0.034813;-0.015386;88.727735;0.034891;
1011;562;0.106220;0.356359;0.999998;0.000352;-0.000598;0.001667;0.000273;0.001700;-0.000630;83.215871;0.001719;
1176;592;-0.046730;0.422728;0.999999;0.000336;-0.001087;0.002400;-0.000174;0.002409;-0.001095;-87.152064;0.002412;
1271;1862;-0.031971;86.334918;1.000000;0.000205;-0.000313;0.001501;0.000207;0.001524;-0.000337;83.565771;0.001601;
996;647;0.204315;0.549654;0.999995;0.000628;-0.001525;0.004065;0.001391;0.004392;-0.001852;76.775605;0.004410;
1066;857;1.112755;3.803727;0.999966;0.002851;-0.016540;0.036787;0.004687;0.037196;-0.016949;85.015095;0.037244;
1316;412;-0.067186;0.136123;1.000000;0.000145;-0.000470;0.001489;-0.000049;0.001490;-0.000471;-88.560978;0.001523;
1066;872;1.264160;4.389052;0.999908;0.002985;-0.018869;0.042212;0.005114;0.042637;-0.019294;85.247338;0.042701;
1141;402;-0.001695;0.096689;1.000000;0.000056;-0.000280;0.001412;-0.000009;0.001412;-0.000280;-89.682036;0.001495;
1066;1342;1.593068;80.640165;0.999887;0.003292;-0.024377;0.054736;-0.006058;0.055197;-0.024838;-85.646162;0.055289;
1171;472;-0.019965;0.201591;1.000000;0.000154;-0.000550;0.001562;-0.000043;0.001563;-0.000551;-88.826134;0.001586;
1121;852;0.204967;3.618301;0.999950;0.001946;-0.015329;0.034771;0.000750;0.034782;-0.015340;89.142741;0.034863;
1041;1647;0.097084;85.988197;1.000000;0.000139;-0.000866;0.002182;-0.000366;0.002225;-0.000909;-83.252285;0.002237;
1151;592;-0.017584;0.425240;0.999999;0.000342;-0.001140;0.002469;-0.000064;0.002470;-0.001141;-88.981791;0.002472;
1146;592;-0.011942;0.425073;0.999999;0.000317;-0.001143;0.002475;-0.000043;0.002476;-0.001143;-89.311730;0.002478;
996;652;0.217116;0.571452;0.999995;0.000583;-0.001641;0.004361;0.001507;0.004719;-0.001998;76.665024;0.004737;
1276;1862;-0.033421;86.333999;1.000000;0.000181;-0.000325;0.001515;0.000208;0.001538;-0.000349;83.631778;0.001613;
1071;857;1.028485;3.807366;0.999962;0.002662;-0.016464;0.036711;0.004323;0.037060;-0.016813;85.382349;0.037113;
1071;862;1.073051;3.997806;0.999955;0.002888;-0.017208;0.038430;0.004455;0.038784;-0.017562;85.450806;0.038842;
1146;402;-0.003132;0.096789;1.000000;0.000051;-0.000281;0.001412;-0.000017;0.001412;-0.000281;-89.410977;0.001495;
1206;457;-0.035182;0.181121;1.000000;0.000148;-0.000501;0.001544;-0.000086;0.001548;-0.000504;-87.587203;0.001579;
1061;867;1.298457;4.194197;0.999937;0.002286;-0.018168;0.040451;0.005361;0.040937;-0.018655;84.817383;0.040990;
971;412;0.059280;0.128908;1.000000;0.000122;-0.000507;0.001505;0.000085;0.001508;-0.000511;87.589627;0.001534;
1046;1647;0.092771;85.986344;1.000000;0.000179;-0.000895;0.002215;-0.000351;0.002254;-0.000934;-83.641638;0.002265;
1171;1362;-0.774581;81.618659;0.999863;0.002552;-0.019946;0.045271;0.002781;0.045390;-0.020065;87.562948;0.045491;
1156;592;-0.023486;0.425547;0.999999;0.000306;-0.001132;0.002458;-0.000086;0.002460;-0.001134;-88.633139;0.002463;
1261;1892;-0.012429;86.379202;0.999999;0.000172;-0.000137;0.001426;0.000243;0.001462;-0.000174;81.378039;0.001598;
1141;582;-0.006809;0.403247;0.999998;0.000402;-0.001093;0.002355;-0.000023;0.002355;-0.001093;-89.612628;0.002357;
1021;682;0.261809;0.737129;0.999995;0.000590;-0.002497;0.006295;0.001770;0.006638;-0.002840;79.036028;0.006661;
1076;857;0.944521;3.811551;0.999946;0.002592;-0.016413;0.036651;0.003973;0.036947;-0.016709;85.741539;0.037003;
1076;862;0.989623;4.002743;0.999935;0.003849;-0.017158;0.038368;0.004092;0.038668;-0.017458;85.807895;0.038728;
1206;462;-0.036661;0.188440;1.000000;0.000172;-0.000516;0.001556;-0.000086;0.001559;-0.000519;-87.619728;0.001588;
1156;397;-0.005557;0.089984;1.000000;0.000049;-0.000263;0.001400;-0.000034;0.001401;-0.000264;-88.838798;0.001489;
1126;852;0.130563;3.618366;0.999940;0.002072;-0.015293;0.034757;0.000397;0.034761;-0.015296;89.545889;0.034844;
1046;1342;2.087924;80.617389;0.999863;0.002856;-0.024853;0.055332;-0.007892;0.056102;-0.025623;-84.431971;0.056172;
986;422;0.058220;0.139854;1.000000;0.000152;-0.000436;0.001516;0.000111;0.001523;-0.000443;86.766076;0.001566;
1046;1652;0.091078;85.997415;1.000000;0.000171;-0.000868;0.002145;-0.000328;0.002180;-0.000904;-83.859182;0.002191;
1161;592;-0.029118;0.425311;0.999999;0.000280;-0.001122;0.002446;-0.000110;0.002449;-0.001125;-88.243361;0.002452;
1141;587;-0.006254;0.415498;0.999998;0.000302;-0.001120;0.002411;-0.000023;0.002411;-0.001120;-89.633870;0.002413;
1256;1862;-0.027541;86.336491;1.000000;0.000202;-0.000277;0.001463;0.000199;0.001485;-0.000300;83.569272;0.001571;
1021;687;0.279596;0.768847;0.999993;0.000682;-0.002672;0.006687;0.001869;0.007046;-0.003031;79.110708;0.007069;
1111;857;0.373573;3.800825;0.999947;0.002030;-0.016054;0.036305;0.001529;0.036349;-0.016099;88.328519;0.036428;
1111;862;0.393631;3.990409;0.999944;0.002078;-0.016761;0.037979;0.001577;0.038025;-0.016806;88.351392;0.038110;
1141;397;-0.001537;0.089652;1.000000;0.000046;-0.000261;0.001399;-0.000009;0.001399;-0.000261;-89.673681;0.001488;
1056;1337;1.905306;80.352883;0.999885;0.005750;-0.025695;0.057472;-0.007095;0.058073;-0.026296;-85.159028;0.058159;
1266;427;-0.052661;0.142564;1.000000;0.000146;-0.000442;0.001510;-0.000125;0.001518;-0.000450;-86.364604;0.001560;
1061;847;1.088683;3.469163;0.999973;0.002560;-0.015183;0.033829;0.004722;0.034279;-0.015634;84.546910;0.034323;
991;422;0.055959;0.138549;1.000000;0.000127;-0.000433;0.001519;0.000119;0.001526;-0.000440;86.524983;0.001571;
1166;592;-0.035244;0.424295;0.999999;0.000333;-0.001112;0.002433;-0.000131;0.002438;-0.001117;-87.880398;0.002440;
1141;592;-0.006548;0.425863;0.999998;0.000284;-0.001147;0.002478;-0.000024;0.002478;-0.001147;-89.617221;0.002481;
1261;1862;-0.028850;86.336162;1.000000;0.000192;-0.000290;0.001473;0.000202;0.001496;-0.000313;83.550455;0.001578;
1016;1757;0.069999;86.178324;1.000000;0.000215;-0.000572;0.001568;-0.000137;0.001576;-0.000580;-86.357461;0.001595;
1061;857;1.195669;3.804867;0.999964;0.002309;-0.016641;0.036871;0.005057;0.037345;-0.017114;84.648415;0.037388;
1141;732;-0.023349;1.128066;0.999996;0.000689;-0.004390;0.010743;-0.000162;0.010745;-0.004392;-89.386685;0.010805;
1116;862;0.309373;3.986999;0.999954;0.001582;-0.016747;0.037947;0.001194;0.037973;-0.016773;88.749732;0.038059;
1061;1337;1.783206;80.362272;0.999865;0.004603;-0.025567;0.057375;-0.006683;0.057910;-0.026102;-85.422924;0.058004;
1106;402;0.008012;0.097071;1.000000;0.000066;-0.000283;0.001418;0.000046;0.001419;-0.000285;88.443486;0.001501;
1066;847;1.006603;3.467920;0.999974;0.001950;-0.015100;0.033767;0.004382;0.034157;-0.015490;84.916446;0.034206;
1171;477;-0.020605;0.209318;1.000000;0.000141;-0.000568;0.001572;-0.000044;0.001573;-0.000569;-88.823742;0.001592;
1211;467;-0.040434;0.196379;1.000000;0.000161;-0.000532;0.001564;-0.000092;0.001568;-0.000536;-87.500016;0.001593;
1166;597;-0.035987;0.437428;0.999998;0.000391;-0.001136;0.002501;-0.000138;0.002506;-0.001141;-87.827572;0.002509;
1311;1877;-0.035832;86.346646;1.000000;0.000213;-0.000400;0.001656;0.000223;0.001680;-0.000424;83.871352;0.001747;
1306;537;-0.118756;0.306765;0.999997;0.000458;-0.000506;0.001353;-0.000283;0.001395;-0.000548;-81.542175;0.001406;
1021;1777;0.059996;86.210282;1.000000;0.000155;-0.000535;0.001546;-0.000121;0.001553;-0.000542;-86.671618;0.001577;
1061;862;1.244266;3.991962;0.999951;0.002158;-0.017385;0.038584;0.005213;0.039066;-0.017867;84.723423;0.039113;
1146;732;-0.045943;1.127421;0.999995;0.000621;-0.004397;0.010757;-0.000301;0.010763;-0.004403;-88.862539;0.010822;
1121;862;0.225956;3.987426;0.999956;0.001740;-0.016701;0.037929;0.000813;0.037941;-0.016713;89.147486;0.038031;
1066;1337;1.660740;80.367140;0.999860;0.002981;-0.025425;0.057189;-0.006195;0.057651;-0.025887;-85.735367;0.057750;
1106;407;0.008599;0.104137;1.000000;0.000062;-0.000303;0.001429;0.000045;0.001431;-0.000304;88.503235;0.001507;
1071;847;0.936644;3.462526;0.999970;0.001740;-0.015024;0.033712;0.004044;0.034046;-0.015357;85.288793;0.034100;
1271;427;-0.054747;0.143704;1.000000;0.000156;-0.000442;0.001509;-0.000120;0.001516;-0.000449;-86.499125;0.001557;
1311;1882;-0.031815;86.354567;1.000000;0.000164;-0.000380;0.001664;0.000245;0.001693;-0.000409;83.261747;0.001767;
976;422;0.062486;0.142922;1.000000;0.000171;-0.000441;0.001507;0.000086;0.001511;-0.000445;87.478027;0.001552;
1311;537;-0.121249;0.304979;0.999998;0.000451;-0.000507;0.001310;-0.000293;0.001356;-0.000553;-81.055876;0.001364;
1146;597;-0.012541;0.438617;0.999998;0.000333;-0.001168;0.002537;-0.000048;0.002537;-0.001169;-89.256639;0.002540;
986;657;0.230593;0.587612;0.998975;0.010874;-0.001715;0.004553;0.001741;0.005004;-0.002166;75.473618;0.005019;
1061;852;1.140789;3.631864;0.999974;0.002715;-0.015900;0.035314;0.004884;0.035776;-0.016361;84.600331;0.035819;
1051;1337;2.045627;80.346914;0.999887;0.004185;-0.025790;0.057662;-0.007584;0.058345;-0.026474;-84.849450;0.058429;
1151;1837;-0.005443;86.306991;1.000000;0.000175;-0.000303;0.001424;0.000029;0.001425;-0.000304;89.030987;0.001501;
1121;867;0.238960;4.180515;0.999955;0.001878;-0.017412;0.039658;0.000846;0.039671;-0.017424;89.150943;0.039768;
1311;1887;-0.027499;86.363100;1.000000;0.000179;-0.000354;0.001675;0.000274;0.001712;-0.000391;82.440403;0.001794;
1106;412;0.009221;0.111279;1.000000;0.000044;-0.000322;0.001439;0.000044;0.001440;-0.000323;88.569415;0.001511;
1056;847;1.166906;3.469402;0.999967;0.002210;-0.015233;0.033876;0.005061;0.034393;-0.015749;84.176546;0.034433;
1171;482;-0.021301;0.217263;1.000000;0.000155;-0.000587;0.001581;-0.000045;0.001582;-0.000587;-88.803423;0.001599;
1171;597;-0.041701;0.436474;0.999998;0.000388;-0.001125;0.002486;-0.000160;0.002493;-0.001132;-87.471288;0.002497;
1076;467;0.031165;0.195787;1.000000;0.000152;-0.000537;0.001564;0.000068;0.001567;-0.000539;88.148209;0.001592;
991;657;0.241450;0.593091;0.999996;0.000735;-0.001755;0.004632;0.001687;0.005050;-0.002173;76.078457;0.005067;
1141;597;-0.007105;0.438321;0.999998;0.000410;-0.001172;0.002541;-0.000028;0.002541;-0.001172;-89.569829;0.002543;
1066;852;1.061584;3.627178;0.999975;0.003134;-0.015809;0.035236;0.004532;0.035635;-0.016208;84.965900;0.035683;
1051;1342;1.960139;80.626218;0.999883;0.003534;-0.024745;0.055162;-0.007410;0.055843;-0.025426;-84.746357;0.055918;
1281;1897;-0.012163;86.384689;0.999999;0.000237;-0.000142;0.001486;0.000298;0.001539;-0.000194;79.959209;0.001676;
1121;872;0.245501;4.372278;0.999949;0.002081;-0.018173;0.041384;0.000895;0.041398;-0.018187;89.139308;0.041499;
1076;847;0.863039;3.465703;0.999953;0.002062;-0.014978;0.033673;0.003721;0.033956;-0.015261;85.651649;0.034014;
1316;537;-0.124091;0.303397;0.999992;0.000689;-0.000494;0.001260;-0.000312;0.001314;-0.000548;-80.209715;0.001320;
1176;482;-0.024219;0.217339;1.000000;0.000171;-0.000586;0.001582;-0.000051;0.001583;-0.000588;-88.646620;0.001600;
1221;1847;-0.024094;86.318042;1.000000;0.000225;-0.000295;0.001448;0.000141;0.001459;-0.000307;85.391500;0.001539;
1091;467;0.023375;0.194406;1.000000;0.000190;-0.000537;0.001561;0.000049;0.001562;-0.000538;88.656816;0.001587;
1181;1762;-0.028556;86.192766;1.000000;0.000102;-0.000583;0.001589;0.000057;0.001590;-0.000585;88.495404;0.001609;
1161;867;-0.457299;4.161308;0.999887;0.002469;-0.017541;0.039748;-0.001851;0.039808;-0.017601;-88.151619;0.039896;
1031;1552;0.261270;85.615122;0.999996;0.000734;-0.002787;0.006889;-0.001772;0.007203;-0.003101;-79.944096;0.007227;
1321;392;-0.061494;0.108747;0.999992;0.000877;-0.000493;0.001529;-0.000078;0.001532;-0.000496;-87.805839;0.001564;
1256;1892;-0.011495;86.379969;0.999999;0.000184;-0.000127;0.001412;0.000232;0.001446;-0.000161;81.605743;0.001585;
1121;877;0.254859;4.568297;0.999945;0.002350;-0.018978;0.043103;0.000929;0.043117;-0.018992;89.142579;0.043219;
1071;852;0.983275;3.627542;0.999970;0.002314;-0.015734;0.035166;0.004180;0.035507;-0.016075;85.335970;0.035560;
1071;1337;1.536525;80.366395;0.999832;0.003696;-0.025289;0.057023;-0.005699;0.057416;-0.025682;-86.057970;0.057522;
1091;1257;2.019485;74.168358;0.999367;0.006529;-0.047761;0.114094;-0.005534;0.114283;-0.047950;-88.044146;0.114775;
1186;587;-0.056041;0.410947;0.999998;0.000339;-0.001026;0.002299;-0.000203;0.002311;-0.001039;-86.520911;0.002315;
996;1567;0.292323;85.715429;0.999996;0.000577;-0.002306;0.005842;-0.002002;0.006307;-0.002771;-76.911801;0.006323;
1161;872;-0.479685;4.359190;0.999848;0.002909;-0.018293;0.041414;-0.001890;0.041473;-0.018353;-88.188417;0.041565;
1096;467;0.020491;0.194208;1.000000;0.000171;-0.000534;0.001559;0.000043;0.001560;-0.000535;88.813660;0.001585;
1011;1672;0.107022;86.041433;1.000000;0.000155;-0.000598;0.001689;-0.000305;0.001729;-0.000638;-82.526487;0.001749;
1146;1697;-0.012491;86.083327;1.000000;0.000110;-0.000906;0.001949;0.000032;0.001949;-0.000906;89.363983;0.001951;
1286;1902;-0.009526;86.392335;0.999999;0.000269;-0.000117;0.001512;0.000319;0.001572;-0.000178;79.306298;0.001722;
1246;447;-0.051789;0.170030;1.000000;0.000144;-0.000483;0.001533;-0.000116;0.001540;-0.000489;-86.730734;0.001574;
1106;862;0.475365;3.993849;0.999929;0.002314;-0.016790;0.038030;0.001960;0.038100;-0.016860;87.955086;0.038184;
1056;852;1.219179;3.636120;0.999969;0.002180;-0.015946;0.035394;0.005226;0.035921;-0.016472;84.246808;0.035962;
1071;1342;1.478788;80.643581;0.999868;0.003713;-0.024259;0.054587;-0.005573;0.054979;-0.024651;-85.976888;0.055076;
1001;1567;0.280327;85.712849;0.999995;0.000538;-0.002317;0.005880;-0.001938;0.006315;-0.002752;-77.349166;0.006332;
1186;592;-0.056603;0.421292;0.999999;0.000244;-0.001049;0.002363;-0.000215;0.002377;-0.001062;-86.403020;0.002381;
1076;1257;2.732045;74.104181;0.999541;0.006935;-0.048839;0.116265;-0.007355;0.116592;-0.049166;-87.454409;0.117067;
1291;1902;-0.009741;86.393182;0.999999;0.000202;-0.000135;0.001547;0.000324;0.001607;-0.000195;79.471093;0.001753;
1066;882;1.377100;4.817078;0.999866;0.002970;-0.020581;0.045855;0.005423;0.046294;-0.021021;85.364333;0.046360;
1121;402;0.003921;0.096826;1.000000;0.000043;-0.000281;0.001413;0.000022;0.001413;-0.000281;89.262682;0.001496;
1151;1782;-0.008994;86.224798;1.000000;0.000121;-0.000511;0.001539;0.000021;0.001539;-0.000511;89.416948;0.001567;
1231;1777;-0.052333;86.211608;1.000000;0.000136;-0.000541;0.001568;0.000105;0.001574;-0.000546;87.166917;0.001598;
1006;1567;0.270507;85.713053;0.999995;0.000689;-0.002313;0.005890;-0.001868;0.006295;-0.002718;-77.759024;0.006314;
1056;857;1.273890;3.810949;0.999960;0.002241;-0.016700;0.036947;0.005429;0.037491;-0.017244;84.279039;0.037531;
1116;857;0.292591;3.798269;0.999955;0.001836;-0.016043;0.036282;0.001158;0.036307;-0.016068;88.732981;0.036387;
1251;447;-0.054624;0.170509;1.000000;0.000167;-0.000484;0.001533;-0.000118;0.001540;-0.000491;-86.665598;0.001573;
1186;597;-0.057422;0.433939;0.999999;0.000243;-0.001072;0.002436;-0.000229;0.002450;-0.001087;-86.284636;0.002456;
1071;1257;2.987839;74.065772;0.999601;0.006779;-0.049414;0.117311;-0.008014;0.117695;-0.049798;-87.254340;0.118158;
1191;1357;-1.225766;81.364654;0.999823;0.002816;-0.021180;0.047682;0.004580;0.047986;-0.021484;86.211257;0.048073;
1256;1857;-0.030042;86.329080;1.000000;0.000185;-0.000299;0.001477;0.000190;0.001497;-0.000319;83.962727;0.001577;
1176;882;-0.827288;4.794516;0.999886;0.003119;-0.020122;0.045259;-0.003189;0.045415;-0.020277;-87.214043;0.045501;
1121;407;0.004054;0.103817;1.000000;0.000044;-0.000300;0.001425;0.000021;0.001425;-0.000300;89.292023;0.001503;
1176;1767;-0.024376;86.200588;1.000000;0.000105;-0.000568;0.001574;0.000051;0.001575;-0.000569;88.636007;0.001596;
1011;1567;0.258002;85.713736;0.999995;0.000933;-0.002301;0.005886;-0.001796;0.006263;-0.002678;-78.152856;0.006285;
1111;847;0.345858;3.463976;0.999942;0.002284;-0.014724;0.033437;0.001428;0.033479;-0.014766;88.303396;0.033557;
1256;447;-0.057272;0.170771;1.000000;0.000169;-0.000483;0.001531;-0.000118;0.001538;-0.000490;-86.651006;0.001572;
1066;837;0.923476;3.156899;0.999965;0.001930;-0.013772;0.030718;0.004106;0.031093;-0.014148;84.770621;0.031135;
1206;1727;-0.053132;86.133254;1.000000;0.000162;-0.000676;0.001656;0.000117;0.001662;-0.000682;87.125038;0.001671;
1171;602;-0.042449;0.448807;0.999998;0.000381;-0.001150;0.002551;-0.000168;0.002559;-0.001157;-87.411362;0.002563;
1066;1247;3.532728;72.846612;0.999284;0.006521;-0.054465;0.130495;-0.009084;0.130940;-0.054910;-87.195068;0.131506;
1066;462;0.035380;0.188393;1.000000;0.000162;-0.000523;0.001557;0.000080;0.001560;-0.000526;87.810031;0.001588;
1261;1857;-0.031520;86.328354;1.000000;0.000166;-0.000312;0.001487;0.000192;0.001507;-0.000332;83.982589;0.001583;
1211;1337;-1.960023;80.327395;0.999896;0.003175;-0.025603;0.057251;0.007040;0.057845;-0.026197;85.177798;0.057930;
1166;402;-0.008782;0.097024;1.000000;0.000055;-0.000288;0.001416;-0.000048;0.001417;-0.000289;-88.373058;0.001498;
1141;912;-0.166385;6.275907;0.999839;0.004130;-0.025325;0.057756;-0.000637;0.057761;-0.025330;-89.560647;0.057907;
1011;1572;0.242425;85.742260;0.999995;0.000815;-0.002151;0.005556;-0.001695;0.005912;-0.002507;-78.130537;0.005935;
1071;1747;0.039892;86.167813;1.000000;0.000103;-0.000628;0.001612;-0.000077;0.001615;-0.000631;-88.040825;0.001628;
1071;837;0.858672;3.157309;0.999963;0.001713;-0.013711;0.030688;0.003789;0.031009;-0.014032;85.157082;0.031056;
1036;447;0.046070;0.168531;1.000000;0.000156;-0.000485;0.001541;0.000113;0.001547;-0.000491;86.821483;0.001582;
1176;602;-0.047900;0.447813;0.999998;0.000303;-0.001133;0.002539;-0.000192;0.002549;-0.001143;-87.020902;0.002554;
1066;1252;3.390150;73.467025;0.999380;0.008114;-0.051966;0.123828;-0.008979;0.124286;-0.052424;-87.083607;0.124791;
1221;1827;-0.030981;86.289228;1.000000;0.000140;-0.000375;0.001486;0.000124;0.001494;-0.000383;86.201991;0.001552;
1266;1857;-0.033084;86.327717;1.000000;0.000244;-0.000323;0.001498;0.000193;0.001518;-0.000343;84.027463;0.001592;
1306;417;-0.065538;0.139518;1.000000;0.000172;-0.000460;0.001486;-0.000069;0.001488;-0.000462;-87.972772;0.001523;
1211;1342;-1.881472;80.602344;0.999881;0.003440;-0.024501;0.054703;0.006857;0.055293;-0.025090;85.088586;0.055371;
1036;872;1.838874;4.415121;0.999897;0.002835;-0.019323;0.042197;0.007566;0.043114;-0.020240;83.090499;0.043141;
991;1572;0.289938;85.741976;0.999892;0.002947;-0.002111;0.005486;-0.001958;0.005961;-0.002586;-76.367324;0.005979;
1116;397;0.004932;0.089823;1.000000;0.000039;-0.000262;0.001401;0.000031;0.001402;-0.000263;88.945425;0.001490;
1071;1752;0.038614;86.176224;1.000000;0.000083;-0.000613;0.001603;-0.000075;0.001606;-0.000615;-88.056301;0.001620;
1076;837;0.791833;3.156104;0.999955;0.001948;-0.013670;0.030671;0.003486;0.030944;-0.013942;85.532417;0.030994;
1041;447;0.043646;0.167840;1.000000;0.000165;-0.000483;0.001541;0.000110;0.001547;-0.000489;86.909470;0.001581;
1066;1257;3.246322;74.023426;0.999500;0.007367;-0.049721;0.117960;-0.008784;0.118419;-0.050180;-87.009531;0.118877;
1181;602;-0.053229;0.446662;0.999999;0.000240;-0.001114;0.002525;-0.000217;0.002538;-0.001127;-86.596040;0.002544;
1311;417;-0.067521;0.141244;1.000000;0.000156;-0.000465;0.001477;-0.000063;0.001479;-0.000467;-88.148095;0.001512;
1311;1872;-0.039508;86.338265;1.000000;0.000198;-0.000426;0.001629;0.000194;0.001647;-0.000444;84.653448;0.001705;
991;1577;0.269404;85.770043;0.999942;0.002365;-0.001992;0.005249;-0.001855;0.005696;-0.002440;-76.436687;0.005716;
1226;1827;-0.033028;86.288601;1.000000;0.000178;-0.000378;0.001489;0.000130;0.001498;-0.000387;86.041762;0.001556;
1216;1337;-2.087412;80.317265;0.999866;0.003804;-0.025695;0.057477;0.007543;0.058155;-0.026374;84.859746;0.058239;
1226;877;-1.772053;4.592726;0.999853;0.003021;-0.019928;0.044045;-0.007273;0.044861;-0.020745;-83.594903;0.044903;
1121;397;0.003616;0.089826;1.000000;0.000050;-0.000262;0.001400;0.000022;0.001400;-0.000262;89.225621;0.001489;
1071;1757;0.037113;86.184053;1.000000;0.000093;-0.000597;0.001595;-0.000074;0.001598;-0.000599;-88.068279;0.001614;
1056;837;1.065425;3.156989;0.999959;0.002310;-0.013861;0.030768;0.004752;0.031268;-0.014361;83.989063;0.031303;
1316;417;-0.069821;0.143307;1.000000;0.000159;-0.000474;0.001466;-0.000053;0.001468;-0.000475;-88.435061;0.001498;
1186;602;-0.058795;0.444660;0.999999;0.000259;-0.001096;0.002507;-0.000241;0.002523;-0.001112;-86.196417;0.002529;
1221;1337;-2.214768;80.310558;0.999846;0.003580;-0.025820;0.057688;0.008035;0.058454;-0.026586;84.553570;0.058534;
1236;872;-1.901991;4.403160;0.999898;0.002781;-0.019158;0.041511;-0.007819;0.042503;-0.020150;-82.772704;0.042522;
1096;1257;1.780526;74.191624;0.999418;0.006898;-0.047467;0.113639;-0.004955;0.113792;-0.047619;-88.240134;0.114295;
981;427;0.063175;0.148484;1.000000;0.000176;-0.000443;0.001506;0.000098;0.001511;-0.000448;87.138705;0.001552;
1031;1542;0.298175;85.540838;0.999994;0.000647;-0.003162;0.007703;-0.001972;0.008050;-0.003509;-80.023140;0.008072;
1126;397;0.002185;0.089707;1.000000;0.000057;-0.000261;0.001400;0.000014;0.001400;-0.000261;89.504412;0.001489;
1211;1797;-0.036361;86.244793;1.000000;0.000210;-0.000477;0.001533;0.000097;0.001538;-0.000481;87.236060;0.001573;
1141;1877;-0.001162;86.362013;0.999999;0.000182;-0.000144;0.001331;0.000015;0.001331;-0.000144;89.414101;0.001460;
1071;1742;0.040758;86.159683;1.000000;0.000116;-0.000643;0.001620;-0.000081;0.001623;-0.000646;-87.960406;0.001634;
1036;877;1.922594;4.608978;0.999878;0.003029;-0.020156;0.044002;0.007826;0.044943;-0.021097;83.145305;0.044971;
1081;837;0.719144;3.155613;0.999961;0.001754;-0.013652;0.030656;0.003194;0.030886;-0.013882;85.897590;0.030938;
1161;602;-0.030494;0.450839;0.999998;0.000490;-0.001172;0.002574;-0.000122;0.002578;-0.001176;-88.140201;0.002581;
1216;467;-0.042826;0.196948;1.000000;0.000145;-0.000532;0.001563;-0.000098;0.001568;-0.000537;-87.340109;0.001593;
1101;1257;1.541430;74.221652;0.999408;0.006245;-0.047271;0.113333;-0.004340;0.113450;-0.047388;-88.453256;0.113961;
1206;1332;-1.905428;80.058478;0.999892;0.003358;-0.026605;0.059704;0.006720;0.060225;-0.027125;85.574374;0.060323;
986;427;0.060821;0.147264;1.000000;0.000142;-0.000441;0.001511;0.000109;0.001517;-0.000447;86.826859;0.001559;
1216;1797;-0.038653;86.244479;1.000000;0.000183;-0.000478;0.001535;0.000102;0.001540;-0.000484;87.115941;0.001575;
1126;402;0.002523;0.096836;1.000000;0.000054;-0.000280;0.001412;0.000014;0.001413;-0.000280;89.530664;0.001496;
1146;1877;-0.001636;86.361554;1.000000;0.000153;-0.000144;0.001332;0.000024;0.001332;-0.000144;89.069384;0.001462;
1041;877;1.817970;4.602539;0.999878;0.003147;-0.020092;0.044115;0.007389;0.044954;-0.020932;83.519219;0.044990;
1041;1257;4.528678;73.700938;0.998963;0.009237;-0.050893;0.122602;-0.013442;0.123637;-0.051928;-85.595983;0.124164;
1071;1762;0.036057;86.191656;1.000000;0.000108;-0.000581;0.001588;-0.000073;0.001591;-0.000583;-88.077936;0.001609;
1086;837;0.650216;3.155642;0.999952;0.001964;-0.013619;0.030641;0.002887;0.030828;-0.013806;86.283236;0.030884;
1181;582;-0.049534;0.399366;0.999998;0.000431;-0.001024;0.002261;-0.000174;0.002271;-0.001033;-86.970257;0.002274;
1206;1337;-1.827986;80.334754;0.999905;0.002983;-0.025457;0.057100;0.006602;0.057625;-0.025982;85.456657;0.057718;
1221;467;-0.045675;0.197304;1.000000;0.000165;-0.000533;0.001562;-0.000102;0.001567;-0.000538;-87.229942;0.001592;
991;427;0.058456;0.146074;1.000000;0.000146;-0.000439;0.001515;0.000116;0.001522;-0.000446;86.613882;0.001565;
1051;847;1.241310;3.471711;0.999957;0.002033;-0.015256;0.033828;0.005428;0.034421;-0.015849;83.764879;0.034457;
1221;1797;-0.040583;86.243972;1.000000;0.000140;-0.000480;0.001538;0.000104;0.001543;-0.000486;87.043818;0.001578;
1146;397;-0.002869;0.089782;1.000000;0.000051;-0.000261;0.001399;-0.000018;0.001399;-0.000262;-89.386536;0.001488;
1046;1257;4.278353;73.818526;0.999504;0.006838;-0.050861;0.121936;-0.012369;0.122817;-0.051742;-85.926248;0.123323;
1046;877;1.716230;4.601382;0.999860;0.003226;-0.020000;0.044152;0.006956;0.044898;-0.020745;83.882021;0.044941;
1151;1867;-0.003057;86.348390;1.000000;0.000158;-0.000184;0.001358;0.000031;0.001359;-0.000185;88.855934;0.001474;
1076;1762;0.033287;86.192365;1.000000;0.000096;-0.000582;0.001587;-0.000067;0.001589;-0.000584;-88.220836;0.001607;
1086;842;0.679600;3.311426;0.999956;0.001564;-0.014241;0.032148;0.002992;0.032340;-0.014433;86.324564;0.032402;
1186;582;-0.054589;0.398981;0.999998;0.000383;-0.001006;0.002243;-0.000190;0.002254;-0.001017;-86.664977;0.002257;
1226;467;-0.048127;0.197164;1.000000;0.000238;-0.000533;0.001563;-0.000104;0.001568;-0.000538;-87.168593;0.001593;
1206;1342;-1.754222;80.607295;0.999890;0.003388;-0.024378;0.054587;0.006424;0.055106;-0.024897;85.379507;0.055191;
1196;477;-0.034452;0.210685;1.000000;0.000166;-0.000561;0.001580;-0.000072;0.001582;-0.000563;-88.063743;0.001604;
1051;852;1.295925;3.638446;0.999958;0.002162;-0.015968;0.035378;0.005593;0.035980;-0.016571;83.854956;0.036018;
1151;397;-0.004181;0.089805;1.000000;0.000051;-0.000262;0.001399;-0.000026;0.001400;-0.000262;-89.105637;0.001488;
1231;877;-1.875502;4.597269;0.999868;0.003545;-0.019944;0.044001;-0.007705;0.044916;-0.020860;-83.225579;0.044954;
1066;1262;3.108026;74.532858;0.999613;0.006514;-0.047604;0.112384;-0.008706;0.112857;-0.048077;-86.894541;0.113268;
1151;1872;-0.002685;86.355310;1.000000;0.000157;-0.000164;0.001344;0.000031;0.001345;-0.000165;88.805631;0.001467;
1011;1707;0.091733;86.098549;1.000000;0.000159;-0.000607;0.001611;-0.000207;0.001630;-0.000626;-84.710286;0.001645;
1086;847;0.710178;3.462539;0.999943;0.001501;-0.014898;0.033599;0.003096;0.033796;-0.015095;86.362267;0.033860;
1071;1737;0.042268;86.151870;1.000000;0.000098;-0.000659;0.001632;-0.000086;0.001635;-0.000662;-87.855674;0.001645;
1236;877;-1.980060;4.604854;0.999867;0.003445;-0.019934;0.043850;-0.008184;0.044883;-0.020967;-82.803477;0.044916;
1211;1332;-2.043691;80.051751;0.999882;0.003648;-0.026759;0.059883;0.007162;0.060471;-0.027347;85.306393;0.060563;
981;422;0.060196;0.141337;1.000000;0.000179;-0.000439;0.001513;0.000099;0.001518;-0.000444;87.099628;0.001560;
1071;572;0.065066;0.375788;0.999998;0.000469;-0.000911;0.002076;0.000205;0.002090;-0.000925;86.091617;0.002095;
996;422;0.053762;0.136673;1.000000;0.000126;-0.000429;0.001520;0.000124;0.001528;-0.000437;86.373305;0.001574;
1051;857;1.354194;3.811266;0.999950;0.002821;-0.016732;0.036950;0.005797;0.037569;-0.017351;83.906333;0.037606;
1111;417;0.008043;0.118218;1.000000;0.000050;-0.000340;0.001447;0.000035;0.001447;-0.000341;88.868297;0.001513;
1151;1877;-0.002537;86.362091;1.000000;0.000163;-0.000144;0.001333;0.000034;0.001334;-0.000145;88.696882;0.001464;
1071;1262;2.860688;74.573803;0.999612;0.006687;-0.047312;0.111820;-0.007937;0.112215;-0.047707;-87.151507;0.112633;
1221;1802;-0.039170;86.250945;1.000000;0.000175;-0.000463;0.001530;0.000107;0.001536;-0.000469;86.925097;0.001574;
1041;842;1.332230;3.318865;0.999955;0.002283;-0.014632;0.032072;0.005876;0.032800;-0.015360;82.937833;0.032822;
1031;867;1.856993;4.211293;0.999888;0.003567;-0.018607;0.040463;0.007707;0.041452;-0.019596;82.687212;0.041473;
1176;1772;-0.023388;86.208540;1.000000;0.000109;-0.000549;0.001566;0.000050;0.001568;-0.000550;88.640587;0.001591;
1216;1332;-2.184467;80.039117;0.999851;0.004092;-0.026867;0.060160;0.007678;0.060832;-0.027540;84.996757;0.060922;
981;432;0.065519;0.156060;1.000000;0.000177;-0.000447;0.001499;0.000095;0.001504;-0.000452;87.203685;0.001543;
1051;862;1.410350;3.997274;0.999937;0.003847;-0.017492;0.038649;0.005967;0.039276;-0.018119;83.999762;0.039315;
1001;422;0.051797;0.135934;1.000000;0.000129;-0.000428;0.001520;0.000130;0.001529;-0.000437;86.207384;0.001575;
1071;577;0.066238;0.387537;0.999998;0.000412;-0.000931;0.002129;0.000217;0.002144;-0.000946;85.969145;0.002149;
1101;417;0.011566;0.118608;1.000000;0.000056;-0.000343;0.001451;0.000050;0.001452;-0.000345;88.404076;0.001517;
1316;1877;-0.038268;86.342758;1.000000;0.000261;-0.000429;0.001680;0.000215;0.001702;-0.000451;84.231575;0.001764;
1031;872;1.939384;4.418513;0.999890;0.003150;-0.019407;0.042011;0.007992;0.043034;-0.020430;82.706278;0.043052;
1041;847;1.391836;3.474947;0.999957;0.002389;-0.015343;0.033707;0.006082;0.034450;-0.016086;83.036447;0.034475;
1076;1262;2.625598;74.607992;0.999565;0.006253;-0.046780;0.110898;-0.007276;0.111233;-0.047115;-87.363734;0.111665;
1006;1707;0.094777;86.098825;1.000000;0.000153;-0.000594;0.001596;-0.000216;0.001618;-0.000615;-84.429414;0.001633;
1046;1332;2.268671;80.039140;0.999837;0.003971;-0.026936;0.060296;-0.008416;0.061101;-0.027741;-84.539389;0.061187;
986;432;0.063012;0.154505;1.000000;0.000151;-0.000447;0.001505;0.000106;0.001511;-0.000453;86.897985;0.001551;
1106;417;0.009775;0.118420;1.000000;0.000042;-0.000341;0.001448;0.000043;0.001449;-0.000342;88.627628;0.001515;
1111;1707;0.018549;86.103135;1.000000;0.000103;-0.000847;0.001852;-0.000055;0.001853;-0.000848;-88.843134;0.001855;
1031;877;2.013077;4.628254;0.999631;0.004607;-0.020239;0.043752;0.008273;0.044805;-0.021291;82.751206;0.044823;
1036;1542;0.283863;85.540315;0.999995;0.000680;-0.003141;0.007670;-0.001867;0.007983;-0.003454;-80.470329;0.008007;
996;657;0.232129;0.594945;0.999995;0.000569;-0.001774;0.004666;0.001622;0.005051;-0.002160;76.630469;0.005069;
1201;477;-0.037339;0.211351;1.000000;0.000185;-0.000559;0.001582;-0.000078;0.001585;-0.000562;-87.910423;0.001607;
1041;852;1.456726;3.636718;0.999937;0.002949;-0.016056;0.035442;0.006310;0.036204;-0.016818;83.114781;0.036235;
1116;387;0.004105;0.075767;1.000000;0.000060;-0.000223;0.001379;0.000031;0.001379;-0.000223;88.894288;0.001481;
1081;832;0.687076;3.002243;0.999960;0.001621;-0.013038;0.029247;0.003074;0.029469;-0.013260;85.864335;0.029519;
1116;847;0.265716;3.460712;0.999950;0.002407;-0.014713;0.033417;0.001078;0.033441;-0.014737;88.717893;0.033520;
991;432;0.060714;0.153263;1.000000;0.000173;-0.000446;0.001511;0.000113;0.001517;-0.000452;86.705875;0.001558;
1111;1697;0.019706;86.083392;1.000000;0.000123;-0.000902;0.001947;-0.000059;0.001948;-0.000903;-88.805464;0.001950;
1116;392;0.004465;0.082812;1.000000;0.000048;-0.000243;0.001389;0.000031;0.001389;-0.000243;88.925992;0.001484;
1006;1712;0.092613;86.107000;1.000000;0.000186;-0.000595;0.001593;-0.000206;0.001612;-0.000614;-84.672614;0.001627;
1171;882;-0.729789;4.794762;0.999868;0.003173;-0.020061;0.045196;-0.002776;0.045314;-0.020179;-87.568320;0.045404;
1061;832;0.946076;3.000058;0.999948;0.002108;-0.013206;0.029354;0.004274;0.029779;-0.013631;84.321448;0.029815;
1121;387;0.003049;0.075666;1.000000;0.000071;-0.000222;0.001378;0.000023;0.001378;-0.000223;89.191676;0.001480;
1026;1552;0.273498;85.616184;0.999995;0.000714;-0.002772;0.006924;-0.001859;0.007268;-0.003116;-79.507788;0.007293;
1261;432;-0.052591;0.149120;1.000000;0.000138;-0.000450;0.001513;-0.000125;0.001521;-0.000458;-86.372563;0.001561;
1141;737;-0.027304;1.183219;0.999995;0.000696;-0.004681;0.011403;-0.000162;0.011405;-0.004683;-89.424138;0.011465;
1086;832;0.621925;3.001945;0.999954;0.001877;-0.013010;0.029226;0.002776;0.029408;-0.013192;86.255246;0.029460;
1121;847;0.196754;3.456718;0.999942;0.001879;-0.014688;0.033397;0.000723;0.033407;-0.014699;89.139031;0.033487;
1176;597;-0.047434;0.435279;0.999999;0.000315;-0.001109;0.002471;-0.000183;0.002481;-0.001118;-87.079818;0.002485;
1111;1702;0.019262;86.093548;1.000000;0.000117;-0.000874;0.001897;-0.000057;0.001898;-0.000876;-88.812742;0.001900;
1121;392;0.003128;0.082680;1.000000;0.000061;-0.000242;0.001388;0.000022;0.001388;-0.000243;89.211310;0.001483;
1021;447;0.053386;0.170354;1.000000;0.000164;-0.000485;0.001538;0.000122;0.001545;-0.000492;86.561465;0.001578;
996;1562;0.313969;85.684030;0.999994;0.000812;-0.002457;0.006240;-0.002109;0.006725;-0.002941;-77.061569;0.006742;
1196;887;-1.285782;5.034843;0.999846;0.002600;-0.021339;0.047771;-0.004961;0.048126;-0.021693;-85.914645;0.048203;
1126;387;0.001908;0.075583;1.000000;0.000066;-0.000222;0.001378;0.000014;0.001378;-0.000222;89.492491;0.001480;
1066;832;0.883405;3.002001;0.999949;0.001700;-0.013151;0.029326;0.003955;0.029691;-0.013516;84.725451;0.029731;
1231;467;-0.051450;0.198644;1.000000;0.000190;-0.000535;0.001562;-0.000107;0.001567;-0.000540;-87.088854;0.001592;
1146;737;-0.049794;1.183638;0.999995;0.000657;-0.004687;0.011414;-0.000308;0.011420;-0.004693;-88.905214;0.011480;
1051;832;1.078746;3.000677;0.999949;0.001830;-0.013267;0.029425;0.004897;0.029979;-0.013822;83.539049;0.030010;
1061;842;1.039402;3.315657;0.999967;0.002113;-0.014502;0.032260;0.004576;0.032704;-0.014945;84.463364;0.032744;
1126;392;0.002102;0.082469;1.000000;0.000064;-0.000242;0.001388;0.000014;0.001388;-0.000242;89.497738;0.001483;
1001;1562;0.299966;85.680682;0.999996;0.000565;-0.002476;0.006267;-0.002047;0.006722;-0.002931;-77.456277;0.006740;
1026;447;0.050945;0.169629;1.000000;0.000147;-0.000485;0.001538;0.000119;0.001545;-0.000492;86.655011;0.001579;
1181;587;-0.051011;0.411587;0.999998;0.000365;-0.001044;0.002318;-0.000186;0.002328;-0.001055;-86.845982;0.002331;
1161;1777;-0.014683;86.217356;1.000000;0.000094;-0.000530;0.001553;0.000034;0.001554;-0.000531;89.077703;0.001580;
1201;887;-1.390798;5.040554;0.999866;0.002770;-0.021452;0.047897;-0.005402;0.048315;-0.021870;-85.572587;0.048387;
1071;832;0.820746;2.997367;0.999952;0.001724;-0.013098;0.029296;0.003649;0.029607;-0.013410;85.116749;0.029651;
1101;422;0.012112;0.125938;1.000000;0.000058;-0.000363;0.001463;0.000048;0.001464;-0.000364;88.485594;0.001524;
1051;837;1.133319;3.156337;0.999950;0.001875;-0.013891;0.030750;0.005081;0.031320;-0.014462;83.588214;0.031351;
1136;492;-0.000908;0.232728;1.000000;0.000149;-0.000633;0.001601;-0.000002;0.001601;-0.000633;-89.956778;0.001613;
1186;727;-0.205820;1.083330;0.999993;0.000794;-0.004171;0.010221;-0.001296;0.010337;-0.004287;-84.893650;0.010387;
1146;392;-0.002794;0.082644;1.000000;0.000053;-0.000242;0.001387;-0.000018;0.001388;-0.000243;-89.358713;0.001482;
1026;1557;0.257478;85.647185;0.999995;0.001018;-0.002605;0.006537;-0.001765;0.006866;-0.002934;-79.445788;0.006890;
1066;1747;0.043230;86.167087;1.000000;0.000113;-0.000625;0.001613;-0.000083;0.001616;-0.000628;-87.885488;0.001630;
1206;887;-1.495242;5.043341;0.999864;0.003160;-0.021577;0.048025;-0.005869;0.048517;-0.022068;-85.214096;0.048583;
1031;447;0.048466;0.169186;1.000000;0.000155;-0.000485;0.001539;0.000115;0.001546;-0.000492;86.762621;0.001579;
1076;832;0.754973;2.999642;0.999946;0.001855;-0.013054;0.029270;0.003356;0.029534;-0.013318;85.494774;0.029582;
1066;842;0.967121;3.313806;0.999970;0.001786;-0.014426;0.032224;0.004243;0.032607;-0.014809;84.844712;0.032652;
1036;842;1.410687;3.319152;0.999958;0.002621;-0.014659;0.031989;0.006219;0.032804;-0.015474;82.534706;0.032822;
1106;422;0.010271;0.125789;1.000000;0.000052;-0.000361;0.001460;0.000041;0.001461;-0.000362;88.698349;0.001522;
1076;472;0.032119;0.202744;1.000000;0.000198;-0.000553;0.001572;0.000068;0.001574;-0.000556;88.181742;0.001597;
1151;392;-0.003932;0.082908;1.000000;0.000058;-0.000242;0.001388;-0.000026;0.001388;-0.000243;-89.069530;0.001483;
996;612;0.145432;0.440660;0.999995;0.000743;-0.000802;0.002325;0.000732;0.002488;-0.000965;77.462860;0.002509;
1026;1562;0.239102;85.677189;0.999994;0.000851;-0.002446;0.006194;-0.001669;0.006505;-0.002757;-79.435361;0.006530;
1066;1752;0.041656;86.175457;1.000000;0.000107;-0.000611;0.001604;-0.000081;0.001607;-0.000614;-87.905938;0.001622;
1036;847;1.473295;3.475591;0.999961;0.002331;-0.015378;0.033623;0.006438;0.034455;-0.016210;82.638307;0.034475;
1056;832;1.015306;2.998810;0.999957;0.002109;-0.013223;0.029384;0.004589;0.029872;-0.013712;83.922202;0.029906;
1071;842;0.897977;3.315278;0.999969;0.001536;-0.014355;0.032193;0.003914;0.032520;-0.014682;85.226914;0.032571;
1111;422;0.008522;0.125517;1.000000;0.000049;-0.000360;0.001458;0.000034;0.001459;-0.000360;88.932091;0.001520;
1151;902;-0.385021;5.730314;0.999859;0.003047;-0.023416;0.053105;-0.001370;0.053129;-0.023440;-88.974288;0.053252;
1041;452;0.045137;0.175739;1.000000;0.000171;-0.000498;0.001548;0.000108;0.001554;-0.000504;86.976187;0.001586;
1181;592;-0.051705;0.422672;0.999999;0.000246;-0.001067;0.002382;-0.000196;0.002393;-0.001078;-86.750222;0.002397;
1076;477;0.032699;0.210900;1.000000;0.000233;-0.000570;0.001583;0.000067;0.001585;-0.000572;88.213590;0.001605;
1156;392;-0.005283;0.082862;1.000000;0.000045;-0.000243;0.001388;-0.000035;0.001389;-0.000244;-88.784474;0.001483;
1036;852;1.539120;3.636730;0.999948;0.002452;-0.016086;0.035445;0.006677;0.036297;-0.016937;82.735357;0.036324;
1066;1757;0.040147;86.183462;1.000000;0.000100;-0.000595;0.001595;-0.000080;0.001598;-0.000598;-87.912971;0.001615;
1056;1542;0.220253;85.542837;0.999994;0.000578;-0.003053;0.007543;-0.001477;0.007745;-0.003255;-82.211392;0.007778;
1226;702;-0.266440;0.871040;0.999994;0.000767;-0.003174;0.007790;-0.001799;0.008077;-0.003462;-80.914462;0.008105;
1056;842;1.115572;3.313885;0.999958;0.002099;-0.014543;0.032287;0.004906;0.032795;-0.015051;84.082562;0.032832;
1051;827;1.032409;2.865074;0.999961;0.001672;-0.012657;0.028140;0.004707;0.028676;-0.013193;83.503728;0.028706;
1116;422;0.006766;0.125446;1.000000;0.000058;-0.000359;0.001457;0.000026;0.001457;-0.000360;89.174914;0.001518;
1156;877;-0.404177;4.567937;0.999869;0.003164;-0.019021;0.043099;-0.001566;0.043139;-0.019061;-88.557245;0.043236;
1291;417;-0.059104;0.134113;1.000000;0.000162;-0.000435;0.001505;-0.000095;0.001510;-0.000440;-87.212255;0.001553;
1181;597;-0.052300;0.434755;0.999999;0.000231;-0.001090;0.002454;-0.000207;0.002466;-0.001102;-86.664372;0.002471;
1031;842;1.480335;3.320339;0.999953;0.002195;-0.014696;0.031842;0.006580;0.032754;-0.015609;82.104499;0.032766;
1076;482;0.034389;0.219127;1.000000;0.000209;-0.000588;0.001592;0.000069;0.001594;-0.000590;88.177798;0.001612;
1141;392;-0.001451;0.082681;1.000000;0.000043;-0.000242;0.001387;-0.000010;0.001387;-0.000242;-89.657510;0.001482;
1066;1737;0.045456;86.151144;1.000000;0.000111;-0.000653;0.001631;-0.000092;0.001635;-0.000657;-87.705263;0.001645;
1076;842;0.826089;3.312438;0.999958;0.002148;-0.014309;0.032178;0.003603;0.032455;-0.014586;85.594453;0.032511;
1056;827;0.968011;2.863491;0.999968;0.001635;-0.012620;0.028108;0.004407;0.028579;-0.013091;83.893676;0.028613;
1231;702;-0.281696;0.871161;0.999991;0.000853;-0.003196;0.007828;-0.001897;0.008145;-0.003513;-80.505778;0.008171;
1141;387;-0.001276;0.075645;1.000000;0.000048;-0.000223;0.001378;-0.000010;0.001378;-0.000223;-89.628259;0.001479;
1156;882;-0.421379;4.792040;0.999869;0.003041;-0.019830;0.044997;-0.001596;0.045036;-0.019869;-88.590467;0.045140;
1201;1532;-0.224475;85.457548;0.999994;0.000613;-0.003527;0.008620;0.001426;0.008785;-0.003692;83.393808;0.008822;
1296;417;-0.061013;0.135498;1.000000;0.000163;-0.000453;0.001498;-0.000081;0.001502;-0.000456;-87.639396;0.001540;
1151;597;-0.017894;0.437963;0.999999;0.000333;-0.001165;0.002531;-0.000069;0.002532;-0.001166;-88.923292;0.002535;
1101;402;0.009546;0.097188;1.000000;0.000057;-0.000285;0.001419;0.000054;0.001421;-0.000287;88.183570;0.001503;
1101;487;0.020436;0.225370;1.000000;0.000173;-0.000608;0.001592;0.000042;0.001593;-0.000608;88.911308;0.001608;
1066;1742;0.043982;86.158955;1.000000;0.000102;-0.000639;0.001621;-0.000087;0.001624;-0.000642;-87.807537;0.001636;
1051;842;1.189375;3.315140;0.999948;0.002059;-0.014565;0.032232;0.005257;0.032816;-0.015148;83.669042;0.032848;
1061;827;0.904589;2.857120;0.999958;0.001508;-0.012599;0.028086;0.004103;0.028496;-0.013009;84.298738;0.028532;
1146;387;-0.002515;0.075649;1.000000;0.000055;-0.000223;0.001378;-0.000019;0.001378;-0.000223;-89.320228;0.001479;
1151;742;-0.081609;1.241429;0.999994;0.000841;-0.004980;0.012123;-0.000471;0.012136;-0.004992;-88.424158;0.012199;
1081;1262;2.394440;74.633911;0.999539;0.005909;-0.046414;0.110103;-0.006614;0.110382;-0.046693;-87.584641;0.110818;
1156;887;-0.442479;5.020175;0.999841;0.002757;-0.020678;0.047040;-0.001628;0.047079;-0.020717;-88.623526;0.047191;
1026;1567;0.222965;85.708089;0.999995;0.000647;-0.002282;0.005848;-0.001581;0.006145;-0.002579;-79.372841;0.006172;
1301;417;-0.063369;0.137560;1.000000;0.000171;-0.000455;0.001493;-0.000074;0.001495;-0.000458;-87.817673;0.001532;
1156;597;-0.023958;0.438134;0.999999;0.000361;-0.001156;0.002522;-0.000092;0.002525;-0.001159;-88.570775;0.002527;
1321;397;-0.061580;0.117879;0.999990;0.000899;-0.000497;0.001508;-0.000075;0.001510;-0.000500;-87.870615;0.001539;
1101;407;0.010106;0.104188;1.000000;0.000057;-0.000305;0.001431;0.000053;0.001433;-0.000306;88.258275;0.001509;
1071;1767;0.035423;86.199967;1.000000;0.000113;-0.000564;0.001578;-0.000073;0.001581;-0.000567;-88.064078;0.001602;
1046;847;1.319915;3.473696;0.999958;0.002340;-0.015299;0.033749;0.005734;0.034410;-0.015960;83.419756;0.034440;
1051;822;0.987882;2.735345;0.999970;0.001364;-0.012059;0.026863;0.004535;0.027385;-0.012581;83.440738;0.027415;
1151;387;-0.003756;0.075671;1.000000;0.000061;-0.000223;0.001378;-0.000027;0.001379;-0.000224;-89.016987;0.001480;
1156;742;-0.105547;1.241921;0.999994;0.000814;-0.004970;0.012126;-0.000624;0.012149;-0.004993;-87.911043;0.012213;
1191;887;-1.178566;5.032673;0.999857;0.002529;-0.021257;0.047657;-0.004532;0.047954;-0.021554;-86.253620;0.048035;
1026;1547;0.292112;85.579902;0.999994;0.000598;-0.002940;0.007306;-0.001969;0.007671;-0.003305;-79.486990;0.007696;
1086;1262;2.163345;74.660891;0.999439;0.006425;-0.046097;0.109411;-0.006008;0.109643;-0.046328;-87.790823;0.110080;
1206;467;-0.038432;0.196119;1.000000;0.000179;-0.000531;0.001564;-0.000086;0.001568;-0.000534;-87.646270;0.001594;
1161;597;-0.030074;0.437895;0.999998;0.000387;-0.001146;0.002513;-0.000116;0.002516;-0.001149;-88.187850;0.002519;
1181;482;-0.027316;0.217714;1.000000;0.000180;-0.000586;0.001582;-0.000057;0.001584;-0.000588;-88.498187;0.001601;
1316;1882;-0.034594;86.351335;1.000000;0.000228;-0.000414;0.001691;0.000239;0.001718;-0.000441;83.594583;0.001784;
1046;852;1.375533;3.639211;0.999950;0.002956;-0.016003;0.035417;0.005950;0.036096;-0.016682;83.485301;0.036131;
1076;1767;0.032405;86.200452;1.000000;0.000087;-0.000566;0.001577;-0.000067;0.001579;-0.000568;-88.209587;0.001599;
1056;822;0.925247;2.732685;0.999974;0.001438;-0.012025;0.026851;0.004248;0.027310;-0.012484;83.836657;0.027343;
1176;887;-0.860560;5.027294;0.999890;0.003036;-0.020995;0.047350;-0.003241;0.047504;-0.021148;-87.290693;0.047599;
1161;742;-0.129099;1.245640;0.999993;0.000767;-0.004966;0.012123;-0.000779;0.012159;-0.005002;-87.395800;0.012222;
1051;1257;4.002073;73.881377;0.999521;0.007816;-0.050637;0.120956;-0.011415;0.121712;-0.051393;-86.210737;0.122201;
1186;482;-0.030061;0.218222;1.000000;0.000192;-0.000582;0.001584;-0.000062;0.001586;-0.000584;-88.368135;0.001604;
1161;497;-0.017259;0.240368;1.000000;0.000233;-0.000651;0.001618;-0.000037;0.001619;-0.000651;-89.059201;0.001629;
1046;857;1.438574;3.808819;0.999936;0.003613;-0.016775;0.037000;0.006168;0.037698;-0.017473;83.540188;0.037732;
1151;1507;-0.081998;85.224582;0.999993;0.000563;-0.004650;0.011405;0.000451;0.011418;-0.004662;88.393841;0.011482;
1081;1767;0.029581;86.200734;1.000000;0.000103;-0.000567;0.001576;-0.000062;0.001578;-0.000569;-88.351468;0.001598;
1161;397;-0.006886;0.089921;1.000000;0.000060;-0.000265;0.001401;-0.000042;0.001402;-0.000266;-88.566730;0.001490;
1061;822;0.864797;2.729441;0.999970;0.001293;-0.012008;0.026853;0.003956;0.027251;-0.012407;84.246344;0.027288;
991;662;0.257782;0.619152;0.999996;0.000797;-0.001897;0.004964;0.001836;0.005425;-0.002358;75.921546;0.005440;
1181;887;-0.966944;5.024708;0.999886;0.002297;-0.021083;0.047442;-0.003680;0.047639;-0.021280;-86.934997;0.047729;
1316;1887;-0.029584;86.360385;1.000000;0.000174;-0.000390;0.001705;0.000273;0.001740;-0.000425;82.697499;0.001815;
1091;1262;1.932914;74.693021;0.999390;0.007547;-0.045780;0.108824;-0.005431;0.109015;-0.045971;-87.990437;0.109460;
1191;482;-0.033278;0.218454;1.000000;0.000176;-0.000579;0.001585;-0.000068;0.001587;-0.000581;-88.214047;0.001605;
1046;842;1.260093;3.316487;0.999948;0.002007;-0.014593;0.032124;0.005542;0.032772;-0.015242;83.326987;0.032799;
1166;497;-0.020517;0.240972;1.000000;0.000202;-0.000647;0.001618;-0.000044;0.001619;-0.000648;-88.875270;0.001630;
1066;1762;0.038909;86.191076;1.000000;0.000113;-0.000579;0.001589;-0.000079;0.001592;-0.000582;-87.919155;0.001611;
996;662;0.248720;0.620547;0.999995;0.000653;-0.001912;0.004996;0.001754;0.005416;-0.002332;76.536469;0.005433;
1111;387;0.005262;0.075834;1.000000;0.000049;-0.000224;0.001380;0.000039;0.001381;-0.000225;88.597738;0.001482;
1076;822;0.684316;2.724231;0.999957;0.001845;-0.011858;0.026893;0.003113;0.027141;-0.012106;85.436589;0.027194;
1186;887;-1.072520;5.029223;0.999871;0.002359;-0.021176;0.047545;-0.004107;0.047790;-0.021421;-86.591707;0.047875;
1041;1262;4.356453;74.320413;0.999259;0.008598;-0.048636;0.116236;-0.013254;0.117294;-0.049695;-85.433199;0.117749;
1191;1527;-0.207405;85.417644;0.999995;0.000519;-0.003713;0.009073;0.001270;0.009198;-0.003838;84.380837;0.009239;
1031;847;1.550780;3.482320;0.999956;0.002157;-0.015418;0.033459;0.006814;0.034391;-0.016350;82.210361;0.034405;
1136;1872;-0.000458;86.355685;1.000000;0.000203;-0.000163;0.001341;0.000004;0.001341;-0.000163;89.847696;0.001464;
1081;842;0.753980;3.308818;0.999961;0.002081;-0.014283;0.032163;0.003304;0.032397;-0.014517;85.950966;0.032455;
1171;487;-0.022140;0.225440;1.000000;0.000160;-0.000605;0.001594;-0.000046;0.001595;-0.000606;-88.804046;0.001610;
1016;442;0.053984;0.163678;1.000000;0.000184;-0.000472;0.001533;0.000123;0.001541;-0.000480;86.501597;0.001577;
1046;1262;4.103954;74.362143;0.999518;0.006721;-0.048593;0.115776;-0.012228;0.116680;-0.049497;-85.768475;0.117126;
1141;742;-0.029670;1.238699;0.999995;0.000638;-0.004985;0.012110;-0.000167;0.012112;-0.004986;-89.439889;0.012174;
1166;1777;-0.017206;86.217050;1.000000;0.000100;-0.000531;0.001555;0.000040;0.001556;-0.000532;88.897457;0.001582;
1141;382;-0.001297;0.068870;1.000000;0.000048;-0.000203;0.001367;-0.000011;0.001367;-0.000203;-89.609360;0.001475;
1196;1527;-0.222971;85.416275;0.999995;0.000434;-0.003735;0.009095;0.001383;0.009242;-0.003883;83.915348;0.009281;
1146;907;-0.278096;5.999582;0.999862;0.002963;-0.024388;0.055373;-0.001004;0.055385;-0.024401;-89.278669;0.055516;
1031;852;1.621790;3.641822;0.999938;0.002659;-0.016130;0.035408;0.007060;0.036357;-0.017079;82.339630;0.036379;
1051;1262;3.849364;74.409589;0.999594;0.007435;-0.048388;0.115007;-0.011289;0.115784;-0.049165;-86.066285;0.116221;
1081;847;0.781254;3.460790;0.999955;0.002115;-0.014948;0.033637;0.003414;0.033875;-0.015187;86.000135;0.033936;
1266;432;-0.054773;0.150152;1.000000;0.000158;-0.000452;0.001510;-0.000120;0.001518;-0.000459;-86.500161;0.001557;
1136;1877;-0.000746;86.362416;1.000000;0.000200;-0.000143;0.001330;0.000006;0.001330;-0.000143;89.761087;0.001460;
1191;592;-0.061840;0.420375;0.999999;0.000295;-0.001033;0.002341;-0.000230;0.002357;-0.001049;-86.115077;0.002361;
1101;412;0.010889;0.111301;1.000000;0.000052;-0.000324;0.001441;0.000051;0.001442;-0.000325;88.335490;0.001513;
1146;742;-0.055055;1.240217;0.999995;0.000690;-0.004988;0.012117;-0.000319;0.012123;-0.004994;-88.931349;0.012185;
1181;722;-0.173016;1.034522;0.999995;0.000683;-0.003894;0.009619;-0.001120;0.009711;-0.003987;-85.291951;0.009762;
1171;1777;-0.020002;86.216852;1.000000;0.000119;-0.000531;0.001557;0.000046;0.001558;-0.000532;88.750396;0.001584;
1011;1712;0.089773;86.106891;1.000000;0.000166;-0.000607;0.001608;-0.000198;0.001625;-0.000625;-84.935741;0.001639;
1196;587;-0.065923;0.409291;0.999998;0.000296;-0.000993;0.002252;-0.000230;0.002268;-0.001009;-85.960603;0.002273;
1146;382;-0.002272;0.068752;1.000000;0.000048;-0.000204;0.001367;-0.000019;0.001367;-0.000204;-89.294207;0.001475;
1081;822;0.625696;2.723797;0.999968;0.001606;-0.011849;0.026905;0.002845;0.027113;-0.012057;85.823724;0.027168;
1281;1902;-0.008700;86.392576;0.999999;0.000311;-0.000103;0.001488;0.000310;0.001546;-0.000161;79.370309;0.001701;
1046;1337;2.178373;80.337923;0.999839;0.003391;-0.025900;0.057852;-0.008075;0.058623;-0.026671;-84.542552;0.058702;
1001;662;0.238697;0.621227;0.999994;0.000576;-0.001919;0.004999;0.001676;0.005384;-0.002304;77.075958;0.005402;
1151;382;-0.003422;0.068842;1.000000;0.000058;-0.000204;0.001368;-0.000028;0.001368;-0.000204;-88.977424;0.001476;
1191;597;-0.062870;0.431964;0.999999;0.000284;-0.001057;0.002415;-0.000245;0.002432;-0.001074;-85.975751;0.002438;
1261;437;-0.054715;0.156839;1.000000;0.000131;-0.000461;0.001516;-0.000122;0.001524;-0.000468;-86.482903;0.001561;
1131;382;0.000658;0.068920;1.000000;0.000052;-0.000203;0.001367;0.000006;0.001367;-0.000203;89.784026;0.001475;
1196;582;-0.064751;0.397446;0.999998;0.000403;-0.000970;0.002193;-0.000216;0.002207;-0.000985;-86.107165;0.002212;
1091;1772;0.023193;86.209008;1.000000;0.000119;-0.000551;0.001565;-0.000051;0.001566;-0.000552;-88.619342;0.001588;
1181;727;-0.185943;1.080631;0.999994;0.000666;-0.004156;0.010208;-0.001171;0.010303;-0.004251;-85.370628;0.010355;
1226;1797;-0.043081;86.243760;1.000000;0.000113;-0.000481;0.001540;0.000107;0.001546;-0.000487;86.987843;0.001581;
1086;822;0.568881;2.726082;0.999960;0.001634;-0.011842;0.026915;0.002572;0.027085;-0.012012;86.219153;0.027143;
1306;1867;-0.041250;86.332828;1.000000;0.000224;-0.000426;0.001605;0.000172;0.001619;-0.000441;85.198738;0.001674;
1156;382;-0.004373;0.068820;1.000000;0.000047;-0.000204;0.001368;-0.000037;0.001369;-0.000205;-88.663772;0.001477;
1266;437;-0.057286;0.158201;1.000000;0.000152;-0.000462;0.001513;-0.000118;0.001520;-0.000469;-86.604083;0.001556;
1051;1332;2.135301;80.046178;0.999879;0.004747;-0.026834;0.060168;-0.007876;0.060875;-0.027541;-84.868728;0.060967;
1191;602;-0.064569;0.444914;0.999999;0.000296;-0.001081;0.002488;-0.000260;0.002507;-0.001100;-85.860436;0.002513;
1016;677;0.254973;0.706001;0.999994;0.000644;-0.002381;0.005956;0.001741;0.006305;-0.002730;78.665912;0.006324;
1131;387;0.000785;0.075586;1.000000;0.000044;-0.000222;0.001378;0.000006;0.001378;-0.000222;89.788213;0.001479;
1186;612;-0.061843;0.471383;0.999998;0.000362;-0.001149;0.002671;-0.000270;0.002690;-0.001168;-85.970779;0.002698;
1076;1772;0.031290;86.208341;1.000000;0.000083;-0.000550;0.001568;-0.000068;0.001570;-0.000552;-88.168667;0.001593;
1046;822;1.048594;2.736142;0.999962;0.001569;-0.012073;0.026809;0.004810;0.027395;-0.012659;83.051837;0.027421;
1226;1802;-0.041342;86.250498;1.000000;0.000136;-0.000465;0.001532;0.000110;0.001538;-0.000471;86.848010;0.001576;
1311;1867;-0.043681;86.330019;1.000000;0.000180;-0.000445;0.001618;0.000163;0.001631;-0.000458;85.515569;0.001682;
1106;722;0.109172;1.029631;0.999994;0.000527;-0.003798;0.009479;0.000666;0.009512;-0.003831;87.136910;0.009572;
1156;387;-0.004842;0.075761;1.000000;0.000049;-0.000224;0.001379;-0.000036;0.001380;-0.000225;-88.716597;0.001481;
1271;432;-0.057374;0.151219;1.000000;0.000156;-0.000451;0.001507;-0.000116;0.001514;-0.000458;-86.622281;0.001553;
1056;1332;1.995138;80.055697;0.999875;0.006578;-0.026747;0.060016;-0.007342;0.060633;-0.027364;-85.196829;0.060729;
1181;607;-0.054344;0.458820;0.999998;0.000333;-0.001139;0.002596;-0.000229;0.002610;-0.001153;-86.498012;0.002616;
1131;392;0.000709;0.082638;1.000000;0.000051;-0.000242;0.001388;0.000006;0.001388;-0.000242;89.780360;0.001482;
1191;612;-0.068094;0.469907;0.999998;0.000419;-0.001133;0.002655;-0.000293;0.002677;-0.001156;-85.597208;0.002686;
1081;1772;0.028736;86.208813;1.000000;0.000108;-0.000550;0.001567;-0.000063;0.001569;-0.000552;-88.309725;0.001591;
1316;1867;-0.045739;86.326841;1.000000;0.000176;-0.000472;0.001628;0.000145;0.001638;-0.000482;86.056461;0.001684;
1046;827;1.096288;2.864668;0.999953;0.002073;-0.012680;0.028099;0.004976;0.028698;-0.013279;83.142820;0.028724;
1106;727;0.116488;1.079489;0.999994;0.000621;-0.004058;0.010085;0.000702;0.010120;-0.004092;87.164328;0.010181;
1061;837;0.993341;3.155757;0.999962;0.002079;-0.013834;0.030746;0.004431;0.031183;-0.014271;84.377956;0.031220;
1136;382;-0.000387;0.068903;1.000000;0.000050;-0.000203;0.001367;-0.000002;0.001367;-0.000203;-89.909298;0.001475;
1216;1717;-0.063390;86.115728;1.000000;0.000156;-0.000685;0.001679;0.000139;0.001688;-0.000693;86.636919;0.001697;
1271;437;-0.059588;0.158713;1.000000;0.000181;-0.000460;0.001509;-0.000113;0.001516;-0.000466;-86.722144;0.001553;
1061;1332;1.861681;80.066395;0.999867;0.004313;-0.026649;0.059932;-0.006866;0.060473;-0.027190;-85.493707;0.060575;
1316;1872;-0.041960;86.334909;1.000000;0.000209;-0.000454;0.001646;0.000182;0.001662;-0.000469;85.088783;0.001713;
1196;612;-0.073916;0.468713;0.999998;0.000448;-0.001115;0.002640;-0.000314;0.002666;-0.001141;-85.255885;0.002675;
1161;392;-0.006549;0.082798;1.000000;0.000048;-0.000245;0.001390;-0.000043;0.001391;-0.000246;-88.499935;0.001484;
1086;1767;0.026494;86.200676;1.000000;0.000134;-0.000568;0.001575;-0.000056;0.001577;-0.000570;-88.511722;0.001597;
1046;832;1.144360;3.002445;0.999944;0.001938;-0.013301;0.029384;0.005161;0.029999;-0.013916;83.203431;0.030025;
1106;732;0.124449;1.130350;0.999995;0.000601;-0.004344;0.010700;0.000736;0.010736;-0.004380;87.203896;0.010796;
1056;817;0.882656;2.607293;0.999975;0.001487;-0.011445;0.025596;0.004107;0.026045;-0.011895;83.748942;0.026078;
1136;387;-0.000330;0.075656;1.000000;0.000041;-0.000222;0.001378;-0.000002;0.001378;-0.000222;-89.917931;0.001479;
1056;1252;3.913168;73.385613;0.999463;0.006556;-0.052642;0.125894;-0.010785;0.126543;-0.053291;-86.555574;0.127067;
1221;1717;-0.066792;86.115597;1.000000;0.000148;-0.000675;0.001672;0.000145;0.001681;-0.000684;86.471634;0.001691;
1041;457;0.046946;0.183590;1.000000;0.000160;-0.000512;0.001556;0.000107;0.001562;-0.000518;87.053470;0.001591;
1196;1347;-1.447058;80.884094;0.999822;0.003335;-0.023116;0.052005;0.005322;0.052381;-0.023491;85.967371;0.052473;
1181;612;-0.055425;0.472378;0.999998;0.000447;-0.001166;0.002687;-0.000245;0.002702;-0.001181;-86.377743;0.002710;
1141;377;-0.001201;0.062225;1.000000;0.000047;-0.000184;0.001354;-0.000011;0.001354;-0.000184;-89.605491;0.001469;
1086;1772;0.025909;86.208647;1.000000;0.000132;-0.000551;0.001566;-0.000057;0.001567;-0.000552;-88.462756;0.001590;
1066;822;0.806097;2.729831;0.999973;0.001441;-0.011954;0.026864;0.003664;0.027206;-0.012297;84.655219;0.027248;
1156;1867;-0.004096;86.348300;0.999999;0.000207;-0.000184;0.001360;0.000040;0.001361;-0.000185;88.522590;0.001476;
1061;817;0.826487;2.607814;0.999972;0.001189;-0.011432;0.025616;0.003823;0.026006;-0.011822;84.169584;0.026042;
1056;1257;3.741774;73.939312;0.999508;0.006314;-0.050303;0.119897;-0.010521;0.120545;-0.050951;-86.475954;0.121024;
1151;737;-0.073336;1.184344;0.999995;0.000629;-0.004683;0.011421;-0.000453;0.011434;-0.004695;-88.388603;0.011495;
1136;392;-0.000402;0.082711;1.000000;0.000040;-0.000242;0.001387;-0.000002;0.001387;-0.000242;-89.936899;0.001482;
1041;462;0.048264;0.191295;1.000000;0.000167;-0.000527;0.001559;0.000106;0.001565;-0.000532;87.109282;0.001591;
1131;397;0.000893;0.089666;1.000000;0.000057;-0.000261;0.001399;0.000006;0.001399;-0.000261;89.777080;0.001488;
1076;1347;1.297798;80.906127;0.999842;0.004846;-0.023212;0.052192;-0.004924;0.052512;-0.023533;-86.279922;0.052606;
1121;1647;0.013550;85.971675;1.000000;0.000147;-0.001165;0.002525;-0.000055;0.002526;-0.001165;-89.146891;0.002528;
1071;1772;0.034148;86.207757;1.000000;0.000111;-0.000548;0.001569;-0.000073;0.001571;-0.000551;-88.028869;0.001595;
1066;827;0.844345;2.856722;0.999964;0.001582;-0.012542;0.028071;0.003798;0.028424;-0.012894;84.703633;0.028464;
991;557;0.113463;0.344707;0.999998;0.000508;-0.000519;0.001575;0.000295;0.001616;-0.000560;82.135543;0.001641;
1131;1867;0.000741;86.348611;1.000000;0.000213;-0.000182;0.001354;-0.000004;0.001354;-0.000182;-89.855596;0.001470;
1066;817;0.771173;2.604357;0.999973;0.001226;-0.011383;0.025651;0.003542;0.025987;-0.011719;84.585769;0.026028;
1106;427;0.010804;0.133095;1.000000;0.000057;-0.000381;0.001471;0.000040;0.001472;-0.000382;88.749381;0.001527;
1051;467;0.044530;0.197521;1.000000;0.000167;-0.000538;0.001565;0.000096;0.001570;-0.000542;87.384092;0.001595;
1151;372;-0.002706;0.055564;1.000000;0.000049;-0.000165;0.001342;-0.000029;0.001343;-0.000165;-88.916354;0.001464;
1156;892;-0.461217;5.241176;0.999848;0.002807;-0.021568;0.049029;-0.001681;0.049069;-0.021608;-88.636379;0.049186;
1126;1647;0.007584;85.971700;1.000000;0.000149;-0.001167;0.002531;-0.000034;0.002532;-0.001168;-89.474333;0.002534;
1096;1777;0.019514;86.217151;1.000000;0.000111;-0.000532;0.001555;-0.000046;0.001556;-0.000533;-88.730285;0.001581;
1091;822;0.510700;2.725424;0.999959;0.001541;-0.011857;0.026922;0.002302;0.027059;-0.011994;86.614098;0.027117;
1076;827;0.718105;2.853084;0.999952;0.001850;-0.012441;0.028035;0.003226;0.028291;-0.012697;85.471815;0.028340;
1201;1332;-1.774215;80.070616;0.999898;0.003108;-0.026403;0.059417;0.006201;0.059863;-0.026849;85.888699;0.059968;
991;562;0.117355;0.353219;0.999997;0.000557;-0.000511;0.001574;0.000314;0.001620;-0.000557;81.619442;0.001646;
1071;817;0.713853;2.603575;0.999975;0.001324;-0.011335;0.025693;0.003271;0.025980;-0.011621;84.990841;0.026028;
1111;427;0.008996;0.132982;1.000000;0.000064;-0.000379;0.001469;0.000033;0.001469;-0.000380;88.973088;0.001525;
1056;467;0.041897;0.197482;1.000000;0.000153;-0.000541;0.001568;0.000089;0.001572;-0.000544;87.582083;0.001596;
1156;372;-0.003615;0.055590;1.000000;0.000048;-0.000165;0.001343;-0.000037;0.001344;-0.000166;-88.579281;0.001465;
1131;1647;0.002038;85.971486;1.000000;0.000157;-0.001169;0.002536;-0.000012;0.002536;-0.001169;-89.813850;0.002539;
1051;817;0.942367;2.605777;0.999970;0.001318;-0.011480;0.025590;0.004384;0.026102;-0.011991;83.345672;0.026131;
1201;1337;-1.704316;80.347015;0.999899;0.003110;-0.025277;0.056853;0.006085;0.057301;-0.025725;85.785971;0.057401;
1156;897;-0.481321;5.478177;0.999860;0.003413;-0.022497;0.051063;-0.001734;0.051104;-0.022537;-88.650678;0.051222;
1081;827;0.657079;2.853817;0.999963;0.001627;-0.012427;0.028021;0.002955;0.028236;-0.012641;85.844050;0.028288;
1231;1572;-0.194497;85.728328;0.999996;0.000597;-0.002168;0.005448;0.001323;0.005671;-0.002391;80.420300;0.005694;
1071;822;0.744839;2.727380;0.999971;0.001557;-0.011900;0.026880;0.003385;0.027173;-0.012194;85.049307;0.027221;
1181;1767;-0.027355;86.200483;1.000000;0.000098;-0.000565;0.001578;0.000056;0.001579;-0.000567;88.494205;0.001600;
1181;617;-0.056483;0.486856;0.999998;0.000483;-0.001197;0.002800;-0.000262;0.002817;-0.001214;-86.265563;0.002826;
1116;427;0.007008;0.132786;1.000000;0.000070;-0.000379;0.001467;0.000026;0.001468;-0.000379;89.202470;0.001524;
1061;467;0.039370;0.196995;1.000000;0.000133;-0.000541;0.001567;0.000085;0.001571;-0.000545;87.706499;0.001595;
1161;372;-0.004410;0.055656;1.000000;0.000044;-0.000166;0.001344;-0.000046;0.001345;-0.000167;-88.251793;0.001467;
996;1557;0.336787;85.649849;0.999977;0.001795;-0.002580;0.006492;-0.002203;0.006998;-0.003087;-77.049399;0.007014;
1201;1342;-1.634652;80.616988;0.999880;0.003049;-0.024217;0.054382;0.005932;0.054827;-0.024662;85.707984;0.054919;
1076;812;0.628274;2.482076;0.999969;0.001242;-0.010765;0.024507;0.002901;0.024744;-0.011002;85.329584;0.024794;
1086;827;0.593882;2.856395;0.999956;0.001506;-0.012409;0.028007;0.002672;0.028183;-0.012584;86.234015;0.028237;
1171;887;-0.759698;5.023614;0.999862;0.003395;-0.020926;0.047274;-0.002820;0.047391;-0.021043;-87.636117;0.047490;
1071;827;0.783283;2.855896;0.999963;0.001803;-0.012488;0.028055;0.003505;0.028355;-0.012789;85.094603;0.028401;
1186;617;-0.063111;0.485031;0.999998;0.000476;-0.001181;0.002787;-0.000289;0.002808;-0.001202;-85.854846;0.002818;
1181;1772;-0.026366;86.208276;1.000000;0.000105;-0.000548;0.001569;0.000055;0.001571;-0.000549;88.505468;0.001594;
1011;1742;0.078649;86.154654;1.000000;0.000241;-0.000589;0.001578;-0.000153;0.001589;-0.000599;-85.991311;0.001605;
1116;382;0.003743;0.068994;1.000000;0.000071;-0.000203;0.001368;0.000031;0.001368;-0.000204;88.855029;0.001477;
1146;497;-0.007262;0.239946;1.000000;0.000124;-0.000655;0.001617;-0.000016;0.001617;-0.000656;-89.595992;0.001626;
1166;372;-0.005188;0.055765;1.000000;0.000050;-0.000168;0.001345;-0.000055;0.001347;-0.000169;-87.933909;0.001468;
1001;1557;0.320777;85.646734;0.999995;0.000661;-0.002616;0.006553;-0.002144;0.007030;-0.003092;-77.469408;0.007047;
1031;837;1.416079;3.149917;0.999951;0.002210;-0.014038;0.030510;0.006306;0.031385;-0.014914;82.096095;0.031398;
1081;812;0.575316;2.484075;0.999973;0.001534;-0.010777;0.024544;0.002638;0.024740;-0.010973;85.751578;0.024792;
1046;817;1.001516;2.608633;0.999965;0.001363;-0.011482;0.025527;0.004662;0.026105;-0.012061;82.929450;0.026130;
1171;892;-0.789067;5.252629;0.999850;0.004044;-0.021820;0.049314;-0.002885;0.049431;-0.021937;-87.681565;0.049535;
1201;1327;-1.843185;79.795158;0.999887;0.003436;-0.027566;0.062060;0.006325;0.062504;-0.028011;85.982896;0.062616;
1191;617;-0.069667;0.483299;0.999998;0.000510;-0.001166;0.002773;-0.000315;0.002798;-0.001191;-85.455196;0.002808;
1231;1792;-0.047397;86.235078;1.000000;0.000158;-0.000497;0.001548;0.000106;0.001553;-0.000502;87.034061;0.001585;
1151;377;-0.002929;0.062250;1.000000;0.000058;-0.000184;0.001355;-0.000028;0.001355;-0.000185;-88.950473;0.001470;
1116;1692;0.015413;86.073477;1.000000;0.000128;-0.000933;0.002008;-0.000049;0.002008;-0.000934;-89.040124;0.002010;
1246;682;-0.252018;0.732830;0.999993;0.000619;-0.002505;0.006277;-0.001763;0.006617;-0.002845;-79.061924;0.006639;
1171;492;-0.022781;0.233762;1.000000;0.000162;-0.000623;0.001606;-0.000049;0.001607;-0.000624;-88.754137;0.001621;
1006;1557;0.310363;85.647551;0.999995;0.000649;-0.002629;0.006573;-0.002077;0.007020;-0.003077;-77.850681;0.007038;
1036;837;1.346081;3.147888;0.999950;0.003058;-0.013999;0.030600;0.005977;0.031387;-0.014786;82.497892;0.031404;
1151;497;-0.010589;0.240179;1.000000;0.000157;-0.000655;0.001617;-0.000023;0.001617;-0.000655;-89.413531;0.001627;
1166;377;-0.005734;0.062408;1.000000;0.000055;-0.000187;0.001358;-0.000054;0.001360;-0.000189;-87.997859;0.001474;
1176;892;-0.897670;5.255069;0.999883;0.003243;-0.021893;0.049412;-0.003305;0.049565;-0.022046;-87.351750;0.049666;
1206;1327;-1.983544;79.781604;0.999869;0.003862;-0.027746;0.062261;0.006882;0.062784;-0.028269;85.652681;0.062888;
1231;1797;-0.045634;86.243231;1.000000;0.000128;-0.000482;0.001542;0.000110;0.001547;-0.000487;86.903285;0.001582;
1156;377;-0.003991;0.062167;1.000000;0.000041;-0.000184;0.001356;-0.000037;0.001356;-0.000185;-88.622940;0.001471;
1006;1562;0.290594;85.680202;0.999995;0.000642;-0.002475;0.006265;-0.001977;0.006691;-0.002902;-77.830646;0.006710;
1246;687;-0.270647;0.766205;0.999994;0.000650;-0.002676;0.006675;-0.001854;0.007029;-0.003030;-79.187181;0.007051;
1191;1707;-0.048890;86.100716;1.000000;0.000132;-0.000782;0.001782;0.000127;0.001789;-0.000788;87.170387;0.001793;
1171;497;-0.023483;0.240483;0.999999;0.000197;-0.000642;0.001619;-0.000051;0.001620;-0.000644;-88.702213;0.001631;
1041;837;1.268882;3.151636;0.999950;0.002196;-0.013967;0.030644;0.005659;0.031351;-0.014674;82.882558;0.031372;
1156;497;-0.013757;0.240139;1.000000;0.000217;-0.000653;0.001617;-0.000030;0.001618;-0.000653;-89.237238;0.001627;
1166;382;-0.006425;0.069158;1.000000;0.000046;-0.000207;0.001371;-0.000053;0.001373;-0.000209;-88.067285;0.001479;
1211;1327;-2.132393;79.771498;0.999848;0.003614;-0.027872;0.062426;0.007366;0.063023;-0.028469;85.367176;0.063121;
1181;892;-1.004723;5.253904;0.999881;0.002517;-0.021984;0.049534;-0.003746;0.049730;-0.022180;-87.009715;0.049826;
996;562;0.114039;0.353269;0.999998;0.000479;-0.000531;0.001598;0.000304;0.001641;-0.000574;82.033088;0.001665;
1231;1802;-0.043657;86.250063;1.000000;0.000118;-0.000466;0.001534;0.000114;0.001540;-0.000473;86.746567;0.001578;
1161;377;-0.004812;0.062209;1.000000;0.000044;-0.000185;0.001357;-0.000046;0.001358;-0.000187;-88.303894;0.001472;
1246;692;-0.288526;0.798221;0.999993;0.000695;-0.002846;0.007067;-0.001956;0.007439;-0.003218;-79.231965;0.007461;
1321;402;-0.066757;0.127572;0.999984;0.001087;-0.000495;0.001483;-0.000071;0.001485;-0.000497;-87.945055;0.001512;
1191;1712;-0.047795;86.109767;1.000000;0.000123;-0.000761;0.001747;0.000119;0.001753;-0.000766;87.278727;0.001757;
1061;1257;3.502391;73.975621;0.999506;0.007042;-0.050008;0.118898;-0.009641;0.119446;-0.050557;-86.743683;0.119914;
1076;817;0.653735;2.605237;0.999966;0.001438;-0.011301;0.025731;0.003006;0.025974;-0.011543;85.389800;0.026027;
1216;1327;-2.273139;79.754694;0.999803;0.003537;-0.027982;0.062680;0.007898;0.063363;-0.028665;85.058104;0.063458;
1236;1572;-0.205027;85.730385;0.999994;0.000677;-0.002171;0.005498;0.001403;0.005746;-0.002419;79.954512;0.005770;
1186;607;-0.060140;0.458104;0.999998;0.000301;-0.001121;0.002579;-0.000254;0.002596;-0.001139;-86.091321;0.002603;
1251;692;-0.302030;0.798145;0.999994;0.000593;-0.002865;0.007078;-0.002026;0.007475;-0.003262;-78.914781;0.007495;
1156;902;-0.501514;5.731283;0.999849;0.003212;-0.023451;0.053201;-0.001764;0.053241;-0.023491;-88.682141;0.053364;
1161;382;-0.005468;0.068969;1.000000;0.000043;-0.000205;0.001369;-0.000045;0.001371;-0.000207;-88.360237;0.001478;
996;672;0.283222;0.673868;0.999996;0.000673;-0.002250;0.005673;0.001977;0.006139;-0.002715;76.741037;0.006152;
1056;567;0.075944;0.366770;0.999998;0.000341;-0.000834;0.001944;0.000225;0.001962;-0.000852;85.397574;0.001968;
1046;1327;2.370294;79.737850;0.999840;0.004213;-0.028081;0.063191;-0.008760;0.064024;-0.028914;-84.566777;0.064124;
1081;817;0.599474;2.608619;0.999972;0.001532;-0.011302;0.025766;0.002742;0.025968;-0.011504;85.793014;0.026024;
1191;607;-0.066215;0.457740;0.999999;0.000331;-0.001106;0.002561;-0.000275;0.002581;-0.001126;-85.736077;0.002588;
1061;1262;3.363988;74.484818;0.999609;0.006686;-0.047867;0.113226;-0.009537;0.113789;-0.048430;-86.623588;0.114208;
1191;1717;-0.046068;86.118391;1.000000;0.000123;-0.000740;0.001718;0.000112;0.001723;-0.000745;87.403993;0.001729;
1006;427;0.051881;0.142927;1.000000;0.000131;-0.000436;0.001520;0.000131;0.001529;-0.000445;86.186980;0.001573;
1226;1567;-0.197970;85.697353;0.999995;0.000518;-0.002309;0.005772;0.001337;0.005987;-0.002524;80.842988;0.006012;
1256;692;-0.316836;0.798620;0.999994;0.000650;-0.002874;0.007093;-0.002108;0.007520;-0.003301;-78.537098;0.007539;
1186;892;-1.114541;5.253779;0.999861;0.002362;-0.022093;0.049668;-0.004183;0.049911;-0.022336;-86.674944;0.050003;
1001;672;0.272483;0.673039;0.999995;0.000864;-0.002247;0.005679;0.001887;0.006105;-0.002673;77.270112;0.006121;
1161;387;-0.005997;0.075697;1.000000;0.000045;-0.000225;0.001380;-0.000044;0.001381;-0.000226;-88.421719;0.001482;
1051;1327;2.226228;79.752103;0.999886;0.004483;-0.027977;0.062995;-0.008162;0.063722;-0.028703;-84.913625;0.063826;
1141;577;-0.006317;0.390996;0.999998;0.000442;-0.001067;0.002296;-0.000022;0.002297;-0.001067;-89.618652;0.002299;
1086;817;0.544322;2.603662;0.999968;0.001839;-0.011309;0.025789;0.002477;0.025954;-0.011474;86.197348;0.026012;
1061;1267;3.219545;75.008185;0.999629;0.005847;-0.045898;0.107773;-0.009412;0.108348;-0.046472;-86.508208;0.108712;
1191;587;-0.061083;0.410490;0.999999;0.000308;-0.001011;0.002277;-0.000217;0.002291;-0.001025;-86.248550;0.002296;
1076;1777;0.030083;86.216187;1.000000;0.000094;-0.000533;0.001560;-0.000068;0.001562;-0.000535;-88.137315;0.001588;
1231;1567;-0.208065;85.699288;0.999995;0.000577;-0.002325;0.005821;0.001420;0.006062;-0.002565;80.392800;0.006085;
1246;452;-0.053648;0.177379;1.000000;0.000171;-0.000495;0.001535;-0.000116;0.001542;-0.000501;-86.753855;0.001573;
1006;662;0.229488;0.623228;0.999994;0.000595;-0.001911;0.004985;0.001599;0.005338;-0.002264;77.562617;0.005358;
1191;712;-0.184528;0.941445;0.999995;0.000688;-0.003461;0.008525;-0.001221;0.008648;-0.003584;-84.243511;0.008690;
1146;377;-0.002026;0.062173;1.000000;0.000043;-0.000184;0.001354;-0.000019;0.001355;-0.000184;-89.278355;0.001469;
1111;912;0.602032;6.296513;0.999806;0.003640;-0.025371;0.058135;0.001966;0.058181;-0.025417;88.652334;0.058335;
1056;1327;2.083732;79.765121;0.999863;0.004761;-0.027884;0.062779;-0.007581;0.063409;-0.028514;-85.252807;0.063516;
1041;817;1.057316;2.606978;0.999959;0.001770;-0.011514;0.025439;0.004903;0.026079;-0.012154;82.569073;0.026099;
1066;1267;2.979834;75.058268;0.999643;0.005131;-0.045654;0.107081;-0.008624;0.107566;-0.046139;-86.778472;0.107928;
1176;607;-0.048750;0.460698;0.999998;0.000315;-0.001158;0.002610;-0.000203;0.002621;-0.001169;-86.918257;0.002626;
1301;527;-0.112849;0.294918;0.999998;0.000296;-0.000501;0.001382;-0.000249;0.001415;-0.000534;-82.584319;0.001429;
1081;1777;0.027618;86.216305;1.000000;0.000095;-0.000533;0.001559;-0.000063;0.001561;-0.000535;-88.287461;0.001586;
1236;1567;-0.220270;85.700867;0.999993;0.000733;-0.002326;0.005867;0.001503;0.006134;-0.002593;79.929866;0.006159;
1251;452;-0.056532;0.177826;1.000000;0.000165;-0.000495;0.001533;-0.000118;0.001540;-0.000502;-86.675404;0.001571;
1006;667;0.244419;0.647079;0.999995;0.000596;-0.002056;0.005340;0.001690;0.005708;-0.002424;77.718524;0.005730;
991;667;0.282585;0.651448;0.999985;0.001568;-0.002045;0.005335;0.001944;0.005816;-0.002526;76.108557;0.005833;
1136;372;-0.000264;0.055573;1.000000;0.000049;-0.000165;0.001341;-0.000002;0.001341;-0.000165;-89.907245;0.001463;
1061;1327;1.941369;79.778165;0.999848;0.003743;-0.027806;0.062560;-0.007013;0.063101;-0.028347;-85.588867;0.063209;
1051;812;0.894556;2.477055;0.999970;0.001348;-0.010925;0.024338;0.004226;0.024837;-0.011424;83.260079;0.024864;
1061;882;1.479518;4.816306;0.999831;0.003305;-0.020695;0.045990;0.005866;0.046502;-0.021207;85.011328;0.046562;
1071;1267;2.748274;75.079181;0.999606;0.006071;-0.045349;0.106594;-0.007899;0.107003;-0.045758;-87.032159;0.107376;
1171;607;-0.043089;0.462409;0.999998;0.000395;-0.001175;0.002622;-0.000179;0.002630;-0.001183;-87.313279;0.002635;
1086;1777;0.025029;86.216588;1.000000;0.000106;-0.000533;0.001557;-0.000057;0.001559;-0.000534;-88.445478;0.001584;
1006;672;0.260636;0.674253;0.999994;0.000875;-0.002233;0.005663;0.001802;0.006055;-0.002625;77.733625;0.006073;
996;667;0.265643;0.647072;0.999996;0.000765;-0.002054;0.005364;0.001850;0.005800;-0.002490;76.742194;0.005819;
1216;1562;-0.187371;85.668893;0.999995;0.000517;-0.002437;0.006074;0.001249;0.006253;-0.002617;81.819467;0.006281;
1076;587;0.064079;0.409391;0.999998;0.000366;-0.000999;0.002262;0.000217;0.002276;-0.001013;86.213762;0.002280;
1006;432;0.053971;0.150286;1.000000;0.000139;-0.000447;0.001520;0.000126;0.001528;-0.000455;86.351194;0.001569;
1136;377;-0.000275;0.062224;1.000000;0.000056;-0.000184;0.001354;-0.000002;0.001354;-0.000184;-89.920579;0.001469;
1056;812;0.839300;2.479792;0.999973;0.001406;-0.010890;0.024350;0.003961;0.024790;-0.011330;83.665586;0.024820;
1211;887;-1.608778;5.047004;0.999875;0.002801;-0.021637;0.048064;-0.006334;0.048635;-0.022208;-84.849298;0.048696;
1076;1267;2.522129;75.101309;0.999570;0.006446;-0.044861;0.105817;-0.007248;0.106165;-0.045209;-87.252534;0.106554;
1191;582;-0.059968;0.398727;0.999998;0.000354;-0.000989;0.002220;-0.000204;0.002232;-0.001002;-86.384992;0.002236;
1156;1332;-0.613000;80.137451;0.999854;0.003225;-0.025544;0.058218;0.001970;0.058265;-0.025590;88.653316;0.058408;
1001;667;0.255655;0.647024;0.999995;0.000759;-0.002062;0.005362;0.001769;0.005761;-0.002462;77.259526;0.005782;
1071;1777;0.032765;86.215525;1.000000;0.000123;-0.000532;0.001561;-0.000074;0.001564;-0.000534;-87.987774;0.001590;
1151;747;-0.087494;1.300098;0.999994;0.000673;-0.005291;0.012847;-0.000490;0.012860;-0.005305;-88.452260;0.012926;
1041;807;0.957820;2.360709;0.999971;0.001631;-0.010415;0.023127;0.004524;0.023726;-0.011014;82.451420;0.023747;
961;517;0.113167;0.282150;0.999998;0.000435;-0.000557;0.001287;0.000188;0.001306;-0.000577;84.228345;0.001309;
1151;367;-0.002466;0.048835;1.000000;0.000060;-0.000146;0.001328;-0.000029;0.001329;-0.000146;-88.868329;0.001457;
1181;1517;-0.194707;85.322098;0.999995;0.000588;-0.004168;0.010219;0.001151;0.010311;-0.004259;85.454010;0.010362;
976;432;0.067763;0.157930;1.000000;0.000235;-0.000446;0.001491;0.000083;0.001495;-0.000449;87.556500;0.001534;
1061;812;0.788115;2.480440;0.999971;0.001296;-0.010877;0.024376;0.003692;0.024758;-0.011259;84.085470;0.024792;
1046;1267;3.932078;74.914245;0.999525;0.005707;-0.046543;0.109878;-0.011970;0.110789;-0.047454;-85.649320;0.111167;
1161;877;-0.504057;4.572170;0.999857;0.002922;-0.019068;0.043131;-0.001937;0.043192;-0.019128;-88.217545;0.043285;
1071;582;0.067388;0.398324;0.999998;0.000424;-0.000952;0.002176;0.000226;0.002192;-0.000968;85.884442;0.002197;
1196;1332;-1.644178;80.087778;0.999887;0.003265;-0.026250;0.059156;0.005695;0.059534;-0.026628;86.202189;0.059645;
1091;1777;0.022490;86.217003;1.000000;0.000122;-0.000532;0.001556;-0.000051;0.001558;-0.000533;-88.598477;0.001583;
961;522;0.115788;0.290671;0.999998;0.000425;-0.000544;0.001307;0.000202;0.001329;-0.000566;83.853432;0.001334;
1016;682;0.273983;0.737460;0.999995;0.000655;-0.002540;0.006315;0.001836;0.006681;-0.002905;78.735544;0.006700;
1321;407;-0.072704;0.129064;0.999983;0.001245;-0.000490;0.001485;-0.000050;0.001486;-0.000491;-88.565093;0.001514;
1051;1267;3.679494;74.944757;0.999633;0.007521;-0.046352;0.109235;-0.011090;0.110022;-0.047138;-85.943273;0.110397;
1156;367;-0.003184;0.048872;1.000000;0.000060;-0.000146;0.001329;-0.000038;0.001330;-0.000147;-88.517503;0.001459;
1091;807;0.447037;2.358054;0.999966;0.001803;-0.010288;0.023452;0.002066;0.023578;-0.010414;86.509210;0.023632;
1186;1517;-0.215754;85.321156;0.999995;0.000683;-0.004192;0.010231;0.001274;0.010342;-0.004304;84.990699;0.010391;
1066;812;0.736381;2.482694;0.999975;0.001303;-0.010833;0.024419;0.003424;0.024749;-0.011163;84.502745;0.024789;
1161;882;-0.528739;4.795616;0.999872;0.003047;-0.019879;0.045041;-0.001979;0.045101;-0.019939;-88.255785;0.045202;
1196;1337;-1.580452;80.359505;0.999880;0.003333;-0.025145;0.056632;0.005577;0.057011;-0.025523;86.116465;0.057114;
996;557;0.111265;0.346409;0.999998;0.000396;-0.000538;0.001599;0.000284;0.001636;-0.000575;82.564692;0.001660;
1321;412;-0.070117;0.136552;0.999980;0.001219;-0.000485;0.001478;-0.000033;0.001479;-0.000485;-89.036325;0.001507;
1186;1762;-0.031218;86.192368;1.000000;0.000093;-0.000582;0.001592;0.000062;0.001594;-0.000583;88.359143;0.001612;
1016;687;0.292067;0.768987;0.999993;0.000553;-0.002716;0.006707;0.001929;0.007087;-0.003096;78.868115;0.007106;
1056;1262;3.592521;74.449984;0.999616;0.007563;-0.048113;0.114105;-0.010408;0.114770;-0.048778;-86.343690;0.115200;
1186;572;-0.051745;0.376079;0.999998;0.000470;-0.000960;0.002127;-0.000170;0.002136;-0.000969;-86.861442;0.002139;
1036;807;1.008880;2.362579;0.999974;0.001407;-0.010447;0.023076;0.004768;0.023741;-0.011112;82.060444;0.023757;
1161;367;-0.003881;0.049064;1.000000;0.000046;-0.000147;0.001331;-0.000047;0.001332;-0.000148;-88.183145;0.001460;
1186;1522;-0.201216;85.374134;0.999995;0.000797;-0.003932;0.009626;0.001216;0.009734;-0.004040;84.916472;0.009780;
1071;812;0.679943;2.483514;0.999977;0.001206;-0.010791;0.024467;0.003161;0.024749;-0.011072;84.917526;0.024794;
1166;882;-0.627397;4.798640;0.999889;0.002887;-0.019969;0.045116;-0.002369;0.045202;-0.020055;-87.917947;0.045298;
1196;1342;-1.513063;80.625170;0.999840;0.002970;-0.024089;0.054200;0.005455;0.054578;-0.024467;86.033303;0.054675;
1196;592;-0.066691;0.418250;0.999998;0.000280;-0.001015;0.002317;-0.000245;0.002335;-0.001032;-85.825274;0.002341;
1186;1767;-0.030084;86.200267;1.000000;0.000089;-0.000564;0.001581;0.000062;0.001583;-0.000566;88.351573;0.001604;
1056;1267;3.444105;74.972253;0.999645;0.009278;-0.046114;0.108496;-0.010244;0.109172;-0.046789;-86.225627;0.109542;
1276;427;-0.057193;0.144920;1.000000;0.000141;-0.000441;0.001505;-0.000114;0.001511;-0.000448;-86.654723;0.001553;
996;1552;0.362889;85.613111;0.999759;0.005542;-0.002741;0.006929;-0.002271;0.007436;-0.003248;-77.420147;0.007455;
1191;572;-0.057040;0.375724;0.999998;0.000477;-0.000943;0.002102;-0.000183;0.002113;-0.000954;-86.573179;0.002117;
1106;737;0.133365;1.181880;0.999994;0.000585;-0.004648;0.011335;0.000772;0.011372;-0.004686;87.241220;0.011430;
1066;802;0.668351;2.246005;0.999975;0.001394;-0.009827;0.022327;0.003182;0.022638;-0.010138;84.402651;0.022679;
1166;367;-0.004612;0.049038;1.000000;0.000052;-0.000148;0.001332;-0.000055;0.001334;-0.000150;-87.855506;0.001462;
1051;797;0.772272;2.150353;0.999976;0.001527;-0.009393;0.021260;0.003750;0.021712;-0.009845;83.125988;0.021743;
1196;1327;-1.709967;79.798935;0.999888;0.002928;-0.027389;0.061779;0.005823;0.062158;-0.027767;86.279460;0.062275;
1221;1807;-0.037639;86.258808;1.000000;0.000192;-0.000447;0.001523;0.000111;0.001529;-0.000453;86.791052;0.001571;
1196;597;-0.068287;0.430579;0.999998;0.000309;-0.001038;0.002393;-0.000261;0.002413;-0.001058;-85.680685;0.002419;
1186;1772;-0.028930;86.207833;1.000000;0.000120;-0.000548;0.001572;0.000061;0.001574;-0.000549;88.353330;0.001598;
1001;1552;0.342299;85.614310;0.999993;0.000839;-0.002779;0.006977;-0.002222;0.007459;-0.003261;-77.757386;0.007479;
1081;1267;2.296957;75.121653;0.999556;0.005242;-0.044526;0.105150;-0.006572;0.105438;-0.044814;-87.490840;0.105833;
1276;432;-0.059385;0.151963;1.000000;0.000166;-0.000450;0.001503;-0.000111;0.001509;-0.000456;-86.745352;0.001548;
1196;572;-0.061716;0.374653;0.999998;0.000385;-0.000923;0.002073;-0.000195;0.002085;-0.000936;-86.282407;0.002089;
1201;707;-0.204789;0.906140;0.999992;0.000722;-0.003281;0.008069;-0.001361;0.008230;-0.003442;-83.257999;0.008266;
1071;802;0.613821;2.245100;0.999975;0.001480;-0.009793;0.022351;0.002945;0.022618;-0.010061;84.808012;0.022664;
1171;367;-0.005300;0.048974;1.000000;0.000052;-0.000149;0.001334;-0.000065;0.001336;-0.000151;-87.511762;0.001464;
1056;797;0.723472;2.149122;0.999975;0.001446;-0.009369;0.021301;0.003513;0.021699;-0.009767;83.547846;0.021735;
1196;1322;-1.784417;79.501824;0.999863;0.002991;-0.028582;0.064619;0.005959;0.064998;-0.028962;86.356447;0.065127;
1006;1552;0.328909;85.615134;0.999992;0.000695;-0.002801;0.006986;-0.002165;0.007443;-0.003258;-78.069064;0.007462;
1196;602;-0.069425;0.443373;0.999998;0.000310;-0.001062;0.002469;-0.000277;0.002490;-0.001084;-85.540691;0.002497;
1226;1807;-0.039747;86.258282;1.000000;0.000155;-0.000450;0.001525;0.000115;0.001531;-0.000456;86.681898;0.001572;
1186;1737;-0.036538;86.152025;1.000000;0.000091;-0.000669;0.001639;0.000080;0.001642;-0.000672;88.007999;0.001651;
1001;427;0.054165;0.143258;1.000000;0.000143;-0.000438;0.001518;0.000126;0.001526;-0.000446;86.336257;0.001570;
1076;592;0.065573;0.421943;0.999998;0.000379;-0.001023;0.002333;0.000232;0.002349;-0.001039;86.068476;0.002354;
1076;802;0.567537;2.244006;0.999967;0.001363;-0.009772;0.022371;0.002704;0.022597;-0.009998;85.224260;0.022647;
1171;372;-0.006011;0.055790;1.000000;0.000063;-0.000169;0.001347;-0.000064;0.001350;-0.000171;-87.598153;0.001469;
1061;797;0.681561;2.145688;0.999973;0.001261;-0.009368;0.021337;0.003286;0.021684;-0.009716;83.959907;0.021723;
1141;752;-0.034944;1.368046;0.999994;0.000704;-0.005636;0.013561;-0.000194;0.013562;-0.005638;-89.420988;0.013627;
1086;1267;2.070137;75.155276;0.999445;0.006211;-0.044220;0.104567;-0.005952;0.104805;-0.044458;-87.712739;0.105206;
1201;1322;-1.928291;79.492048;0.999862;0.003854;-0.028784;0.064916;0.006498;0.065365;-0.029232;86.051669;0.065486;
1196;607;-0.071378;0.457121;0.999998;0.000314;-0.001087;0.002544;-0.000293;0.002567;-0.001111;-85.415661;0.002575;
1231;1807;-0.042195;86.258141;1.000000;0.000145;-0.000451;0.001526;0.000119;0.001533;-0.000458;86.569254;0.001574;
1186;1742;-0.035538;86.160286;1.000000;0.000098;-0.000650;0.001628;0.000075;0.001630;-0.000652;88.128150;0.001641;
1061;1532;0.235645;85.466877;0.999994;0.000533;-0.003467;0.008392;-0.001547;0.008590;-0.003666;-82.689102;0.008621;
996;677;0.302815;0.702109;0.999996;0.000789;-0.002406;0.005934;0.002079;0.006423;-0.002896;76.750023;0.006433;
1236;457;-0.050518;0.183834;1.000000;0.000184;-0.000509;0.001543;-0.000109;0.001549;-0.000514;-86.963394;0.001578;
1201;582;-0.069295;0.396466;0.999998;0.000359;-0.000945;0.002166;-0.000228;0.002183;-0.000962;-85.824541;0.002188;
1051;1272;3.522952;75.489859;0.999612;0.005941;-0.044482;0.104314;-0.010742;0.105085;-0.045254;-85.891991;0.105422;
1066;797;0.635800;2.142296;0.999974;0.001481;-0.009344;0.021373;0.003064;0.021676;-0.009647;84.358650;0.021719;
1171;377;-0.006699;0.062507;1.000000;0.000064;-0.000188;0.001360;-0.000063;0.001362;-0.000191;-87.671939;0.001475;
1051;802;0.813378;2.249221;0.999976;0.001553;-0.009882;0.022264;0.003886;0.022727;-0.010345;83.204933;0.022757;
1206;1322;-2.068436;79.482832;0.999838;0.003992;-0.028948;0.065089;0.007107;0.065623;-0.029482;85.702079;0.065736;
1001;677;0.291659;0.702379;0.999995;0.000863;-0.002403;0.005971;0.001988;0.006419;-0.002851;77.302332;0.006432;
1016;562;0.101784;0.356125;0.999998;0.000471;-0.000619;0.001692;0.000263;0.001721;-0.000649;83.588377;0.001739;
1186;1747;-0.034224;86.168084;1.000000;0.000112;-0.000632;0.001618;0.000071;0.001620;-0.000635;88.196212;0.001633;
1016;1567;0.246913;85.711232;0.999993;0.000751;-0.002296;0.005887;-0.001732;0.006238;-0.002647;-78.527016;0.006262;
1201;587;-0.070535;0.407188;0.999998;0.000344;-0.000968;0.002226;-0.000243;0.002245;-0.000986;-85.669893;0.002250;
1236;462;-0.052417;0.191682;1.000000;0.000182;-0.000522;0.001550;-0.000109;0.001556;-0.000528;-87.000930;0.001582;
1011;1747;0.077039;86.162657;1.000000;0.000194;-0.000580;0.001573;-0.000147;0.001583;-0.000590;-86.119322;0.001600;
1056;1272;3.289942;75.506149;0.999634;0.006487;-0.044269;0.103600;-0.009958;0.104268;-0.044936;-86.164693;0.104599;
1071;797;0.584648;2.141421;0.999974;0.001487;-0.009318;0.021401;0.002835;0.021660;-0.009578;84.771429;0.021709;
1146;367;-0.001584;0.048888;1.000000;0.000049;-0.000146;0.001328;-0.000020;0.001328;-0.000146;-89.219705;0.001456;
1056;802;0.761880;2.249490;0.999976;0.001418;-0.009855;0.022282;0.003644;0.022690;-0.010263;83.611742;0.022724;
1046;1322;2.470938;79.449103;0.999775;0.004471;-0.029315;0.066119;-0.008959;0.066953;-0.030149;-84.683285;0.067063;
1256;452;-0.058865;0.178534;1.000000;0.000138;-0.000494;0.001530;-0.000119;0.001537;-0.000501;-86.643101;0.001568;
1021;557;0.096719;0.346444;0.999998;0.000309;-0.000641;0.001698;0.000240;0.001722;-0.000666;84.210493;0.001737;
1176;1777;-0.022775;86.216452;1.000000;0.000118;-0.000531;0.001559;0.000051;0.001560;-0.000532;88.616007;0.001586;
1006;677;0.278228;0.703445;0.999994;0.000872;-0.002389;0.005975;0.001903;0.006387;-0.002802;77.765789;0.006403;
1016;1572;0.230161;85.740712;0.999994;0.000733;-0.002151;0.005552;-0.001631;0.005883;-0.002482;-78.524510;0.005907;
1061;1272;3.076612;75.539640;0.999625;0.005549;-0.044070;0.102935;-0.009181;0.103506;-0.044641;-86.440228;0.103831;
1086;812;0.517609;2.481677;0.999968;0.002234;-0.010790;0.024570;0.002382;0.024730;-0.010950;86.163313;0.024784;
1161;887;-0.551973;5.023484;0.999853;0.002871;-0.020731;0.047100;-0.002014;0.047160;-0.020790;-88.301154;0.047269;
1076;797;0.540043;2.138071;0.999965;0.001413;-0.009301;0.021423;0.002602;0.021642;-0.009520;85.193910;0.021694;
1196;482;-0.035999;0.218968;1.000000;0.000176;-0.000576;0.001587;-0.000073;0.001589;-0.000579;-88.078450;0.001609;
1011;1752;0.075067;86.170620;1.000000;0.000214;-0.000573;0.001565;-0.000143;0.001574;-0.000582;-86.199813;0.001592;
1136;747;-0.006738;1.301053;0.999994;0.000804;-0.005300;0.012820;-0.000027;0.012820;-0.005300;-89.915338;0.012884;
1286;422;-0.059517;0.140211;1.000000;0.000184;-0.000439;0.001503;-0.000102;0.001508;-0.000444;-87.014358;0.001550;
1021;562;0.098735;0.355709;0.999998;0.000352;-0.000645;0.001716;0.000254;0.001743;-0.000672;83.933835;0.001758;
1076;1782;0.028958;86.223534;1.000000;0.000116;-0.000516;0.001550;-0.000069;0.001552;-0.000518;-88.082936;0.001580;
1146;752;-0.063379;1.367792;0.999994;0.000638;-0.005633;0.013563;-0.000354;0.013569;-0.005640;-88.943911;0.013634;
1066;1272;2.855188;75.568709;0.999635;0.004892;-0.043842;0.102305;-0.008443;0.102791;-0.044328;-86.704577;0.103115;
1261;1577;-0.244180;85.759149;0.999994;0.000624;-0.002068;0.005330;0.001674;0.005692;-0.002429;77.824728;0.005712;
1046;812;0.951785;2.475965;0.999968;0.001296;-0.010924;0.024277;0.004496;0.024842;-0.011489;82.835090;0.024865;
1026;797;1.007886;2.153741;0.999974;0.001538;-0.009460;0.021017;0.004861;0.021773;-0.010216;81.153946;0.021787;
1166;887;-0.652409;5.024367;0.999871;0.003155;-0.020827;0.047184;-0.002410;0.047269;-0.020912;-87.973381;0.047374;
1141;747;-0.033541;1.300834;0.999995;0.000644;-0.005301;0.012834;-0.000179;0.012835;-0.005303;-89.433826;0.012900;
1201;482;-0.038852;0.219523;1.000000;0.000214;-0.000574;0.001589;-0.000078;0.001591;-0.000577;-87.933483;0.001611;
961;412;0.063258;0.133152;1.000000;0.000171;-0.000541;0.001485;0.000079;0.001488;-0.000544;87.783376;0.001506;
1256;1717;-0.089080;86.112890;1.000000;0.000187;-0.000615;0.001614;0.000193;0.001630;-0.000632;85.099461;0.001644;
1081;1782;0.026566;86.223966;1.000000;0.000107;-0.000516;0.001548;-0.000063;0.001550;-0.000518;-88.243900;0.001579;
1151;752;-0.091889;1.367404;0.999992;0.000699;-0.005618;0.013562;-0.000515;0.013575;-0.005632;-88.464468;0.013641;
1181;627;-0.060217;0.515370;0.999998;0.000369;-0.001271;0.003009;-0.000298;0.003029;-0.001291;-86.034552;0.003040;
1026;802;1.059499;2.260745;0.999975;0.001511;-0.009925;0.021939;0.005030;0.022714;-0.010700;81.239840;0.022727;
1266;1577;-0.253356;85.761611;0.999994;0.000683;-0.002072;0.005345;0.001745;0.005735;-0.002462;77.398848;0.005754;
1071;1272;2.628266;75.597325;0.999625;0.005081;-0.043494;0.101788;-0.007804;0.102206;-0.043912;-86.933880;0.102543;
1091;812;0.466347;2.481876;0.999965;0.002219;-0.010800;0.024604;0.002137;0.024732;-0.010929;86.558749;0.024788;
1171;897;-0.824058;5.485663;0.999844;0.003498;-0.022742;0.051380;-0.002981;0.051499;-0.022861;-87.700831;0.051607;
1146;747;-0.059627;1.300484;0.999995;0.000658;-0.005303;0.012842;-0.000335;0.012848;-0.005309;-88.941261;0.012912;
1006;437;0.056109;0.158316;1.000000;0.000150;-0.000459;0.001523;0.000122;0.001531;-0.000466;86.476830;0.001569;
1026;807;1.110432;2.367034;0.999970;0.002085;-0.010439;0.022894;0.005225;0.023693;-0.011239;81.297189;0.023704;
996;427;0.056321;0.144323;1.000000;0.000136;-0.000436;0.001517;0.000120;0.001524;-0.000444;86.483321;0.001568;
1046;1272;3.766268;75.448393;0.999516;0.005338;-0.044684;0.105003;-0.011541;0.105887;-0.045569;-85.616990;0.106229;
1011;677;0.265987;0.705415;0.999994;0.000790;-0.002372;0.005962;0.001821;0.006342;-0.002753;78.198814;0.006361;
1086;1782;0.023991;86.224264;1.000000;0.000101;-0.000515;0.001546;-0.000057;0.001548;-0.000516;-88.418982;0.001576;
1271;1577;-0.264970;85.761239;0.999994;0.000633;-0.002065;0.005342;0.001814;0.005763;-0.002486;76.954226;0.005781;
1186;627;-0.066076;0.513518;0.999998;0.000375;-0.001257;0.003004;-0.000331;0.003029;-0.001283;-85.586678;0.003041;
1096;1622;0.046404;85.909015;1.000000;0.000162;-0.001248;0.002887;-0.000216;0.002898;-0.001260;-87.022786;0.002906;
1091;817;0.490472;2.604731;0.999964;0.001731;-0.011326;0.025814;0.002221;0.025946;-0.011458;86.590428;0.026005;
1176;897;-0.928690;5.486685;0.999859;0.003434;-0.022812;0.051494;-0.003409;0.051651;-0.022968;-87.378638;0.051756;
1306;422;-0.068217;0.147279;1.000000;0.000163;-0.000459;0.001473;-0.000067;0.001476;-0.000462;-88.014158;0.001510;
1191;717;-0.199024;0.987007;0.999993;0.000895;-0.003687;0.009071;-0.001299;0.009202;-0.003817;-84.245392;0.009246;
1031;797;0.959508;2.153430;0.999976;0.001346;-0.009474;0.021070;0.004647;0.021761;-0.010165;81.536968;0.021777;
1011;682;0.285448;0.737704;0.999994;0.000679;-0.002540;0.006333;0.001919;0.006731;-0.002937;78.303959;0.006749;
1076;1272;2.419212;75.614627;0.999579;0.006460;-0.043056;0.101122;-0.007183;0.101479;-0.043413;-87.154857;0.101832;
1071;1782;0.031770;86.223195;1.000000;0.000127;-0.000515;0.001551;-0.000075;0.001554;-0.000518;-87.929774;0.001582;
1011;432;0.051759;0.149572;1.000000;0.000136;-0.000447;0.001523;0.000129;0.001531;-0.000456;86.270212;0.001572;
1191;627;-0.072214;0.512479;0.999998;0.000379;-0.001245;0.002997;-0.000363;0.003027;-0.001276;-85.139713;0.003040;
1171;382;-0.007455;0.069274;1.000000;0.000056;-0.000209;0.001373;-0.000062;0.001375;-0.000211;-87.752575;0.001481;
1041;812;1.007437;2.478195;0.999966;0.001627;-0.010956;0.024196;0.004725;0.024820;-0.011580;82.476441;0.024839;
1181;897;-1.044639;5.487123;0.999853;0.002548;-0.022905;0.051641;-0.003851;0.051840;-0.023103;-87.050350;0.051942;
1111;1842;0.006503;86.314058;1.000000;0.000160;-0.000286;0.001409;-0.000037;0.001410;-0.000287;-88.753712;0.001491;
1311;422;-0.070712;0.148819;1.000000;0.000153;-0.000464;0.001464;-0.000062;0.001466;-0.000466;-88.168863;0.001498;
1036;797;0.914395;2.154686;0.999975;0.001265;-0.009442;0.021119;0.004423;0.021747;-0.010070;81.928273;0.021767;
1196;712;-0.201842;0.943222;0.999994;0.000783;-0.003480;0.008547;-0.001332;0.008692;-0.003626;-83.753317;0.008732;
1011;687;0.304896;0.769414;0.999992;0.000655;-0.002727;0.006736;0.002003;0.007142;-0.003134;78.526660;0.007160;
1081;1272;2.205866;75.642363;0.999482;0.006544;-0.042757;0.100563;-0.006514;0.100859;-0.043053;-87.402935;0.101218;
1011;437;0.053789;0.157470;1.000000;0.000163;-0.000460;0.001527;0.000125;0.001535;-0.000468;86.418343;0.001573;
1166;1782;-0.016700;86.224875;1.000000;0.000104;-0.000513;0.001544;0.000041;0.001545;-0.000513;88.857293;0.001573;
1066;807;0.702058;2.359689;0.999976;0.001440;-0.010319;0.023307;0.003305;0.023629;-0.010641;84.439203;0.023667;
1031;547;0.086166;0.330844;0.999998;0.000372;-0.000669;0.001693;0.000206;0.001711;-0.000687;85.064894;0.001722;
1141;367;-0.000944;0.048704;1.000000;0.000055;-0.000145;0.001327;-0.000011;0.001327;-0.000145;-89.557263;0.001456;
1316;422;-0.072588;0.150634;1.000000;0.000149;-0.000474;0.001453;-0.000054;0.001454;-0.000475;-88.408051;0.001483;
1186;897;-1.162555;5.491280;0.999824;0.002461;-0.023029;0.051800;-0.004291;0.052045;-0.023275;-86.728361;0.052142;
1026;792;0.956572;2.050179;0.999978;0.001487;-0.009022;0.019914;0.004709;0.020661;-0.009769;80.986219;0.020672;
1196;717;-0.217113;0.988542;0.999992;0.000794;-0.003705;0.009085;-0.001416;0.009240;-0.003860;-83.756936;0.009281;
1191;1862;-0.011921;86.340785;1.000000;0.000160;-0.000217;0.001386;0.000099;0.001392;-0.000223;86.485114;0.001496;
1086;1272;1.986667;75.665597;0.999358;0.005649;-0.042477;0.100068;-0.005902;0.100312;-0.042721;-87.632956;0.100679;
1036;702;0.293383;0.875393;0.999992;0.000743;-0.003207;0.007840;0.001906;0.008160;-0.003527;80.480929;0.008185;
1171;1782;-0.019242;86.224706;1.000000;0.000117;-0.000513;0.001546;0.000047;0.001547;-0.000514;88.698235;0.001576;
1206;472;-0.039054;0.203887;1.000000;0.000145;-0.000546;0.001572;-0.000084;0.001575;-0.000549;-87.718972;0.001599;
1071;807;0.646201;2.362230;0.999977;0.001334;-0.010279;0.023343;0.003055;0.023618;-0.010555;84.850412;0.023663;
1036;547;0.082666;0.330770;0.999998;0.000388;-0.000688;0.001710;0.000197;0.001726;-0.000704;85.323399;0.001736;
1136;397;-0.000360;0.089698;1.000000;0.000054;-0.000261;0.001399;-0.000002;0.001399;-0.000261;-89.946723;0.001488;
1031;792;0.913627;2.049380;0.999978;0.001367;-0.009028;0.019987;0.004500;0.020668;-0.009709;81.384062;0.020681;
1151;907;-0.400206;5.998845;0.999862;0.002607;-0.024413;0.055432;-0.001398;0.055457;-0.024438;-88.997456;0.055587;
1131;502;0.002117;0.247968;1.000000;0.000231;-0.000681;0.001636;0.000008;0.001636;-0.000681;89.790430;0.001643;
1041;1267;4.178679;74.885509;0.999298;0.006950;-0.046603;0.110326;-0.012897;0.111379;-0.047655;-85.332959;0.111765;
1206;707;-0.220140;0.907158;0.999992;0.000641;-0.003302;0.008106;-0.001461;0.008290;-0.003487;-82.814944;0.008325;
1186;1857;-0.011652;86.334082;1.000000;0.000159;-0.000232;0.001388;0.000088;0.001393;-0.000237;86.893672;0.001490;
1176;732;-0.177017;1.129880;0.999994;0.000959;-0.004411;0.010798;-0.001106;0.010878;-0.004491;-85.861069;0.010933;
1176;1782;-0.022102;86.224610;1.000000;0.000105;-0.000513;0.001548;0.000052;0.001550;-0.000514;88.555647;0.001578;
1211;472;-0.041988;0.204558;1.000000;0.000148;-0.000547;0.001572;-0.000091;0.001576;-0.000551;-87.556509;0.001599;
1146;372;-0.001883;0.055726;1.000000;0.000047;-0.000165;0.001342;-0.000020;0.001342;-0.000165;-89.253284;0.001463;
1076;807;0.597819;2.360320;0.999971;0.001194;-0.010257;0.023374;0.002804;0.023606;-0.010490;85.266262;0.023655;
1041;1272;3.992105;75.409030;0.999308;0.006813;-0.044785;0.105672;-0.012382;0.106684;-0.045798;-85.326752;0.107039;
1036;792;0.868686;2.051519;0.999974;0.001420;-0.008988;0.020053;0.004281;0.020671;-0.009606;81.786563;0.020689;
1181;567;-0.046342;0.366513;0.999998;0.000417;-0.000958;0.002095;-0.000149;0.002103;-0.000965;-87.214809;0.002105;
1041;882;1.896589;4.826993;0.999870;0.003536;-0.020969;0.046054;0.007645;0.046915;-0.021830;83.574729;0.046952;
1136;497;-0.001124;0.239312;1.000000;0.000161;-0.000656;0.001616;-0.000001;0.001616;-0.000656;-89.970795;0.001625;
1211;707;-0.235509;0.907764;0.999994;0.000681;-0.003316;0.008145;-0.001568;0.008355;-0.003527;-82.350016;0.008389;
1186;1862;-0.010818;86.340416;1.000000;0.000137;-0.000212;0.001383;0.000091;0.001388;-0.000218;86.762885;0.001494;
1161;1782;-0.014249;86.224812;1.000000;0.000119;-0.000512;0.001542;0.000034;0.001543;-0.000512;89.049792;0.001571;
1061;807;0.750924;2.359994;0.999976;0.001316;-0.010354;0.023275;0.003552;0.023646;-0.010725;84.036165;0.023680;
1016;447;0.056062;0.171215;1.000000;0.000203;-0.000484;0.001535;0.000122;0.001543;-0.000492;86.546053;0.001576;
1126;382;0.001697;0.068976;1.000000;0.000068;-0.000203;0.001367;0.000014;0.001367;-0.000203;89.476111;0.001475;
1036;802;0.961525;2.258411;0.999973;0.001347;-0.009928;0.022099;0.004583;0.022742;-0.010571;82.014900;0.022760;
1241;682;-0.238391;0.733440;0.999994;0.000643;-0.002503;0.006247;-0.001674;0.006557;-0.002813;-79.531044;0.006579;
1061;1252;3.650203;73.434875;0.999470;0.006177;-0.052279;0.124829;-0.009884;0.125378;-0.052829;-86.815567;0.125894;
1046;882;1.790864;4.823509;0.999846;0.003127;-0.020878;0.046067;0.007195;0.046831;-0.021642;83.934104;0.046876;
1201;572;-0.066283;0.373977;0.999998;0.000387;-0.000899;0.002044;-0.000206;0.002058;-0.000913;-86.014225;0.002063;
1136;502;-0.001106;0.247909;0.999999;0.000185;-0.000681;0.001636;-0.000001;0.001636;-0.000681;-89.981230;0.001643;
1216;707;-0.253479;0.908511;0.999994;0.000638;-0.003332;0.008180;-0.001674;0.008419;-0.003570;-81.894183;0.008451;
1186;1867;-0.009707;86.347937;1.000000;0.000121;-0.000192;0.001374;0.000094;0.001379;-0.000198;86.566821;0.001492;
1181;1777;-0.025561;86.216176;1.000000;0.000107;-0.000530;0.001561;0.000056;0.001562;-0.000532;88.478034;0.001588;
1051;807;0.852740;2.358258;0.999976;0.001474;-0.010391;0.023249;0.004050;0.023730;-0.010872;83.230527;0.023757;
1166;387;-0.007120;0.075982;1.000000;0.000044;-0.000227;0.001382;-0.000052;0.001384;-0.000229;-88.140122;0.001483;
1061;1277;2.950843;76.012404;0.999711;0.005144;-0.042383;0.098582;-0.008877;0.099139;-0.042940;-86.410983;0.099434;
1046;792;0.778785;2.048927;0.999967;0.001537;-0.008946;0.020208;0.003849;0.020707;-0.009446;82.605045;0.020734;
1041;707;0.296069;0.912855;0.999993;0.000901;-0.003399;0.008267;0.001900;0.008568;-0.003701;80.980329;0.008595;
991;672;0.323393;0.666837;0.999791;0.004757;-0.002259;0.005634;0.002086;0.006151;-0.002777;76.071279;0.006161;
1076;487;0.035935;0.227559;1.000000;0.000179;-0.000605;0.001599;0.000072;0.001601;-0.000608;88.136194;0.001616;
1126;917;0.220704;6.548590;0.999790;0.004250;-0.026366;0.060408;0.000612;0.060412;-0.026371;89.596241;0.060574;
1216;562;-0.075961;0.355214;0.999998;0.000412;-0.000797;0.001861;-0.000218;0.001879;-0.000814;-85.351903;0.001884;
1191;1867;-0.010382;86.347814;1.000000;0.000149;-0.000196;0.001375;0.000103;0.001382;-0.000203;86.281277;0.001493;
1066;467;0.036525;0.196528;1.000000;0.000152;-0.000540;0.001567;0.000079;0.001570;-0.000543;87.845706;0.001594;
1186;1777;-0.028126;86.216044;1.000000;0.000131;-0.000531;0.001563;0.000061;0.001565;-0.000533;88.325797;0.001591;
1056;807;0.798475;2.360420;0.999977;0.001409;-0.010361;0.023257;0.003800;0.023681;-0.010785;83.630992;0.023713;
1141;372;-0.001144;0.055645;1.000000;0.000054;-0.000164;0.001341;-0.000011;0.001341;-0.000165;-89.584147;0.001463;
996;682;0.324963;0.734007;0.999994;0.000873;-0.002565;0.006308;0.002164;0.006807;-0.003064;76.999170;0.006819;
1066;1277;2.737637;76.034855;0.999698;0.006571;-0.042167;0.097935;-0.008177;0.098410;-0.042643;-86.671037;0.098701;
1051;792;0.730819;2.046883;0.999972;0.001558;-0.008922;0.020246;0.003626;0.020690;-0.009366;83.018067;0.020721;
1261;692;-0.331638;0.798996;0.999993;0.000865;-0.002873;0.007096;-0.002184;0.007553;-0.003330;-78.170999;0.007571;
1131;917;0.096418;6.545892;0.999792;0.005212;-0.026350;0.060333;0.000185;0.060333;-0.026351;89.877500;0.060494;
1076;492;0.036650;0.235038;1.000000;0.000173;-0.000622;0.001606;0.000074;0.001608;-0.000624;88.100611;0.001622;
1006;567;0.110076;0.362262;0.999998;0.000295;-0.000577;0.001656;0.000301;0.001696;-0.000616;82.465915;0.001717;
1196;1862;-0.012921;86.340073;1.000000;0.000200;-0.000221;0.001390;0.000108;0.001397;-0.000228;86.183012;0.001499;
1216;472;-0.044459;0.205194;1.000000;0.000151;-0.000546;0.001572;-0.000097;0.001577;-0.000550;-87.383943;0.001600;
1001;682;0.312642;0.735865;0.999994;0.000872;-0.002563;0.006344;0.002079;0.006805;-0.003025;77.486972;0.006819;
1081;807;0.548782;2.360063;0.999975;0.001591;-0.010272;0.023403;0.002548;0.023595;-0.010463;85.696575;0.023645;
1161;362;-0.003188;0.042215;1.000000;0.000051;-0.000127;0.001324;-0.000047;0.001326;-0.000128;-88.131064;0.001462;
1071;1277;2.523809;76.068876;0.999655;0.005705;-0.041765;0.097265;-0.007619;0.097682;-0.042182;-86.872658;0.097984;
1056;792;0.685566;2.046799;0.999973;0.001618;-0.008894;0.020299;0.003397;0.020689;-0.009285;83.449741;0.020725;
1106;1707;0.022867;86.102987;1.000000;0.000097;-0.000842;0.001846;-0.000066;0.001847;-0.000843;-88.603273;0.001849;
1136;917;-0.035335;6.546674;0.999799;0.004207;-0.026342;0.060306;-0.000239;0.060306;-0.026343;-89.842007;0.060467;
1101;727;0.136161;1.080839;0.999994;0.000574;-0.004074;0.010099;0.000824;0.010147;-0.004122;86.685269;0.010206;
971;422;0.064555;0.144077;1.000000;0.000142;-0.000535;0.001501;0.000093;0.001506;-0.000540;87.385472;0.001526;
1196;1867;-0.011512;86.347369;1.000000;0.000188;-0.000200;0.001379;0.000111;0.001386;-0.000208;85.982181;0.001496;
1181;632;-0.061524;0.528480;0.999998;0.000367;-0.001315;0.003143;-0.000320;0.003166;-0.001338;-85.909512;0.003179;
1221;472;-0.047336;0.205266;0.999999;0.000207;-0.000546;0.001572;-0.000101;0.001576;-0.000551;-87.263214;0.001600;
1046;707;0.279585;0.911723;0.999992;0.000960;-0.003369;0.008219;0.001800;0.008492;-0.003642;81.369228;0.008521;
1086;807;0.497751;2.359567;0.999970;0.001815;-0.010285;0.023425;0.002302;0.023581;-0.010442;86.111546;0.023633;
1051;1277;3.381542;75.960795;0.999711;0.005824;-0.042804;0.100101;-0.010350;0.100846;-0.043549;-85.879087;0.101158;
1166;362;-0.003781;0.042244;1.000000;0.000056;-0.000128;0.001325;-0.000056;0.001328;-0.000130;-87.790105;0.001464;
1041;792;0.823735;2.048115;0.999971;0.001415;-0.008946;0.020128;0.004076;0.020689;-0.009506;82.169208;0.020711;
1111;1692;0.020278;86.073476;1.000000;0.000122;-0.000929;0.002002;-0.000062;0.002004;-0.000930;-88.790404;0.002005;
1101;732;0.146008;1.131348;0.999994;0.000625;-0.004357;0.010709;0.000861;0.010758;-0.004406;86.740398;0.010817;
1216;882;-1.646715;4.809949;0.999865;0.002389;-0.020720;0.045946;-0.006616;0.046597;-0.021370;-84.386490;0.046650;
1186;632;-0.067474;0.527285;0.999999;0.000379;-0.001304;0.003142;-0.000357;0.003171;-0.001332;-85.439312;0.003184;
1011;442;0.056010;0.165076;1.000000;0.000186;-0.000472;0.001531;0.000122;0.001538;-0.000480;86.513382;0.001574;
1071;467;0.033754;0.196065;1.000000;0.000158;-0.000539;0.001565;0.000074;0.001568;-0.000541;87.988395;0.001593;
1201;592;-0.071515;0.416546;0.999998;0.000314;-0.000990;0.002293;-0.000259;0.002313;-0.001010;-85.523946;0.002319;
1046;807;0.906506;2.359969;0.999971;0.001578;-0.010387;0.023199;0.004307;0.023742;-0.010931;82.807798;0.023767;
1131;1872;0.000495;86.355801;1.000000;0.000173;-0.000161;0.001341;-0.000004;0.001341;-0.000161;-89.844216;0.001464;
1041;797;0.868735;2.155038;0.999977;0.001317;-0.009417;0.021167;0.004196;0.021732;-0.009982;82.327656;0.021756;
1056;1277;3.165277;75.980535;0.999710;0.005168;-0.042577;0.099296;-0.009615;0.099945;-0.043226;-86.140593;0.100248;
1216;887;-1.708441;5.051959;0.999882;0.002970;-0.021676;0.048157;-0.006808;0.048814;-0.022334;-84.483276;0.048873;
1061;802;0.716138;2.248090;0.999975;0.001275;-0.009853;0.022301;0.003409;0.022658;-0.010210;84.013419;0.022695;
1176;487;-0.025018;0.225708;1.000000;0.000140;-0.000605;0.001595;-0.000052;0.001596;-0.000606;-88.639023;0.001612;
1191;632;-0.074110;0.526380;0.999999;0.000325;-0.001293;0.003140;-0.000393;0.003175;-0.001328;-84.968577;0.003189;
1051;1322;2.323258;79.459259;0.999841;0.004136;-0.029200;0.065880;-0.008344;0.066606;-0.029927;-85.022325;0.066720;
1071;1522;0.232608;85.375485;0.999994;0.000845;-0.003903;0.009423;-0.001463;0.009582;-0.004062;-83.809974;0.009619;
1041;802;0.913953;2.256438;0.999971;0.001657;-0.009900;0.022149;0.004347;0.022729;-0.010480;82.410931;0.022752;
1076;792;0.512737;2.038579;0.999961;0.001686;-0.008837;0.020457;0.002500;0.020668;-0.009049;85.157045;0.020722;
1236;552;-0.086719;0.336481;0.999997;0.000467;-0.000683;0.001698;-0.000221;0.001718;-0.000703;-84.750803;0.001727;
1076;1277;2.317700;76.089080;0.999654;0.005553;-0.041356;0.096677;-0.007024;0.097033;-0.041712;-87.094568;0.097351;
1131;1877;0.000195;86.362192;0.999999;0.000167;-0.000142;0.001330;-0.000003;0.001330;-0.000142;-89.896492;0.001460;
1046;802;0.863062;2.252571;0.999971;0.001672;-0.009885;0.022222;0.004130;0.022745;-0.010408;82.785724;0.022772;
1066;887;1.435031;5.055721;0.999849;0.003022;-0.021483;0.047978;0.005568;0.048421;-0.021926;85.446303;0.048493;
1171;362;-0.004549;0.042359;1.000000;0.000045;-0.000129;0.001327;-0.000065;0.001330;-0.000131;-87.437729;0.001466;
1046;467;0.047418;0.198520;0.999999;0.000187;-0.000539;0.001564;0.000103;0.001569;-0.000544;87.201155;0.001593;
1056;1322;2.175221;79.475316;0.999834;0.003532;-0.029103;0.065622;-0.007744;0.066251;-0.029732;-85.357073;0.066367;
1036;812;1.059355;2.477546;0.999967;0.001665;-0.010987;0.024136;0.004984;0.024829;-0.011680;82.078482;0.024844;
1061;792;0.647651;2.046986;0.999969;0.001333;-0.008891;0.020343;0.003172;0.020683;-0.009231;83.878259;0.020723;
1046;1277;3.602150;75.933308;0.999697;0.005989;-0.043022;0.100970;-0.011083;0.101818;-0.043870;-85.624175;0.102142;
1216;1547;-0.229342;85.571789;0.999994;0.000607;-0.002976;0.007257;0.001496;0.007472;-0.003190;81.851027;0.007498;
1021;552;0.094567;0.337487;0.999998;0.000285;-0.000639;0.001681;0.000228;0.001703;-0.000661;84.449627;0.001717;
1081;802;0.519664;2.242224;0.999969;0.001531;-0.009786;0.022390;0.002461;0.022577;-0.009973;85.650809;0.022628;
1176;367;-0.005961;0.048977;1.000000;0.000049;-0.000149;0.001336;-0.000074;0.001339;-0.000153;-87.159623;0.001466;
1041;787;0.782602;1.944884;0.999977;0.001217;-0.008503;0.019169;0.003943;0.019720;-0.009054;82.047178;0.019742;
1021;797;1.058818;2.154210;0.999971;0.001838;-0.009434;0.020952;0.005074;0.021776;-0.010259;80.765609;0.021789;
1101;902;0.791720;5.752378;0.999829;0.002972;-0.023607;0.053416;0.002802;0.053518;-0.023708;87.919030;0.053633;
1081;1277;2.110470;76.114292;0.999563;0.006477;-0.041080;0.096178;-0.006389;0.096474;-0.041376;-87.340857;0.096799;
976;427;0.064823;0.150322;1.000000;0.000192;-0.000443;0.001499;0.000085;0.001503;-0.000447;87.498435;0.001543;
1161;1332;-0.742021;80.141948;0.999871;0.003305;-0.025551;0.058198;0.002377;0.058266;-0.025618;88.375358;0.058407;
1216;1552;-0.213075;85.610126;0.999995;0.000516;-0.002786;0.006840;0.001413;0.007043;-0.002989;81.820974;0.007070;
1086;802;0.473304;2.239564;0.999967;0.001465;-0.009800;0.022398;0.002227;0.022552;-0.009953;86.061882;0.022603;
1136;577;-0.000395;0.391619;0.999997;0.000467;-0.001069;0.002297;-0.000005;0.002297;-0.001069;-89.906459;0.002299;
1041;1277;3.817456;75.883417;0.999544;0.007062;-0.043163;0.101926;-0.011856;0.102888;-0.044126;-85.359138;0.103234;
1321;1867;-0.051068;86.324997;0.999992;0.000825;-0.000509;0.001638;0.000119;0.001645;-0.000515;86.837600;0.001683;
1176;372;-0.006835;0.055760;1.000000;0.000057;-0.000169;0.001349;-0.000073;0.001352;-0.000173;-87.258615;0.001472;
1031;782;0.821627;1.860707;0.999981;0.001602;-0.008135;0.018165;0.004176;0.018812;-0.008782;81.190547;0.018826;
1021;787;0.952325;1.955079;0.999978;0.001081;-0.008589;0.018853;0.004780;0.019662;-0.009398;80.396322;0.019669;
1106;902;0.669863;5.745437;0.999811;0.003538;-0.023473;0.053299;0.002371;0.053372;-0.023546;88.232788;0.053495;
1276;437;-0.061947;0.159394;1.000000;0.000220;-0.000458;0.001503;-0.000109;0.001509;-0.000464;-86.828771;0.001546;
1166;1332;-0.868263;80.138378;0.999862;0.004423;-0.025592;0.058223;0.002809;0.058317;-0.025686;88.082512;0.058455;
1031;802;1.007740;2.258468;0.999975;0.001303;-0.009952;0.022030;0.004815;0.022739;-0.010661;81.621923;0.022754;
1216;1557;-0.199791;85.642619;0.999995;0.000466;-0.002607;0.006459;0.001333;0.006650;-0.002799;81.806452;0.006678;
1016;557;0.099503;0.347320;0.999998;0.000379;-0.000620;0.001678;0.000247;0.001705;-0.000646;83.931145;0.001721;
1086;1277;1.896880;76.140073;0.999466;0.006070;-0.040803;0.095738;-0.005801;0.095984;-0.041049;-87.571768;0.096318;
1036;782;0.782833;1.856768;0.999981;0.001257;-0.008096;0.018222;0.003969;0.018808;-0.008682;81.607804;0.018827;
1021;792;1.004274;2.050252;0.999976;0.001320;-0.008995;0.019817;0.004918;0.020633;-0.009811;80.576053;0.020641;
1176;377;-0.007717;0.062446;1.000000;0.000067;-0.000189;0.001362;-0.000072;0.001365;-0.000193;-87.345819;0.001478;
1031;807;1.057765;2.362212;0.999971;0.001758;-0.010464;0.023002;0.005005;0.023735;-0.011196;81.674305;0.023747;
1321;1872;-0.047785;86.332767;0.999990;0.001050;-0.000492;0.001661;0.000163;0.001673;-0.000504;85.705368;0.001716;
1136;367;-0.000183;0.048752;1.000000;0.000047;-0.000146;0.001327;-0.000003;0.001327;-0.000146;-89.890418;0.001455;
1206;892;-1.560699;5.279094;0.999862;0.003628;-0.022545;0.050279;-0.006021;0.050773;-0.023040;-85.305609;0.050845;
1296;422;-0.063955;0.143396;1.000000;0.000149;-0.000453;0.001490;-0.000078;0.001493;-0.000456;-87.693387;0.001530;
1256;1577;-0.234662;85.759454;0.999993;0.000602;-0.002071;0.005305;0.001601;0.005638;-0.002404;78.267396;0.005658;
1026;787;0.910463;1.953433;0.999978;0.001410;-0.008604;0.018958;0.004567;0.019695;-0.009341;80.832422;0.019704;
1091;1267;1.845366;75.182418;0.999388;0.006976;-0.043921;0.104048;-0.005364;0.104242;-0.044115;-87.926418;0.104652;
1041;782;0.743752;1.850938;0.999979;0.001098;-0.008057;0.018295;0.003785;0.018827;-0.008590;81.986662;0.018851;
1181;622;-0.057692;0.501228;0.999998;0.000416;-0.001231;0.002899;-0.000279;0.002918;-0.001250;-86.146503;0.002928;
1176;382;-0.008562;0.069340;1.000000;0.000065;-0.000210;0.001375;-0.000071;0.001378;-0.000213;-87.438599;0.001483;
1031;812;1.112325;2.478186;0.999967;0.002108;-0.011001;0.024051;0.005234;0.024816;-0.011766;81.685548;0.024827;
1321;1877;-0.047512;86.339096;0.999990;0.001052;-0.000469;0.001704;0.000204;0.001723;-0.000488;84.694590;0.001776;
1211;892;-1.674557;5.289501;0.999881;0.003121;-0.022620;0.050337;-0.006476;0.050907;-0.023190;-84.966203;0.050974;
1151;362;-0.001909;0.041999;1.000000;0.000058;-0.000126;0.001322;-0.000029;0.001322;-0.000127;-88.834419;0.001459;
1031;787;0.867349;1.952935;0.999979;0.001339;-0.008598;0.019030;0.004353;0.019699;-0.009268;81.253873;0.019711;
1296;427;-0.066107;0.150669;1.000000;0.000160;-0.000458;0.001486;-0.000077;0.001489;-0.000462;-87.727664;0.001524;
1026;782;0.861533;1.861277;0.999980;0.001341;-0.008140;0.018089;0.004382;0.018802;-0.008852;80.761302;0.018812;
1211;1542;-0.230108;85.533252;0.999993;0.000795;-0.003156;0.007695;0.001474;0.007892;-0.003353;82.397949;0.007921;
1091;1272;1.777454;75.685328;0.999401;0.005982;-0.042188;0.099637;-0.005313;0.099835;-0.042386;-87.857712;0.100214;
1186;622;-0.064203;0.499610;0.999998;0.000395;-0.001217;0.002891;-0.000310;0.002914;-0.001240;-85.714194;0.002925;
1166;392;-0.007705;0.082946;1.000000;0.000054;-0.000247;0.001391;-0.000051;0.001393;-0.000249;-88.229523;0.001486;
1046;797;0.820137;2.152436;0.999974;0.001528;-0.009410;0.021240;0.003975;0.021747;-0.009918;82.729562;0.021775;
1216;892;-1.788055;5.293555;0.999880;0.003694;-0.022670;0.050457;-0.006963;0.051114;-0.023327;-84.609104;0.051179;
1156;362;-0.002569;0.042165;1.000000;0.000057;-0.000126;0.001323;-0.000039;0.001324;-0.000127;-88.476117;0.001461;
1016;782;0.947686;1.867555;0.999952;0.002637;-0.008101;0.017789;0.004802;0.018652;-0.008963;79.823023;0.018656;
1036;787;0.825744;1.948357;0.999980;0.001223;-0.008551;0.019091;0.004136;0.019696;-0.009157;81.670851;0.019713;
1156;1872;-0.003719;86.355141;0.999999;0.000192;-0.000165;0.001346;0.000041;0.001347;-0.000166;88.453810;0.001469;
1056;1282;3.032984;76.438433;0.999682;0.005144;-0.040835;0.094902;-0.009420;0.095553;-0.041486;-86.049009;0.095828;
1206;477;-0.040281;0.212150;1.000000;0.000181;-0.000560;0.001582;-0.000084;0.001586;-0.000563;-87.761341;0.001608;
1191;622;-0.070395;0.497770;0.999998;0.000500;-0.001204;0.002880;-0.000339;0.002908;-0.001231;-85.284986;0.002919;
1021;777;0.856085;1.778610;0.999986;0.001072;-0.007700;0.017126;0.004426;0.017892;-0.008466;80.187900;0.017900;
1011;1557;0.297891;85.646791;0.999995;0.000730;-0.002621;0.006575;-0.002001;0.006992;-0.003038;-78.238656;0.007012;
1111;377;0.004336;0.062342;1.000000;0.000053;-0.000184;0.001357;0.000041;0.001358;-0.000185;88.495032;0.001473;
1016;787;0.993610;1.949149;0.999869;0.003912;-0.008584;0.018689;0.005009;0.019580;-0.009475;79.914704;0.019584;
1176;362;-0.005177;0.042321;1.000000;0.000048;-0.000129;0.001329;-0.000075;0.001333;-0.000133;-87.075894;0.001469;
1021;802;1.111243;2.264651;0.999970;0.001761;-0.009889;0.021813;0.005245;0.022658;-0.010734;80.846039;0.022668;
1051;882;1.690450;4.822201;0.999857;0.003030;-0.020787;0.046031;0.006768;0.046710;-0.021466;84.273891;0.046761;
1156;1877;-0.003392;86.362291;0.999999;0.000206;-0.000146;0.001336;0.000043;0.001337;-0.000147;88.350271;0.001466;
1061;1282;2.831550;76.452133;0.999715;0.005091;-0.040668;0.094255;-0.008692;0.094813;-0.041226;-86.329253;0.095081;
1026;777;0.818764;1.777037;0.999983;0.001330;-0.007715;0.017240;0.004225;0.017936;-0.008411;80.646465;0.017948;
1016;792;1.053512;2.060997;0.999778;0.004504;-0.008988;0.019684;0.005132;0.020575;-0.009879;80.151012;0.020580;
971;427;0.067149;0.151930;1.000000;0.000178;-0.000545;0.001510;0.000087;0.001514;-0.000549;87.584712;0.001533;
1016;567;0.105766;0.364185;0.999998;0.000493;-0.000620;0.001710;0.000279;0.001743;-0.000653;83.267542;0.001761;
1011;1562;0.278509;85.680460;0.999995;0.000768;-0.002462;0.006252;-0.001902;0.006650;-0.002859;-78.209353;0.006671;
1111;382;0.004748;0.069070;1.000000;0.000050;-0.000204;0.001369;0.000040;0.001370;-0.000205;88.549893;0.001478;
1056;882;1.579680;4.819770;0.999849;0.003480;-0.020721;0.046024;0.006365;0.046626;-0.021323;84.600844;0.046682;
1106;372;0.004671;0.055641;1.000000;0.000059;-0.000165;0.001345;0.000049;0.001347;-0.000166;88.138042;0.001468;
1021;807;1.170399;2.367376;0.999940;0.002494;-0.010398;0.022739;0.005443;0.023610;-0.011269;80.906312;0.023619;
1066;1282;2.627915;76.478276;0.999666;0.007570;-0.040475;0.093647;-0.007996;0.094122;-0.040950;-86.600193;0.094387;
1031;777;0.779673;1.774438;0.999983;0.001530;-0.007706;0.017317;0.004022;0.017947;-0.008337;81.089778;0.017962;
966;1832;0.061130;86.280687;1.000000;0.000188;-0.000518;0.001488;-0.000072;0.001491;-0.000521;-87.943663;0.001513;
971;432;0.069456;0.159780;0.999999;0.000202;-0.000562;0.001507;0.000082;0.001510;-0.000565;87.731367;0.001526;
1021;567;0.101550;0.363879;0.999998;0.000382;-0.000649;0.001737;0.000269;0.001767;-0.000678;83.647341;0.001783;
1161;357;-0.002861;0.035566;1.000000;0.000062;-0.000107;0.001319;-0.000048;0.001320;-0.000108;-88.084855;0.001466;
1031;1537;0.317579;85.501394;0.999991;0.000792;-0.003375;0.008137;-0.002071;0.008499;-0.003737;-80.107135;0.008519;
1066;892;1.495197;5.292394;0.999842;0.003351;-0.022440;0.050251;0.005677;0.050692;-0.022881;85.561530;0.050771;
1046;1282;3.464726;76.373452;0.999685;0.005233;-0.041274;0.096363;-0.010838;0.097211;-0.042122;-85.525011;0.097499;
1106;377;0.005301;0.062366;1.000000;0.000049;-0.000184;0.001358;0.000049;0.001359;-0.000186;88.179016;0.001474;
1011;567;0.108407;0.364452;0.999998;0.000371;-0.000597;0.001683;0.000290;0.001719;-0.000634;82.871946;0.001739;
1036;777;0.741723;1.773267;0.999984;0.001352;-0.007673;0.017374;0.003821;0.017944;-0.008243;81.517205;0.017963;
1066;792;0.603987;2.044918;0.999973;0.001374;-0.008868;0.020386;0.002955;0.020682;-0.009163;84.289394;0.020727;
1166;357;-0.003293;0.035599;1.000000;0.000064;-0.000108;0.001320;-0.000057;0.001322;-0.000110;-87.734781;0.001467;
1006;442;0.058234;0.165938;1.000000;0.000203;-0.000471;0.001526;0.000121;0.001534;-0.000478;86.549888;0.001569;
1196;622;-0.076120;0.495948;0.999998;0.000599;-0.001188;0.002869;-0.000365;0.002902;-0.001220;-84.901618;0.002914;
1266;1792;-0.065139;86.229417;1.000000;0.000179;-0.000487;0.001531;0.000115;0.001538;-0.000494;86.743778;0.001571;
1036;1537;0.303120;85.502861;0.999992;0.000669;-0.003349;0.008094;-0.001959;0.008420;-0.003675;-80.548070;0.008443;
1051;1282;3.245480;76.411605;0.999716;0.004864;-0.041048;0.095606;-0.010131;0.096353;-0.041795;-85.782871;0.096635;
1106;382;0.005844;0.069046;1.000000;0.000043;-0.000204;0.001370;0.000048;0.001371;-0.000206;88.237711;0.001479;
1161;892;-0.571261;5.245827;0.999851;0.002694;-0.021624;0.049113;-0.002071;0.049174;-0.021684;-88.324510;0.049288;
956;517;0.115201;0.281971;0.999998;0.000384;-0.000568;0.001220;0.000181;0.001238;-0.000586;84.284262;0.001239;
1041;777;0.702661;1.769376;0.999980;0.001284;-0.007644;0.017442;0.003635;0.017958;-0.008160;81.918514;0.017983;
1171;357;-0.003860;0.035639;1.000000;0.000059;-0.000108;0.001322;-0.000066;0.001325;-0.000111;-87.378427;0.001470;
966;422;0.067008;0.145775;1.000000;0.000176;-0.000554;0.001496;0.000095;0.001500;-0.000559;87.341378;0.001516;
1196;627;-0.077862;0.511638;0.999998;0.000517;-0.001231;0.002990;-0.000391;0.003026;-0.001267;-84.746608;0.003040;
1071;792;0.557868;2.042596;0.999974;0.001553;-0.008848;0.020424;0.002728;0.020676;-0.009100;84.720419;0.020726;
1071;1282;2.412315;76.513888;0.999678;0.006900;-0.040103;0.093032;-0.007426;0.093445;-0.040516;-86.817422;0.093720;
1041;1537;0.286039;85.504110;0.999992;0.000839;-0.003325;0.008053;-0.001861;0.008350;-0.003622;-80.944182;0.008374;
1046;777;0.665107;1.766210;0.999980;0.001357;-0.007648;0.017496;0.003421;0.017953;-0.008105;82.389432;0.017981;
1221;882;-1.746305;4.807060;0.999842;0.002755;-0.020787;0.046008;-0.007061;0.046746;-0.021526;-84.031044;0.046795;
1156;357;-0.002292;0.035541;1.000000;0.000053;-0.000107;0.001318;-0.000039;0.001319;-0.000108;-88.436508;0.001465;
1041;1282;3.682306;76.326960;0.999584;0.006752;-0.041437;0.097165;-0.011580;0.098126;-0.042398;-85.256834;0.098427;
1131;582;0.004735;0.402787;0.999998;0.000328;-0.001093;0.002353;0.000011;0.002353;-0.001093;89.810362;0.002355;
1271;1792;-0.067497;86.228480;1.000000;0.000190;-0.000485;0.001524;0.000112;0.001531;-0.000491;86.805689;0.001563;
1236;467;-0.054022;0.199353;1.000000;0.000164;-0.000536;0.001559;-0.000109;0.001564;-0.000541;-87.031092;0.001589;
1196;632;-0.080432;0.524763;0.999999;0.000361;-0.001281;0.003139;-0.000425;0.003180;-0.001321;-84.557860;0.003195;
1041;772;0.666295;1.688524;0.999982;0.001371;-0.007253;0.016587;0.003490;0.017087;-0.007753;81.839204;0.017112;
1151;357;-0.001738;0.035425;1.000000;0.000049;-0.000107;0.001317;-0.000030;0.001318;-0.000107;-88.803484;0.001463;
1051;777;0.626006;1.765062;0.999979;0.001189;-0.007620;0.017506;0.003218;0.017911;-0.008025;82.815885;0.017944;
1176;1512;-0.185379;85.273890;0.999993;0.000662;-0.004421;0.010824;0.001082;0.010901;-0.004497;85.959455;0.010956;
1221;887;-1.821321;5.049543;0.999860;0.003756;-0.021753;0.048234;-0.007273;0.048982;-0.022501;-84.129346;0.049036;
1111;372;0.003860;0.055500;1.000000;0.000044;-0.000165;0.001344;0.000041;0.001345;-0.000166;88.460522;0.001467;
1076;1282;2.222718;76.520735;0.999686;0.005634;-0.039727;0.092505;-0.006825;0.092856;-0.040078;-87.053181;0.093146;
1316;427;-0.075168;0.158262;1.000000;0.000141;-0.000481;0.001457;-0.000053;0.001458;-0.000482;-88.423099;0.001486;
1051;562;0.078346;0.356146;0.999998;0.000487;-0.000789;0.001873;0.000218;0.001891;-0.000806;85.351568;0.001897;
966;1837;0.058623;86.288489;1.000000;0.000181;-0.000514;0.001505;-0.000079;0.001508;-0.000517;-87.766319;0.001532;
1166;602;-0.036889;0.449973;0.999998;0.000463;-0.001161;0.002563;-0.000145;0.002569;-0.001167;-87.770856;0.002572;
1176;357;-0.004438;0.035633;1.000000;0.000052;-0.000109;0.001324;-0.000075;0.001328;-0.000113;-87.006254;0.001473;
1046;772;0.627927;1.685691;0.999984;0.001244;-0.007246;0.016628;0.003288;0.017072;-0.007690;82.300633;0.017100;
1051;782;0.659211;1.846812;0.999978;0.001328;-0.008030;0.018373;0.003352;0.018792;-0.008448;82.877374;0.018824;
1221;892;-1.898985;5.299147;0.999866;0.004834;-0.022757;0.050566;-0.007440;0.051313;-0.023504;-84.264125;0.051374;
1181;1512;-0.209295;85.272901;0.999993;0.000672;-0.004438;0.010834;0.001216;0.010930;-0.004534;85.476284;0.010983;
1116;372;0.003042;0.055330;1.000000;0.000043;-0.000164;0.001343;0.000032;0.001344;-0.000165;88.778161;0.001466;
946;417;0.080050;0.142047;0.999956;0.001499;-0.000704;0.001399;0.000098;0.001403;-0.000708;87.349986;0.001403;
1101;737;0.156128;1.181814;0.999993;0.000695;-0.004659;0.011343;0.000900;0.011394;-0.004709;86.792107;0.011451;
1136;752;-0.006825;1.367320;0.999994;0.000786;-0.005636;0.013555;-0.000036;0.013555;-0.005636;-89.893012;0.013619;
971;1837;0.056600;86.290178;1.000000;0.000205;-0.000499;0.001508;-0.000085;0.001512;-0.000502;-87.565548;0.001540;
1051;772;0.592949;1.683772;0.999983;0.001111;-0.007216;0.016641;0.003092;0.017035;-0.007610;82.734634;0.017067;
1121;367;0.002331;0.048749;1.000000;0.000081;-0.000144;0.001328;0.000024;0.001328;-0.000145;89.075311;0.001458;
1081;1282;2.017678;76.553511;0.999614;0.006093;-0.039462;0.092030;-0.006191;0.092321;-0.039753;-87.310302;0.092617;
1241;457;-0.053075;0.184502;1.000000;0.000178;-0.000509;0.001539;-0.000112;0.001545;-0.000515;-86.880558;0.001574;
1101;372;0.005493;0.055846;1.000000;0.000065;-0.000166;0.001346;0.000058;0.001349;-0.000168;87.809711;0.001470;
951;417;0.071185;0.145310;1.000000;0.000165;-0.000637;0.001432;0.000092;0.001436;-0.000641;87.465561;0.001439;
1191;1322;-1.646870;79.496394;0.999788;0.003609;-0.028415;0.064377;0.005428;0.064694;-0.028732;86.663412;0.064828;
1091;1782;0.021573;86.224492;1.000000;0.000116;-0.000514;0.001545;-0.000051;0.001547;-0.000515;-88.580094;0.001575;
1206;897;-1.632271;5.514047;0.999838;0.003522;-0.023545;0.052558;-0.006170;0.053055;-0.024042;-85.394760;0.053133;
1191;722;-0.213430;1.036715;0.999991;0.000939;-0.003929;0.009648;-0.001365;0.009784;-0.004064;-84.314385;0.009831;
1181;732;-0.197404;1.130249;0.999993;0.000824;-0.004428;0.010804;-0.001237;0.010904;-0.004527;-85.386227;0.010956;
1056;772;0.559454;1.680887;0.999983;0.001083;-0.007197;0.016655;0.002892;0.017001;-0.007543;83.185884;0.017037;
1121;372;0.002259;0.055477;1.000000;0.000064;-0.000164;0.001342;0.000024;0.001343;-0.000164;89.099464;0.001465;
961;1762;0.096137;86.178598;0.999999;0.000148;-0.000512;0.001376;-0.000130;0.001384;-0.000521;-86.076097;0.001399;
956;417;0.068894;0.143109;0.999999;0.000190;-0.000593;0.001456;0.000088;0.001459;-0.000597;87.533949;0.001467;
1086;1282;1.809599;76.581468;0.999575;0.006669;-0.039191;0.091590;-0.005612;0.091830;-0.039432;-87.547161;0.092135;
1101;377;0.006236;0.062422;1.000000;0.000059;-0.000186;0.001359;0.000058;0.001361;-0.000188;87.856922;0.001476;
1241;462;-0.055010;0.192114;1.000000;0.000216;-0.000523;0.001546;-0.000112;0.001552;-0.000529;-86.922486;0.001578;
1211;897;-1.750044;5.523133;0.999850;0.003343;-0.023642;0.052643;-0.006607;0.053211;-0.024210;-85.086373;0.053283;
1191;1327;-1.579743;79.805451;0.999840;0.003304;-0.027239;0.061526;0.005320;0.061843;-0.027557;86.582397;0.061965;
1221;707;-0.269638;0.909761;0.999993;0.000665;-0.003357;0.008218;-0.001781;0.008486;-0.003625;-81.445228;0.008516;
1131;1787;0.001038;86.233062;1.000000;0.000113;-0.000492;0.001526;-0.000003;0.001526;-0.000492;-89.916347;0.001558;
1056;777;0.589158;1.757541;0.999975;0.001113;-0.007600;0.017517;0.003010;0.017872;-0.007955;83.259776;0.017908;
1111;747;0.125554;1.300659;0.999993;0.000677;-0.005290;0.012741;0.000712;0.012769;-0.005318;87.743418;0.012828;
1096;372;0.006280;0.056062;1.000000;0.000047;-0.000167;0.001348;0.000067;0.001351;-0.000170;87.468826;0.001472;
1101;382;0.006903;0.069046;1.000000;0.000057;-0.000206;0.001371;0.000057;0.001373;-0.000208;87.924303;0.001480;
1091;1277;1.697879;76.155462;0.999531;0.005275;-0.040531;0.095350;-0.005229;0.095551;-0.040732;-87.799587;0.095896;
1216;897;-1.868881;5.528622;0.999866;0.003683;-0.023707;0.052806;-0.007101;0.053459;-0.024360;-84.742251;0.053529;
1181;487;-0.028093;0.225940;1.000000;0.000165;-0.000604;0.001595;-0.000058;0.001597;-0.000605;-88.485956;0.001612;
1191;1332;-1.512508;80.094391;0.999845;0.003582;-0.026112;0.058904;0.005199;0.059221;-0.026429;86.513497;0.059334;
1251;1642;-0.122876;85.982539;0.999999;0.000173;-0.000775;0.002179;0.000500;0.002261;-0.000857;80.649016;0.002283;
1106;742;0.140750;1.240297;0.999993;0.000544;-0.004964;0.012013;0.000819;0.012053;-0.005003;87.243984;0.012111;
1106;492;0.018204;0.232884;1.000000;0.000254;-0.000630;0.001602;0.000037;0.001602;-0.000631;89.043997;0.001614;
1136;1787;-0.001443;86.233257;1.000000;0.000115;-0.000492;0.001526;0.000003;0.001526;-0.000492;89.918363;0.001558;
1056;782;0.621913;1.845288;0.999974;0.001236;-0.008008;0.018389;0.003138;0.018757;-0.008376;83.312227;0.018793;
1116;747;0.100188;1.300534;0.999993;0.000775;-0.005303;0.012758;0.000568;0.012776;-0.005321;88.199196;0.012835;
1096;377;0.007044;0.062591;1.000000;0.000060;-0.000187;0.001361;0.000067;0.001364;-0.000190;87.534421;0.001478;
1221;897;-1.986036;5.536557;0.999854;0.004535;-0.023809;0.052962;-0.007586;0.053704;-0.024551;-84.410438;0.053770;
1091;1282;1.618051;76.595466;0.999650;0.005837;-0.038937;0.091184;-0.005052;0.091380;-0.039133;-87.780027;0.091693;
1101;387;0.007468;0.076005;1.000000;0.000057;-0.000226;0.001382;0.000057;0.001384;-0.000228;87.984980;0.001484;
1001;432;0.056168;0.150627;1.000000;0.000133;-0.000447;0.001517;0.000121;0.001525;-0.000455;86.482835;0.001565;
1191;1337;-1.456671;80.365397;0.999837;0.003423;-0.025022;0.056404;0.005089;0.056721;-0.025338;86.437866;0.056828;
1141;1787;-0.003845;86.233102;1.000000;0.000097;-0.000492;0.001526;0.000008;0.001527;-0.000492;89.759143;0.001558;
1301;422;-0.065932;0.145116;1.000000;0.000174;-0.000456;0.001482;-0.000072;0.001485;-0.000458;-87.864554;0.001521;
1061;787;0.613991;1.947000;0.999967;0.001456;-0.008435;0.019341;0.003052;0.019673;-0.008766;83.803400;0.019711;
1061;1622;0.087190;85.920131;0.999999;0.000229;-0.001156;0.002818;-0.000426;0.002863;-0.001201;-83.949012;0.002875;
1031;697;0.286945;0.837217;0.999990;0.000790;-0.003030;0.007430;0.001914;0.007770;-0.003370;79.950781;0.007792;
1046;1287;3.315584;76.817184;0.999731;0.004888;-0.039670;0.091175;-0.010514;0.092014;-0.040510;-85.435057;0.092233;
1121;747;0.073672;1.297787;0.999994;0.000642;-0.005310;0.012778;0.000422;0.012788;-0.005320;88.664942;0.012848;
1106;387;0.006360;0.075875;1.000000;0.000048;-0.000225;0.001381;0.000048;0.001382;-0.000226;88.291123;0.001483;
1166;892;-0.681478;5.244215;0.999868;0.003559;-0.021720;0.049214;-0.002471;0.049300;-0.021806;-88.007684;0.049409;
1321;417;-0.070318;0.148381;0.999976;0.001438;-0.000489;0.001452;-0.000042;0.001453;-0.000490;-88.750954;0.001479;
1011;767;0.839429;1.604798;0.999940;0.002011;-0.006962;0.015402;0.004442;0.016252;-0.007812;79.167196;0.016256;
1191;1342;-1.395134;80.627607;0.999833;0.003031;-0.023971;0.054018;0.004992;0.054336;-0.024290;86.352703;0.054438;
1051;787;0.691290;1.943500;0.999975;0.001483;-0.008462;0.019273;0.003490;0.019706;-0.008894;82.936025;0.019737;
1301;427;-0.068470;0.152608;1.000000;0.000160;-0.000461;0.001479;-0.000072;0.001482;-0.000463;-87.887973;0.001516;
1051;1287;3.106788;76.857870;0.999699;0.005563;-0.039427;0.090756;-0.009846;0.091497;-0.040167;-85.699309;0.091723;
1006;682;0.298301;0.735994;0.999994;0.000819;-0.002553;0.006347;0.002000;0.006775;-0.002982;77.900699;0.006791;
1071;1732;0.043553;86.143550;1.000000;0.000102;-0.000675;0.001648;-0.000091;0.001652;-0.000678;-87.749756;0.001661;
1131;747;0.020404;1.299529;0.999995;0.000780;-0.005310;0.012805;0.000123;0.012806;-0.005311;89.609952;0.012868;
1061;1627;0.085138;85.933316;0.999999;0.000193;-0.001108;0.002690;-0.000392;0.002730;-0.001148;-84.166702;0.002742;
1101;367;0.004818;0.049056;1.000000;0.000067;-0.000146;0.001334;0.000059;0.001336;-0.000149;87.728896;0.001464;
1016;767;0.799063;1.614695;0.999990;0.001111;-0.006949;0.015526;0.004251;0.016303;-0.007727;79.639419;0.016311;
1146;912;-0.289285;6.275147;0.999846;0.003315;-0.025421;0.057801;-0.001037;0.057814;-0.025433;-89.286412;0.057953;
1141;497;-0.004049;0.239881;1.000000;0.000108;-0.000656;0.001616;-0.000009;0.001616;-0.000656;-89.780123;0.001626;
1076;787;0.488974;1.943303;0.999953;0.001951;-0.008391;0.019437;0.002391;0.019641;-0.008595;85.124376;0.019692;
1156;1327;-0.636493;79.839687;0.999826;0.003229;-0.026639;0.060893;0.001994;0.060938;-0.026684;88.695469;0.061095;
1306;427;-0.070939;0.154806;1.000000;0.000151;-0.000465;0.001472;-0.000067;0.001474;-0.000467;-88.026504;0.001507;
1056;1287;2.914083;76.865237;0.999691;0.006783;-0.039221;0.090308;-0.009170;0.090954;-0.039867;-85.970448;0.091184;
1126;752;0.050888;1.365759;0.999994;0.000756;-0.005656;0.013543;0.000274;0.013547;-0.005660;89.182717;0.013608;
1131;752;0.022506;1.367092;0.999995;0.000833;-0.005649;0.013549;0.000118;0.013549;-0.005649;89.647735;0.013611;
1061;1632;0.083819;85.945738;1.000000;0.000163;-0.001067;0.002581;-0.000364;0.002617;-0.001103;-84.355227;0.002627;
1021;767;0.765288;1.615499;0.999986;0.001134;-0.006961;0.015596;0.004065;0.016306;-0.007671;80.089357;0.016316;
1076;1732;0.040272;86.143956;1.000000;0.000111;-0.000682;0.001649;-0.000087;0.001653;-0.000685;-87.876809;0.001661;
1106;367;0.004142;0.048984;1.000000;0.000061;-0.000145;0.001332;0.000050;0.001333;-0.000147;88.069842;0.001462;
1191;892;-1.226499;5.264669;0.999837;0.002685;-0.022190;0.049811;-0.004621;0.050107;-0.022486;-86.342563;0.050194;
1311;427;-0.073155;0.156016;1.000000;0.000140;-0.000470;0.001465;-0.000061;0.001467;-0.000472;-88.185089;0.001497;
1056;787;0.653973;1.944261;0.999971;0.001461;-0.008438;0.019308;0.003269;0.019688;-0.008818;83.370168;0.019724;
1226;472;-0.050251;0.205929;1.000000;0.000252;-0.000547;0.001572;-0.000104;0.001577;-0.000552;-87.197904;0.001601;
1061;1287;2.711185;76.876113;0.999723;0.005154;-0.039066;0.089845;-0.008465;0.090399;-0.039619;-86.259180;0.090628;
1161;1327;-0.769345;79.840761;0.999845;0.003773;-0.026650;0.060902;0.002422;0.060969;-0.026716;88.416835;0.061124;
1136;582;-0.000747;0.403268;0.999998;0.000408;-0.001094;0.002355;-0.000006;0.002355;-0.001094;-89.895714;0.002357;
1126;757;0.051040;1.434764;0.999992;0.000991;-0.006004;0.014303;0.000287;0.014307;-0.006008;89.189852;0.014368;
1041;767;0.628646;1.606458;0.999978;0.001203;-0.006879;0.015764;0.003346;0.016248;-0.007363;81.767737;0.016271;
1081;1732;0.036979;86.144463;1.000000;0.000130;-0.000690;0.001651;-0.000080;0.001654;-0.000693;-88.034902;0.001661;
1111;367;0.003382;0.048907;1.000000;0.000047;-0.000145;0.001330;0.000041;0.001332;-0.000146;88.406343;0.001461;
1026;692;0.282459;0.800879;0.999992;0.000784;-0.002862;0.007061;0.001889;0.007408;-0.003209;79.580026;0.007430;
976;1782;0.080216;86.210198;1.000000;0.000189;-0.000468;0.001455;-0.000097;0.001460;-0.000473;-87.115331;0.001490;
1016;772;0.843858;1.698303;0.999987;0.001233;-0.007288;0.016198;0.004473;0.017021;-0.008111;79.574177;0.017027;
1046;887;1.863245;5.063809;0.999854;0.003626;-0.021801;0.048307;0.007465;0.049093;-0.022587;83.988631;0.049145;
961;417;0.066474;0.140538;0.999999;0.000222;-0.000562;0.001472;0.000086;0.001476;-0.000566;87.570030;0.001489;
1066;1287;2.512752;76.899856;0.999672;0.005937;-0.038855;0.089483;-0.007872;0.089964;-0.039336;-86.503091;0.090200;
1166;1327;-0.901421;79.838550;0.999836;0.003566;-0.026689;0.060943;0.002867;0.061037;-0.026783;88.128331;0.061189;
1131;757;0.021692;1.435696;0.999992;0.000893;-0.006002;0.014298;0.000123;0.014298;-0.006003;89.652328;0.014360;
1186;642;-0.071613;0.561683;0.999999;0.000313;-0.001421;0.003467;-0.000417;0.003503;-0.001456;-85.153782;0.003519;
1046;767;0.593279;1.604523;0.999982;0.001283;-0.006856;0.015766;0.003160;0.016199;-0.007289;82.194906;0.016226;
1081;1722;0.039252;86.127792;1.000000;0.000137;-0.000730;0.001695;-0.000096;0.001699;-0.000734;-87.729010;0.001704;
1116;377;0.003399;0.062320;1.000000;0.000062;-0.000183;0.001356;0.000032;0.001356;-0.000184;88.803172;0.001471;
1021;772;0.809048;1.695927;0.999984;0.001069;-0.007311;0.016324;0.004269;0.017071;-0.008058;80.068562;0.017080;
1241;687;-0.256288;0.766233;0.999993;0.000741;-0.002673;0.006643;-0.001763;0.006965;-0.002995;-79.634101;0.006988;
1061;892;1.608372;5.297197;0.999830;0.003184;-0.022576;0.050410;0.006156;0.050925;-0.023092;85.212852;0.050999;
1231;1342;-2.373863;80.590418;0.999842;0.004492;-0.024894;0.055474;0.008780;0.056422;-0.025842;83.837110;0.056488;
996;432;0.058504;0.152164;1.000000;0.000154;-0.000444;0.001515;0.000117;0.001522;-0.000451;86.604679;0.001563;
1071;1287;2.321057;76.919961;0.999723;0.007740;-0.038504;0.088974;-0.007261;0.089386;-0.038917;-86.750468;0.089634;
1216;1647;-0.091043;85.982441;1.000000;0.000167;-0.000933;0.002288;0.000337;0.002323;-0.000968;84.082774;0.002333;
1026;772;0.772934;1.693351;0.999982;0.001328;-0.007319;0.016411;0.004074;0.017091;-0.007999;80.524348;0.017102;
1136;757;-0.007540;1.436490;0.999992;0.000767;-0.005992;0.014295;-0.000038;0.014295;-0.005992;-89.892130;0.014357;
1051;767;0.558607;1.603797;0.999982;0.001343;-0.006826;0.015773;0.002976;0.016158;-0.007212;82.623304;0.016189;
1081;1727;0.038137;86.136199;1.000000;0.000123;-0.000709;0.001672;-0.000088;0.001675;-0.000713;-87.895093;0.001681;
1191;642;-0.078601;0.560658;0.999999;0.000329;-0.001416;0.003480;-0.000462;0.003523;-0.001459;-84.656675;0.003541;
1116;367;0.002620;0.048810;1.000000;0.000047;-0.000145;0.001329;0.000032;0.001330;-0.000145;88.741396;0.001459;
1241;692;-0.273719;0.798210;0.999993;0.000726;-0.002840;0.007039;-0.001867;0.007380;-0.003181;-79.648487;0.007403;
1021;782;0.902249;1.864279;0.999982;0.001150;-0.008121;0.017972;0.004587;0.018755;-0.008904;80.315138;0.018763;
1076;1287;2.130068;76.934416;0.999724;0.007128;-0.038161;0.088486;-0.006665;0.088836;-0.038511;-86.995863;0.089097;
1166;1362;-0.675567;81.615027;0.999849;0.002671;-0.019877;0.045200;0.002402;0.045288;-0.019966;87.888659;0.045394;
1281;427;-0.059502;0.146034;1.000000;0.000176;-0.000443;0.001501;-0.000107;0.001507;-0.000448;-86.851846;0.001548;
1026;767;0.730635;1.610601;0.999983;0.001289;-0.006955;0.015642;0.003884;0.016291;-0.007604;80.515487;0.016303;
1031;772;0.736898;1.691493;0.999981;0.001601;-0.007304;0.016473;0.003875;0.017089;-0.007919;80.974564;0.017104;
1006;1837;0.041797;86.299689;1.000000;0.000195;-0.000383;0.001498;-0.000155;0.001511;-0.000396;-85.327570;0.001567;
1251;697;-0.323701;0.833189;0.999994;0.000763;-0.003050;0.007473;-0.002141;0.007892;-0.003469;-78.927833;0.007912;
1196;642;-0.086359;0.559026;0.999999;0.000389;-0.001408;0.003493;-0.000503;0.003544;-0.001459;-84.201740;0.003562;
1061;1747;0.046330;86.167036;1.000000;0.000145;-0.000622;0.001615;-0.000088;0.001618;-0.000625;-87.738820;0.001632;
1091;387;0.009635;0.076211;1.000000;0.000052;-0.000229;0.001386;0.000074;0.001390;-0.000233;87.396363;0.001489;
1186;732;-0.219353;1.133822;0.999990;0.000827;-0.004440;0.010809;-0.001368;0.010931;-0.004562;-84.913040;0.010981;
1046;782;0.699603;1.848556;0.999978;0.001270;-0.008064;0.018356;0.003563;0.018828;-0.008536;82.451671;0.018856;
1311;432;-0.074960;0.163327;1.000000;0.000149;-0.000472;0.001462;-0.000067;0.001464;-0.000474;-88.016694;0.001494;
1081;1287;1.937634;76.948614;0.999679;0.005667;-0.037918;0.088033;-0.006033;0.088322;-0.038207;-87.263713;0.088589;
1211;1322;-2.218169;79.472995;0.999829;0.003178;-0.029046;0.065386;0.007708;0.066011;-0.029671;85.364069;0.066123;
1036;772;0.702177;1.690130;0.999984;0.001431;-0.007275;0.016524;0.003680;0.017080;-0.007831;81.408616;0.017100;
1031;767;0.697718;1.607503;0.999981;0.001536;-0.006930;0.015674;0.003697;0.016264;-0.007520;80.942564;0.016279;
1256;697;-0.337869;0.833049;0.999992;0.000912;-0.003055;0.007479;-0.002226;0.007930;-0.003506;-78.542542;0.007948;
1311;1797;-0.083095;86.224438;0.999999;0.000246;-0.000551;0.001439;0.000064;0.001441;-0.000553;88.164263;0.001454;
1061;1752;0.044604;86.175402;1.000000;0.000130;-0.000609;0.001605;-0.000087;0.001609;-0.000612;-87.753043;0.001624;
1181;642;-0.065394;0.562956;0.999999;0.000297;-0.001426;0.003457;-0.000375;0.003486;-0.001455;-85.635906;0.003501;
1091;372;0.007145;0.056160;1.000000;0.000043;-0.000169;0.001350;0.000076;0.001354;-0.000173;87.130985;0.001474;
1246;697;-0.308367;0.833069;0.999994;0.000601;-0.003029;0.007470;-0.002068;0.007863;-0.003422;-79.248170;0.007885;
1041;1287;3.517097;76.781421;0.999597;0.006170;-0.039858;0.091484;-0.011199;0.092432;-0.040806;-85.160967;0.092643;
1046;787;0.735901;1.942002;0.999975;0.001380;-0.008505;0.019241;0.003715;0.019730;-0.008994;82.503448;0.019755;
1291;427;-0.064352;0.149237;1.000000;0.000187;-0.000442;0.001492;-0.000090;0.001496;-0.000446;-87.349397;0.001537;
1036;767;0.663053;1.606678;0.999981;0.001310;-0.006895;0.015720;0.003532;0.016258;-0.007433;81.326997;0.016278;
1056;767;0.527307;1.602624;0.999982;0.001211;-0.006808;0.015784;0.002787;0.016122;-0.007146;83.070829;0.016157;
1076;1337;1.408919;80.368980;0.999829;0.004278;-0.025189;0.056903;-0.005212;0.057233;-0.025519;-86.381523;0.057345;
1096;727;0.155171;1.080839;0.999993;0.000619;-0.004103;0.010114;0.000944;0.010176;-0.004165;86.219233;0.010232;
1061;1757;0.043408;86.183252;1.000000;0.000108;-0.000594;0.001596;-0.000085;0.001600;-0.000597;-87.768071;0.001617;
1091;392;0.010455;0.083272;1.000000;0.000056;-0.000249;0.001397;0.000072;0.001400;-0.000252;87.484523;0.001492;
1176;632;-0.055629;0.530053;0.999998;0.000370;-0.001328;0.003144;-0.000286;0.003163;-0.001346;-86.352234;0.003174;
1306;1857;-0.048255;86.316736;0.999999;0.000188;-0.000455;0.001577;0.000125;0.001585;-0.000463;86.481315;0.001630;
1126;747;0.047545;1.299095;0.999995;0.000625;-0.005319;0.012790;0.000273;0.012795;-0.005323;89.137806;0.012855;
1086;1287;1.735349;76.980533;0.999714;0.005991;-0.037654;0.087596;-0.005452;0.087833;-0.037891;-87.512260;0.088108;
1066;787;0.573515;1.947697;0.999969;0.001416;-0.008413;0.019375;0.002839;0.019662;-0.008700;84.226799;0.019705;
1016;757;0.714442;1.469856;0.999989;0.000875;-0.006218;0.013976;0.003877;0.014695;-0.006937;79.496073;0.014702;
1016;452;0.058030;0.179009;1.000000;0.000221;-0.000495;0.001539;0.000123;0.001547;-0.000503;86.548847;0.001578;
1221;1812;-0.035736;86.266151;1.000000;0.000151;-0.000431;0.001510;0.000115;0.001517;-0.000438;86.614107;0.001561;
1096;732;0.166649;1.131407;0.999994;0.000679;-0.004380;0.010719;0.000986;0.010784;-0.004444;86.280168;0.010839;
1076;1342;1.355628;80.648849;0.999864;0.003955;-0.024173;0.054459;-0.005093;0.054787;-0.024501;-86.309709;0.054889;
1226;882;-1.849090;4.804676;0.999842;0.003287;-0.020853;0.046053;-0.007519;0.046888;-0.021687;-83.666276;0.046932;
1321;527;-0.123342;0.295094;0.999966;0.001564;-0.000482;0.001182;-0.000289;0.001231;-0.000531;-80.419631;0.001235;
1116;752;0.107430;1.364160;0.999993;0.000757;-0.005638;0.013523;0.000582;0.013541;-0.005656;88.261511;0.013602;
1306;1862;-0.044655;86.324421;1.000000;0.000210;-0.000441;0.001595;0.000142;0.001605;-0.000451;86.030713;0.001655;
1091;367;0.006366;0.049363;1.000000;0.000048;-0.000149;0.001338;0.000077;0.001342;-0.000153;87.031792;0.001469;
1076;1722;0.042448;86.127645;1.000000;0.000147;-0.000719;0.001689;-0.000103;0.001694;-0.000724;-87.554320;0.001699;
1176;637;-0.057141;0.547096;0.999998;0.000410;-0.001378;0.003293;-0.000310;0.003314;-0.001398;-86.224790;0.003327;
1021;757;0.683993;1.466997;0.999987;0.001201;-0.006225;0.014062;0.003713;0.014720;-0.006884;79.947627;0.014730;
1186;1512;-0.230807;85.270410;0.999993;0.000586;-0.004458;0.010844;0.001348;0.010962;-0.004576;85.005265;0.011011;
1231;882;-1.956503;4.811881;0.999855;0.003790;-0.020856;0.046034;-0.007978;0.046972;-0.021795;-83.291413;0.047013;
1096;737;0.179353;1.184165;0.999994;0.000707;-0.004675;0.011351;0.001027;0.011417;-0.004741;86.348410;0.011472;
1066;1327;1.808466;79.789142;0.999826;0.003809;-0.027710;0.062468;-0.006430;0.062924;-0.028167;-85.941937;0.063039;
946;517;0.134021;0.284002;0.999950;0.001913;-0.000645;0.001031;0.000152;0.001044;-0.000659;84.861127;0.001056;
1226;1812;-0.038156;86.265874;1.000000;0.000180;-0.000434;0.001513;0.000120;0.001521;-0.000441;86.493326;0.001565;
1166;737;-0.143026;1.187913;0.999993;0.000556;-0.004676;0.011429;-0.000892;0.011479;-0.004725;-86.839903;0.011538;
1076;1727;0.041502;86.135765;1.000000;0.000124;-0.000700;0.001668;-0.000094;0.001672;-0.000704;-87.734505;0.001679;
1176;642;-0.059651;0.564348;0.999999;0.000414;-0.001432;0.003447;-0.000336;0.003471;-0.001456;-86.076217;0.003486;
1091;397;0.011415;0.090341;1.000000;0.000057;-0.000269;0.001410;0.000071;0.001413;-0.000272;87.577058;0.001499;
1026;757;0.650772;1.464040;0.999987;0.001323;-0.006208;0.014111;0.003552;0.014714;-0.006811;80.363060;0.014728;
1236;882;-2.065974;4.818171;0.999856;0.003376;-0.020850;0.045913;-0.008481;0.046973;-0.021910;-82.872697;0.047009;
966;1842;0.056036;86.295925;1.000000;0.000182;-0.000512;0.001519;-0.000088;0.001523;-0.000516;-87.520823;0.001549;
1066;1332;1.732188;80.074971;0.999857;0.002969;-0.026539;0.059826;-0.006318;0.060286;-0.026999;-85.837792;0.060395;
1221;1562;-0.199371;85.668213;0.999995;0.000432;-0.002453;0.006124;0.001342;0.006329;-0.002658;81.308928;0.006356;
1201;712;-0.220316;0.945286;0.999992;0.000880;-0.003494;0.008573;-0.001437;0.008742;-0.003663;-83.301712;0.008780;
1186;637;-0.069483;0.544193;0.999999;0.000372;-0.001359;0.003304;-0.000386;0.003336;-0.001391;-85.298138;0.003351;
1031;757;0.620379;1.459881;0.999985;0.001215;-0.006183;0.014139;0.003388;0.014689;-0.006733;80.780078;0.014705;
1096;397;0.010229;0.090169;1.000000;0.000052;-0.000268;0.001407;0.000063;0.001410;-0.000270;87.844555;0.001497;
1231;1812;-0.040583;86.265394;1.000000;0.000162;-0.000435;0.001516;0.000124;0.001524;-0.000442;86.378045;0.001568;
1076;1717;0.044342;86.119151;1.000000;0.000132;-0.000739;0.001717;-0.000112;0.001722;-0.000744;-87.388092;0.001727;
1201;642;-0.092614;0.556749;0.999998;0.000410;-0.001404;0.003507;-0.000545;0.003567;-0.001463;-83.740389;0.003586;
1226;707;-0.286498;0.911332;0.999993;0.000677;-0.003384;0.008257;-0.001889;0.008556;-0.003683;-81.010233;0.008584;
971;1842;0.053715;86.298093;1.000000;0.000216;-0.000496;0.001519;-0.000095;0.001523;-0.000501;-87.299464;0.001553;
1161;897;-0.590787;5.474987;0.999867;0.003089;-0.022552;0.051162;-0.002140;0.051224;-0.022614;-88.338546;0.051340;
1226;1337;-2.345869;80.305069;0.999826;0.003905;-0.025914;0.057873;0.008558;0.058738;-0.026779;84.227492;0.058814;
1201;717;-0.235059;0.990468;0.999990;0.000765;-0.003719;0.009103;-0.001525;0.009282;-0.003898;-83.307982;0.009322;
1191;637;-0.076240;0.543143;0.999999;0.000354;-0.001351;0.003310;-0.000427;0.003348;-0.001390;-84.812528;0.003365;
1166;1512;-0.142882;85.277304;0.999993;0.000628;-0.004403;0.010800;0.000821;0.010844;-0.004447;86.919302;0.010902;
1036;757;0.589575;1.456501;0.999983;0.001068;-0.006152;0.014178;0.003249;0.014684;-0.006658;81.137934;0.014706;
1101;397;0.008868;0.090060;1.000000;0.000055;-0.000266;0.001405;0.000055;0.001407;-0.000267;88.110977;0.001495;
1081;1717;0.040503;86.119836;1.000000;0.000127;-0.000751;0.001725;-0.000105;0.001730;-0.000755;-87.582668;0.001734;
1231;707;-0.303297;0.912924;0.999991;0.000850;-0.003406;0.008294;-0.001994;0.008625;-0.003737;-80.590275;0.008651;
1206;627;-0.089423;0.507483;0.999998;0.000493;-0.001209;0.002981;-0.000453;0.003030;-0.001258;-83.895541;0.003044;
1166;897;-0.709276;5.480200;0.999860;0.003174;-0.022647;0.051273;-0.002551;0.051361;-0.022735;-88.025768;0.051473;
1201;1862;-0.014041;86.340289;1.000000;0.000167;-0.000223;0.001396;0.000118;0.001404;-0.000232;85.847991;0.001505;
1221;1332;-2.317704;80.020654;0.999817;0.003460;-0.027020;0.060419;0.008179;0.061178;-0.027778;84.702012;0.061264;
1056;1627;0.090280;85.935507;0.999999;0.000263;-0.001088;0.002675;-0.000419;0.002722;-0.001134;-83.720421;0.002734;
1121;752;0.078888;1.364531;0.999994;0.000672;-0.005646;0.013538;0.000430;0.013547;-0.005656;88.717846;0.013609;
1196;637;-0.083142;0.540497;0.999999;0.000353;-0.001340;0.003316;-0.000463;0.003362;-0.001386;-84.376211;0.003379;
1036;762;0.624514;1.528324;0.999986;0.001070;-0.006509;0.014916;0.003392;0.015440;-0.007033;81.215995;0.015460;
1171;1512;-0.164496;85.275037;0.999993;0.000625;-0.004413;0.010812;0.000951;0.010871;-0.004472;86.438455;0.010928;
1121;382;0.002819;0.068982;1.000000;0.000077;-0.000203;0.001367;0.000023;0.001367;-0.000203;89.163167;0.001476;
1086;1717;0.036832;86.119947;1.000000;0.000132;-0.000761;0.001732;-0.000096;0.001736;-0.000764;-87.799129;0.001740;
1171;737;-0.165800;1.186988;0.999992;0.000788;-0.004684;0.011433;-0.001030;0.011498;-0.004750;-86.358410;0.011556;
1206;632;-0.092188;0.521075;0.999998;0.000491;-0.001265;0.003142;-0.000494;0.003196;-0.001320;-83.681879;0.003212;
1211;902;-1.825310;5.768736;0.999857;0.002766;-0.024679;0.055017;-0.006746;0.055584;-0.025246;-85.195434;0.055662;
1056;1632;0.088719;85.948005;1.000000;0.000215;-0.001045;0.002561;-0.000388;0.002602;-0.001086;-83.929030;0.002614;
1176;1337;-1.083513;80.398531;0.999810;0.003200;-0.024649;0.055870;0.003639;0.056035;-0.024813;87.417664;0.056157;
1121;1652;0.013267;85.984191;1.000000;0.000159;-0.001140;0.002467;-0.000053;0.002468;-0.001141;-89.164031;0.002470;
1181;637;-0.062945;0.544362;0.999999;0.000357;-0.001368;0.003299;-0.000346;0.003324;-0.001394;-85.780727;0.003339;
1091;727;0.175348;1.082287;0.999993;0.000731;-0.004131;0.010132;0.001066;0.010212;-0.004210;85.749846;0.010264;
1071;762;0.401942;1.521283;0.999983;0.001016;-0.006408;0.014962;0.002138;0.015174;-0.006620;84.343276;0.015215;
1146;362;-0.001284;0.041984;1.000000;0.000049;-0.000126;0.001321;-0.000020;0.001322;-0.000127;-89.202267;0.001458;
1156;747;-0.113758;1.302577;0.999994;0.000698;-0.005280;0.012849;-0.000648;0.012872;-0.005304;-87.956390;0.012938;
1156;1507;-0.105310;85.224674;0.999992;0.000600;-0.004662;0.011427;0.000589;0.011448;-0.004684;87.907505;0.011511;
1071;1727;0.045170;86.135229;1.000000;0.000136;-0.000691;0.001665;-0.000099;0.001669;-0.000695;-87.606445;0.001677;
1216;902;-1.948072;5.775967;0.999864;0.003422;-0.024760;0.055231;-0.007247;0.055882;-0.025411;-84.864856;0.055958;
1206;637;-0.095051;0.537668;0.999998;0.000544;-0.001332;0.003335;-0.000541;0.003397;-0.001394;-83.469658;0.003415;
1181;1357;-1.016656;81.373538;0.999822;0.002763;-0.020954;0.047461;0.003724;0.047663;-0.021156;86.893241;0.047763;
1091;732;0.188183;1.133870;0.999993;0.000831;-0.004401;0.010733;0.001114;0.010814;-0.004482;85.811665;0.010867;
1201;627;-0.083502;0.509922;0.999998;0.000558;-0.001217;0.002984;-0.000421;0.003025;-0.001259;-84.339268;0.003040;
1121;1657;0.012834;85.996212;1.000000;0.000172;-0.001116;0.002408;-0.000051;0.002409;-0.001117;-89.178035;0.002411;
1251;1757;-0.071192;86.177299;0.999999;0.000178;-0.000574;0.001575;0.000133;0.001583;-0.000583;86.476434;0.001601;
1071;767;0.424271;1.595768;0.999984;0.001075;-0.006780;0.015808;0.002212;0.016022;-0.006995;84.459542;0.016065;
1106;397;0.007519;0.089961;1.000000;0.000062;-0.000264;0.001404;0.000047;0.001405;-0.000265;88.385453;0.001493;
1221;902;-2.070789;5.780677;0.999859;0.003831;-0.024868;0.055452;-0.007737;0.056190;-0.025607;-84.547942;0.056263;
1161;747;-0.138893;1.302174;0.999992;0.000827;-0.005277;0.012842;-0.000808;0.012878;-0.005313;-87.451769;0.012944;
1191;1517;-0.236002;85.318416;0.999994;0.000649;-0.004219;0.010241;0.001396;0.010374;-0.004353;84.534026;0.010419;
1186;1697;-0.047400;86.082699;1.000000;0.000154;-0.000840;0.001881;0.000133;0.001888;-0.000847;87.214135;0.001891;
1061;1322;2.027706;79.491923;0.999835;0.003193;-0.029011;0.065367;-0.007160;0.065907;-0.029551;-85.686420;0.066024;
1091;737;0.203897;1.187539;0.999993;0.000860;-0.004690;0.011361;0.001159;0.011444;-0.004773;85.889781;0.011496;
1201;632;-0.086274;0.522668;0.999998;0.000487;-0.001270;0.003139;-0.000458;0.003186;-0.001317;-84.131353;0.003202;
1071;772;0.448777;1.669984;0.999980;0.001253;-0.007163;0.016662;0.002297;0.016882;-0.007382;84.541854;0.016926;
1201;1867;-0.012907;86.347211;1.000000;0.000168;-0.000202;0.001383;0.000121;0.001392;-0.000211;85.664913;0.001501;
1086;377;0.009096;0.062681;1.000000;0.000051;-0.000190;0.001366;0.000085;0.001370;-0.000195;86.873145;0.001483;
1166;742;-0.154188;1.247212;0.999992;0.000780;-0.004971;0.012117;-0.000930;0.012168;-0.005021;-86.895519;0.012230;
1081;1882;0.006922;86.367053;1.000000;0.000206;-0.000133;0.001339;-0.000093;0.001345;-0.000139;-86.385423;0.001479;
1061;887;1.544819;5.053719;0.999805;0.003351;-0.021612;0.048121;0.006029;0.048638;-0.022129;85.095204;0.048704;
1191;1522;-0.221319;85.371539;0.999995;0.000666;-0.003963;0.009638;0.001331;0.009767;-0.004092;84.461025;0.009810;
1041;1337;2.313614;80.342080;0.999835;0.003401;-0.026061;0.058029;-0.008542;0.058888;-0.026920;-84.258128;0.058960;
1266;692;-0.348128;0.799604;0.999992;0.000835;-0.002848;0.007080;-0.002254;0.007568;-0.003336;-77.792071;0.007586;
1231;472;-0.053166;0.206389;1.000000;0.000219;-0.000548;0.001571;-0.000107;0.001576;-0.000554;-87.108320;0.001599;
1111;1687;0.020969;86.063421;1.000000;0.000122;-0.000955;0.002057;-0.000065;0.002058;-0.000956;-88.758698;0.002060;
1201;637;-0.089178;0.539142;0.999998;0.000442;-0.001332;0.003324;-0.000501;0.003377;-0.001386;-83.929549;0.003395;
1061;757;0.437941;1.450450;0.999983;0.001152;-0.006076;0.014159;0.002406;0.014441;-0.006358;83.311942;0.014475;
1086;382;0.009906;0.069402;1.000000;0.000050;-0.000210;0.001378;0.000084;0.001382;-0.000215;86.981300;0.001488;
1081;1887;0.005474;86.374087;1.000000;0.000232;-0.000111;0.001335;-0.000093;0.001341;-0.000117;-86.322213;0.001485;
1176;737;-0.190553;1.187277;0.999992;0.000937;-0.004696;0.011434;-0.001164;0.011517;-0.004780;-85.894778;0.011572;
1186;1872;-0.008544;86.355243;1.000000;0.000118;-0.000172;0.001358;0.000095;0.001364;-0.000178;86.450975;0.001483;
1196;892;-1.336222;5.270822;0.999822;0.003023;-0.022283;0.049958;-0.005070;0.050312;-0.022637;-86.004898;0.050396;
1276;1577;-0.276472;85.761650;0.999992;0.000851;-0.002065;0.005311;0.001888;0.005766;-0.002520;76.444648;0.005781;
1186;1357;-1.120745;81.371115;0.999819;0.002547;-0.021062;0.047559;0.004155;0.047809;-0.021313;86.547648;0.047903;
1236;692;-0.258484;0.797697;0.999994;0.000644;-0.002830;0.007006;-0.001777;0.007317;-0.003141;-80.067320;0.007342;
951;517;0.118129;0.282197;0.999998;0.000380;-0.000593;0.001139;0.000167;0.001155;-0.000609;84.548217;0.001155;
1011;447;0.058353;0.172352;1.000000;0.000212;-0.000483;0.001532;0.000122;0.001539;-0.000491;86.545667;0.001573;
1186;1752;-0.033111;86.176306;1.000000;0.000118;-0.000616;0.001610;0.000068;0.001612;-0.000618;88.243462;0.001627;
1066;757;0.406826;1.448429;0.999984;0.001309;-0.006063;0.014155;0.002234;0.014399;-0.006307;83.770015;0.014436;
946;1822;0.081903;86.254776;0.999986;0.000961;-0.000656;0.001415;-0.000029;0.001415;-0.000656;-89.203221;0.001416;
1086;387;0.010729;0.076366;1.000000;0.000055;-0.000230;0.001389;0.000083;0.001393;-0.000234;87.079712;0.001491;
1181;737;-0.212371;1.186860;0.999990;0.001049;-0.004714;0.011430;-0.001303;0.011534;-0.004819;-85.415194;0.011586;
1191;1872;-0.009407;86.354837;1.000000;0.000136;-0.000176;0.001359;0.000103;0.001365;-0.000183;86.165309;0.001483;
1201;892;-1.447447;5.271744;0.999844;0.003665;-0.022408;0.050117;-0.005535;0.050537;-0.022828;-85.661019;0.050615;
1016;1557;0.284594;85.646616;0.999993;0.000806;-0.002618;0.006565;-0.001922;0.006950;-0.003004;-78.643745;0.006972;
1091;742;0.216469;1.242196;0.999993;0.000735;-0.004992;0.012030;0.001217;0.012116;-0.005079;85.930350;0.012169;
1191;1317;-1.711189;79.173632;0.999777;0.004538;-0.029676;0.067522;0.005497;0.067832;-0.029986;86.773065;0.067983;
1186;647;-0.074417;0.577189;0.999999;0.000266;-0.001490;0.003656;-0.000452;0.003696;-0.001529;-85.014412;0.003714;
1011;752;0.703348;1.405269;0.999988;0.000928;-0.005868;0.013146;0.003881;0.013908;-0.006629;78.895887;0.013913;
951;1822;0.073085;86.259727;1.000000;0.000216;-0.000605;0.001435;-0.000039;0.001436;-0.000606;-88.918276;0.001441;
1211;477;-0.043323;0.212703;1.000000;0.000151;-0.000561;0.001582;-0.000090;0.001586;-0.000565;-87.586396;0.001608;
1091;1717;0.033136;86.119840;1.000000;0.000104;-0.000770;0.001740;-0.000086;0.001743;-0.000773;-88.033029;0.001747;
1226;887;-1.929403;5.046445;0.999845;0.004096;-0.021821;0.048292;-0.007749;0.049138;-0.022667;-83.767537;0.049187;
1086;372;0.008118;0.056127;1.000000;0.000056;-0.000170;0.001353;0.000086;0.001357;-0.000175;86.788030;0.001477;
1196;1872;-0.010548;86.354609;1.000000;0.000168;-0.000179;0.001361;0.000112;0.001370;-0.000188;85.858761;0.001485;
1006;687;0.318640;0.767664;0.999993;0.000751;-0.002740;0.006754;0.002075;0.007188;-0.003174;78.193848;0.007204;
1096;742;0.191352;1.241947;0.999993;0.000824;-0.004983;0.012023;0.001081;0.012092;-0.005052;86.377596;0.012146;
1016;1562;0.264746;85.679502;0.999993;0.000724;-0.002458;0.006232;-0.001826;0.006600;-0.002826;-78.603932;0.006623;
1196;1317;-1.857124;79.163297;0.999827;0.003596;-0.029860;0.067779;0.006056;0.068153;-0.030234;86.464484;0.068297;
1016;752;0.673603;1.402652;0.999989;0.000878;-0.005875;0.013273;0.003725;0.013972;-0.006574;79.369173;0.013980;
1191;647;-0.082362;0.576267;0.999999;0.000319;-0.001488;0.003672;-0.000500;0.003720;-0.001536;-84.513194;0.003739;
1161;902;-0.616977;5.732717;0.999846;0.004073;-0.023507;0.053300;-0.002189;0.053362;-0.023570;-88.369048;0.053483;
1111;1867;0.004010;86.348338;1.000000;0.000194;-0.000186;0.001355;-0.000040;0.001356;-0.000187;-88.499309;0.001470;
1201;1872;-0.011022;86.354104;1.000000;0.000158;-0.000181;0.001366;0.000122;0.001375;-0.000191;85.524157;0.001490;
1086;392;0.011570;0.083392;1.000000;0.000063;-0.000250;0.001399;0.000081;0.001403;-0.000254;87.179466;0.001495;
1206;712;-0.235721;0.946698;0.999992;0.000722;-0.003518;0.008604;-0.001541;0.008797;-0.003711;-82.866153;0.008833;
1176;1727;-0.032110;86.136243;1.000000;0.000101;-0.000726;0.001687;0.000079;0.001690;-0.000728;88.122527;0.001695;
1071;472;0.034702;0.203010;1.000000;0.000178;-0.000555;0.001573;0.000074;0.001576;-0.000558;88.024386;0.001598;
1021;752;0.645042;1.401369;0.999987;0.001035;-0.005880;0.013355;0.003565;0.013995;-0.006519;79.831147;0.014006;
1101;742;0.166090;1.239096;0.999993;0.000609;-0.004972;0.012017;0.000951;0.012070;-0.005025;86.804640;0.012126;
1196;647;-0.090337;0.575405;0.999999;0.000424;-0.001483;0.003690;-0.000545;0.003747;-0.001540;-84.046433;0.003766;
1081;1337;1.283536;80.373473;0.999813;0.003574;-0.025141;0.056791;-0.004754;0.057066;-0.025416;-86.689976;0.057179;
1061;1527;0.253105;85.421216;0.999993;0.000674;-0.003696;0.008909;-0.001631;0.009116;-0.003904;-82.743354;0.009148;
1166;902;-0.738477;5.734584;0.999819;0.003750;-0.023597;0.053414;-0.002621;0.053503;-0.023686;-88.053352;0.053620;
1086;367;0.007184;0.049238;1.000000;0.000055;-0.000150;0.001340;0.000087;0.001345;-0.000155;86.688604;0.001472;
1211;712;-0.252395;0.947073;0.999993;0.000765;-0.003534;0.008636;-0.001652;0.008856;-0.003754;-82.407314;0.008890;
1116;1867;0.003164;86.348387;1.000000;0.000171;-0.000185;0.001354;-0.000032;0.001355;-0.000186;-88.822870;0.001469;
1181;1727;-0.035579;86.135935;1.000000;0.000098;-0.000717;0.001681;0.000086;0.001684;-0.000720;87.937866;0.001690;
1121;1662;0.012799;86.008060;1.000000;0.000139;-0.001091;0.002347;-0.000048;0.002348;-0.001091;-89.193354;0.002350;
1071;477;0.036015;0.211547;1.000000;0.000247;-0.000572;0.001583;0.000073;0.001586;-0.000575;88.061075;0.001606;
1026;752;0.614164;1.398882;0.999988;0.001157;-0.005859;0.013407;0.003409;0.013992;-0.006444;80.256130;0.014007;
1191;727;-0.228187;1.084301;0.999992;0.000983;-0.004181;0.010237;-0.001425;0.010376;-0.004321;-84.409774;0.010425;
1176;647;-0.061285;0.581233;0.999999;0.000353;-0.001496;0.003631;-0.000364;0.003657;-0.001522;-85.954093;0.003674;
1081;1342;1.230701;80.654248;0.999792;0.003548;-0.024129;0.054345;-0.004636;0.054618;-0.024402;-86.631066;0.054721;
1076;1512;0.240407;85.283315;0.999993;0.000711;-0.004411;0.010593;-0.001469;0.010735;-0.004554;-84.461738;0.010776;
1226;892;-2.018743;5.301769;0.999828;0.005190;-0.022841;0.050651;-0.007930;0.051497;-0.023687;-83.910805;0.051552;
1061;767;0.495604;1.598849;0.999984;0.001408;-0.006803;0.015796;0.002599;0.016091;-0.007098;83.522902;0.016129;
1086;397;0.012687;0.090428;1.000000;0.000058;-0.000271;0.001412;0.000080;0.001416;-0.000275;87.287944;0.001502;
1071;1722;0.046364;86.127036;1.000000;0.000141;-0.000709;0.001684;-0.000108;0.001689;-0.000713;-87.421481;0.001695;
1036;452;0.047812;0.176414;1.000000;0.000145;-0.000499;0.001548;0.000112;0.001554;-0.000505;86.883684;0.001585;
1121;1867;0.002363;86.348766;1.000000;0.000189;-0.000184;0.001353;-0.000022;0.001354;-0.000184;-89.162885;0.001468;
1091;1287;1.547044;76.994391;0.999737;0.005805;-0.037419;0.087173;-0.004891;0.087364;-0.037611;-87.755589;0.087645;
1031;752;0.585845;1.397122;0.999988;0.001357;-0.005838;0.013442;0.003249;0.013975;-0.006371;80.686812;0.013993;
1226;897;-2.102983;5.548428;0.999852;0.003957;-0.023906;0.053093;-0.008091;0.053934;-0.024747;-84.065735;0.053994;
1181;647;-0.067631;0.579439;0.999999;0.000272;-0.001493;0.003643;-0.000407;0.003675;-0.001525;-85.498499;0.003693;
1106;747;0.150326;1.302168;0.999993;0.000680;-0.005288;0.012726;0.000858;0.012767;-0.005328;87.277771;0.012825;
1081;1347;1.178539;80.913096;0.999805;0.004056;-0.023170;0.052059;-0.004469;0.052324;-0.023435;-86.612124;0.052418;
1071;787;0.530459;1.946198;0.999967;0.001662;-0.008397;0.019406;0.002615;0.019649;-0.008641;84.672426;0.019697;
1061;772;0.524668;1.676816;0.999983;0.001417;-0.007193;0.016666;0.002696;0.016967;-0.007494;83.633548;0.017005;
1071;1717;0.047876;86.118475;1.000000;0.000131;-0.000726;0.001708;-0.000118;0.001714;-0.000732;-87.242391;0.001720;
1086;402;0.013852;0.097588;1.000000;0.000061;-0.000291;0.001427;0.000078;0.001430;-0.000294;87.405840;0.001511;
1041;757;0.560031;1.454810;0.999982;0.001035;-0.006154;0.014210;0.003067;0.014661;-0.006606;81.618010;0.014685;
1011;762;0.789903;1.542757;0.999971;0.001464;-0.006559;0.014559;0.004241;0.015379;-0.007379;79.058053;0.015383;
1036;457;0.049416;0.184069;1.000000;0.000148;-0.000513;0.001555;0.000110;0.001560;-0.000519;86.966555;0.001589;
1111;1872;0.003438;86.355455;1.000000;0.000192;-0.000167;0.001343;-0.000041;0.001344;-0.000168;-88.453450;0.001464;
1016;777;0.892794;1.782250;0.999986;0.001390;-0.007672;0.016951;0.004637;0.017795;-0.008516;79.681082;0.017801;
1096;1277;1.489492;76.174917;0.999439;0.006757;-0.040308;0.095009;-0.004629;0.095168;-0.040466;-88.043153;0.095522;
1201;647;-0.096018;0.574539;0.999998;0.000366;-0.001482;0.003709;-0.000593;0.003776;-0.001549;-83.569474;0.003796;
1156;752;-0.118374;1.368000;0.999992;0.000683;-0.005606;0.013557;-0.000675;0.013581;-0.005629;-87.983881;0.013647;
1116;917;0.495396;6.561634;0.999808;0.003551;-0.026403;0.060617;0.001528;0.060644;-0.026430;88.994513;0.060810;
1201;1317;-2.002361;79.153655;0.999844;0.004113;-0.030084;0.068100;0.006629;0.068545;-0.030530;86.154953;0.068682;
1091;402;0.012321;0.097378;1.000000;0.000048;-0.000289;0.001424;0.000070;0.001427;-0.000292;87.674107;0.001507;
1066;1732;0.047040;86.143176;1.000000;0.000128;-0.000668;0.001646;-0.000097;0.001651;-0.000672;-87.597853;0.001660;
1016;762;0.756978;1.536157;0.999991;0.000948;-0.006562;0.014711;0.004062;0.015460;-0.007311;79.549980;0.015467;
1041;762;0.594124;1.527301;0.999983;0.001208;-0.006504;0.014952;0.003209;0.015422;-0.006974;81.673837;0.015445;
1116;1872;0.002729;86.356267;1.000000;0.000142;-0.000165;0.001342;-0.000031;0.001342;-0.000166;-88.816805;0.001464;
1076;752;0.328403;1.376787;0.999985;0.000997;-0.005704;0.013432;0.001813;0.013602;-0.005874;84.635205;0.013644;
1081;497;0.034576;0.241634;1.000000;0.000184;-0.000638;0.001619;0.000070;0.001621;-0.000640;88.226222;0.001633;
1171;637;-0.050092;0.549210;0.999998;0.000430;-0.001387;0.003290;-0.000273;0.003306;-0.001403;-86.664717;0.003318;
1086;1292;1.661262;77.393969;0.999642;0.005811;-0.036165;0.083803;-0.005334;0.084040;-0.036402;-87.459170;0.084290;
1206;1317;-2.155723;79.139999;0.999812;0.005157;-0.030244;0.068268;0.007276;0.068803;-0.030779;85.798766;0.068930;
1121;917;0.362608;6.556559;0.999815;0.003363;-0.026405;0.060498;0.001057;0.060511;-0.026418;89.303163;0.060673;
1021;692;0.298546;0.801020;0.999991;0.000730;-0.002857;0.007094;0.001979;0.007473;-0.003236;79.154851;0.007495;
1096;402;0.010898;0.097152;1.000000;0.000047;-0.000287;0.001421;0.000062;0.001424;-0.000289;87.930245;0.001505;
1021;762;0.722694;1.535064;0.999989;0.001037;-0.006579;0.014796;0.003885;0.015480;-0.007263;80.010287;0.015490;
1216;712;-0.270380;0.947928;0.999992;0.000766;-0.003551;0.008668;-0.001760;0.008916;-0.003799;-81.965019;0.008948;
1101;1782;0.016386;86.225305;1.000000;0.000094;-0.000513;0.001543;-0.000040;0.001544;-0.000514;-88.877758;0.001573;
1036;752;0.556851;1.393340;0.999985;0.001056;-0.005816;0.013480;0.003107;0.013968;-0.006304;81.073699;0.013990;
1121;1872;0.001964;86.356255;1.000000;0.000141;-0.000164;0.001341;-0.000022;0.001341;-0.000164;-89.172250;0.001463;
1076;757;0.350041;1.448022;0.999983;0.000938;-0.006049;0.014164;0.001885;0.014338;-0.006223;84.718092;0.014380;
1091;1292;1.486428;77.397696;0.999704;0.004803;-0.035980;0.083405;-0.004765;0.083595;-0.036170;-87.718055;0.083847;
1171;642;-0.052120;0.566012;0.999998;0.000414;-0.001440;0.003440;-0.000297;0.003458;-0.001458;-86.526633;0.003472;
1086;362;0.006125;0.042449;1.000000;0.000052;-0.000130;0.001334;0.000088;0.001339;-0.000135;86.582040;0.001474;
1211;907;-1.903170;6.055376;0.999818;0.002918;-0.025784;0.057571;-0.006942;0.058145;-0.026358;-85.271879;0.058229;
1171;1327;-1.040733;79.829965;0.999823;0.003249;-0.026733;0.060980;0.003349;0.061107;-0.026861;87.816871;0.061256;
1026;762;0.687572;1.531372;0.999987;0.001218;-0.006570;0.014842;0.003715;0.015469;-0.007196;80.431031;0.015481;
1021;452;0.055362;0.177991;1.000000;0.000201;-0.000496;0.001542;0.000122;0.001550;-0.000504;86.585115;0.001581;
1141;757;-0.037235;1.437157;0.999992;0.000745;-0.005989;0.014290;-0.000203;0.014292;-0.005991;-89.427638;0.014354;
1061;752;0.412427;1.379165;0.999983;0.001139;-0.005738;0.013459;0.002299;0.013730;-0.006009;83.264489;0.013766;
1101;1787;0.015837;86.232678;1.000000;0.000106;-0.000495;0.001534;-0.000041;0.001535;-0.000495;-88.850474;0.001566;
1086;1882;0.006099;86.367317;1.000000;0.000191;-0.000133;0.001336;-0.000085;0.001341;-0.000138;-86.690771;0.001475;
1041;747;0.495947;1.327136;0.999989;0.001002;-0.005497;0.012826;0.002808;0.013247;-0.005917;81.481003;0.013272;
1096;1282;1.426093;76.612844;0.999607;0.005230;-0.038750;0.090828;-0.004463;0.090981;-0.038904;-88.029782;0.091298;
1171;647;-0.053729;0.582785;0.999998;0.000425;-0.001500;0.003620;-0.000323;0.003641;-0.001521;-86.408923;0.003657;
1216;907;-2.034544;6.066172;0.999827;0.003140;-0.025878;0.057795;-0.007458;0.058455;-0.026538;-84.946267;0.058537;
1091;362;0.005412;0.042269;1.000000;0.000050;-0.000129;0.001332;0.000079;0.001336;-0.000134;86.929119;0.001471;
1171;1332;-1.002369;80.130569;0.999833;0.003758;-0.025639;0.058271;0.003271;0.058398;-0.025767;87.771255;0.058533;
1056;762;0.498257;1.524427;0.999980;0.001312;-0.006434;0.014941;0.002685;0.015273;-0.006766;82.948692;0.015306;
1261;697;-0.354488;0.834231;0.999990;0.001005;-0.003049;0.007468;-0.002303;0.007951;-0.003531;-78.173608;0.007967;
1026;452;0.052544;0.177280;1.000000;0.000170;-0.000497;0.001543;0.000119;0.001550;-0.000504;86.680054;0.001581;
1066;752;0.383529;1.377752;0.999984;0.001139;-0.005724;0.013445;0.002136;0.013680;-0.005959;83.717659;0.013718;
1086;1887;0.004903;86.374461;1.000000;0.000203;-0.000111;0.001332;-0.000085;0.001337;-0.000116;-86.629092;0.001481;
1166;1787;-0.016258;86.232700;1.000000;0.000145;-0.000495;0.001534;0.000042;0.001535;-0.000495;88.805392;0.001567;
1036;742;0.491645;1.266267;0.999984;0.001111;-0.005213;0.012156;0.002839;0.012609;-0.005665;80.947277;0.012630;
1221;907;-2.166112;6.066538;0.999816;0.004217;-0.025995;0.058032;-0.007962;0.058779;-0.026743;-84.634489;0.058859;
1096;1287;1.367861;77.012871;0.999688;0.004761;-0.037267;0.086797;-0.004307;0.086946;-0.037417;-88.014262;0.087227;
1206;642;-0.099416;0.554769;0.999998;0.000392;-0.001407;0.003525;-0.000590;0.003595;-0.001477;-83.272027;0.003614;
1081;382;0.010963;0.069557;1.000000;0.000052;-0.000212;0.001381;0.000093;0.001386;-0.000217;86.670637;0.001491;
1061;762;0.466965;1.522998;0.999982;0.001419;-0.006429;0.014946;0.002508;0.015236;-0.006720;83.396668;0.015271;
1181;1337;-1.207702;80.381873;0.999787;0.003178;-0.024729;0.056017;0.004097;0.056225;-0.024936;87.103030;0.056344;
1076;1892;0.005153;86.381599;0.999999;0.000213;-0.000092;0.001324;-0.000102;0.001331;-0.000099;-85.882174;0.001483;
1246;702;-0.330236;0.871419;0.999991;0.000728;-0.003230;0.007899;-0.002188;0.008314;-0.003644;-79.269429;0.008335;
1071;752;0.356169;1.379245;0.999985;0.001063;-0.005714;0.013436;0.001975;0.013638;-0.005916;84.171873;0.013677;
1006;447;0.060465;0.173300;1.000000;0.000206;-0.000481;0.001527;0.000121;0.001534;-0.000489;86.557487;0.001567;
1171;1787;-0.018693;86.232523;1.000000;0.000113;-0.000495;0.001537;0.000048;0.001538;-0.000496;88.642443;0.001570;
1041;742;0.464100;1.263352;0.999987;0.001109;-0.005191;0.012152;0.002690;0.012560;-0.005598;81.384027;0.012585;
1096;1292;1.307401;77.413711;0.999706;0.004366;-0.035858;0.083043;-0.004181;0.083189;-0.036005;-87.988694;0.083440;
1151;912;-0.416418;6.274114;0.999841;0.002890;-0.025446;0.057882;-0.001434;0.057906;-0.025471;-89.014342;0.058046;
1206;647;-0.103163;0.573042;0.999998;0.000357;-0.001489;0.003731;-0.000642;0.003808;-0.001567;-83.090302;0.003828;
1081;387;0.011928;0.076488;1.000000;0.000057;-0.000232;0.001391;0.000092;0.001397;-0.000237;86.781393;0.001495;
1066;762;0.432013;1.521919;0.999982;0.001279;-0.006414;0.014953;0.002326;0.015203;-0.006664;83.859490;0.015242;
1181;1342;-1.154755;80.639594;0.999807;0.003684;-0.023719;0.053750;0.004050;0.053961;-0.023930;87.015226;0.054076;
1081;1892;0.004223;86.381518;1.000000;0.000255;-0.000090;0.001322;-0.000093;0.001328;-0.000096;-86.263720;0.001481;
1251;702;-0.347571;0.872327;0.999991;0.000945;-0.003249;0.007899;-0.002270;0.008343;-0.003693;-78.920693;0.008361;
1071;757;0.378386;1.448277;0.999984;0.001134;-0.006056;0.014157;0.002059;0.014364;-0.006264;84.242781;0.014403;
1011;452;0.060393;0.180126;0.999999;0.000189;-0.000494;0.001535;0.000123;0.001543;-0.000501;86.529865;0.001574;
1176;1787;-0.021077;86.231866;1.000000;0.000093;-0.000495;0.001540;0.000053;0.001541;-0.000497;88.495425;0.001573;
1041;1292;3.374927;77.213325;0.999623;0.004489;-0.038240;0.087173;-0.010859;0.088106;-0.039173;-85.087865;0.088286;
1041;752;0.527258;1.390942;0.999985;0.000854;-0.005818;0.013514;0.002929;0.013948;-0.006252;81.571382;0.013973;
1156;907;-0.519833;6.004754;0.999872;0.002847;-0.024453;0.055533;-0.001792;0.055573;-0.024493;-88.717424;0.055703;
1086;1892;0.004128;86.381419;1.000000;0.000195;-0.000090;0.001319;-0.000085;0.001324;-0.000095;-86.571548;0.001477;
1081;392;0.012879;0.083544;1.000000;0.000057;-0.000252;0.001402;0.000090;0.001407;-0.000257;86.892753;0.001498;
1066;767;0.458579;1.596893;0.999983;0.001394;-0.006786;0.015804;0.002409;0.016058;-0.007040;83.979647;0.016098;
1011;747;0.661525;1.337321;0.999986;0.001154;-0.005570;0.012576;0.003728;0.013312;-0.006306;78.830470;0.013318;
1181;1347;-1.104918;80.891527;0.999812;0.003384;-0.022758;0.051633;0.003983;0.051846;-0.022971;86.943597;0.051958;
1236;697;-0.276972;0.833064;0.999994;0.000701;-0.003017;0.007425;-0.001885;0.007755;-0.003347;-80.074234;0.007779;
1211;567;-0.073603;0.364288;0.999998;0.000399;-0.000838;0.001931;-0.000217;0.001948;-0.000854;-85.552404;0.001953;
1046;1292;3.172880;77.245074;0.999725;0.005334;-0.038043;0.086919;-0.010212;0.087748;-0.038872;-85.359004;0.087938;
1296;432;-0.068572;0.158167;1.000000;0.000175;-0.000462;0.001480;-0.000078;0.001483;-0.000465;-87.690851;0.001517;
1046;742;0.440122;1.260781;0.999989;0.000872;-0.005163;0.012149;0.002547;0.012516;-0.005530;81.802009;0.012544;
1071;1787;0.031160;86.230910;1.000000;0.000124;-0.000499;0.001544;-0.000077;0.001547;-0.000501;-87.855611;0.001578;
1156;912;-0.539649;6.278466;0.999868;0.002823;-0.025482;0.058016;-0.001839;0.058057;-0.025523;-88.738707;0.058198;
1016;747;0.634316;1.335043;0.999986;0.001059;-0.005565;0.012657;0.003575;0.013333;-0.006241;79.286641;0.013342;
1081;377;0.009979;0.062885;1.000000;0.000061;-0.000192;0.001369;0.000094;0.001374;-0.000197;86.553943;0.001486;
1066;772;0.484980;1.672770;0.999980;0.001698;-0.007174;0.016668;0.002501;0.016928;-0.007434;84.076247;0.016970;
1126;1867;0.001489;86.348698;1.000000;0.000193;-0.000181;0.001353;-0.000013;0.001353;-0.000181;-89.514966;0.001469;
1071;1332;1.600035;80.077547;0.999849;0.003717;-0.026385;0.059625;-0.005800;0.060014;-0.026774;-86.159358;0.060130;
1186;652;-0.077103;0.596210;0.999999;0.000273;-0.001568;0.003884;-0.000490;0.003927;-0.001612;-84.902991;0.003948;
1221;712;-0.288567;0.949814;0.999992;0.000782;-0.003574;0.008701;-0.001871;0.008979;-0.003853;-81.524569;0.009009;
1051;1292;2.981853;77.278533;0.999704;0.005540;-0.037804;0.086573;-0.009572;0.087305;-0.038536;-85.624776;0.087505;
1046;747;0.469633;1.324230;0.999990;0.000864;-0.005475;0.012822;0.002655;0.013199;-0.005853;81.909429;0.013228;
1236;472;-0.055395;0.207060;0.999999;0.000169;-0.000549;0.001568;-0.000110;0.001574;-0.000555;-87.024368;0.001596;
1021;747;0.607074;1.335513;0.999986;0.000936;-0.005563;0.012710;0.003420;0.013329;-0.006182;79.740754;0.013341;
1076;1787;0.028363;86.231580;1.000000;0.000142;-0.000499;0.001542;-0.000071;0.001544;-0.000502;-88.014561;0.001576;
1161;907;-0.634850;6.010031;0.999864;0.004272;-0.024502;0.055645;-0.002213;0.055706;-0.024563;-88.419321;0.055836;
1231;1337;-2.478520;80.296176;0.999804;0.004767;-0.026015;0.058010;0.009043;0.058972;-0.026977;83.926455;0.059044;
1081;372;0.008913;0.056223;1.000000;0.000061;-0.000172;0.001355;0.000095;0.001361;-0.000177;86.461020;0.001480;
1061;777;0.554615;1.754664;0.999973;0.001512;-0.007595;0.017522;0.002809;0.017832;-0.007906;83.696323;0.017870;
1126;1872;0.001354;86.356020;1.000000;0.000172;-0.000161;0.001340;-0.000013;0.001340;-0.000161;-89.505471;0.001464;
1071;1292;2.224934;77.342832;0.999698;0.005719;-0.036918;0.085048;-0.007110;0.085461;-0.037331;-86.674880;0.085688;
1191;652;-0.085181;0.595329;0.999999;0.000366;-0.001569;0.003906;-0.000542;0.003959;-0.001622;-84.397502;0.003981;
1116;757;0.113715;1.432312;0.999991;0.000900;-0.005983;0.014305;0.000605;0.014323;-0.006001;88.293133;0.014386;
1046;752;0.498489;1.386035;0.999985;0.000948;-0.005800;0.013503;0.002769;0.013892;-0.006189;81.994535;0.013920;
1026;747;0.577815;1.333673;0.999987;0.001058;-0.005538;0.012743;0.003267;0.013309;-0.006104;80.165233;0.013324;
1081;1787;0.025823;86.231352;1.000000;0.000125;-0.000499;0.001540;-0.000065;0.001542;-0.000501;-88.182268;0.001573;
1241;467;-0.056320;0.199360;1.000000;0.000188;-0.000536;0.001555;-0.000112;0.001561;-0.000542;-86.936471;0.001585;
1161;912;-0.661621;6.288747;0.999861;0.003893;-0.025534;0.058174;-0.002261;0.058235;-0.025595;-88.453885;0.058377;
1071;1327;1.669239;79.796576;0.999811;0.004400;-0.027526;0.062225;-0.005897;0.062611;-0.027912;-86.257056;0.062733;
1066;777;0.513135;1.752988;0.999975;0.001740;-0.007575;0.017523;0.002610;0.017792;-0.007844;84.125099;0.017833;
1081;397;0.014174;0.090579;1.000000;0.000058;-0.000272;0.001416;0.000088;0.001420;-0.000277;87.017082;0.001506;
1256;702;-0.362302;0.872740;0.999988;0.000977;-0.003251;0.007898;-0.002361;0.008377;-0.003731;-78.524819;0.008394;
1276;1802;-0.064999;86.242522;1.000000;0.000167;-0.000466;0.001515;0.000107;0.001521;-0.000472;86.915352;0.001557;
1076;1292;2.036249;77.361597;0.999680;0.006228;-0.036618;0.084615;-0.006528;0.084965;-0.036968;-86.926478;0.085203;
1196;652;-0.093968;0.593616;0.999998;0.000417;-0.001568;0.003929;-0.000592;0.003992;-0.001631;-83.920493;0.004014;
1026;742;0.544555;1.268635;0.999985;0.001283;-0.005258;0.012111;0.003108;0.012650;-0.005797;80.155309;0.012665;
1031;747;0.551883;1.333032;0.999988;0.001197;-0.005518;0.012769;0.003117;0.013286;-0.006034;80.588301;0.013304;
1036;1337;2.446806;80.333473;0.999824;0.003968;-0.026197;0.058148;-0.009009;0.059099;-0.027149;-83.970632;0.059164;
1106;1792;0.012882;86.240373;1.000000;0.000111;-0.000477;0.001521;-0.000034;0.001522;-0.000477;-89.025135;0.001557;
1151;917;-0.434859;6.548032;0.999821;0.003911;-0.026529;0.060470;-0.001471;0.060495;-0.026554;-89.031915;0.060645;
1031;762;0.656478;1.530401;0.999985;0.001243;-0.006541;0.014871;0.003540;0.015441;-0.007111;80.851373;0.015457;
1071;482;0.037968;0.219753;1.000000;0.000238;-0.000589;0.001592;0.000076;0.001595;-0.000592;88.019954;0.001612;
1081;402;0.015317;0.097578;1.000000;0.000058;-0.000292;0.001430;0.000086;0.001435;-0.000297;87.158253;0.001515;
1276;1807;-0.062768;86.249998;1.000000;0.000183;-0.000459;0.001515;0.000109;0.001521;-0.000465;86.856027;0.001559;
1086;732;0.209630;1.136763;0.999992;0.001079;-0.004419;0.010753;0.001247;0.010855;-0.004521;85.330983;0.010905;
1081;1292;1.849184;77.371939;0.999629;0.006668;-0.036408;0.084209;-0.005916;0.084498;-0.036698;-87.198599;0.084741;
1181;652;-0.070219;0.597218;0.999999;0.000250;-0.001568;0.003867;-0.000440;0.003902;-0.001604;-85.399025;0.003923;
1011;757;0.746445;1.475061;0.999984;0.000981;-0.006216;0.013830;0.004043;0.014615;-0.007000;79.017406;0.014619;
1031;742;0.517690;1.268567;0.999986;0.001207;-0.005225;0.012143;0.002981;0.012640;-0.005722;80.525504;0.012659;
1036;747;0.524852;1.330019;0.999986;0.001115;-0.005503;0.012799;0.002974;0.013270;-0.005974;80.997672;0.013292;
1181;1352;-1.058402;81.145470;0.999798;0.002996;-0.021831;0.049535;0.003858;0.049743;-0.022039;86.914263;0.049850;
1156;917;-0.568660;6.546708;0.999845;0.003365;-0.026572;0.060618;-0.001893;0.060659;-0.026613;-88.756773;0.060811;
1096;1782;0.018926;86.225297;1.000000;0.000119;-0.000513;0.001544;-0.000046;0.001545;-0.000514;-88.721236;0.001574;
1096;362;0.004747;0.042248;1.000000;0.000053;-0.000128;0.001329;0.000069;0.001333;-0.000131;87.282145;0.001469;
1031;452;0.050317;0.176847;1.000000;0.000144;-0.000499;0.001545;0.000115;0.001551;-0.000505;86.802188;0.001582;
1176;652;-0.063271;0.598210;0.999999;0.000317;-0.001568;0.003850;-0.000393;0.003879;-0.001597;-85.875413;0.003899;
1096;382;0.007894;0.069200;1.000000;0.000078;-0.000207;0.001373;0.000066;0.001376;-0.000210;87.617952;0.001483;
1066;1292;2.407704;77.323703;0.999702;0.005243;-0.037253;0.085513;-0.007695;0.085994;-0.037734;-86.427208;0.086208;
1111;1877;0.002932;86.362070;1.000000;0.000163;-0.000148;0.001332;-0.000042;0.001333;-0.000149;-88.373096;0.001461;
1086;737;0.226237;1.190775;0.999993;0.000911;-0.004703;0.011376;0.001300;0.011480;-0.004807;85.408384;0.011530;
1021;742;0.570655;1.269173;0.999984;0.001054;-0.005291;0.012096;0.003250;0.012683;-0.005879;79.751358;0.012694;
1161;917;-0.696874;6.556685;0.999824;0.003454;-0.026639;0.060798;-0.002327;0.060860;-0.026701;-88.476869;0.061012;
1146;757;-0.067827;1.438544;0.999993;0.000665;-0.005982;0.014283;-0.000368;0.014290;-0.005989;-88.960307;0.014352;
1066;747;0.362102;1.314331;0.999983;0.000976;-0.005399;0.012771;0.002047;0.012999;-0.005627;83.651742;0.013038;
1151;1327;-0.503785;79.839704;0.999814;0.003712;-0.026622;0.060919;0.001604;0.060949;-0.026651;88.950551;0.061108;
1041;1297;3.238282;77.634719;0.999682;0.004640;-0.036591;0.083357;-0.010586;0.084284;-0.037518;-84.995139;0.084453;
1041;467;0.050217;0.199018;1.000000;0.000187;-0.000541;0.001564;0.000106;0.001569;-0.000546;87.115490;0.001593;
1171;652;-0.055734;0.600104;0.999998;0.000417;-0.001570;0.003834;-0.000348;0.003856;-0.001592;-86.333346;0.003875;
1096;387;0.008510;0.076110;1.000000;0.000074;-0.000227;0.001384;0.000065;0.001387;-0.000230;87.690386;0.001486;
1116;1877;0.002443;86.362324;1.000000;0.000126;-0.000147;0.001331;-0.000032;0.001332;-0.000147;-88.771225;0.001461;
1291;422;-0.061964;0.141430;1.000000;0.000168;-0.000438;0.001498;-0.000091;0.001502;-0.000442;-87.309970;0.001544;
1011;742;0.622318;1.273671;0.999984;0.001117;-0.005324;0.012015;0.003534;0.012707;-0.006017;78.910945;0.012713;
1036;707;0.312209;0.914626;0.999992;0.000889;-0.003422;0.008313;0.002005;0.008646;-0.003755;80.568363;0.008671;
1201;897;-1.512577;5.509403;0.999814;0.003894;-0.023385;0.052358;-0.005673;0.052780;-0.023807;-85.739979;0.052864;
1151;757;-0.096570;1.438720;0.999992;0.000694;-0.005963;0.014274;-0.000535;0.014288;-0.005977;-88.487526;0.014351;
1221;1327;-2.410838;79.738551;0.999782;0.003809;-0.028142;0.062908;0.008413;0.063678;-0.028913;84.765021;0.063768;
1316;432;-0.076819;0.165692;1.000000;0.000165;-0.000481;0.001456;-0.000061;0.001458;-0.000483;-88.192432;0.001485;
1071;747;0.337127;1.312521;0.999984;0.000956;-0.005385;0.012757;0.001892;0.012953;-0.005580;84.109066;0.012994;
1081;367;0.007735;0.049308;1.000000;0.000055;-0.000152;0.001343;0.000096;0.001349;-0.000158;86.353180;0.001475;
1201;652;-0.100444;0.591526;0.999998;0.000373;-0.001572;0.003952;-0.000644;0.004026;-0.001646;-83.432653;0.004049;
1096;367;0.005538;0.049177;1.000000;0.000055;-0.000148;0.001336;0.000068;0.001339;-0.000151;87.380117;0.001467;
1121;1877;0.001803;86.362833;1.000000;0.000108;-0.000145;0.001331;-0.000022;0.001331;-0.000145;-89.160230;0.001461;
1016;742;0.595946;1.270012;0.999985;0.001209;-0.005307;0.012067;0.003395;0.012706;-0.005947;79.326540;0.012715;
1036;462;0.050927;0.191939;1.000000;0.000159;-0.000528;0.001557;0.000109;0.001563;-0.000533;87.026587;0.001589;
1171;742;-0.179257;1.248000;0.999992;0.000682;-0.004980;0.012112;-0.001074;0.012179;-0.005047;-86.420014;0.012239;
1001;687;0.333520;0.769371;0.999993;0.000668;-0.002745;0.006758;0.002138;0.007217;-0.003204;77.887934;0.007232;
1191;897;-1.282341;5.499312;0.999793;0.002804;-0.023137;0.051972;-0.004738;0.052269;-0.023434;-86.404844;0.052362;
946;422;0.084570;0.148020;0.999966;0.001204;-0.000736;0.001466;0.000129;0.001473;-0.000743;86.647971;0.001473;
1006;742;0.645815;1.273073;0.999501;0.006155;-0.005339;0.011916;0.003678;0.012667;-0.006090;78.456263;0.012670;
1076;747;0.311136;1.311724;0.999983;0.001185;-0.005370;0.012748;0.001737;0.012913;-0.005536;84.572310;0.012956;
1081;407;0.016411;0.104820;1.000000;0.000064;-0.000312;0.001442;0.000084;0.001446;-0.000316;87.268249;0.001520;
1101;1342;0.742332;80.668695;0.999835;0.003028;-0.023990;0.053990;-0.002803;0.054091;-0.024091;-87.944330;0.054198;
1091;1882;0.005320;86.368018;1.000000;0.000165;-0.000134;0.001333;-0.000077;0.001337;-0.000138;-87.008522;0.001471;
1096;392;0.009374;0.083151;1.000000;0.000060;-0.000247;0.001394;0.000064;0.001397;-0.000250;87.768547;0.001490;
1166;632;-0.041507;0.533551;0.999998;0.000382;-0.001347;0.003147;-0.000222;0.003158;-0.001358;-87.178894;0.003168;
1176;492;-0.025933;0.233961;1.000000;0.000158;-0.000622;0.001607;-0.000055;0.001608;-0.000624;-88.596826;0.001621;
951;422;0.073543;0.152947;1.000000;0.000149;-0.000662;0.001475;0.000114;0.001481;-0.000668;86.947929;0.001483;
1101;747;0.176895;1.303597;0.999992;0.000650;-0.005294;0.012719;0.001000;0.012774;-0.005350;86.832987;0.012830;
1161;752;-0.143990;1.366472;0.999992;0.000840;-0.005602;0.013544;-0.000840;0.013581;-0.005639;-87.491445;0.013646;
1171;902;-0.861217;5.736899;0.999848;0.003277;-0.023685;0.053523;-0.003074;0.053645;-0.023807;-87.723920;0.053758;
1091;1887;0.004522;86.374124;1.000000;0.000143;-0.000113;0.001329;-0.000077;0.001333;-0.000117;-86.965917;0.001476;
1051;742;0.418054;1.258992;0.999989;0.000827;-0.005127;0.012141;0.002408;0.012470;-0.005457;82.208575;0.012502;
1056;752;0.443459;1.383705;0.999980;0.001066;-0.005744;0.013470;0.002459;0.013780;-0.006054;82.822820;0.013814;
1086;407;0.014706;0.104623;1.000000;0.000068;-0.000310;0.001438;0.000076;0.001442;-0.000314;87.506663;0.001517;
1086;1347;1.061104;80.913509;0.999789;0.002993;-0.023150;0.051932;-0.004024;0.052147;-0.023365;-86.941156;0.052240;
1101;392;0.008157;0.083023;1.000000;0.000060;-0.000246;0.001392;0.000056;0.001394;-0.000248;88.045464;0.001488;
1166;637;-0.042561;0.550308;0.999998;0.000411;-0.001393;0.003286;-0.000238;0.003299;-0.001405;-87.091570;0.003311;
956;422;0.071591;0.150402;0.999999;0.000174;-0.000613;0.001483;0.000104;0.001488;-0.000618;87.162070;0.001495;
1096;1787;0.018388;86.232185;1.000000;0.000112;-0.000495;0.001535;-0.000047;0.001536;-0.000496;-88.685048;0.001568;
1121;757;0.082085;1.433962;0.999992;0.001082;-0.005991;0.014307;0.000448;0.014317;-0.006001;88.734949;0.014380;
1261;442;-0.056935;0.164227;1.000000;0.000142;-0.000473;0.001520;-0.000119;0.001527;-0.000480;-86.589066;0.001562;
1236;702;-0.297098;0.871906;0.999992;0.000877;-0.003214;0.007867;-0.001997;0.008216;-0.003563;-80.088102;0.008240;
1126;1877;0.001223;86.362645;1.000000;0.000150;-0.000142;0.001330;-0.000012;0.001330;-0.000142;-89.530345;0.001461;
1036;727;0.408816;1.099245;0.999987;0.001116;-0.004371;0.010414;0.002453;0.010810;-0.004767;80.822130;0.010835;
1091;407;0.013262;0.104587;1.000000;0.000048;-0.000309;0.001436;0.000068;0.001438;-0.000311;87.768042;0.001513;
1056;737;0.369854;1.199053;0.999989;0.001028;-0.004818;0.011482;0.002166;0.011765;-0.005101;82.557402;0.011799;
1106;392;0.006953;0.083026;1.000000;0.000056;-0.000245;0.001391;0.000047;0.001393;-0.000246;88.338375;0.001487;
1076;1327;1.531425;79.803370;0.999814;0.004210;-0.027400;0.062027;-0.005389;0.062350;-0.027723;-86.563721;0.062478;
1166;642;-0.044438;0.567611;0.999998;0.000477;-0.001445;0.003435;-0.000259;0.003449;-0.001459;-86.974500;0.003462;
946;427;0.087862;0.162474;0.999970;0.001061;-0.000760;0.001553;0.000107;0.001558;-0.000765;87.359860;0.001558;
996;687;0.345031;0.769127;0.999987;0.001027;-0.002745;0.006732;0.002195;0.007216;-0.003229;77.571514;0.007229;
1301;432;-0.070705;0.160044;1.000000;0.000178;-0.000464;0.001474;-0.000074;0.001477;-0.000467;-87.809253;0.001510;
1101;1792;0.015197;86.239744;1.000000;0.000105;-0.000476;0.001523;-0.000041;0.001524;-0.000477;-88.816209;0.001559;
1086;742;0.239917;1.244833;0.999992;0.000732;-0.005002;0.012040;0.001364;0.012149;-0.005111;85.454330;0.012199;
1091;1892;0.003657;86.381176;1.000000;0.000150;-0.000092;0.001316;-0.000076;0.001320;-0.000096;-86.912666;0.001472;
1031;727;0.429330;1.102794;0.999987;0.001375;-0.004373;0.010417;0.002594;0.010858;-0.004815;80.335823;0.010882;
951;427;0.076309;0.159824;1.000000;0.000150;-0.000681;0.001532;0.000098;0.001536;-0.000685;87.463350;0.001539;
1076;397;0.015532;0.090804;1.000000;0.000058;-0.000275;0.001419;0.000096;0.001424;-0.000281;86.756857;0.001509;
1076;1332;1.468817;80.083981;0.999850;0.004324;-0.026274;0.059474;-0.005299;0.059800;-0.026600;-86.477036;0.059921;
1036;732;0.433663;1.150404;0.999986;0.001130;-0.004643;0.010976;0.002571;0.011389;-0.005055;80.889028;0.011413;
1171;632;-0.048672;0.532466;0.999998;0.000401;-0.001339;0.003147;-0.000254;0.003161;-0.001353;-86.774813;0.003172;
1121;377;0.002455;0.062294;1.000000;0.000065;-0.000183;0.001355;0.000024;0.001355;-0.000184;89.115476;0.001470;
1241;697;-0.292890;0.833736;0.999993;0.000673;-0.003018;0.007448;-0.001979;0.007810;-0.003380;-79.641554;0.007833;
1081;1897;0.004024;86.388351;0.999999;0.000242;-0.000068;0.001315;-0.000092;0.001321;-0.000074;-86.193785;0.001485;
1306;432;-0.072944;0.161804;1.000000;0.000168;-0.000468;0.001467;-0.000071;0.001470;-0.000470;-87.900366;0.001501;
1081;732;0.232526;1.137744;0.999990;0.000935;-0.004453;0.010776;0.001389;0.010901;-0.004578;84.832089;0.010948;
956;427;0.074118;0.157869;0.999999;0.000155;-0.000629;0.001520;0.000092;0.001524;-0.000633;87.553442;0.001531;
1101;1797;0.014446;86.247858;1.000000;0.000133;-0.000458;0.001512;-0.000042;0.001513;-0.000459;-88.786604;0.001551;
1051;757;0.499669;1.450131;0.999982;0.001109;-0.006100;0.014174;0.002739;0.014538;-0.006464;82.441209;0.014567;
1076;402;0.016872;0.097926;1.000000;0.000061;-0.000295;0.001434;0.000093;0.001439;-0.000300;86.917018;0.001518;
1216;1322;-2.360138;79.450395;0.999788;0.003323;-0.029156;0.065689;0.008294;0.066409;-0.029876;85.040079;0.066520;
1111;362;0.002964;0.042282;1.000000;0.000050;-0.000125;0.001324;0.000042;0.001325;-0.000127;88.341589;0.001463;
1056;732;0.343082;1.142613;0.999989;0.001117;-0.004545;0.010878;0.002062;0.011149;-0.004815;82.516008;0.011184;
1201;597;-0.072982;0.429245;0.999998;0.000360;-0.001014;0.002368;-0.000276;0.002391;-0.001037;-85.360771;0.002398;
1241;702;-0.313404;0.872741;0.999992;0.000730;-0.003213;0.007885;-0.002098;0.008268;-0.003597;-79.644890;0.008291;
1086;1897;0.003630;86.388842;1.000000;0.000201;-0.000068;0.001313;-0.000085;0.001319;-0.000073;-86.493119;0.001482;
1186;487;-0.031243;0.226297;1.000000;0.000201;-0.000599;0.001597;-0.000063;0.001599;-0.000601;-88.354866;0.001615;
1081;737;0.247480;1.192534;0.999990;0.000882;-0.004733;0.011395;0.001447;0.011524;-0.004862;84.914043;0.011571;
1106;1797;0.012363;86.247929;1.000000;0.000106;-0.000458;0.001512;-0.000034;0.001512;-0.000459;-88.997776;0.001551;
1281;432;-0.061488;0.153254;1.000000;0.000206;-0.000450;0.001497;-0.000105;0.001503;-0.000456;-86.926841;0.001541;
1056;722;0.300833;1.043349;0.999984;0.000894;-0.004022;0.009728;0.001858;0.009975;-0.004269;82.440015;0.010009;
1116;362;0.002235;0.042140;1.000000;0.000058;-0.000125;0.001323;0.000033;0.001323;-0.000126;88.693817;0.001461;
1076;407;0.018036;0.105069;1.000000;0.000063;-0.000315;0.001445;0.000091;0.001450;-0.000320;87.049973;0.001523;
1031;732;0.457069;1.153884;0.999984;0.001332;-0.004642;0.010974;0.002712;0.011432;-0.005100;80.421814;0.011454;
1066;1322;1.885401;79.501613;0.999807;0.004908;-0.028913;0.065258;-0.006566;0.065714;-0.029369;-86.030444;0.065837;
1091;1897;0.002886;86.388200;1.000000;0.000190;-0.000070;0.001311;-0.000077;0.001315;-0.000074;-86.812590;0.001478;
1176;657;-0.065794;0.619674;0.999999;0.000319;-0.001652;0.004094;-0.000424;0.004125;-0.001683;-85.801654;0.004148;
1111;752;0.134873;1.364609;0.999991;0.000862;-0.005627;0.013508;0.000733;0.013536;-0.005655;87.809806;0.013596;
1266;442;-0.059174;0.165401;1.000000;0.000142;-0.000472;0.001516;-0.000115;0.001522;-0.000479;-86.698054;0.001557;
1111;1792;0.010576;86.240723;1.000000;0.000106;-0.000476;0.001520;-0.000027;0.001520;-0.000477;-89.219974;0.001555;
1081;742;0.264469;1.248444;0.999990;0.001036;-0.005030;0.012058;0.001514;0.012191;-0.005163;84.976721;0.012238;
1281;437;-0.064274;0.161209;1.000000;0.000228;-0.000456;0.001495;-0.000103;0.001501;-0.000462;-86.985998;0.001537;
1121;362;0.001522;0.042066;1.000000;0.000079;-0.000125;0.001322;0.000024;0.001322;-0.000125;89.037062;0.001460;
1061;722;0.280444;1.041033;0.999992;0.000847;-0.004010;0.009696;0.001737;0.009913;-0.004227;82.886596;0.009948;
1076;392;0.014319;0.083711;1.000000;0.000055;-0.000254;0.001405;0.000098;0.001411;-0.000260;86.618172;0.001501;
1026;732;0.480034;1.155524;0.999981;0.001413;-0.004663;0.010952;0.002823;0.011447;-0.005158;80.061585;0.011466;
1191;1352;-1.278207;81.133593;0.999800;0.003312;-0.022074;0.049738;0.004730;0.050048;-0.022384;86.247667;0.050141;
1181;657;-0.073359;0.618171;0.999999;0.000262;-0.001656;0.004118;-0.000476;0.004156;-0.001695;-85.321814;0.004180;
1091;747;0.231677;1.305379;0.999992;0.000787;-0.005310;0.012718;0.001281;0.012808;-0.005401;85.956223;0.012861;
1276;1812;-0.060322;86.257966;0.999999;0.000192;-0.000452;0.001520;0.000111;0.001527;-0.000458;86.786360;0.001567;
1271;692;-0.363656;0.801429;0.999884;0.002541;-0.002808;0.007029;-0.002312;0.007545;-0.003324;-77.413491;0.007563;
1271;442;-0.061857;0.166090;1.000000;0.000188;-0.000468;0.001510;-0.000111;0.001516;-0.000475;-86.793263;0.001551;
1111;1797;0.010139;86.247740;1.000000;0.000091;-0.000458;0.001511;-0.000028;0.001511;-0.000458;-89.198483;0.001550;
1076;387;0.013275;0.076663;1.000000;0.000058;-0.000234;0.001395;0.000100;0.001401;-0.000240;86.496634;0.001498;
1066;722;0.261702;1.038949;0.999993;0.000760;-0.003994;0.009664;0.001618;0.009853;-0.004183;83.337009;0.009891;
1091;377;0.007960;0.062685;1.000000;0.000051;-0.000189;0.001364;0.000076;0.001367;-0.000193;87.210121;0.001480;
1141;502;-0.004273;0.247721;0.999999;0.000153;-0.000679;0.001635;-0.000010;0.001635;-0.000679;-89.762720;0.001643;
1046;757;0.528867;1.451036;0.999983;0.001151;-0.006134;0.014192;0.002899;0.014597;-0.006539;82.038500;0.014623;
1081;1327;1.394037;79.814864;0.999808;0.003924;-0.027320;0.061816;-0.004919;0.062087;-0.027590;-86.850565;0.062215;
1186;657;-0.080892;0.615718;0.999999;0.000283;-0.001659;0.004141;-0.000530;0.004189;-0.001707;-84.824239;0.004212;
1296;1817;-0.067194;86.259544;1.000000;0.000158;-0.000494;0.001494;0.000072;0.001497;-0.000497;87.939861;0.001525;
1026;697;0.301699;0.837838;0.999990;0.000724;-0.003035;0.007476;0.002003;0.007845;-0.003404;79.567828;0.007867;
1191;487;-0.034163;0.226811;1.000000;0.000198;-0.000595;0.001597;-0.000069;0.001599;-0.000597;-88.204885;0.001616;
1116;1792;0.008265;86.240858;1.000000;0.000112;-0.000475;0.001518;-0.000021;0.001518;-0.000475;-89.404535;0.001553;
1066;727;0.280922;1.085224;0.999992;0.000810;-0.004251;0.010246;0.001708;0.010444;-0.004450;83.371514;0.010482;
1091;382;0.008806;0.069318;1.000000;0.000050;-0.000209;0.001375;0.000075;0.001379;-0.000213;87.310562;0.001485;
1076;382;0.012143;0.069717;1.000000;0.000073;-0.000214;0.001384;0.000102;0.001391;-0.000220;86.374494;0.001495;
1081;1332;1.342016;80.090540;0.999829;0.004424;-0.026204;0.059318;-0.004836;0.059591;-0.026476;-86.773770;0.059714;
1041;727;0.388037;1.097818;0.999988;0.001075;-0.004352;0.010382;0.002325;0.010741;-0.004710;81.242597;0.010768;
1096;747;0.203983;1.304502;0.999994;0.000739;-0.005304;0.012717;0.001137;0.012788;-0.005375;86.405069;0.012843;
1266;697;-0.370941;0.833750;0.999988;0.000930;-0.003016;0.007435;-0.002371;0.007948;-0.003528;-77.797761;0.007964;
1111;1882;0.002776;86.367949;1.000000;0.000140;-0.000128;0.001329;-0.000042;0.001330;-0.000130;-88.363168;0.001467;
1191;657;-0.088828;0.614839;0.999999;0.000365;-0.001664;0.004170;-0.000586;0.004228;-0.001722;-84.321853;0.004252;
1066;472;0.037916;0.203681;1.000000;0.000165;-0.000556;0.001575;0.000079;0.001578;-0.000559;87.884405;0.001600;
1181;1782;-0.024755;86.224139;1.000000;0.000101;-0.000513;0.001551;0.000057;0.001552;-0.000515;88.409822;0.001581;
1066;732;0.299809;1.139615;0.999989;0.000900;-0.004516;0.010830;0.001800;0.011038;-0.004724;83.398924;0.011076;
1126;377;0.001684;0.062278;1.000000;0.000064;-0.000184;0.001355;0.000015;0.001355;-0.000184;89.437632;0.001470;
1046;727;0.364205;1.096517;0.999988;0.001043;-0.004320;0.010359;0.002203;0.010683;-0.004644;81.646187;0.010713;
1176;1332;-1.129718;80.127897;0.999797;0.003357;-0.025681;0.058342;0.003726;0.058507;-0.025846;87.466123;0.058639;
1116;1882;0.002146;86.367087;1.000000;0.000112;-0.000127;0.001329;-0.000031;0.001329;-0.000128;-88.776590;0.001467;
1166;747;-0.165170;1.304973;0.999991;0.000812;-0.005279;0.012830;-0.000965;0.012881;-0.005331;-86.957762;0.012945;
1106;752;0.161174;1.365754;0.999990;0.000926;-0.005627;0.013488;0.000887;0.013529;-0.005668;87.348630;0.013588;
1196;657;-0.097195;0.614636;0.999998;0.000423;-0.001666;0.004201;-0.000640;0.004270;-0.001735;-83.848283;0.004294;
1076;377;0.010860;0.063022;1.000000;0.000063;-0.000194;0.001372;0.000103;0.001379;-0.000200;86.249990;0.001490;
1246;457;-0.055302;0.185127;1.000000;0.000170;-0.000507;0.001535;-0.000115;0.001542;-0.000514;-86.798554;0.001570;
1186;1782;-0.027530;86.223779;1.000000;0.000132;-0.000514;0.001554;0.000063;0.001556;-0.000516;88.260102;0.001585;
1066;737;0.319298;1.198455;0.999985;0.001019;-0.004793;0.011445;0.001885;0.011661;-0.005009;83.463047;0.011699;
1226;1332;-2.454711;80.009101;0.999787;0.004051;-0.027148;0.060634;0.008718;0.061492;-0.028006;84.383002;0.061573;
1071;397;0.016919;0.091198;1.000000;0.000051;-0.000279;0.001422;0.000104;0.001429;-0.000286;86.501020;0.001512;
1051;727;0.345177;1.092653;0.999983;0.001110;-0.004292;0.010334;0.002078;0.010623;-0.004581;82.067969;0.010656;
1121;1882;0.001591;86.367281;1.000000;0.000125;-0.000125;0.001328;-0.000021;0.001328;-0.000125;-89.169559;0.001467;
1191;732;-0.241413;1.133815;0.999988;0.001051;-0.004446;0.010818;-0.001500;0.010964;-0.004592;-84.439908;0.011012;
1166;627;-0.040336;0.518847;0.999998;0.000389;-0.001307;0.003023;-0.000208;0.003033;-0.001317;-87.259448;0.003042;
1196;722;-0.233370;1.037548;0.999988;0.000940;-0.003949;0.009657;-0.001489;0.009818;-0.004111;-83.825524;0.009862;
1006;1717;0.090550;86.114752;1.000000;0.000198;-0.000595;0.001587;-0.000197;0.001605;-0.000613;-84.889304;0.001620;
1136;587;-0.000621;0.415107;0.999998;0.000343;-0.001121;0.002411;-0.000005;0.002411;-0.001121;-89.913723;0.002413;
1131;367;0.000501;0.048641;1.000000;0.000049;-0.000145;0.001327;0.000006;0.001327;-0.000145;89.765219;0.001456;
1146;502;-0.007479;0.248224;0.999999;0.000163;-0.000678;0.001634;-0.000018;0.001634;-0.000678;-89.551727;0.001642;
1041;722;0.363420;1.047807;0.999989;0.000981;-0.004091;0.009815;0.002221;0.010161;-0.004437;81.140626;0.010188;
1046;1297;3.032898;77.657971;0.999690;0.005048;-0.036426;0.083082;-0.009937;0.083902;-0.037247;-85.279251;0.084078;
1001;692;0.355862;0.803658;0.999991;0.000629;-0.002940;0.007186;0.002235;0.007657;-0.003412;78.088500;0.007673;
1051;747;0.445189;1.322231;0.999989;0.000925;-0.005440;0.012812;0.002508;0.013150;-0.005778;82.315166;0.013182;
1186;1732;-0.037771;86.143618;1.000000;0.000108;-0.000689;0.001656;0.000087;0.001659;-0.000692;87.883901;0.001667;
1126;1882;0.001104;86.367750;1.000000;0.000162;-0.000123;0.001327;-0.000011;0.001327;-0.000123;-89.553616;0.001467;
1016;692;0.311174;0.803728;0.999992;0.000591;-0.002906;0.007116;0.002034;0.007513;-0.003303;78.956070;0.007531;
1081;1512;0.218814;85.284194;0.999993;0.000577;-0.004380;0.010580;-0.001330;0.010698;-0.004498;-84.957718;0.010743;
1201;602;-0.074620;0.441053;0.999998;0.000342;-0.001038;0.002446;-0.000294;0.002470;-0.001063;-85.206346;0.002479;
1011;1717;0.087828;86.114897;1.000000;0.000148;-0.000607;0.001603;-0.000189;0.001619;-0.000623;-85.146209;0.001633;
1131;372;0.000476;0.055529;1.000000;0.000049;-0.000164;0.001342;0.000006;0.001342;-0.000164;89.761590;0.001464;
1006;692;0.340332;0.803772;0.999992;0.000816;-0.002934;0.007174;0.002177;0.007623;-0.003383;78.345938;0.007639;
1051;1297;2.849007;77.682719;0.999648;0.004390;-0.036215;0.082743;-0.009301;0.083466;-0.036938;-85.555994;0.083649;
1046;722;0.343403;1.047944;0.999987;0.001164;-0.004059;0.009786;0.002104;0.010099;-0.004372;81.547940;0.010129;
1096;1887;0.004119;86.375108;1.000000;0.000174;-0.000112;0.001326;-0.000068;0.001329;-0.000115;-87.314284;0.001472;
1051;752;0.472536;1.383989;0.999983;0.001158;-0.005764;0.013486;0.002616;0.013835;-0.006113;82.396624;0.013866;
1206;482;-0.042070;0.220328;1.000000;0.000276;-0.000574;0.001589;-0.000083;0.001592;-0.000577;-87.796118;0.001612;
1131;1792;0.000822;86.240716;1.000000;0.000136;-0.000473;0.001516;-0.000004;0.001516;-0.000473;-89.894834;0.001551;
1036;712;0.333388;0.955306;0.999990;0.000965;-0.003638;0.008795;0.002117;0.009145;-0.003989;80.597499;0.009170;
1086;1512;0.198617;85.283563;0.999994;0.000841;-0.004365;0.010564;-0.001199;0.010659;-0.004461;-85.436914;0.010707;
1016;1717;0.084595;86.114969;1.000000;0.000155;-0.000617;0.001616;-0.000182;0.001631;-0.000631;-85.378223;0.001645;
1086;567;0.049184;0.367226;0.999998;0.000402;-0.000950;0.002085;0.000150;0.002092;-0.000957;87.186329;0.002095;
1131;377;0.000678;0.062256;1.000000;0.000064;-0.000184;0.001354;0.000006;0.001355;-0.000184;89.760154;0.001469;
1096;1892;0.003173;86.381418;1.000000;0.000163;-0.000092;0.001313;-0.000068;0.001316;-0.000095;-87.255513;0.001468;
1056;1292;2.805110;77.292534;0.999683;0.006357;-0.037611;0.086208;-0.008921;0.086847;-0.038250;-85.899974;0.087053;
1086;747;0.255910;1.305145;0.999991;0.000865;-0.005321;0.012724;0.001434;0.012837;-0.005434;85.483977;0.012887;
1051;722;0.322944;1.045731;0.999980;0.001192;-0.004033;0.009758;0.001981;0.010037;-0.004312;81.985611;0.010070;
1041;737;0.435952;1.202285;0.999989;0.000998;-0.004898;0.011524;0.002567;0.011916;-0.005290;81.319916;0.011940;
1261;447;-0.058980;0.172097;1.000000;0.000167;-0.000484;0.001527;-0.000117;0.001533;-0.000491;-86.680149;0.001566;
1096;1792;0.017694;86.239649;1.000000;0.000101;-0.000477;0.001524;-0.000047;0.001525;-0.000478;-88.650578;0.001560;
1091;752;0.245763;1.374212;0.999989;0.000879;-0.005645;0.013438;0.001338;0.013531;-0.005738;86.007228;0.013583;
1096;1897;0.002769;86.387721;1.000000;0.000180;-0.000071;0.001307;-0.000069;0.001311;-0.000074;-87.137347;0.001472;
1136;362;-0.000191;0.042031;1.000000;0.000045;-0.000126;0.001320;-0.000003;0.001320;-0.000126;-89.893845;0.001457;
1061;1292;2.603602;77.302917;0.999723;0.005448;-0.037471;0.085808;-0.008239;0.086356;-0.038019;-86.193481;0.086561;
1196;1517;-0.256504;85.317289;0.999994;0.000652;-0.004236;0.010247;0.001524;0.010406;-0.004394;84.057267;0.010447;
1091;567;0.043946;0.367018;0.999998;0.000349;-0.000962;0.002100;0.000136;0.002106;-0.000968;87.470423;0.002108;
1036;722;0.382796;1.049187;0.999988;0.001017;-0.004111;0.009849;0.002344;0.010232;-0.004494;80.719363;0.010257;
1046;737;0.413797;1.200528;0.999990;0.000817;-0.004865;0.011513;0.002434;0.011867;-0.005219;81.723719;0.011895;
1111;757;0.142613;1.431603;0.999991;0.000838;-0.005974;0.014298;0.000761;0.014326;-0.006002;87.854249;0.014389;
1206;1717;-0.056440;86.116953;1.000000;0.000134;-0.000706;0.001695;0.000130;0.001702;-0.000713;86.910957;0.001709;
1261;452;-0.060997;0.180059;1.000000;0.000169;-0.000493;0.001524;-0.000118;0.001531;-0.000500;-86.659200;0.001562;
1096;752;0.217208;1.372842;0.999991;0.000728;-0.005639;0.013450;0.001184;0.013524;-0.005712;86.464018;0.013578;
1096;1797;0.016961;86.247763;1.000000;0.000119;-0.000458;0.001512;-0.000047;0.001513;-0.000459;-88.625794;0.001551;
1096;1882;0.004980;86.368435;1.000000;0.000196;-0.000132;0.001330;-0.000068;0.001334;-0.000135;-87.350183;0.001468;
996;692;0.360825;0.808791;0.999682;0.004429;-0.002935;0.007170;0.002281;0.007661;-0.003426;77.850951;0.007675;
1141;362;-0.000728;0.042053;1.000000;0.000056;-0.000126;0.001321;-0.000011;0.001321;-0.000126;-89.550692;0.001458;
1196;1522;-0.239752;85.369296;0.999995;0.000507;-0.003982;0.009647;0.001451;0.009800;-0.004135;83.989861;0.009839;
1091;1297;1.423501;77.797590;0.999707;0.004614;-0.034583;0.079834;-0.004602;0.080018;-0.034768;-87.700423;0.080247;
1051;737;0.391840;1.201343;0.999988;0.000829;-0.004830;0.011500;0.002301;0.011818;-0.005148;82.129390;0.011850;
1066;742;0.340001;1.255713;0.999986;0.000945;-0.005086;0.012101;0.001965;0.012323;-0.005308;83.560117;0.012362;
976;542;0.115943;0.320180;0.999998;0.000368;-0.000486;0.001459;0.000277;0.001497;-0.000525;82.058060;0.001519;
1101;752;0.188941;1.368633;0.999990;0.000815;-0.005633;0.013467;0.001037;0.013523;-0.005689;86.900767;0.013580;
1286;427;-0.061926;0.147472;1.000000;0.000184;-0.000444;0.001497;-0.000100;0.001502;-0.000449;-87.066592;0.001542;
1111;1652;0.024471;85.984908;1.000000;0.000137;-0.001122;0.002447;-0.000093;0.002450;-0.001125;-88.508599;0.002452;
1136;1792;-0.001556;86.240939;1.000000;0.000131;-0.000473;0.001516;0.000003;0.001516;-0.000473;89.924414;0.001551;
1126;367;0.001139;0.048597;1.000000;0.000068;-0.000145;0.001327;0.000015;0.001328;-0.000145;89.419477;0.001456;
1291;1812;-0.067447;86.253517;1.000000;0.000189;-0.000451;0.001504;0.000084;0.001507;-0.000454;87.546826;0.001546;
1206;717;-0.251640;0.990887;0.999989;0.000765;-0.003743;0.009126;-0.001634;0.009331;-0.003947;-82.873811;0.009367;
1096;1297;1.251322;77.811494;0.999715;0.004585;-0.034489;0.079508;-0.004042;0.079651;-0.034632;-87.971603;0.079876;
1036;737;0.461254;1.204034;0.999987;0.001013;-0.004918;0.011548;0.002702;0.011980;-0.005351;80.914785;0.012003;
1031;722;0.402047;1.050927;0.999989;0.001043;-0.004124;0.009865;0.002478;0.010291;-0.004550;80.247704;0.010314;
1206;1537;-0.230399;85.495685;0.999992;0.000805;-0.003334;0.008162;0.001457;0.008344;-0.003516;82.888178;0.008378;
1321;422;-0.078216;0.152735;0.999977;0.001242;-0.000488;0.001439;-0.000046;0.001440;-0.000490;-88.639264;0.001465;
1181;662;-0.077500;0.638125;0.999999;0.000297;-0.001756;0.004369;-0.000516;0.004412;-0.001799;-85.215439;0.004437;
1041;712;0.315089;0.954654;0.999992;0.000747;-0.003616;0.008751;0.002008;0.009069;-0.003933;81.003397;0.009095;
1141;1792;-0.003714;86.241039;1.000000;0.000103;-0.000473;0.001516;0.000009;0.001516;-0.000473;89.746149;0.001552;
1031;1737;0.068283;86.147674;1.000000;0.000158;-0.000620;0.001612;-0.000133;0.001620;-0.000628;-86.606896;0.001634;
1126;372;0.001465;0.055513;1.000000;0.000067;-0.000164;0.001342;0.000015;0.001342;-0.000164;89.429842;0.001464;
1296;1812;-0.069907;86.251702;1.000000;0.000175;-0.000502;0.001491;0.000072;0.001494;-0.000505;87.941296;0.001520;
1026;737;0.512426;1.208508;0.999983;0.001352;-0.004952;0.011509;0.002955;0.012023;-0.005466;80.125964;0.012040;
1211;717;-0.270317;0.992077;0.999989;0.000886;-0.003761;0.009150;-0.001749;0.009383;-0.003994;-82.419847;0.009417;
1101;1287;1.181991;77.029044;0.999711;0.004044;-0.037087;0.086468;-0.003721;0.086580;-0.037199;-88.276473;0.086865;
1061;717;0.263980;0.995951;0.999993;0.000853;-0.003765;0.009135;0.001652;0.009343;-0.003973;82.815935;0.009378;
1186;662;-0.085595;0.637506;0.999999;0.000287;-0.001762;0.004397;-0.000575;0.004450;-0.001816;-84.715614;0.004475;
1046;712;0.298214;0.952594;0.999992;0.000781;-0.003586;0.008710;0.001905;0.008999;-0.003874;81.390331;0.009028;
1046;1537;0.269019;85.504653;0.999992;0.000822;-0.003300;0.008017;-0.001763;0.008286;-0.003568;-81.345271;0.008312;
1071;487;0.039050;0.227843;0.999999;0.000186;-0.000606;0.001599;0.000078;0.001602;-0.000608;87.978872;0.001617;
1146;1787;-0.006228;86.232865;1.000000;0.000089;-0.000492;0.001527;0.000015;0.001527;-0.000492;89.578818;0.001559;
1121;357;0.001370;0.035525;1.000000;0.000068;-0.000105;0.001317;0.000025;0.001317;-0.000106;89.005230;0.001464;
1031;737;0.486718;1.207032;0.999986;0.001120;-0.004922;0.011542;0.002843;0.012020;-0.005399;80.473195;0.012040;
1296;1822;-0.064401;86.266618;1.000000;0.000146;-0.000489;0.001499;0.000075;0.001502;-0.000492;87.836389;0.001532;
1216;717;-0.290853;0.991558;0.999989;0.000917;-0.003778;0.009175;-0.001860;0.009437;-0.004040;-81.989452;0.009469;
1186;1877;-0.007511;86.360475;1.000000;0.000138;-0.000151;0.001353;0.000095;0.001359;-0.000157;86.401845;0.001487;
1101;1292;1.134319;77.420247;0.999746;0.003836;-0.035699;0.082714;-0.003596;0.082823;-0.035808;-88.262288;0.083076;
1066;717;0.245146;0.996999;0.999995;0.000687;-0.003750;0.009101;0.001536;0.009282;-0.003931;83.279226;0.009319;
1191;662;-0.094367;0.636248;0.999999;0.000291;-0.001771;0.004432;-0.000635;0.004496;-0.001835;-84.217141;0.004521;
1226;712;-0.306652;0.953806;0.999992;0.000686;-0.003601;0.008737;-0.001980;0.009047;-0.003911;-81.102392;0.009075;
1066;1522;0.251301;85.374631;0.999993;0.000731;-0.003928;0.009442;-0.001590;0.009628;-0.004115;-83.308730;0.009662;
1146;1792;-0.006087;86.240586;1.000000;0.000083;-0.000473;0.001517;0.000015;0.001517;-0.000473;89.557033;0.001552;
1011;737;0.585990;1.216950;0.999984;0.001041;-0.005008;0.011431;0.003357;0.012091;-0.005667;78.891714;0.012098;
1006;452;0.062889;0.180869;0.999999;0.000173;-0.000492;0.001529;0.000123;0.001536;-0.000499;86.517954;0.001567;
1301;1812;-0.072159;86.249998;1.000000;0.000185;-0.000512;0.001482;0.000067;0.001484;-0.000514;88.077411;0.001507;
1171;387;-0.008170;0.076193;1.000000;0.000049;-0.000229;0.001384;-0.000061;0.001386;-0.000231;-87.836534;0.001485;
1101;1297;1.079577;77.820113;0.999772;0.004375;-0.034356;0.079214;-0.003478;0.079320;-0.034462;-88.247704;0.079547;
1071;717;0.227230;0.994542;0.999995;0.000626;-0.003736;0.009069;0.001419;0.009225;-0.003891;83.750705;0.009262;
1186;737;-0.236219;1.188471;0.999987;0.001145;-0.004724;0.011425;-0.001443;0.011553;-0.004852;-84.934247;0.011602;
1191;1877;-0.008164;86.360423;1.000000;0.000153;-0.000155;0.001355;0.000103;0.001362;-0.000162;86.102055;0.001488;
1176;662;-0.069405;0.638878;0.999999;0.000355;-0.001748;0.004343;-0.000459;0.004377;-0.001783;-85.710453;0.004402;
1231;712;-0.322930;0.954262;0.999989;0.000806;-0.003626;0.008774;-0.002088;0.009117;-0.003968;-80.691843;0.009142;
1016;737;0.560744;1.212957;0.999983;0.001046;-0.004999;0.011480;0.003226;0.012089;-0.005607;79.309998;0.012099;
1051;1537;0.251868;85.507540;0.999993;0.000721;-0.003273;0.007985;-0.001661;0.008225;-0.003513;-81.779831;0.008254;
1186;1757;-0.032127;86.184391;1.000000;0.000115;-0.000599;0.001602;0.000065;0.001603;-0.000601;88.306914;0.001620;
1111;1887;0.002455;86.374837;1.000000;0.000166;-0.000109;0.001323;-0.000041;0.001324;-0.000110;-88.348961;0.001469;
1216;477;-0.045832;0.213096;1.000000;0.000172;-0.000560;0.001583;-0.000097;0.001587;-0.000564;-87.422597;0.001609;
1086;1297;1.600037;77.798777;0.999608;0.005567;-0.034728;0.080179;-0.005160;0.080410;-0.034960;-87.433881;0.080638;
1071;722;0.243142;1.036924;0.999993;0.000811;-0.003982;0.009637;0.001498;0.009800;-0.004145;83.795357;0.009838;
1171;392;-0.008887;0.082990;1.000000;0.000057;-0.000249;0.001393;-0.000059;0.001395;-0.000251;-87.937795;0.001488;
1196;1877;-0.008981;86.360468;1.000000;0.000157;-0.000158;0.001358;0.000112;0.001367;-0.000167;85.794950;0.001491;
1141;762;-0.042369;1.507977;0.999990;0.000844;-0.006351;0.015076;-0.000205;0.015078;-0.006353;-89.452953;0.015140;
1011;692;0.324549;0.803758;0.999992;0.000675;-0.002920;0.007149;0.002108;0.007573;-0.003343;78.642954;0.007590;
1196;662;-0.103864;0.635230;0.999998;0.000402;-0.001777;0.004470;-0.000693;0.004546;-0.001853;-83.748758;0.004572;
1021;737;0.538987;1.210344;0.999983;0.001134;-0.004985;0.011502;0.003088;0.012061;-0.005544;79.730824;0.012074;
1056;1537;0.235090;85.508406;0.999994;0.000578;-0.003258;0.007954;-0.001557;0.008166;-0.003470;-82.237467;0.008197;
1116;1887;0.001868;86.374643;1.000000;0.000157;-0.000108;0.001321;-0.000030;0.001322;-0.000108;-88.782043;0.001467;
1156;1782;-0.011464;86.224579;1.000000;0.000122;-0.000512;0.001540;0.000027;0.001541;-0.000512;89.237151;0.001569;
1056;1297;2.677131;77.712410;0.999645;0.004668;-0.036040;0.082391;-0.008659;0.083020;-0.036670;-85.840542;0.083208;
1161;352;-0.002286;0.029384;1.000000;0.000071;-0.000087;0.001314;-0.000048;0.001316;-0.000089;-88.053651;0.001470;
1071;727;0.260669;1.083704;0.999992;0.000817;-0.004240;0.010223;0.001585;0.010395;-0.004412;83.819127;0.010434;
991;437;0.062660;0.160621;1.000000;0.000178;-0.000454;0.001510;0.000112;0.001516;-0.000460;86.745367;0.001555;
1201;1877;-0.009802;86.360367;1.000000;0.000160;-0.000160;0.001363;0.000122;0.001372;-0.000169;85.448132;0.001496;
1146;762;-0.073398;1.510965;0.999992;0.000739;-0.006342;0.015063;-0.000379;0.015070;-0.006349;-88.986701;0.015132;
1031;702;0.308550;0.876237;0.999991;0.000697;-0.003235;0.007888;0.002017;0.008242;-0.003589;80.033430;0.008265;
1041;732;0.410875;1.147788;0.999988;0.001018;-0.004623;0.010946;0.002440;0.011320;-0.004996;81.297490;0.011346;
1071;587;0.069371;0.409369;0.999998;0.000413;-0.000974;0.002238;0.000237;0.002255;-0.000991;85.794936;0.002261;
1121;1887;0.001129;86.374845;1.000000;0.000160;-0.000106;0.001320;-0.000021;0.001320;-0.000106;-89.172566;0.001467;
1241;1572;-0.214535;85.732054;0.999994;0.000640;-0.002177;0.005546;0.001485;0.005822;-0.002453;79.479395;0.005846;
1166;352;-0.002705;0.029242;1.000000;0.000069;-0.000088;0.001315;-0.000057;0.001317;-0.000091;-87.691136;0.001472;
1096;1302;1.200648;78.196210;0.999752;0.004128;-0.033150;0.076250;-0.003880;0.076388;-0.033287;-87.971482;0.076597;
1066;1722;0.049651;86.126299;1.000000;0.000108;-0.000698;0.001678;-0.000114;0.001684;-0.000703;-87.262174;0.001691;
1056;717;0.283000;0.996578;0.999985;0.001095;-0.003777;0.009168;0.001768;0.009405;-0.004014;82.359787;0.009439;
1001;437;0.058464;0.158542;1.000000;0.000155;-0.000458;0.001520;0.000118;0.001527;-0.000465;86.583720;0.001565;
1151;762;-0.103114;1.513079;0.999992;0.000695;-0.006321;0.015048;-0.000553;0.015062;-0.006336;-88.518759;0.015125;
1181;1867;-0.008768;86.347719;1.000000;0.000159;-0.000189;0.001370;0.000085;0.001375;-0.000194;86.904338;0.001489;
1046;732;0.388190;1.146295;0.999990;0.000866;-0.004590;0.010927;0.002315;0.011265;-0.004928;81.691768;0.011294;
1166;757;-0.185654;1.438795;0.999988;0.001214;-0.005935;0.014228;-0.001048;0.014283;-0.005990;-87.031442;0.014344;
1126;1887;0.000711;86.374872;1.000000;0.000178;-0.000104;0.001318;-0.000011;0.001318;-0.000104;-89.550708;0.001466;
1171;612;-0.043882;0.475436;0.999998;0.000338;-0.001202;0.002712;-0.000192;0.002721;-0.001211;-87.202373;0.002726;
1246;1572;-0.226033;85.733631;0.999995;0.000578;-0.002209;0.005586;0.001574;0.005892;-0.002515;79.003671;0.005913;
1171;352;-0.003092;0.029195;1.000000;0.000059;-0.000089;0.001317;-0.000066;0.001320;-0.000092;-87.326286;0.001474;
1101;1302;1.032767;78.206122;0.999824;0.003991;-0.033029;0.076016;-0.003353;0.076119;-0.033132;-88.240630;0.076332;
1066;1727;0.048410;86.134627;1.000000;0.000126;-0.000682;0.001662;-0.000104;0.001667;-0.000687;-87.453539;0.001675;
1071;732;0.277616;1.138204;0.999989;0.000807;-0.004504;0.010813;0.001668;0.010992;-0.004683;83.856661;0.011032;
1211;482;-0.044307;0.220142;0.999999;0.000198;-0.000575;0.001589;-0.000090;0.001592;-0.000579;-87.634557;0.001612;
1131;762;0.022622;1.505866;0.999992;0.000872;-0.006365;0.015092;0.000138;0.015093;-0.006366;89.631808;0.015154;
1181;1872;-0.007818;86.355115;1.000000;0.000157;-0.000169;0.001356;0.000086;0.001361;-0.000174;86.779350;0.001481;
1051;732;0.367281;1.144554;0.999988;0.000955;-0.004557;0.010905;0.002189;0.011208;-0.004861;82.095909;0.011241;
1176;742;-0.203726;1.247641;0.999990;0.000891;-0.004995;0.012103;-0.001214;0.012189;-0.005081;-85.960045;0.012245;
1101;1887;0.003559;86.375482;1.000000;0.000238;-0.000111;0.001322;-0.000059;0.001325;-0.000113;-87.663043;0.001469;
1126;347;0.000605;0.022701;1.000000;0.000070;-0.000067;0.001304;0.000016;0.001304;-0.000068;89.344103;0.001468;
1106;1292;0.957955;77.432234;0.999745;0.003869;-0.035494;0.082429;-0.002996;0.082505;-0.035570;-88.545686;0.082765;
1036;717;0.356051;1.000150;0.999988;0.001046;-0.003866;0.009303;0.002230;0.009670;-0.004234;80.644988;0.009695;
1056;742;0.393206;1.258404;0.999989;0.001025;-0.005113;0.012129;0.002264;0.012421;-0.005405;82.642890;0.012456;
1136;762;-0.009726;1.508017;0.999990;0.000810;-0.006356;0.015085;-0.000033;0.015085;-0.006356;-89.911052;0.015148;
1101;1892;0.003113;86.380914;1.000000;0.000194;-0.000092;0.001310;-0.000059;0.001312;-0.000094;-87.604843;0.001464;
1181;1692;-0.044897;86.073307;1.000000;0.000127;-0.000877;0.001941;0.000128;0.001947;-0.000883;87.394928;0.001950;
1181;1877;-0.006848;86.361291;1.000000;0.000172;-0.000148;0.001350;0.000086;0.001355;-0.000153;86.712012;0.001485;
1181;742;-0.229182;1.247703;0.999989;0.001183;-0.005014;0.012090;-0.001360;0.012197;-0.005122;-85.481500;0.012249;
1141;917;-0.171549;6.549190;0.999809;0.003724;-0.026399;0.060325;-0.000643;0.060330;-0.026403;-89.575337;0.060486;
1126;352;0.000793;0.029054;1.000000;0.000066;-0.000087;0.001311;0.000016;0.001311;-0.000087;89.351574;0.001467;
1251;457;-0.058031;0.185644;1.000000;0.000164;-0.000507;0.001533;-0.000117;0.001540;-0.000513;-86.715977;0.001568;
1151;502;-0.010937;0.247822;1.000000;0.000199;-0.000676;0.001633;-0.000026;0.001633;-0.000676;-89.344975;0.001641;
1041;717;0.338499;0.999763;0.999989;0.000855;-0.003845;0.009265;0.002115;0.009598;-0.004178;81.057223;0.009624;
1106;1297;0.902082;77.836523;0.999805;0.004415;-0.034170;0.078953;-0.002891;0.079027;-0.034244;-88.537097;0.079260;
1101;1897;0.002274;86.388100;1.000000;0.000180;-0.000072;0.001303;-0.000060;0.001305;-0.000075;-87.488943;0.001466;
1056;747;0.416781;1.320145;0.999987;0.001224;-0.005423;0.012799;0.002358;0.013099;-0.005724;82.745699;0.013134;
1221;717;-0.310047;0.992484;0.999989;0.000920;-0.003799;0.009201;-0.001974;0.009494;-0.004092;-81.552148;0.009524;
1131;347;0.000337;0.022655;1.000000;0.000052;-0.000068;0.001303;0.000006;0.001303;-0.000068;89.731055;0.001467;
1201;722;-0.250698;1.039355;0.999987;0.000943;-0.003962;0.009666;-0.001606;0.009853;-0.004149;-83.367354;0.009894;
1191;1722;-0.044044;86.126621;1.000000;0.000139;-0.000720;0.001693;0.000105;0.001698;-0.000725;87.514538;0.001704;
1251;1572;-0.237421;85.733600;0.999994;0.000669;-0.002229;0.005616;0.001653;0.005950;-0.002563;78.572340;0.005969;
1211;1722;-0.058197;86.124326;1.000000;0.000129;-0.000683;0.001669;0.000128;0.001676;-0.000689;86.898642;0.001685;
1156;502;-0.014486;0.248366;0.999999;0.000239;-0.000674;0.001632;-0.000034;0.001633;-0.000675;-89.158108;0.001641;
1256;457;-0.060707;0.186444;1.000000;0.000163;-0.000504;0.001529;-0.000119;0.001536;-0.000511;-86.666382;0.001565;
1176;902;-0.974477;5.741333;0.999858;0.002945;-0.023763;0.053655;-0.003517;0.053814;-0.023922;-87.404190;0.053925;
1136;347;-0.000144;0.022517;1.000000;0.000049;-0.000068;0.001304;-0.000003;0.001304;-0.000068;-89.885473;0.001467;
1106;1302;0.865526;78.215669;0.999816;0.004675;-0.032855;0.075794;-0.002802;0.075866;-0.032927;-88.523763;0.076086;
1126;762;0.055205;1.506718;0.999991;0.001007;-0.006362;0.015099;0.000311;0.015103;-0.006367;89.169591;0.015165;
1061;712;0.247406;0.950313;0.999994;0.000780;-0.003534;0.008603;0.001572;0.008803;-0.003734;82.738142;0.008837;
1296;1827;-0.061766;86.274543;1.000000;0.000149;-0.000483;0.001509;0.000081;0.001512;-0.000487;87.689443;0.001544;
1146;767;-0.079312;1.589721;0.999990;0.000995;-0.006703;0.015890;-0.000387;0.015897;-0.006709;-89.019251;0.015961;
1141;1797;-0.003571;86.248675;1.000000;0.000113;-0.000454;0.001510;0.000008;0.001510;-0.000454;89.756560;0.001549;
1226;1562;-0.211028;85.668331;0.999995;0.000428;-0.002477;0.006170;0.001433;0.006401;-0.002708;80.831581;0.006427;
1246;467;-0.058982;0.200799;1.000000;0.000249;-0.000533;0.001551;-0.000116;0.001557;-0.000539;-86.823097;0.001581;
1181;902;-1.090612;5.748687;0.999841;0.002758;-0.023875;0.053826;-0.003964;0.054027;-0.024076;-87.087208;0.054134;
1121;352;0.001192;0.029164;1.000000;0.000069;-0.000086;0.001312;0.000025;0.001313;-0.000086;88.971638;0.001468;
1031;457;0.051820;0.184550;1.000000;0.000141;-0.000513;0.001551;0.000113;0.001557;-0.000519;86.861637;0.001586;
981;1682;0.118827;86.062648;1.000000;0.000177;-0.000458;0.001531;-0.000320;0.001582;-0.000508;-81.095267;0.001615;
1106;1287;0.995163;77.035287;0.999704;0.003731;-0.036880;0.086212;-0.003128;0.086292;-0.036959;-88.545226;0.086587;
1076;727;0.237966;1.083067;0.999992;0.000927;-0.004222;0.010202;0.001458;0.010348;-0.004368;84.286543;0.010390;
1166;752;-0.175207;1.368924;0.999991;0.000956;-0.005601;0.013532;-0.001006;0.013585;-0.005653;-86.997969;0.013648;
1301;1817;-0.069401;86.257681;1.000000;0.000173;-0.000503;0.001487;0.000067;0.001489;-0.000506;88.079645;0.001514;
1176;612;-0.049849;0.473860;0.999998;0.000359;-0.001185;0.002700;-0.000218;0.002712;-0.001197;-86.796408;0.002719;
1151;767;-0.110329;1.589453;0.999992;0.000876;-0.006683;0.015879;-0.000571;0.015893;-0.006697;-88.551109;0.015958;
1146;1797;-0.005608;86.248525;1.000000;0.000115;-0.000454;0.001510;0.000015;0.001510;-0.000455;89.562970;0.001550;
1231;1562;-0.221334;85.669845;0.999994;0.000543;-0.002490;0.006216;0.001517;0.006473;-0.002747;80.392135;0.006497;
1251;467;-0.061843;0.201487;0.999999;0.000192;-0.000531;0.001546;-0.000119;0.001553;-0.000538;-86.729620;0.001577;
1246;462;-0.057277;0.192940;1.000000;0.000190;-0.000521;0.001542;-0.000115;0.001548;-0.000527;-86.829295;0.001574;
986;1682;0.116137;86.061541;1.000000;0.000204;-0.000489;0.001552;-0.000316;0.001600;-0.000537;-81.396672;0.001629;
1051;887;1.761101;5.060741;0.999852;0.003394;-0.021698;0.048246;0.007006;0.048941;-0.022393;84.336153;0.048999;
1061;1297;2.500314;77.723595;0.999688;0.005768;-0.035913;0.082007;-0.007990;0.082546;-0.036451;-86.141145;0.082733;
1156;757;-0.124038;1.439749;0.999991;0.000760;-0.005949;0.014260;-0.000700;0.014284;-0.005973;-88.018642;0.014348;
1301;1822;-0.066587;86.264456;1.000000;0.000148;-0.000498;0.001494;0.000071;0.001497;-0.000500;87.975705;0.001524;
1056;712;0.263395;0.951207;0.999992;0.000763;-0.003548;0.008637;0.001681;0.008865;-0.003776;82.287302;0.008897;
1156;762;-0.130730;1.513458;0.999992;0.000716;-0.006309;0.015030;-0.000725;0.015054;-0.006333;-88.056688;0.015117;
1201;622;-0.081758;0.494518;0.999998;0.000494;-0.001172;0.002857;-0.000391;0.002894;-0.001209;-84.508304;0.002908;
1151;1787;-0.008753;86.232925;1.000000;0.000116;-0.000492;0.001528;0.000021;0.001528;-0.000492;89.394299;0.001560;
1241;1567;-0.230727;85.702156;0.999993;0.000788;-0.002333;0.005911;0.001590;0.006207;-0.002629;79.454661;0.006231;
1031;462;0.053627;0.192587;1.000000;0.000147;-0.000526;0.001553;0.000112;0.001559;-0.000532;86.921003;0.001585;
1251;462;-0.059986;0.193830;1.000000;0.000156;-0.000519;0.001538;-0.000118;0.001545;-0.000526;-86.739856;0.001571;
1166;907;-0.766900;6.010035;0.999837;0.003729;-0.024580;0.055775;-0.002660;0.055862;-0.024667;-88.106222;0.055989;
1066;1297;2.305372;77.748809;0.999667;0.005966;-0.035707;0.081725;-0.007452;0.082196;-0.036178;-86.383509;0.082392;
1161;757;-0.153898;1.439134;0.999991;0.000924;-0.005942;0.014242;-0.000872;0.014279;-0.005980;-87.531920;0.014342;
1301;1827;-0.064060;86.272765;1.000000;0.000168;-0.000491;0.001505;0.000076;0.001508;-0.000494;87.826458;0.001537;
1076;732;0.254623;1.138801;0.999989;0.000822;-0.004485;0.010796;0.001531;0.010948;-0.004637;84.335032;0.010990;
1156;767;-0.138657;1.590159;0.999991;0.000750;-0.006674;0.015865;-0.000751;0.015890;-0.006699;-88.094115;0.015955;
1171;627;-0.046979;0.517949;0.999998;0.000367;-0.001299;0.003019;-0.000238;0.003032;-0.001312;-86.861091;0.003041;
1206;622;-0.088139;0.492544;0.999998;0.000534;-0.001161;0.002847;-0.000421;0.002890;-0.001205;-84.072137;0.002904;
1151;1792;-0.008316;86.240238;1.000000;0.000109;-0.000473;0.001518;0.000022;0.001518;-0.000473;89.370203;0.001553;
1246;1567;-0.243166;85.702421;0.999994;0.000568;-0.002358;0.005935;0.001681;0.006263;-0.002686;78.964339;0.006284;
1256;462;-0.062638;0.194313;1.000000;0.000178;-0.000516;0.001533;-0.000119;0.001540;-0.000523;-86.684721;0.001566;
1061;732;0.319791;1.140437;0.999989;0.001072;-0.004532;0.010851;0.001932;0.011090;-0.004771;82.951100;0.011126;
1166;912;-0.794702;6.301759;0.999815;0.003817;-0.025609;0.058329;-0.002707;0.058417;-0.025696;-88.154933;0.058557;
1091;1302;1.366374;78.182011;0.999715;0.004478;-0.033223;0.076516;-0.004410;0.076693;-0.033400;-87.702590;0.076905;
1026;727;0.451775;1.104681;0.999983;0.001517;-0.004387;0.010409;0.002707;0.010888;-0.004867;79.951619;0.010909;
1131;1882;0.000244;86.368267;1.000000;0.000181;-0.000123;0.001327;-0.000001;0.001327;-0.000123;-89.944254;0.001466;
1011;697;0.346903;0.837734;0.999992;0.000900;-0.003079;0.007559;0.002234;0.008009;-0.003529;78.607292;0.008027;
1236;707;-0.320517;0.913664;0.999991;0.000884;-0.003427;0.008332;-0.002101;0.008696;-0.003791;-80.166898;0.008720;
1176;627;-0.053994;0.516570;0.999998;0.000376;-0.001286;0.003014;-0.000267;0.003030;-0.001302;-86.457680;0.003040;
1151;1797;-0.007955;86.248533;1.000000;0.000125;-0.000455;0.001511;0.000022;0.001511;-0.000455;89.370966;0.001550;
1251;1567;-0.255321;85.702597;0.999994;0.000612;-0.002381;0.005957;0.001759;0.006313;-0.002737;78.561192;0.006331;
1086;622;0.063266;0.502434;0.999998;0.000455;-0.001236;0.002888;0.000279;0.002907;-0.001255;86.147427;0.002916;
1061;737;0.341899;1.198857;0.999986;0.000965;-0.004809;0.011462;0.002028;0.011711;-0.005058;83.001615;0.011747;
1071;492;0.039976;0.235872;0.999999;0.000154;-0.000621;0.001606;0.000080;0.001609;-0.000624;87.951169;0.001622;
1166;917;-0.827661;6.563966;0.999822;0.004249;-0.026711;0.060975;-0.002781;0.061063;-0.026799;-88.185020;0.061215;
1106;1887;0.002928;86.374952;0.999999;0.000192;-0.000109;0.001323;-0.000050;0.001324;-0.000111;-87.983091;0.001469;
1101;1282;1.229652;76.623687;0.999631;0.005306;-0.038559;0.090523;-0.003864;0.090639;-0.038675;-88.286834;0.090963;
1031;717;0.376438;1.001000;0.999990;0.000973;-0.003895;0.009340;0.002354;0.009746;-0.004301;80.208888;0.009769;
1016;697;0.332418;0.838300;0.999993;0.000804;-0.003069;0.007530;0.002157;0.007952;-0.003491;78.926387;0.007972;
1241;707;-0.337130;0.913174;0.999989;0.000850;-0.003428;0.008351;-0.002207;0.008751;-0.003828;-79.730167;0.008774;
1181;667;-0.081439;0.659076;0.999998;0.000344;-0.001866;0.004659;-0.000557;0.004707;-0.001913;-85.153408;0.004734;
1191;1702;-0.050347;86.091709;1.000000;0.000142;-0.000804;0.001822;0.000135;0.001829;-0.000811;87.067739;0.001833;
1201;1517;-0.276459;85.315000;0.999992;0.000727;-0.004245;0.010251;0.001656;0.010438;-0.004432;83.565788;0.010478;
1106;1892;0.002533;86.381875;1.000000;0.000214;-0.000091;0.001310;-0.000051;0.001311;-0.000093;-87.936759;0.001464;
1091;622;0.057361;0.503202;0.999998;0.000428;-0.001246;0.002894;0.000250;0.002910;-0.001261;86.552276;0.002918;
1061;742;0.363467;1.259529;0.999988;0.001026;-0.005103;0.012115;0.002116;0.012371;-0.005359;83.095609;0.012408;
1226;902;-2.194812;5.791920;0.999834;0.003514;-0.024966;0.055657;-0.008250;0.056492;-0.025802;-84.216701;0.056563;
1036;467;0.052859;0.199788;1.000000;0.000190;-0.000541;0.001561;0.000109;0.001566;-0.000546;87.028935;0.001590;
1106;1282;1.028677;76.633719;0.999693;0.004763;-0.038360;0.090298;-0.003267;0.090381;-0.038443;-88.546269;0.090716;
1021;697;0.317095;0.837345;0.999990;0.000753;-0.003032;0.007504;0.002095;0.007905;-0.003433;79.155049;0.007928;
1071;737;0.296358;1.198477;0.999987;0.000830;-0.004781;0.011430;0.001743;0.011615;-0.004966;83.932816;0.011656;
1171;747;-0.191042;1.307488;0.999990;0.000762;-0.005288;0.012820;-0.001115;0.012888;-0.005356;-86.490423;0.012949;
1186;667;-0.090565;0.657960;0.999998;0.000285;-0.001877;0.004688;-0.000621;0.004747;-0.001935;-84.645856;0.004773;
1136;1797;-0.001569;86.248666;1.000000;0.000117;-0.000455;0.001509;0.000002;0.001509;-0.000455;89.937625;0.001549;
1106;1897;0.001974;86.387934;0.999999;0.000235;-0.000072;0.001301;-0.000051;0.001303;-0.000074;-87.861380;0.001464;
1201;1522;-0.258970;85.365022;0.999994;0.000588;-0.003995;0.009651;0.001576;0.009830;-0.004175;83.497481;0.009867;
1226;907;-2.296332;6.071502;0.999810;0.004602;-0.026108;0.058256;-0.008485;0.059101;-0.026953;-84.313358;0.059177;
1261;702;-0.378656;0.872769;0.999983;0.000917;-0.003242;0.007881;-0.002441;0.008393;-0.003754;-78.150851;0.008408;
1056;727;0.321940;1.086818;0.999988;0.000947;-0.004281;0.010303;0.001953;0.010560;-0.004538;82.502813;0.010595;
1086;1302;1.534523;78.177176;0.999632;0.005649;-0.033344;0.076809;-0.004948;0.077031;-0.033566;-87.433360;0.077243;
1071;707;0.197656;0.907177;0.999995;0.000719;-0.003280;0.008021;0.001275;0.008163;-0.003422;83.642073;0.008199;
1201;577;-0.067764;0.385225;0.999998;0.000349;-0.000922;0.002104;-0.000216;0.002120;-0.000938;-85.945406;0.002124;
981;437;0.067553;0.163431;1.000000;0.000173;-0.000453;0.001496;0.000095;0.001501;-0.000457;87.215124;0.001539;
1126;767;0.058272;1.584163;0.999987;0.000901;-0.006729;0.015890;0.000332;0.015895;-0.006733;89.160337;0.015956;
1191;667;-0.099946;0.657087;0.999998;0.000337;-0.001889;0.004724;-0.000686;0.004795;-0.001959;-84.143535;0.004821;
1306;1812;-0.074318;86.248156;1.000000;0.000160;-0.000524;0.001469;0.000063;0.001471;-0.000526;88.188270;0.001491;
1201;1527;-0.240741;85.415419;0.999994;0.000562;-0.003753;0.009111;0.001501;0.009284;-0.003926;83.431019;0.009321;
1006;697;0.363606;0.837883;0.999992;0.000886;-0.003086;0.007574;0.002306;0.008051;-0.003563;78.300574;0.008069;
1101;1712;0.025817;86.111834;1.000000;0.000095;-0.000809;0.001797;-0.000072;0.001799;-0.000811;-88.421423;0.001802;
1056;887;1.650157;5.058606;0.999833;0.003506;-0.021649;0.048163;0.006537;0.048770;-0.022255;84.696018;0.048832;
1061;727;0.299969;1.087182;0.999991;0.000890;-0.004268;0.010272;0.001831;0.010499;-0.004495;82.933675;0.010535;
1096;1307;1.151688;78.535841;0.999736;0.003788;-0.031857;0.073123;-0.003745;0.073257;-0.031991;-87.959604;0.073452;
1076;707;0.180135;0.906722;0.999996;0.000766;-0.003260;0.007986;0.001174;0.008107;-0.003382;84.103590;0.008145;
1196;617;-0.075093;0.481779;0.999998;0.000565;-0.001149;0.002759;-0.000339;0.002788;-0.001178;-85.084207;0.002799;
986;437;0.065373;0.162038;1.000000;0.000157;-0.000454;0.001503;0.000105;0.001509;-0.000460;86.924450;0.001547;
1131;767;0.024419;1.584875;0.999990;0.000941;-0.006732;0.015897;0.000151;0.015898;-0.006733;89.617934;0.015960;
1176;667;-0.072948;0.660144;0.999998;0.000374;-0.001855;0.004632;-0.000495;0.004670;-0.001893;-85.664594;0.004698;
1306;1817;-0.071330;86.256385;1.000000;0.000140;-0.000514;0.001477;0.000063;0.001479;-0.000516;88.177755;0.001502;
1236;1562;-0.234898;85.670274;0.999992;0.000680;-0.002492;0.006259;0.001602;0.006543;-0.002776;79.946054;0.006568;
1141;767;-0.045660;1.587259;0.999990;0.000918;-0.006711;0.015898;-0.000207;0.015900;-0.006713;-89.476279;0.015964;
1171;907;-0.894367;6.017564;0.999848;0.003084;-0.024667;0.055901;-0.003125;0.056023;-0.024788;-87.781781;0.056146;
1061;747;0.387695;1.316648;0.999985;0.001184;-0.005416;0.012786;0.002204;0.013049;-0.005679;83.194480;0.013085;
1101;1307;0.995288;78.540731;0.999791;0.003604;-0.031753;0.072939;-0.003237;0.073039;-0.031853;-88.230730;0.073237;
1086;1787;0.023180;86.231778;1.000000;0.000113;-0.000497;0.001538;-0.000058;0.001539;-0.000499;-88.368741;0.001571;
1081;707;0.163644;0.905838;0.999996;0.000579;-0.003235;0.007956;0.001069;0.008057;-0.003337;84.592668;0.008096;
966;432;0.072068;0.161186;1.000000;0.000178;-0.000585;0.001509;0.000083;0.001513;-0.000588;87.734503;0.001525;
1136;767;-0.011128;1.584877;0.999990;0.000885;-0.006719;0.015901;-0.000028;0.015901;-0.006719;-89.928826;0.015965;
1301;532;-0.114812;0.303055;0.999998;0.000326;-0.000502;0.001383;-0.000264;0.001420;-0.000538;-82.180275;0.001433;
1306;1822;-0.068877;86.262580;1.000000;0.000149;-0.000508;0.001487;0.000068;0.001490;-0.000510;88.057435;0.001514;
1196;667;-0.109453;0.656564;0.999997;0.000433;-0.001898;0.004764;-0.000749;0.004848;-0.001981;-83.666585;0.004874;
1216;1542;-0.247416;85.531814;0.999993;0.000625;-0.003179;0.007729;0.001584;0.007955;-0.003405;81.903826;0.007982;
1031;707;0.330377;0.915487;0.999992;0.000947;-0.003456;0.008363;0.002124;0.008733;-0.003826;80.115988;0.008755;
1176;907;-1.014970;6.019979;0.999838;0.002621;-0.024753;0.056060;-0.003581;0.056218;-0.024912;-87.467645;0.056339;
1106;1307;0.849914;78.550955;0.999797;0.004603;-0.031599;0.072747;-0.002701;0.072817;-0.031669;-88.518072;0.073022;
1081;727;0.216521;1.083645;0.999990;0.000956;-0.004189;0.010180;0.001325;0.010301;-0.004310;84.776362;0.010347;
1091;1787;0.020981;86.232010;1.000000;0.000132;-0.000496;0.001536;-0.000052;0.001537;-0.000497;-88.541530;0.001569;
1081;712;0.177043;0.949827;0.999996;0.000539;-0.003456;0.008470;0.001126;0.008576;-0.003561;84.652071;0.008617;
976;437;0.069781;0.165295;0.999999;0.000198;-0.000450;0.001488;0.000083;0.001492;-0.000453;87.549458;0.001530;
1051;717;0.301844;0.997224;0.999982;0.001084;-0.003789;0.009200;0.001887;0.009468;-0.004058;81.897558;0.009500;
1306;1827;-0.066303;86.270189;1.000000;0.000182;-0.000501;0.001498;0.000073;0.001501;-0.000503;87.900558;0.001528;
1046;557;0.079687;0.346148;0.999998;0.000352;-0.000749;0.001812;0.000212;0.001830;-0.000766;85.291500;0.001838;
1096;622;0.051140;0.504100;0.999998;0.000371;-0.001259;0.002903;0.000223;0.002915;-0.001271;86.945975;0.002923;
1031;712;0.351236;0.957023;0.999992;0.000968;-0.003673;0.008843;0.002238;0.009232;-0.004061;80.160444;0.009254;
1051;707;0.262214;0.909688;0.999992;0.000765;-0.003346;0.008175;0.001694;0.008419;-0.003590;81.807116;0.008449;
1111;1297;0.730830;77.847300;0.999727;0.004817;-0.034035;0.078781;-0.002314;0.078828;-0.034083;-88.825695;0.079068;
1181;907;-1.134654;6.026423;0.999826;0.002932;-0.024874;0.056257;-0.004043;0.056458;-0.025075;-87.154473;0.056575;
1116;1797;0.007902;86.248012;1.000000;0.000106;-0.000456;0.001510;-0.000021;0.001510;-0.000456;-89.378540;0.001549;
1256;467;-0.064204;0.202005;0.999999;0.000159;-0.000527;0.001540;-0.000121;0.001547;-0.000535;-86.658934;0.001571;
1131;1887;-0.000010;86.374997;1.000000;0.000189;-0.000104;0.001317;-0.000002;0.001317;-0.000104;-89.922382;0.001464;
1046;717;0.320491;0.998629;0.999987;0.000921;-0.003815;0.009231;0.002006;0.009533;-0.004116;81.453729;0.009562;
1156;1322;-0.661736;79.552923;0.999819;0.003481;-0.027769;0.063611;0.001986;0.063654;-0.027812;88.755675;0.063822;
1286;432;-0.064349;0.155286;1.000000;0.000191;-0.000450;0.001492;-0.000098;0.001497;-0.000455;-87.129952;0.001535;
1071;402;0.018299;0.098428;1.000000;0.000058;-0.000300;0.001437;0.000101;0.001443;-0.000306;86.674624;0.001521;
1231;717;-0.345697;0.997045;0.999987;0.000780;-0.003852;0.009266;-0.002199;0.009625;-0.004211;-80.734630;0.009650;
1206;572;-0.070696;0.374476;0.999998;0.000387;-0.000879;0.002015;-0.000216;0.002031;-0.000895;-85.749306;0.002035;
1051;712;0.281313;0.950831;0.999990;0.000775;-0.003561;0.008673;0.001793;0.008931;-0.003819;81.830308;0.008962;
1111;1302;0.697679;78.219926;0.999781;0.004636;-0.032726;0.075645;-0.002264;0.075692;-0.032773;-88.803930;0.075919;
1206;902;-1.703457;5.765429;0.999860;0.002896;-0.024566;0.054898;-0.006323;0.055398;-0.025066;-85.479165;0.055481;
1121;1792;0.005765;86.240741;1.000000;0.000128;-0.000473;0.001516;-0.000014;0.001516;-0.000473;-89.582654;0.001551;
1101;1882;0.003638;86.368532;1.000000;0.000231;-0.000131;0.001328;-0.000059;0.001330;-0.000133;-87.698751;0.001465;
1026;717;0.394438;1.002260;0.999987;0.000923;-0.003902;0.009364;0.002463;0.009807;-0.004344;79.813117;0.009828;
1026;457;0.054409;0.184902;1.000000;0.000170;-0.000510;0.001549;0.000118;0.001556;-0.000517;86.718503;0.001585;
1291;432;-0.066757;0.156498;1.000000;0.000171;-0.000446;0.001486;-0.000088;0.001490;-0.000450;-87.405321;0.001528;
1161;1322;-0.796976;79.547215;0.999847;0.004106;-0.027791;0.063685;0.002423;0.063749;-0.027855;88.483856;0.063917;
1071;407;0.019483;0.105548;1.000000;0.000055;-0.000319;0.001449;0.000098;0.001454;-0.000325;86.826509;0.001526;
1071;702;0.184630;0.867720;0.999995;0.000629;-0.003072;0.007537;0.001202;0.007672;-0.003207;83.618435;0.007706;
1111;1307;0.679629;78.555544;0.999803;0.004919;-0.031472;0.072608;-0.002187;0.072654;-0.031518;-88.797001;0.072866;
1206;577;-0.072232;0.384295;0.999998;0.000325;-0.000901;0.002075;-0.000228;0.002092;-0.000919;-85.649772;0.002097;
1081;747;0.282283;1.307938;0.999988;0.001150;-0.005347;0.012737;0.001588;0.012876;-0.005485;85.020282;0.012922;
1206;907;-1.774108;6.049775;0.999851;0.003111;-0.025657;0.057439;-0.006506;0.057945;-0.026163;-85.550407;0.058036;
1141;1802;-0.003331;86.255864;1.000000;0.000117;-0.000435;0.001503;0.000009;0.001503;-0.000435;89.736242;0.001546;
1106;1882;0.003312;86.368315;0.999999;0.000191;-0.000129;0.001328;-0.000051;0.001330;-0.000131;-88.009268;0.001466;
1026;722;0.421715;1.052470;0.999987;0.001142;-0.004133;0.009874;0.002590;0.010338;-0.004596;79.852240;0.010359;
1001;442;0.060404;0.165815;1.000000;0.000204;-0.000469;0.001521;0.000117;0.001528;-0.000476;86.641670;0.001564;
1166;1322;-0.940901;79.534311;0.999828;0.003403;-0.027834;0.063776;0.002875;0.063866;-0.027924;88.204496;0.064034;
1076;702;0.168763;0.865305;0.999995;0.000582;-0.003053;0.007499;0.001105;0.007614;-0.003168;84.083280;0.007649;
1111;1292;0.772852;77.440647;0.999673;0.004643;-0.035359;0.082213;-0.002402;0.082262;-0.035408;-88.830215;0.082527;
1196;487;-0.036977;0.227521;1.000000;0.000169;-0.000592;0.001599;-0.000074;0.001602;-0.000594;-88.075476;0.001619;
1126;362;0.001246;0.041944;1.000000;0.000068;-0.000125;0.001321;0.000015;0.001321;-0.000126;89.396985;0.001458;
1231;887;-2.046218;5.052599;0.999849;0.004270;-0.021825;0.048278;-0.008227;0.049230;-0.022778;-83.395339;0.049276;
1206;582;-0.073957;0.395552;0.999998;0.000353;-0.000923;0.002137;-0.000242;0.002156;-0.000942;-85.505379;0.002161;
1196;727;-0.249183;1.085158;0.999989;0.000942;-0.004205;0.010244;-0.001555;0.010410;-0.004370;-83.927473;0.010454;
1146;1802;-0.005756;86.255958;1.000000;0.000146;-0.000436;0.001503;0.000016;0.001503;-0.000436;89.535555;0.001547;
1106;1877;0.003343;86.362408;0.999999;0.000244;-0.000149;0.001331;-0.000051;0.001333;-0.000151;-88.032481;0.001460;
1066;712;0.230552;0.951325;0.999995;0.000685;-0.003518;0.008568;0.001461;0.008743;-0.003692;83.203858;0.008778;
1021;457;0.056921;0.185747;1.000000;0.000230;-0.000508;0.001548;0.000122;0.001555;-0.000515;86.602705;0.001584;
1081;702;0.153777;0.865272;0.999995;0.000531;-0.003030;0.007465;0.001008;0.007561;-0.003126;84.563614;0.007599;
1186;1327;-1.442301;79.815577;0.999796;0.003899;-0.027057;0.061311;0.004808;0.061571;-0.027318;86.894988;0.061701;
1131;362;0.000506;0.041958;1.000000;0.000048;-0.000126;0.001320;0.000006;0.001320;-0.000126;89.753353;0.001458;
1091;1307;1.316426;78.525508;0.999707;0.004948;-0.031912;0.073336;-0.004265;0.073508;-0.032084;-87.683472;0.073706;
1201;487;-0.040103;0.228107;1.000000;0.000215;-0.000589;0.001601;-0.000079;0.001604;-0.000592;-87.935076;0.001622;
1011;702;0.371345;0.878122;0.999992;0.000911;-0.003231;0.008006;0.002398;0.008497;-0.003722;78.445834;0.008518;
1201;902;-1.573797;5.761602;0.999830;0.003412;-0.024398;0.054632;-0.005823;0.055058;-0.024825;-85.808515;0.055147;
1206;587;-0.075145;0.406117;0.999998;0.000412;-0.000945;0.002197;-0.000258;0.002218;-0.000967;-85.336718;0.002225;
1151;1802;-0.007952;86.255939;1.000000;0.000144;-0.000436;0.001504;0.000023;0.001504;-0.000436;89.330333;0.001548;
1071;712;0.212510;0.951174;0.999995;0.000654;-0.003501;0.008533;0.001349;0.008682;-0.003650;83.683498;0.008719;
1291;1832;-0.057030;86.283733;1.000000;0.000158;-0.000437;0.001523;0.000101;0.001528;-0.000443;87.064410;0.001572;
1176;497;-0.026814;0.240604;0.999999;0.000213;-0.000640;0.001617;-0.000058;0.001619;-0.000642;-88.541334;0.001630;
1086;702;0.138146;0.864592;0.999996;0.000555;-0.003006;0.007439;0.000909;0.007517;-0.003085;85.065310;0.007558;
1186;1332;-1.383303;80.104980;0.999801;0.003320;-0.025948;0.058673;0.004691;0.058933;-0.026207;86.836610;0.059053;
1016;702;0.356415;0.877956;0.999992;0.000946;-0.003228;0.007983;0.002304;0.008438;-0.003683;78.829746;0.008460;
1111;1287;0.811973;77.040550;0.999602;0.004613;-0.036751;0.085985;-0.002537;0.086037;-0.036803;-88.816127;0.086336;
1201;907;-1.638182;6.040710;0.999838;0.003092;-0.025473;0.057145;-0.005997;0.057578;-0.025906;-85.870210;0.057674;
1206;592;-0.076979;0.416571;0.999998;0.000407;-0.000967;0.002264;-0.000275;0.002287;-0.000991;-85.174178;0.002294;
1001;447;0.063005;0.173817;0.999999;0.000197;-0.000478;0.001520;0.000118;0.001527;-0.000485;86.634693;0.001560;
1071;392;0.015651;0.084015;1.000000;0.000050;-0.000259;0.001408;0.000107;0.001415;-0.000265;86.348609;0.001504;
1121;1797;0.005366;86.247971;1.000000;0.000134;-0.000454;0.001509;-0.000015;0.001509;-0.000454;-89.558287;0.001549;
1076;712;0.194326;0.949976;0.999996;0.000637;-0.003482;0.008500;0.001239;0.008627;-0.003609;84.157084;0.008665;
1296;1832;-0.059396;86.282248;1.000000;0.000165;-0.000475;0.001516;0.000090;0.001520;-0.000479;87.415306;0.001555;
1236;887;-2.148279;5.057407;0.999717;0.004725;-0.021832;0.048146;-0.008747;0.049223;-0.022909;-82.981940;0.049262;
1086;707;0.148580;0.904459;0.999996;0.000634;-0.003211;0.007928;0.000962;0.008011;-0.003293;85.099677;0.008053;
1021;702;0.339678;0.877287;0.999991;0.000796;-0.003229;0.007952;0.002209;0.008373;-0.003650;79.218855;0.008396;
1186;1337;-1.326370;80.372932;0.999790;0.003158;-0.024876;0.056194;0.004589;0.056453;-0.025135;86.770585;0.056566;
1086;1307;1.471873;78.515250;0.999565;0.004794;-0.032010;0.073584;-0.004792;0.073801;-0.032227;-87.407033;0.073998;
1136;357;-0.000175;0.035631;1.000000;0.000049;-0.000107;0.001316;-0.000003;0.001316;-0.000107;-89.897093;0.001462;
1061;472;0.040634;0.205052;0.999999;0.000181;-0.000558;0.001575;0.000084;0.001579;-0.000561;87.746391;0.001601;
1181;492;-0.029066;0.233988;0.999999;0.000187;-0.000621;0.001606;-0.000061;0.001608;-0.000623;-88.443606;0.001621;
1011;572;0.111080;0.371558;0.999998;0.000371;-0.000600;0.001712;0.000310;0.001753;-0.000641;82.487246;0.001774;
1076;717;0.208829;0.991411;0.999996;0.000716;-0.003718;0.009039;0.001303;0.009171;-0.003850;84.227107;0.009210;
1181;1787;-0.023557;86.231415;1.000000;0.000100;-0.000496;0.001542;0.000059;0.001543;-0.000498;88.342097;0.001575;
1301;1832;-0.061661;86.280321;0.999999;0.000192;-0.000482;0.001513;0.000086;0.001516;-0.000486;87.538683;0.001549;
1186;902;-1.210756;5.751763;0.999827;0.002930;-0.024010;0.053997;-0.004411;0.054245;-0.024259;-86.773826;0.054346;
1086;712;0.160860;0.947813;0.999996;0.000632;-0.003428;0.008444;0.001011;0.008529;-0.003513;85.167029;0.008573;
1026;702;0.324487;0.875831;0.999991;0.000712;-0.003229;0.007926;0.002115;0.008313;-0.003617;79.614121;0.008337;
1141;357;-0.000718;0.035599;1.000000;0.000054;-0.000106;0.001316;-0.000011;0.001316;-0.000106;-89.543889;0.001462;
1111;1282;0.841279;76.633736;0.999646;0.004188;-0.038230;0.090065;-0.002671;0.090121;-0.038286;-88.807785;0.090460;
1196;1312;-1.931764;78.828309;0.999802;0.004134;-0.031215;0.071038;0.006168;0.071408;-0.031586;86.560237;0.071567;
1216;482;-0.047153;0.220397;0.999999;0.000152;-0.000574;0.001589;-0.000095;0.001594;-0.000578;-87.478411;0.001614;
1076;497;0.037939;0.242657;0.999999;0.000217;-0.000638;0.001620;0.000076;0.001623;-0.000640;88.086138;0.001635;
1016;572;0.108621;0.371913;0.999998;0.000429;-0.000625;0.001740;0.000298;0.001777;-0.000662;82.933765;0.001796;
1076;722;0.222331;1.034436;0.999993;0.000904;-0.003965;0.009612;0.001378;0.009750;-0.004104;84.261468;0.009791;
1096;1877;0.005357;86.362261;1.000000;0.000202;-0.000153;0.001333;-0.000068;0.001336;-0.000156;-87.380993;0.001461;
1086;1792;0.022535;86.239549;1.000000;0.000109;-0.000480;0.001527;-0.000059;0.001529;-0.000482;-88.326383;0.001563;
1146;357;-0.001176;0.035488;1.000000;0.000048;-0.000107;0.001317;-0.000020;0.001317;-0.000107;-89.182131;0.001463;
1086;717;0.173048;0.988882;0.999995;0.000704;-0.003658;0.008988;0.001062;0.009077;-0.003747;85.231144;0.009123;
1026;707;0.348836;0.916099;0.999992;0.000860;-0.003448;0.008396;0.002229;0.008801;-0.003854;79.686220;0.008824;
1106;907;0.701649;6.012836;0.999810;0.003926;-0.024469;0.055715;0.002408;0.055787;-0.024541;88.281402;0.055921;
1071;1297;2.124237;77.770642;0.999667;0.005163;-0.035395;0.081267;-0.006890;0.081673;-0.035801;-86.631872;0.081879;
1031;467;0.055301;0.201019;0.999999;0.000155;-0.000538;0.001555;0.000114;0.001562;-0.000544;86.896311;0.001585;
1201;1312;-2.090445;78.803395;0.999824;0.005135;-0.031456;0.071414;0.006751;0.071856;-0.031897;86.261183;0.072006;
966;427;0.069702;0.153830;1.000000;0.000172;-0.000565;0.001511;0.000088;0.001514;-0.000569;87.585577;0.001530;
1021;572;0.103989;0.372308;0.999999;0.000402;-0.000655;0.001769;0.000286;0.001803;-0.000688;83.356703;0.001819;
1091;707;0.132072;0.903794;0.999996;0.000577;-0.003179;0.007902;0.000857;0.007968;-0.003244;85.602392;0.008013;
1131;352;0.000239;0.029105;1.000000;0.000054;-0.000087;0.001311;0.000007;0.001311;-0.000087;89.725067;0.001466;
1101;1877;0.004404;86.362293;1.000000;0.000241;-0.000151;0.001331;-0.000059;0.001333;-0.000153;-87.724689;0.001459;
1091;1792;0.020078;86.239773;1.000000;0.000121;-0.000478;0.001525;-0.000052;0.001526;-0.000479;-88.504544;0.001561;
1066;702;0.200144;0.868892;0.999995;0.000659;-0.003094;0.007575;0.001302;0.007731;-0.003250;83.141647;0.007764;
1026;712;0.371209;0.957885;0.999991;0.000944;-0.003672;0.008874;0.002345;0.009298;-0.004096;79.749737;0.009320;
1036;907;2.481627;6.091924;0.999797;0.004127;-0.026115;0.058632;0.009039;0.059586;-0.027068;83.979197;0.059669;
1106;1312;0.807949;78.866031;0.999806;0.004669;-0.030389;0.069733;-0.002614;0.069802;-0.030457;-88.505569;0.069990;
1026;462;0.055993;0.192870;1.000000;0.000187;-0.000523;0.001552;0.000117;0.001558;-0.000530;86.781701;0.001585;
1156;1317;-0.688022;79.249799;0.999816;0.003314;-0.028949;0.066338;0.002000;0.066380;-0.028991;88.798142;0.066557;
1291;437;-0.068833;0.163897;1.000000;0.000166;-0.000448;0.001482;-0.000087;0.001485;-0.000452;-87.420986;0.001523;
1181;672;-0.086600;0.683544;0.999998;0.000346;-0.001986;0.004991;-0.000600;0.005042;-0.002037;-85.120194;0.005073;
1091;712;0.143903;0.946352;0.999996;0.000562;-0.003398;0.008417;0.000900;0.008485;-0.003466;85.666406;0.008532;
1131;357;0.000411;0.035662;1.000000;0.000051;-0.000106;0.001316;0.000006;0.001316;-0.000106;89.743267;0.001462;
1231;892;-2.142415;5.301420;0.999829;0.004326;-0.022857;0.050665;-0.008419;0.051616;-0.023809;-83.550084;0.051668;
1006;702;0.387903;0.877923;0.999991;0.000811;-0.003226;0.008013;0.002492;0.008541;-0.003754;78.041932;0.008562;
1296;1807;-0.071888;86.243672;1.000000;0.000183;-0.000507;0.001487;0.000071;0.001490;-0.000510;87.971217;0.001514;
1086;722;0.183610;1.033579;0.999993;0.000860;-0.003902;0.009563;0.001128;0.009657;-0.003996;85.245085;0.009705;
1061;1762;0.041844;86.191006;1.000000;0.000118;-0.000579;0.001591;-0.000084;0.001594;-0.000582;-87.780180;0.001613;
1111;1312;0.663193;78.879151;0.999796;0.004863;-0.030267;0.069584;-0.002105;0.069628;-0.030312;-88.792671;0.069822;
1161;1317;-0.832124;79.242442;0.999851;0.004637;-0.028985;0.066456;0.002443;0.066519;-0.029048;88.534510;0.066696;
1266;447;-0.061453;0.173073;1.000000;0.000197;-0.000482;0.001521;-0.000114;0.001527;-0.000488;-86.749130;0.001560;
1296;437;-0.070828;0.165923;0.999999;0.000167;-0.000459;0.001473;-0.000079;0.001476;-0.000462;-87.669254;0.001510;
1136;352;-0.000251;0.029170;1.000000;0.000052;-0.000087;0.001311;-0.000002;0.001311;-0.000087;-89.908922;0.001466;
1231;897;-2.229958;5.547885;0.999826;0.004258;-0.023939;0.053162;-0.008590;0.054108;-0.024884;-83.719515;0.054165;
1186;672;-0.096331;0.682481;0.999998;0.000368;-0.002001;0.005024;-0.000669;0.005087;-0.002064;-84.610494;0.005117;
1091;717;0.154144;0.987147;0.999995;0.000540;-0.003630;0.008961;0.000950;0.009032;-0.003702;85.709188;0.009081;
1301;1807;-0.074111;86.242376;1.000000;0.000192;-0.000518;0.001479;0.000066;0.001481;-0.000520;88.112642;0.001503;
1061;702;0.216119;0.869050;0.999994;0.000657;-0.003114;0.007614;0.001402;0.007794;-0.003294;82.676546;0.007825;
1196;732;-0.264878;1.135290;0.999985;0.000987;-0.004470;0.010824;-0.001631;0.010996;-0.004642;-83.978316;0.011040;
1116;1302;0.525979;78.223487;0.999737;0.004412;-0.032658;0.075566;-0.001747;0.075595;-0.032687;-89.075522;0.075825;
1186;1727;-0.039042;86.135377;1.000000;0.000112;-0.000709;0.001676;0.000093;0.001680;-0.000713;87.776763;0.001686;
1166;1317;-0.983867;79.233247;0.999830;0.004181;-0.029037;0.066605;0.002891;0.066692;-0.029125;88.269986;0.066870;
1231;902;-2.322777;5.801407;0.999833;0.004098;-0.025010;0.055828;-0.008752;0.056765;-0.025947;-83.891141;0.056835;
1266;452;-0.063619;0.180387;1.000000;0.000239;-0.000490;0.001517;-0.000116;0.001524;-0.000497;-86.700334;0.001555;
1141;352;-0.000708;0.029172;1.000000;0.000062;-0.000087;0.001311;-0.000011;0.001311;-0.000087;-89.544064;0.001466;
961;422;0.069448;0.148377;0.999999;0.000212;-0.000578;0.001490;0.000098;0.001494;-0.000583;87.298004;0.001506;
1191;672;-0.106488;0.681173;0.999998;0.000425;-0.002017;0.005061;-0.000739;0.005138;-0.002093;-84.099262;0.005167;
1306;1807;-0.076455;86.240515;1.000000;0.000173;-0.000530;0.001468;0.000061;0.001470;-0.000532;88.253990;0.001488;
1081;697;0.144747;0.830148;0.999996;0.000398;-0.002836;0.007000;0.000942;0.007089;-0.002925;84.579455;0.007125;
1056;702;0.229731;0.870588;0.999994;0.000646;-0.003128;0.007657;0.001501;0.007862;-0.003333;82.223159;0.007892;
1161;762;-0.162585;1.514198;0.999989;0.000919;-0.006302;0.015012;-0.000906;0.015050;-0.006340;-87.571124;0.015112;
1116;1307;0.520197;78.549794;0.999768;0.004550;-0.031399;0.072512;-0.001689;0.072539;-0.031427;-89.068956;0.072754;
1206;1312;-2.262684;78.778639;0.999806;0.006679;-0.031627;0.071621;0.007400;0.072149;-0.032155;85.921419;0.072291;
1126;357;0.000963;0.035562;1.000000;0.000059;-0.000106;0.001316;0.000015;0.001316;-0.000106;89.377008;0.001462;
1271;447;-0.063968;0.174369;1.000000;0.000182;-0.000477;0.001514;-0.000112;0.001520;-0.000483;-86.802738;0.001554;
1201;912;-1.712891;6.338275;0.999826;0.003532;-0.026594;0.059871;-0.006190;0.060312;-0.027035;-85.925783;0.060419;
1086;1712;0.038224;86.111065;1.000000;0.000113;-0.000783;0.001770;-0.000103;0.001774;-0.000787;-87.699734;0.001778;
1116;1892;0.001515;86.381527;1.000000;0.000192;-0.000089;0.001307;-0.000030;0.001308;-0.000090;-88.763622;0.001461;
1066;477;0.039408;0.212007;0.999999;0.000210;-0.000572;0.001584;0.000078;0.001587;-0.000575;87.921620;0.001607;
1086;697;0.130447;0.829638;0.999997;0.000439;-0.002813;0.006967;0.000849;0.007040;-0.002886;85.073516;0.007078;
1116;622;0.024822;0.507462;0.999997;0.000474;-0.001302;0.002928;0.000109;0.002931;-0.001305;88.531355;0.002937;
1086;727;0.195856;1.084029;0.999992;0.001020;-0.004154;0.010155;0.001192;0.010254;-0.004253;85.271375;0.010304;
1146;352;-0.001069;0.029182;1.000000;0.000051;-0.000087;0.001312;-0.000020;0.001312;-0.000088;-89.173857;0.001467;
1116;1312;0.498573;78.877925;0.999755;0.004892;-0.030186;0.069473;-0.001614;0.069499;-0.030212;-89.072214;0.069696;
1161;767;-0.172226;1.590488;0.999990;0.001009;-0.006669;0.015851;-0.000939;0.015890;-0.006708;-87.615729;0.015954;
1046;1317;2.574124;79.133783;0.999750;0.004037;-0.030607;0.069274;-0.009202;0.070115;-0.031447;-84.779775;0.070239;
1271;452;-0.066224;0.181440;1.000000;0.000209;-0.000484;0.001510;-0.000115;0.001517;-0.000491;-86.712083;0.001548;
1091;1712;0.034197;86.111096;1.000000;0.000103;-0.000793;0.001780;-0.000092;0.001783;-0.000796;-87.944187;0.001787;
1206;912;-1.852766;6.347578;0.999797;0.003768;-0.026756;0.060059;-0.006748;0.060580;-0.027277;-85.581829;0.060680;
1141;347;-0.000432;0.022628;1.000000;0.000058;-0.000068;0.001304;-0.000012;0.001304;-0.000068;-89.506178;0.001468;
1081;717;0.189861;0.989464;0.999995;0.000712;-0.003689;0.009013;0.001183;0.009122;-0.003799;84.722290;0.009165;
1226;717;-0.326683;0.994524;0.999988;0.000799;-0.003826;0.009232;-0.002086;0.009557;-0.004151;-81.139643;0.009584;
1221;1697;-0.075090;86.081502;1.000000;0.000134;-0.000719;0.001753;0.000186;0.001767;-0.000733;85.719336;0.001776;
1091;702;0.123397;0.864600;0.999996;0.000515;-0.002972;0.007412;0.000812;0.007475;-0.003035;85.557708;0.007519;
1051;1317;2.419310;79.138162;0.999808;0.003886;-0.030491;0.069009;-0.008569;0.069742;-0.031223;-85.113877;0.069869;
1246;707;-0.354551;0.913357;0.999987;0.001082;-0.003452;0.008361;-0.002296;0.008792;-0.003882;-79.379281;0.008812;
1276;442;-0.064923;0.166908;0.999999;0.000244;-0.000466;0.001502;-0.000107;0.001508;-0.000472;-86.888407;0.001543;
1076;372;0.009725;0.056262;1.000000;0.000057;-0.000173;0.001358;0.000104;0.001365;-0.000180;86.148415;0.001484;
1211;912;-1.988254;6.359349;0.999776;0.003629;-0.026868;0.060167;-0.007233;0.060764;-0.027465;-85.281724;0.060857;
1286;437;-0.066663;0.162529;1.000000;0.000190;-0.000454;0.001489;-0.000097;0.001494;-0.000459;-87.159728;0.001530;
1096;1712;0.029866;86.111394;1.000000;0.000103;-0.000801;0.001789;-0.000082;0.001792;-0.000804;-88.182423;0.001795;
1146;347;-0.000756;0.022653;1.000000;0.000054;-0.000068;0.001305;-0.000021;0.001305;-0.000068;-89.132803;0.001469;
1016;707;0.383471;0.919906;0.999992;0.000830;-0.003462;0.008451;0.002425;0.008925;-0.003937;78.925584;0.008946;
1081;722;0.201951;1.033577;0.999993;0.000947;-0.003934;0.009588;0.001253;0.009703;-0.004049;84.748891;0.009747;
1056;1317;2.270384;79.150301;0.999794;0.003563;-0.030388;0.068726;-0.007950;0.069360;-0.031022;-85.442836;0.069489;
1081;692;0.135448;0.800258;0.999997;0.000356;-0.002656;0.006551;0.000888;0.006636;-0.002740;84.539437;0.006669;
1121;762;0.086784;1.506116;0.999991;0.001162;-0.006346;0.015101;0.000476;0.015111;-0.006357;88.727965;0.015175;
1226;1697;-0.078453;86.081177;1.000000;0.000117;-0.000702;0.001736;0.000193;0.001751;-0.000717;85.506228;0.001760;
1221;477;-0.048675;0.213211;0.999999;0.000202;-0.000560;0.001582;-0.000102;0.001587;-0.000564;-87.284447;0.001609;
1111;392;0.005713;0.082847;1.000000;0.000048;-0.000244;0.001390;0.000039;0.001391;-0.000245;88.635768;0.001485;
1021;462;0.059032;0.193724;1.000000;0.000231;-0.000521;0.001551;0.000122;0.001558;-0.000528;86.647794;0.001585;
1171;912;-0.927086;6.298350;0.999825;0.003703;-0.025696;0.058486;-0.003183;0.058606;-0.025816;-87.837556;0.058744;
1086;1707;0.039467;86.101957;1.000000;0.000094;-0.000805;0.001806;-0.000110;0.001811;-0.000810;-87.600787;0.001814;
1066;397;0.018352;0.091364;1.000000;0.000051;-0.000283;0.001426;0.000112;0.001433;-0.000290;86.260649;0.001516;
1021;707;0.364424;0.917198;0.999992;0.000757;-0.003459;0.008420;0.002324;0.008858;-0.003897;79.316274;0.008880;
1066;707;0.213820;0.907462;0.999994;0.000704;-0.003300;0.008058;0.001381;0.008223;-0.003465;83.167407;0.008257;
1076;692;0.147618;0.799993;0.999997;0.000371;-0.002671;0.006591;0.000977;0.006693;-0.002772;84.044567;0.006725;
1011;707;0.398432;0.919898;0.999992;0.000867;-0.003469;0.008472;0.002527;0.008985;-0.003982;78.529117;0.009004;
1191;1347;-1.335056;80.884293;0.999819;0.003081;-0.022999;0.051850;0.004880;0.052166;-0.023315;86.285165;0.052264;
1121;347;0.000857;0.022717;1.000000;0.000078;-0.000066;0.001305;0.000025;0.001305;-0.000067;88.941786;0.001470;
1321;432;-0.079310;0.171562;0.999984;0.001032;-0.000495;0.001449;-0.000054;0.001450;-0.000496;-88.395948;0.001474;
1051;472;0.046304;0.205998;1.000000;0.000185;-0.000553;0.001575;0.000097;0.001580;-0.000558;87.395545;0.001602;
1186;1882;-0.006531;86.367789;1.000000;0.000147;-0.000130;0.001352;0.000096;0.001358;-0.000136;86.317956;0.001495;
1176;912;-1.054016;6.299877;0.999818;0.002927;-0.025786;0.058685;-0.003656;0.058843;-0.025944;-87.526468;0.058980;
1091;1707;0.035547;86.102037;1.000000;0.000107;-0.000817;0.001818;-0.000099;0.001822;-0.000820;-87.858649;0.001825;
1066;402;0.019794;0.098557;1.000000;0.000048;-0.000304;0.001440;0.000109;0.001447;-0.000310;86.439790;0.001524;
1021;712;0.388695;0.959050;0.999992;0.000952;-0.003694;0.008895;0.002440;0.009351;-0.004150;79.405500;0.009371;
1001;702;0.404504;0.876993;0.999992;0.000807;-0.003196;0.007995;0.002578;0.008560;-0.003761;77.629482;0.008581;
1061;707;0.230019;0.906973;0.999993;0.000736;-0.003318;0.008095;0.001486;0.008285;-0.003509;82.703788;0.008318;
1131;342;0.000266;0.016549;1.000000;0.000069;-0.000049;0.001293;0.000007;0.001293;-0.000049;89.686059;0.001466;
1071;692;0.161583;0.802274;0.999998;0.000445;-0.002683;0.006634;0.001069;0.006755;-0.002804;83.537094;0.006787;
1241;472;-0.057788;0.207244;0.999999;0.000195;-0.000549;0.001564;-0.000115;0.001570;-0.000555;-86.902710;0.001592;
1186;1322;-1.502205;79.504325;0.999759;0.004326;-0.028232;0.064185;0.004890;0.064443;-0.028490;86.979769;0.064587;
1056;472;0.043292;0.205523;1.000000;0.000182;-0.000557;0.001576;0.000089;0.001580;-0.000561;87.614395;0.001602;
1191;1882;-0.007206;86.367868;1.000000;0.000173;-0.000133;0.001353;0.000104;0.001361;-0.000141;86.006211;0.001496;
1096;1707;0.031126;86.102410;1.000000;0.000097;-0.000826;0.001829;-0.000088;0.001832;-0.000828;-88.113579;0.001835;
996;697;0.398203;0.831566;0.999551;0.006098;-0.003045;0.007532;0.002406;0.008054;-0.003566;77.768372;0.008071;
1146;917;-0.306545;6.550318;0.999806;0.004069;-0.026496;0.060379;-0.001055;0.060391;-0.026509;-89.304335;0.060541;
1136;342;-0.000112;0.016540;1.000000;0.000054;-0.000050;0.001293;-0.000002;0.001293;-0.000050;-89.902795;0.001466;
1191;1512;-0.252389;85.268252;0.999992;0.000627;-0.004483;0.010854;0.001479;0.010995;-0.004624;84.542564;0.011042;
1056;707;0.245993;0.907646;0.999991;0.000656;-0.003333;0.008134;0.001588;0.008350;-0.003549;82.258261;0.008381;
1096;707;0.116435;0.902350;0.999996;0.000468;-0.003143;0.007875;0.000755;0.007927;-0.003194;86.096767;0.007977;
1001;697;0.379289;0.837425;0.999991;0.000750;-0.003077;0.007571;0.002365;0.008072;-0.003579;78.025614;0.008090;
1141;342;-0.000321;0.016519;1.000000;0.000055;-0.000049;0.001294;-0.000012;0.001294;-0.000049;-89.499553;0.001466;
1196;1882;-0.007795;86.367799;1.000000;0.000173;-0.000137;0.001356;0.000113;0.001365;-0.000145;85.699365;0.001499;
1146;1327;-0.368607;79.843812;0.999822;0.003963;-0.026625;0.060937;0.001215;0.060954;-0.026642;89.204955;0.061114;
1131;507;0.002855;0.256448;0.999999;0.000227;-0.000707;0.001656;0.000007;0.001656;-0.000707;89.818146;0.001662;
1136;507;-0.000824;0.256271;0.999999;0.000228;-0.000705;0.001656;-0.000003;0.001656;-0.000705;-89.935511;0.001662;
1151;922;-0.452442;6.851252;0.999818;0.004421;-0.027630;0.063182;-0.001507;0.063207;-0.027655;-89.049370;0.063371;
1141;1807;-0.003356;86.262999;1.000000;0.000140;-0.000417;0.001494;0.000009;0.001494;-0.000417;89.720823;0.001542;
1111;762;0.149893;1.504104;0.999989;0.000862;-0.006334;0.015097;0.000794;0.015126;-0.006363;87.880148;0.015189;
1061;687;0.176088;0.767660;0.999997;0.000492;-0.002543;0.006310;0.001179;0.006464;-0.002698;82.545001;0.006493;
1096;712;0.126951;0.944678;0.999996;0.000482;-0.003363;0.008391;0.000795;0.008444;-0.003417;86.149798;0.008495;
1126;342;0.000309;0.016510;1.000000;0.000065;-0.000049;0.001293;0.000017;0.001293;-0.000049;89.285101;0.001466;
1021;1572;0.219582;85.739605;0.999995;0.000653;-0.002144;0.005534;-0.001563;0.005840;-0.002450;-78.921732;0.005865;
1041;1322;2.617674;79.440429;0.999752;0.004126;-0.029442;0.066287;-0.009576;0.067236;-0.030390;-84.343149;0.067339;
1116;762;0.117498;1.504884;0.999990;0.001157;-0.006342;0.015101;0.000636;0.015119;-0.006360;88.302116;0.015183;
1281;442;-0.066955;0.168545;0.999999;0.000244;-0.000463;0.001493;-0.000102;0.001498;-0.000468;-87.026933;0.001532;
1176;1867;-0.007593;86.347740;1.000000;0.000226;-0.000188;0.001367;0.000075;0.001371;-0.000192;87.263249;0.001485;
1221;482;-0.050239;0.220697;0.999999;0.000195;-0.000573;0.001589;-0.000101;0.001593;-0.000578;-87.337162;0.001613;
1156;922;-0.593642;6.854359;0.999819;0.003574;-0.027687;0.063316;-0.001950;0.063358;-0.027729;-88.773309;0.063522;
1146;1807;-0.005120;86.262939;1.000000;0.000159;-0.000417;0.001495;0.000016;0.001495;-0.000417;89.511443;0.001543;
1146;342;-0.000525;0.016493;1.000000;0.000052;-0.000048;0.001294;-0.000021;0.001294;-0.000049;-89.113432;0.001467;
1121;767;0.092045;1.583568;0.999988;0.001088;-0.006715;0.015879;0.000502;0.015891;-0.006726;88.726899;0.015953;
1081;687;0.125873;0.768448;0.999997;0.000349;-0.002484;0.006124;0.000837;0.006205;-0.002565;84.495986;0.006236;
1061;692;0.189188;0.801667;0.999997;0.000552;-0.002719;0.006724;0.001253;0.006887;-0.002882;82.570429;0.006918;
1041;1327;2.508953;79.727020;0.999805;0.003914;-0.028221;0.063331;-0.009355;0.064277;-0.029167;-84.224965;0.064369;
1006;707;0.416212;0.920357;0.999990;0.000725;-0.003465;0.008474;0.002631;0.009028;-0.004019;78.108172;0.009046;
1026;1542;0.312758;85.540963;0.999993;0.000709;-0.003126;0.007716;-0.002078;0.008101;-0.003511;-79.513227;0.008125;
1116;347;0.001213;0.022771;1.000000;0.000061;-0.000067;0.001306;0.000035;0.001307;-0.000068;88.546629;0.001472;
1286;442;-0.068889;0.170130;0.999999;0.000184;-0.000459;0.001485;-0.000096;0.001489;-0.000464;-87.176673;0.001524;
1176;1872;-0.006847;86.355232;1.000000;0.000189;-0.000168;0.001353;0.000076;0.001357;-0.000172;87.134668;0.001477;
1161;922;-0.728680;6.855170;0.999807;0.003493;-0.027770;0.063489;-0.002399;0.063552;-0.027833;-88.495065;0.063715;
981;442;0.069814;0.170910;1.000000;0.000163;-0.000458;0.001494;0.000096;0.001499;-0.000463;87.198603;0.001535;
1151;1807;-0.007388;86.262796;1.000000;0.000128;-0.000418;0.001495;0.000023;0.001496;-0.000418;89.304751;0.001543;
1081;752;0.299873;1.373780;0.999986;0.001065;-0.005684;0.013430;0.001661;0.013574;-0.005827;85.069410;0.013619;
1101;702;0.094765;0.863555;0.999997;0.000655;-0.002909;0.007358;0.000622;0.007395;-0.002946;86.543520;0.007446;
1066;692;0.175972;0.801335;0.999997;0.000575;-0.002701;0.006678;0.001161;0.006819;-0.002842;83.046994;0.006851;
1156;1312;-0.713131;78.927015;0.999793;0.003868;-0.030160;0.069194;0.002065;0.069237;-0.030203;88.809874;0.069425;
1176;747;-0.215263;1.308305;0.999989;0.000830;-0.005304;0.012808;-0.001260;0.012895;-0.005391;-86.038650;0.012953;
1116;352;0.001528;0.029171;1.000000;0.000052;-0.000086;0.001313;0.000034;0.001314;-0.000087;88.603601;0.001470;
1221;1552;-0.226293;85.609493;0.999994;0.000454;-0.002807;0.006887;0.001510;0.007116;-0.003037;81.347238;0.007142;
1291;442;-0.070731;0.171493;1.000000;0.000185;-0.000451;0.001477;-0.000086;0.001481;-0.000455;-87.447784;0.001517;
1176;1877;-0.006005;86.362325;1.000000;0.000185;-0.000148;0.001347;0.000077;0.001351;-0.000152;87.053101;0.001480;
1196;897;-1.395694;5.504464;0.999803;0.003512;-0.023240;0.052159;-0.005201;0.052516;-0.023597;-86.072492;0.052606;
986;442;0.067605;0.169442;1.000000;0.000183;-0.000462;0.001501;0.000106;0.001507;-0.000468;86.923290;0.001543;
1156;1797;-0.010508;86.248436;1.000000;0.000161;-0.000455;0.001512;0.000028;0.001512;-0.000455;89.182547;0.001552;
1251;707;-0.372644;0.914325;0.999987;0.000953;-0.003463;0.008381;-0.002397;0.008848;-0.003930;-78.980837;0.008867;
1096;682;0.084275;0.737772;0.999998;0.000488;-0.002248;0.005616;0.000558;0.005656;-0.002287;85.963852;0.005690;
1091;687;0.103100;0.769110;0.999998;0.000353;-0.002431;0.006052;0.000670;0.006104;-0.002484;85.510442;0.006140;
1161;1312;-0.868134;78.926337;0.999821;0.004545;-0.030212;0.069318;0.002530;0.069382;-0.030277;88.544949;0.069569;
1116;357;0.001950;0.035576;1.000000;0.000058;-0.000106;0.001318;0.000034;0.001319;-0.000107;88.651234;0.001465;
1086;752;0.270675;1.373296;0.999988;0.000966;-0.005659;0.013430;0.001502;0.013547;-0.005776;85.528483;0.013596;
1221;1557;-0.212078;85.640753;0.999995;0.000410;-0.002625;0.006510;0.001428;0.006727;-0.002843;81.321354;0.006754;
1046;472;0.048938;0.206577;0.999999;0.000224;-0.000554;0.001574;0.000104;0.001579;-0.000559;87.198626;0.001601;
991;442;0.065273;0.168335;1.000000;0.000216;-0.000463;0.001508;0.000112;0.001515;-0.000469;86.759730;0.001551;
1156;1802;-0.010156;86.255809;1.000000;0.000165;-0.000436;0.001505;0.000029;0.001505;-0.000437;89.138688;0.001549;
1236;712;-0.340915;0.954819;0.999989;0.000745;-0.003659;0.008805;-0.002208;0.009185;-0.004038;-80.245448;0.009207;
1101;682;0.072764;0.738167;0.999998;0.000417;-0.002232;0.005584;0.000484;0.005613;-0.002262;86.470843;0.005649;
981;1687;0.116164;86.069808;1.000000;0.000167;-0.000463;0.001523;-0.000301;0.001567;-0.000508;-81.573421;0.001599;
1111;917;0.621807;6.569103;0.999798;0.003699;-0.026428;0.060747;0.002007;0.060793;-0.026474;88.681796;0.060962;
1096;687;0.090936;0.768781;0.999998;0.000422;-0.002400;0.006018;0.000588;0.006059;-0.002441;86.020928;0.006096;
1121;342;0.000615;0.016458;1.000000;0.000064;-0.000047;0.001294;0.000027;0.001295;-0.000048;88.868633;0.001468;
1166;1312;-1.020368;78.916197;0.999783;0.004909;-0.030290;0.069473;0.002981;0.069562;-0.030379;88.289749;0.069748;
1321;427;-0.078429;0.158348;0.999983;0.000973;-0.000496;0.001448;-0.000045;0.001449;-0.000497;-88.680602;0.001472;
1146;772;-0.081631;1.666154;0.999990;0.001111;-0.007066;0.016704;-0.000410;0.016711;-0.007074;-89.012138;0.016776;
1226;1557;-0.223843;85.639670;0.999994;0.000463;-0.002652;0.006555;0.001523;0.006801;-0.002898;80.846998;0.006825;
1276;447;-0.066747;0.175141;1.000000;0.000171;-0.000474;0.001506;-0.000109;0.001511;-0.000480;-86.867844;0.001545;
1011;717;0.455349;1.006209;0.999988;0.001101;-0.003954;0.009418;0.002791;0.009977;-0.004514;78.670917;0.009992;
1156;1807;-0.009636;86.262414;1.000000;0.000117;-0.000418;0.001496;0.000030;0.001497;-0.000418;89.105228;0.001545;
1036;912;2.590189;6.398135;0.999716;0.004891;-0.027212;0.061419;0.009220;0.062368;-0.028161;84.123339;0.062466;
1106;682;0.062165;0.738702;0.999999;0.000272;-0.002225;0.005558;0.000409;0.005579;-0.002246;87.003182;0.005614;
986;1687;0.114431;86.069456;1.000000;0.000180;-0.000496;0.001543;-0.000299;0.001586;-0.000539;-81.838999;0.001613;
1041;1332;2.411295;80.034934;0.999822;0.003412;-0.027086;0.060368;-0.008939;0.061272;-0.027990;-84.223081;0.061349;
1101;687;0.077923;0.769103;0.999999;0.000360;-0.002380;0.005983;0.000509;0.006014;-0.002411;86.529858;0.006053;
1111;397;0.006217;0.089933;1.000000;0.000047;-0.000263;0.001402;0.000039;0.001403;-0.000264;88.665550;0.001491;
1151;772;-0.115532;1.662509;0.999989;0.001130;-0.007048;0.016694;-0.000602;0.016709;-0.007063;-88.548451;0.016775;
1261;457;-0.063197;0.187546;0.999999;0.000206;-0.000502;0.001523;-0.000119;0.001530;-0.000509;-86.658888;0.001558;
1001;707;0.429606;0.922307;0.999966;0.001544;-0.003435;0.008447;0.002725;0.009043;-0.004030;77.678869;0.009060;
1221;1547;-0.243306;85.571575;0.999993;0.000533;-0.002997;0.007296;0.001597;0.007539;-0.003239;81.380642;0.007563;
1041;912;2.445830;6.384167;0.999793;0.003499;-0.027222;0.061166;0.008787;0.062031;-0.028087;84.377231;0.062123;
1276;452;-0.068511;0.182377;1.000000;0.000154;-0.000480;0.001501;-0.000112;0.001508;-0.000487;-86.776547;0.001539;
1121;1892;0.000947;86.382316;1.000000;0.000157;-0.000087;0.001307;-0.000020;0.001307;-0.000087;-89.164307;0.001461;
1161;1787;-0.013972;86.232535;1.000000;0.000175;-0.000493;0.001532;0.000035;0.001532;-0.000494;89.007145;0.001564;
1106;687;0.066518;0.768373;0.999999;0.000342;-0.002372;0.005956;0.000430;0.005978;-0.002394;87.052859;0.006017;
1101;692;0.084277;0.799646;0.999998;0.000363;-0.002545;0.006413;0.000543;0.006446;-0.002578;86.542760;0.006489;
1211;1317;-2.319175;79.135655;0.999801;0.003683;-0.030350;0.068564;0.007917;0.069194;-0.030979;85.452437;0.069320;
1006;717;0.475055;1.007928;0.999988;0.000933;-0.003957;0.009415;0.002900;0.010017;-0.004559;78.274912;0.010030;
1241;1762;-0.063391;86.186965;1.000000;0.000148;-0.000573;0.001579;0.000121;0.001586;-0.000580;86.804584;0.001605;
1156;772;-0.148859;1.663266;0.999987;0.000864;-0.007043;0.016683;-0.000789;0.016709;-0.007069;-88.097230;0.016775;
1296;442;-0.072681;0.172832;0.999999;0.000212;-0.000463;0.001467;-0.000077;0.001470;-0.000466;-87.730275;0.001502;
1046;912;2.305095;6.382194;0.999786;0.003850;-0.027126;0.060888;0.008289;0.061661;-0.027900;84.666629;0.061754;
1021;1547;0.306838;85.578742;0.999993;0.000765;-0.002946;0.007324;-0.002055;0.007720;-0.003342;-79.093572;0.007743;
1126;1892;0.000522;86.382087;1.000000;0.000168;-0.000086;0.001306;-0.000011;0.001306;-0.000086;-89.552250;0.001461;
1106;692;0.071352;0.798908;0.999998;0.000403;-0.002534;0.006387;0.000460;0.006411;-0.002558;87.054528;0.006455;
1186;492;-0.031882;0.234126;0.999999;0.000257;-0.000616;0.001606;-0.000066;0.001608;-0.000618;-88.309459;0.001622;
1101;697;0.088580;0.829862;0.999998;0.000533;-0.002720;0.006878;0.000584;0.006914;-0.002756;86.530575;0.006961;
1186;1342;-1.275314;80.631889;0.999801;0.003477;-0.023843;0.053863;0.004522;0.054125;-0.024106;86.680354;0.054233;
1061;1737;0.048575;86.150659;1.000000;0.000138;-0.000648;0.001630;-0.000097;0.001635;-0.000652;-87.566895;0.001646;
1116;767;0.123571;1.582547;0.999987;0.001153;-0.006712;0.015873;0.000666;0.015892;-0.006732;88.312853;0.015954;
1011;712;0.426132;0.961721;0.999991;0.000873;-0.003712;0.008949;0.002655;0.009483;-0.004246;78.624460;0.009500;
1241;1767;-0.061514;86.194696;1.000000;0.000122;-0.000562;0.001574;0.000117;0.001580;-0.000568;86.879628;0.001601;
1181;497;-0.029728;0.240867;0.999999;0.000194;-0.000638;0.001615;-0.000064;0.001617;-0.000640;-88.373117;0.001629;
1066;407;0.020974;0.105841;1.000000;0.000049;-0.000324;0.001452;0.000106;0.001459;-0.000330;86.601572;0.001530;
1131;1892;0.000174;86.382139;1.000000;0.000155;-0.000086;0.001305;-0.000001;0.001305;-0.000086;-89.939267;0.001460;
1091;682;0.096122;0.738025;0.999998;0.000338;-0.002275;0.005650;0.000634;0.005700;-0.002325;85.454766;0.005732;
1081;362;0.006741;0.042499;1.000000;0.000051;-0.000131;0.001336;0.000097;0.001343;-0.000138;86.239149;0.001477;
1171;1322;-1.082467;79.522272;0.999809;0.003178;-0.027883;0.063840;0.003368;0.063964;-0.028006;87.899744;0.064128;
1211;572;-0.074694;0.373790;0.999998;0.000396;-0.000858;0.001982;-0.000228;0.002000;-0.000876;-85.448960;0.002005;
1091;697;0.116835;0.830857;0.999997;0.000541;-0.002778;0.006938;0.000759;0.006997;-0.002837;85.560664;0.007038;
1241;1772;-0.059503;86.202190;1.000000;0.000122;-0.000551;0.001570;0.000114;0.001576;-0.000557;86.926139;0.001599;
1131;587;0.004934;0.415069;0.999998;0.000316;-0.001119;0.002409;0.000013;0.002409;-0.001119;89.788408;0.002411;
1101;1312;0.959175;78.859291;0.999803;0.003813;-0.030522;0.069906;-0.003141;0.070004;-0.030620;-88.210523;0.070187;
1061;1742;0.047278;86.158977;1.000000;0.000136;-0.000635;0.001621;-0.000092;0.001625;-0.000639;-87.668453;0.001637;
1101;362;0.004236;0.042241;1.000000;0.000059;-0.000127;0.001327;0.000060;0.001330;-0.000130;87.641101;0.001467;
986;447;0.070022;0.177468;0.999999;0.000175;-0.000469;0.001498;0.000108;0.001504;-0.000475;86.868573;0.001538;
1291;1807;-0.069866;86.245720;0.999999;0.000202;-0.000452;0.001497;0.000083;0.001500;-0.000456;87.561017;0.001538;
1036;1332;2.552932;80.028913;0.999799;0.003503;-0.027168;0.060302;-0.009476;0.061317;-0.028183;-83.887234;0.061384;
1106;697;0.077498;0.829877;0.999998;0.000507;-0.002708;0.006855;0.000496;0.006880;-0.002734;87.039454;0.006928;
1061;697;0.202551;0.836225;0.999996;0.000619;-0.002912;0.007160;0.001323;0.007331;-0.003083;82.640607;0.007361;
1131;402;0.001033;0.096777;1.000000;0.000061;-0.000280;0.001412;0.000006;0.001412;-0.000280;89.793852;0.001495;
1186;577;-0.053365;0.387655;0.999998;0.000419;-0.000983;0.002184;-0.000178;0.002194;-0.000993;-86.794868;0.002197;
1106;362;0.003584;0.042278;1.000000;0.000054;-0.000126;0.001326;0.000051;0.001327;-0.000127;87.990357;0.001465;
1096;1312;1.113616;78.867323;0.999771;0.003962;-0.030620;0.070080;-0.003644;0.070211;-0.030751;-87.929980;0.070391;
991;447;0.068059;0.176346;0.999999;0.000227;-0.000470;0.001506;0.000114;0.001512;-0.000477;86.705042;0.001546;
1146;1812;-0.004884;86.270050;1.000000;0.000143;-0.000399;0.001484;0.000018;0.001484;-0.000399;89.441658;0.001536;
1121;1897;0.000706;86.387890;0.999999;0.000222;-0.000069;0.001297;-0.000018;0.001298;-0.000069;-89.225697;0.001460;
1021;1807;0.048540;86.256509;1.000000;0.000161;-0.000460;0.001516;-0.000124;0.001524;-0.000468;-86.412656;0.001561;
1241;547;-0.087423;0.329177;0.999997;0.000461;-0.000654;0.001667;-0.000220;0.001688;-0.000674;-84.624548;0.001700;
1086;682;0.106188;0.738657;0.999998;0.000314;-0.002306;0.005686;0.000711;0.005749;-0.002369;84.958932;0.005778;
1096;1337;0.903385;80.393574;0.999792;0.004193;-0.025077;0.056544;-0.003319;0.056679;-0.025212;-87.675631;0.056794;
1066;697;0.187718;0.834830;0.999996;0.000622;-0.002893;0.007118;0.001226;0.007266;-0.003041;83.117321;0.007298;
1136;402;-0.000339;0.096713;1.000000;0.000064;-0.000280;0.001412;-0.000002;0.001412;-0.000280;-89.942534;0.001495;
1086;357;0.005067;0.035882;1.000000;0.000060;-0.000110;0.001329;0.000089;0.001335;-0.000116;86.476546;0.001479;
1126;1897;0.000455;86.387909;0.999999;0.000197;-0.000069;0.001297;-0.000009;0.001297;-0.000069;-89.623121;0.001460;
996;437;0.060250;0.159244;1.000000;0.000179;-0.000453;0.001516;0.000115;0.001522;-0.000460;86.672735;0.001561;
1026;562;0.096222;0.356262;0.999998;0.000302;-0.000670;0.001738;0.000250;0.001764;-0.000696;84.124653;0.001777;
1151;1812;-0.007137;86.270308;1.000000;0.000135;-0.000399;0.001485;0.000025;0.001486;-0.000399;89.227441;0.001538;
1116;1297;0.558425;77.857612;0.999697;0.004366;-0.033966;0.078683;-0.001753;0.078710;-0.033994;-89.108592;0.078953;
1016;1807;0.050840;86.256014;1.000000;0.000147;-0.000460;0.001516;-0.000123;0.001523;-0.000467;-86.446717;0.001561;
1081;682;0.117193;0.737532;0.999998;0.000340;-0.002324;0.005727;0.000787;0.005803;-0.002400;84.467634;0.005832;
1116;342;0.000952;0.016428;1.000000;0.000062;-0.000048;0.001296;0.000036;0.001297;-0.000049;88.460148;0.001470;
976;547;0.117804;0.326890;0.999998;0.000394;-0.000480;0.001469;0.000293;0.001512;-0.000523;81.641867;0.001535;
1096;1342;0.864433;80.662732;0.999814;0.004207;-0.024064;0.054062;-0.003246;0.054196;-0.024198;-87.625207;0.054300;
1071;697;0.172479;0.834735;0.999996;0.000516;-0.002873;0.007078;0.001130;0.007205;-0.003000;83.605202;0.007239;
1091;357;0.004536;0.035807;1.000000;0.000061;-0.000110;0.001327;0.000080;0.001331;-0.000114;86.824643;0.001476;
1131;1897;0.000232;86.388148;1.000000;0.000136;-0.000068;0.001295;0.000000;0.001295;-0.000068;89.996472;0.001458;
996;442;0.062655;0.166668;1.000000;0.000214;-0.000463;0.001515;0.000114;0.001522;-0.000469;86.701272;0.001559;
1091;1312;1.266003;78.863441;0.999747;0.003910;-0.030658;0.070262;-0.004164;0.070434;-0.030829;-87.641463;0.070616;
1156;1812;-0.009134;86.270116;1.000000;0.000107;-0.000398;0.001486;0.000032;0.001487;-0.000399;89.034068;0.001539;
1026;567;0.098240;0.363864;0.999998;0.000303;-0.000678;0.001762;0.000265;0.001791;-0.000706;83.863957;0.001804;
1016;1812;0.048547;86.263858;1.000000;0.000163;-0.000446;0.001515;-0.000127;0.001523;-0.000454;-86.310233;0.001563;
1066;682;0.152211;0.736042;0.999997;0.000443;-0.002364;0.005870;0.001021;0.005995;-0.002489;83.035464;0.006024;
1081;357;0.005777;0.035931;1.000000;0.000067;-0.000112;0.001332;0.000098;0.001338;-0.000118;86.126381;0.001482;
1101;1337;0.774659;80.399958;0.999802;0.003354;-0.025013;0.056493;-0.002856;0.056593;-0.025113;-87.995698;0.056712;
1096;357;0.003950;0.035807;1.000000;0.000072;-0.000108;0.001325;0.000071;0.001328;-0.000112;87.184434;0.001473;
1076;697;0.158038;0.831695;0.999996;0.000431;-0.002855;0.007037;0.001034;0.007144;-0.002962;84.094462;0.007179;
1111;1892;0.002034;86.381948;1.000000;0.000199;-0.000090;0.001309;-0.000041;0.001311;-0.000092;-88.306531;0.001463;
1171;617;-0.044703;0.489077;0.999998;0.000291;-0.001231;0.002822;-0.000207;0.002832;-0.001241;-87.084633;0.002840;
996;447;0.065675;0.174999;0.999999;0.000258;-0.000471;0.001514;0.000116;0.001520;-0.000478;86.663791;0.001555;
1116;1292;0.594211;77.445001;0.999634;0.004597;-0.035296;0.082066;-0.001822;0.082094;-0.035324;-89.110942;0.082360;
1016;577;0.110839;0.380647;0.999998;0.000394;-0.000633;0.001776;0.000319;0.001818;-0.000675;82.574857;0.001838;
1086;1702;0.040728;86.092569;1.000000;0.000088;-0.000828;0.001846;-0.000116;0.001851;-0.000833;-87.510190;0.001854;
1111;357;0.002571;0.035718;1.000000;0.000053;-0.000106;0.001319;0.000043;0.001321;-0.000107;88.278011;0.001467;
1021;1812;0.046359;86.264201;1.000000;0.000134;-0.000445;0.001514;-0.000127;0.001522;-0.000454;-86.295887;0.001563;
1071;682;0.139902;0.736648;0.999997;0.000492;-0.002346;0.005820;0.000941;0.005927;-0.002453;83.512395;0.005956;
1061;1317;2.110879;79.168657;0.999785;0.003719;-0.030291;0.068443;-0.007336;0.068985;-0.030834;-85.773627;0.069115;
1136;1887;-0.000529;86.374935;1.000000;0.000166;-0.000104;0.001316;0.000007;0.001316;-0.000104;89.726638;0.001464;
1091;722;0.164478;1.032271;0.999994;0.000622;-0.003877;0.009538;0.001011;0.009614;-0.003953;85.714798;0.009664;
1061;397;0.019844;0.091379;1.000000;0.000063;-0.000286;0.001430;0.000119;0.001439;-0.000295;86.038440;0.001520;
1176;617;-0.050662;0.488047;0.999998;0.000381;-0.001215;0.002811;-0.000234;0.002825;-0.001228;-86.681425;0.002833;
981;447;0.072048;0.178703;0.999999;0.000198;-0.000464;0.001491;0.000098;0.001496;-0.000469;87.135880;0.001530;
1086;1312;1.419019;78.861588;0.999601;0.003756;-0.030734;0.070476;-0.004699;0.070694;-0.030952;-87.347376;0.070876;
1021;577;0.107541;0.381428;0.999999;0.000358;-0.000666;0.001808;0.000306;0.001846;-0.000703;83.048278;0.001863;
1091;1702;0.036731;86.092946;1.000000;0.000106;-0.000840;0.001860;-0.000105;0.001864;-0.000844;-87.783473;0.001867;
1071;377;0.011813;0.063146;1.000000;0.000063;-0.000197;0.001375;0.000112;0.001383;-0.000205;85.948540;0.001493;
1076;682;0.128427;0.737178;0.999998;0.000446;-0.002334;0.005771;0.000861;0.005861;-0.002425;84.004863;0.005890;
1186;1887;-0.005537;86.375447;1.000000;0.000145;-0.000109;0.001353;0.000097;0.001360;-0.000116;86.218751;0.001508;
1136;1892;-0.000054;86.381755;1.000000;0.000160;-0.000085;0.001305;0.000008;0.001305;-0.000085;89.688172;0.001461;
1066;1317;1.961941;79.175127;0.999766;0.004821;-0.030175;0.068299;-0.006733;0.068757;-0.030633;-86.106429;0.068893;
1086;692;0.123121;0.800064;0.999997;0.000382;-0.002635;0.006514;0.000799;0.006584;-0.002704;85.048951;0.006618;
1061;402;0.021299;0.098660;1.000000;0.000046;-0.000307;0.001444;0.000116;0.001452;-0.000315;86.225172;0.001528;
1211;637;-0.101607;0.535735;0.999997;0.000493;-0.001326;0.003346;-0.000583;0.003418;-0.001397;-82.989474;0.003437;
1076;1297;1.952298;77.778491;0.999630;0.005359;-0.035131;0.080877;-0.006325;0.081220;-0.035475;-86.888586;0.081437;
1246;472;-0.060548;0.208086;0.999999;0.000297;-0.000545;0.001558;-0.000119;0.001564;-0.000551;-86.759874;0.001587;
1026;572;0.100596;0.372085;0.999998;0.000315;-0.000687;0.001799;0.000281;0.001830;-0.000718;83.625524;0.001844;
1096;1702;0.032236;86.093195;1.000000;0.000104;-0.000850;0.001873;-0.000093;0.001876;-0.000853;-88.054962;0.001879;
1136;1897;-0.000042;86.388187;1.000000;0.000145;-0.000066;0.001296;0.000009;0.001296;-0.000066;89.606934;0.001460;
1191;1887;-0.006199;86.375517;1.000000;0.000174;-0.000112;0.001355;0.000105;0.001362;-0.000120;85.921652;0.001508;
1071;382;0.013250;0.069869;1.000000;0.000075;-0.000218;0.001388;0.000111;0.001395;-0.000225;86.077289;0.001498;
1101;677;0.068829;0.711148;0.999998;0.000420;-0.002101;0.005236;0.000459;0.005264;-0.002129;86.437260;0.005296;
1186;1347;-1.217577;80.885579;0.999816;0.003631;-0.022872;0.051720;0.004434;0.051983;-0.023135;86.610314;0.052088;
1091;692;0.110487;0.800100;0.999997;0.000421;-0.002599;0.006481;0.000711;0.006537;-0.002655;85.551848;0.006575;
1061;407;0.022610;0.105926;1.000000;0.000054;-0.000327;0.001456;0.000113;0.001463;-0.000334;86.400379;0.001533;
1211;642;-0.106360;0.553364;0.999998;0.000413;-0.001405;0.003544;-0.000636;0.003624;-0.001485;-82.791429;0.003644;
1116;1897;0.001179;86.388096;0.999999;0.000208;-0.000071;0.001298;-0.000029;0.001299;-0.000072;-88.783797;0.001460;
1101;1317;0.924230;79.199311;0.999789;0.004544;-0.029342;0.066841;-0.003059;0.066938;-0.029439;-88.180225;0.067100;
1196;1887;-0.006741;86.375487;1.000000;0.000191;-0.000116;0.001356;0.000113;0.001365;-0.000125;85.633470;0.001509;
1026;577;0.103582;0.381996;0.999998;0.000356;-0.000699;0.001843;0.000300;0.001878;-0.000734;83.366864;0.001893;
1101;1702;0.028147;86.093115;1.000000;0.000085;-0.000860;0.001883;-0.000081;0.001886;-0.000863;-88.308588;0.001888;
971;437;0.071841;0.167014;0.999999;0.000225;-0.000577;0.001504;0.000086;0.001508;-0.000580;87.649190;0.001521;
1071;387;0.014438;0.076883;1.000000;0.000065;-0.000238;0.001398;0.000109;0.001405;-0.000245;86.211422;0.001501;
1106;677;0.058212;0.712108;0.999999;0.000298;-0.002095;0.005212;0.000387;0.005232;-0.002116;86.973055;0.005264;
1176;1327;-1.176425;79.827877;0.999810;0.003761;-0.026770;0.061024;0.003824;0.061190;-0.026936;87.510724;0.061336;
1096;692;0.097352;0.799794;0.999998;0.000423;-0.002567;0.006447;0.000626;0.006491;-0.002610;86.044623;0.006532;
1121;422;0.004923;0.125469;1.000000;0.000065;-0.000359;0.001456;0.000019;0.001456;-0.000359;89.409770;0.001517;
1066;687;0.163759;0.767539;0.999998;0.000561;-0.002524;0.006261;0.001092;0.006394;-0.002658;83.016972;0.006425;
1211;647;-0.110926;0.570235;0.999997;0.000417;-0.001491;0.003754;-0.000693;0.003844;-0.001581;-82.602164;0.003864;
1106;1317;0.776512;79.203812;0.999780;0.005053;-0.029222;0.066688;-0.002544;0.066756;-0.029290;-88.481944;0.066922;
1306;1832;-0.063996;86.278242;0.999999;0.000219;-0.000491;0.001506;0.000084;0.001509;-0.000495;87.585356;0.001539;
1101;1707;0.027133;86.102647;1.000000;0.000084;-0.000834;0.001838;-0.000077;0.001840;-0.000837;-88.361393;0.001843;
1011;577;0.112567;0.379904;0.999998;0.000370;-0.000606;0.001744;0.000333;0.001790;-0.000652;82.082830;0.001812;
1091;412;0.014136;0.111617;1.000000;0.000054;-0.000328;0.001445;0.000066;0.001447;-0.000330;87.862024;0.001517;
1206;487;-0.043547;0.228076;1.000000;0.000270;-0.000589;0.001601;-0.000084;0.001604;-0.000592;-87.804716;0.001623;
1111;677;0.048453;0.710901;0.999999;0.000244;-0.002088;0.005190;0.000317;0.005203;-0.002102;87.513548;0.005235;
1096;697;0.102913;0.830373;0.999997;0.000530;-0.002744;0.006908;0.000671;0.006955;-0.002791;86.039564;0.007000;
1086;1617;0.060292;85.896451;0.999999;0.000280;-0.001274;0.002984;-0.000291;0.003003;-0.001294;-86.104256;0.003013;
1066;392;0.017033;0.084085;1.000000;0.000063;-0.000262;0.001412;0.000115;0.001420;-0.000270;86.102703;0.001508;
1071;687;0.150087;0.767463;0.999998;0.000492;-0.002506;0.006213;0.001006;0.006327;-0.002621;83.500862;0.006358;
1311;1812;-0.076430;86.246275;1.000000;0.000168;-0.000539;0.001455;0.000060;0.001457;-0.000541;88.268621;0.001473;
1191;577;-0.058705;0.386752;0.999998;0.000472;-0.000966;0.002160;-0.000192;0.002171;-0.000978;-86.505155;0.002175;
1111;1317;0.632681;79.213311;0.999839;0.004882;-0.029109;0.066556;-0.002043;0.066599;-0.029152;-88.777126;0.066771;
1081;1702;0.044700;86.092828;1.000000;0.000090;-0.000815;0.001831;-0.000127;0.001837;-0.000821;-87.258229;0.001841;
961;427;0.071997;0.155734;0.999999;0.000173;-0.000592;0.001514;0.000088;0.001517;-0.000595;87.601141;0.001529;
1111;682;0.051489;0.738011;0.999999;0.000245;-0.002217;0.005534;0.000334;0.005548;-0.002231;87.537390;0.005584;
1166;647;-0.046363;0.584133;0.999998;0.000602;-0.001505;0.003612;-0.000280;0.003628;-0.001520;-86.877759;0.003643;
1096;702;0.108527;0.864583;0.999997;0.000542;-0.002937;0.007385;0.000717;0.007434;-0.002986;86.043556;0.007482;
1181;382;-0.009564;0.069446;1.000000;0.000061;-0.000210;0.001377;-0.000080;0.001381;-0.000214;-87.136329;0.001486;
1246;1762;-0.066350;86.185963;1.000000;0.000159;-0.000570;0.001575;0.000126;0.001582;-0.000577;86.657708;0.001601;
1311;1817;-0.073412;86.254577;1.000000;0.000140;-0.000528;0.001467;0.000061;0.001469;-0.000530;88.252729;0.001488;
1176;387;-0.009422;0.076182;1.000000;0.000060;-0.000230;0.001386;-0.000070;0.001389;-0.000233;-87.534355;0.001488;
1076;687;0.137556;0.767439;0.999997;0.000417;-0.002496;0.006166;0.000919;0.006263;-0.002593;84.008958;0.006293;
1196;577;-0.063315;0.386401;0.999998;0.000485;-0.000946;0.002132;-0.000204;0.002145;-0.000960;-86.224193;0.002149;
1096;1317;1.076156;79.197685;0.999750;0.004642;-0.029432;0.066991;-0.003553;0.067122;-0.029563;-87.892584;0.067280;
961;432;0.074336;0.162735;1.000000;0.000158;-0.000615;0.001515;0.000084;0.001518;-0.000619;87.756688;0.001527;
1081;1707;0.043489;86.101946;1.000000;0.000102;-0.000793;0.001793;-0.000119;0.001799;-0.000798;-87.365201;0.001803;
1111;687;0.055310;0.767387;0.999998;0.000352;-0.002363;0.005931;0.000353;0.005946;-0.002378;87.565298;0.005986;
1166;652;-0.048254;0.601121;0.999998;0.000490;-0.001573;0.003822;-0.000302;0.003839;-0.001589;-86.805768;0.003858;
1181;387;-0.010569;0.076287;1.000000;0.000061;-0.000230;0.001389;-0.000078;0.001392;-0.000234;-87.244834;0.001491;
1101;672;0.065366;0.687160;0.999999;0.000403;-0.001979;0.004929;0.000429;0.004955;-0.002006;86.456082;0.004985;
1311;1822;-0.070635;86.260176;1.000000;0.000174;-0.000521;0.001479;0.000066;0.001482;-0.000523;88.112596;0.001503;
1246;1767;-0.064374;86.193432;1.000000;0.000126;-0.000559;0.001569;0.000121;0.001576;-0.000566;86.751116;0.001597;
1176;392;-0.010051;0.083126;1.000000;0.000056;-0.000250;0.001396;-0.000068;0.001398;-0.000253;-87.649427;0.001490;
1086;687;0.114188;0.769284;0.999998;0.000335;-0.002466;0.006086;0.000753;0.006152;-0.002531;85.002929;0.006184;
1116;1317;0.471045;79.221119;0.999812;0.004931;-0.029026;0.066467;-0.001554;0.066492;-0.029051;-89.068015;0.066669;
1016;582;0.112933;0.388879;0.999998;0.000421;-0.000647;0.001804;0.000345;0.001851;-0.000694;82.143045;0.001870;
1196;492;-0.038114;0.235068;0.999999;0.000221;-0.000608;0.001607;-0.000076;0.001610;-0.000610;-88.030310;0.001625;
1111;692;0.060031;0.797213;0.999998;0.000494;-0.002525;0.006366;0.000380;0.006383;-0.002541;87.556691;0.006426;
1081;1712;0.042038;86.111083;1.000000;0.000123;-0.000771;0.001760;-0.000112;0.001765;-0.000776;-87.471694;0.001769;
1316;1812;-0.078546;86.243820;1.000000;0.000200;-0.000570;0.001438;0.000055;0.001439;-0.000572;88.430237;0.001450;
1181;392;-0.011393;0.083301;1.000000;0.000061;-0.000251;0.001398;-0.000076;0.001402;-0.000254;-87.372223;0.001494;
971;537;0.115910;0.309772;0.999998;0.000384;-0.000532;0.001420;0.000268;0.001456;-0.000568;82.328284;0.001467;
1116;687;0.044471;0.766510;0.999999;0.000353;-0.002358;0.005913;0.000277;0.005923;-0.002368;88.084441;0.005962;
1246;1772;-0.062081;86.201094;1.000000;0.000108;-0.000549;0.001566;0.000118;0.001573;-0.000556;86.816685;0.001595;
1096;667;0.071489;0.666787;0.999998;0.000344;-0.001872;0.004656;0.000459;0.004688;-0.001904;85.999190;0.004715;
1096;407;0.011663;0.104258;1.000000;0.000049;-0.000307;0.001433;0.000060;0.001435;-0.000309;88.016892;0.001511;
1091;1317;1.221729;79.198750;0.999769;0.004104;-0.029467;0.067155;-0.004072;0.067326;-0.029639;-87.591261;0.067486;
1186;907;-1.262213;6.030897;0.999815;0.003669;-0.025026;0.056453;-0.004520;0.056703;-0.025276;-86.834514;0.056814;
1086;677;0.099406;0.710933;0.999998;0.000410;-0.002162;0.005340;0.000671;0.005400;-0.002221;84.932092;0.005428;
1021;1552;0.287415;85.615943;0.999994;0.000809;-0.002775;0.006949;-0.001946;0.007324;-0.003150;-79.094273;0.007348;
1201;492;-0.041440;0.235694;1.000000;0.000202;-0.000604;0.001608;-0.000082;0.001611;-0.000607;-87.877916;0.001627;
1191;492;-0.035027;0.234966;0.999999;0.000246;-0.000611;0.001606;-0.000071;0.001609;-0.000613;-88.163749;0.001624;
1116;692;0.047983;0.796480;0.999998;0.000399;-0.002519;0.006351;0.000301;0.006361;-0.002529;88.059146;0.006406;
1171;622;-0.045919;0.503854;0.999998;0.000302;-0.001264;0.002914;-0.000222;0.002926;-0.001276;-86.963955;0.002934;
1111;1802;0.009674;86.255906;1.000000;0.000112;-0.000439;0.001502;-0.000029;0.001503;-0.000440;-89.141226;0.001545;
1096;412;0.012526;0.111491;1.000000;0.000061;-0.000326;0.001442;0.000059;0.001444;-0.000328;88.104416;0.001514;
1161;772;-0.183883;1.667257;0.999987;0.001070;-0.007041;0.016676;-0.000984;0.016717;-0.007082;-87.627354;0.016782;
1091;677;0.088974;0.710590;0.999998;0.000376;-0.002135;0.005302;0.000599;0.005350;-0.002183;85.423350;0.005380;
1121;1302;0.369071;78.227816;0.999700;0.003795;-0.032557;0.075491;-0.001262;0.075506;-0.032571;-89.330969;0.075743;
1181;912;-1.183989;6.309421;0.999805;0.003362;-0.025920;0.058909;-0.004140;0.059111;-0.026122;-87.212345;0.059243;
1266;457;-0.065996;0.188216;1.000000;0.000233;-0.000498;0.001516;-0.000118;0.001523;-0.000505;-86.650325;0.001552;
1021;1557;0.269887;85.646545;0.999994;0.000876;-0.002604;0.006558;-0.001854;0.006918;-0.002965;-78.983175;0.006942;
1076;362;0.007408;0.042671;1.000000;0.000056;-0.000133;0.001339;0.000106;0.001347;-0.000140;85.904061;0.001481;
1096;672;0.075096;0.687560;0.999998;0.000356;-0.001989;0.004959;0.000493;0.004994;-0.002023;85.962549;0.005024;
1091;1697;0.037673;86.083531;1.000000;0.000115;-0.000863;0.001908;-0.000110;0.001912;-0.000867;-87.731755;0.001915;
1176;622;-0.051834;0.502588;0.999998;0.000403;-0.001249;0.002907;-0.000250;0.002922;-0.001264;-86.568259;0.002931;
1096;417;0.013296;0.118638;1.000000;0.000069;-0.000345;0.001452;0.000057;0.001454;-0.000347;88.190775;0.001519;
1106;757;0.171928;1.431611;0.999991;0.000918;-0.005975;0.014283;0.000919;0.014325;-0.006017;87.407952;0.014386;
1096;677;0.079365;0.709790;0.999998;0.000442;-0.002113;0.005267;0.000527;0.005305;-0.002150;85.932667;0.005336;
1121;1307;0.360663;78.547679;0.999772;0.003993;-0.031310;0.072404;-0.001219;0.072418;-0.031324;-89.326563;0.072637;
1021;1567;0.234490;85.708412;0.999994;0.000572;-0.002286;0.005871;-0.001665;0.006198;-0.002613;-78.898933;0.006223;
1271;457;-0.067960;0.188646;0.999999;0.000216;-0.000491;0.001509;-0.000118;0.001516;-0.000498;-86.642389;0.001545;
1196;902;-1.458886;5.761862;0.999815;0.003174;-0.024237;0.054389;-0.005347;0.054751;-0.024599;-86.127483;0.054845;
1076;367;0.008607;0.049480;1.000000;0.000058;-0.000153;0.001346;0.000104;0.001353;-0.000161;86.031509;0.001478;
1121;692;0.035210;0.796572;0.999999;0.000348;-0.002518;0.006340;0.000223;0.006346;-0.002524;88.560149;0.006390;
1086;672;0.094906;0.687177;0.999999;0.000537;-0.002027;0.005029;0.000627;0.005085;-0.002082;84.964767;0.005112;
1096;1697;0.033067;86.083453;1.000000;0.000125;-0.000875;0.001922;-0.000097;0.001925;-0.000878;-88.013041;0.001928;
1096;422;0.013895;0.125995;1.000000;0.000066;-0.000365;0.001465;0.000055;0.001467;-0.000367;88.287793;0.001526;
1081;642;0.076822;0.562704;0.999997;0.000354;-0.001443;0.003523;0.000433;0.003561;-0.001481;85.053351;0.003577;
1111;697;0.063752;0.829106;0.999998;0.000465;-0.002699;0.006835;0.000411;0.006853;-0.002716;87.538582;0.006902;
1171;752;-0.204597;1.370433;0.999990;0.000956;-0.005603;0.013524;-0.001163;0.013594;-0.005673;-86.533449;0.013656;
1121;1312;0.336935;78.884201;0.999784;0.003815;-0.030102;0.069356;-0.001145;0.069369;-0.030115;-89.340666;0.069570;
1021;1562;0.251921;85.677118;0.999994;0.000677;-0.002446;0.006218;-0.001758;0.006561;-0.002789;-78.956043;0.006585;
1196;907;-1.513570;6.038185;0.999832;0.003140;-0.025280;0.056883;-0.005505;0.057250;-0.025647;-86.183935;0.057353;
1206;492;-0.044629;0.235620;1.000000;0.000215;-0.000603;0.001608;-0.000087;0.001612;-0.000606;-87.743659;0.001628;
1076;412;0.019118;0.112156;1.000000;0.000070;-0.000335;0.001454;0.000089;0.001458;-0.000339;87.172921;0.001526;
1081;667;0.098838;0.663078;0.999999;0.000451;-0.001913;0.004751;0.000646;0.004813;-0.001975;84.510573;0.004839;
1091;672;0.084457;0.686968;0.999998;0.000437;-0.002006;0.004993;0.000560;0.005037;-0.002051;85.453761;0.005066;
1101;1697;0.028785;86.083448;1.000000;0.000106;-0.000886;0.001933;-0.000085;0.001935;-0.000889;-88.275772;0.001938;
1101;357;0.003526;0.035709;1.000000;0.000065;-0.000108;0.001323;0.000061;0.001325;-0.000110;87.553269;0.001471;
1026;552;0.091649;0.338148;0.999998;0.000404;-0.000657;0.001696;0.000224;0.001718;-0.000678;84.618558;0.001730;
1081;677;0.110076;0.709756;0.999998;0.000419;-0.002176;0.005381;0.000741;0.005453;-0.002248;84.452022;0.005481;
1121;1317;0.322009;79.224058;0.999805;0.004223;-0.028944;0.066382;-0.001082;0.066395;-0.028957;-89.349724;0.066575;
1011;1552;0.315550;85.615282;0.999992;0.000744;-0.002793;0.006979;-0.002091;0.007407;-0.003221;-78.414930;0.007428;
1241;712;-0.359047;0.955204;0.999988;0.000888;-0.003668;0.008824;-0.002316;0.009239;-0.004083;-79.829737;0.009260;
1196;912;-1.578900;6.333534;0.999836;0.003314;-0.026380;0.059607;-0.005684;0.059981;-0.026754;-86.234621;0.060098;
1081;412;0.017482;0.111972;1.000000;0.000068;-0.000332;0.001451;0.000082;0.001454;-0.000336;87.378454;0.001523;
1211;487;-0.046060;0.228644;0.999999;0.000197;-0.000589;0.001601;-0.000090;0.001605;-0.000593;-87.647531;0.001623;
1076;672;0.113800;0.685110;0.999998;0.000384;-0.002044;0.005104;0.000756;0.005183;-0.002123;84.023908;0.005211;
1086;1697;0.042138;86.083370;1.000000;0.000106;-0.000850;0.001892;-0.000122;0.001897;-0.000856;-87.447878;0.001900;
1126;667;0.017116;0.665985;0.999999;0.000358;-0.001857;0.004542;0.000101;0.004544;-0.001859;89.099180;0.004569;
1106;357;0.003031;0.035669;1.000000;0.000050;-0.000106;0.001321;0.000052;0.001323;-0.000108;87.911359;0.001469;
1021;582;0.109720;0.390198;0.999998;0.000347;-0.000679;0.001838;0.000331;0.001881;-0.000722;82.630364;0.001898;
1106;702;0.082349;0.863098;0.999998;0.000519;-0.002894;0.007333;0.000527;0.007360;-0.002921;87.059222;0.007412;
1086;1317;1.370476;79.200938;0.999775;0.003451;-0.029531;0.067339;-0.004611;0.067558;-0.029749;-87.281160;0.067718;
1201;657;-0.106288;0.612463;0.999998;0.000494;-0.001675;0.004232;-0.000697;0.004313;-0.001756;-83.357140;0.004337;
1231;907;-2.431205;6.077701;0.999821;0.003824;-0.026163;0.058461;-0.008983;0.059404;-0.027106;-84.006746;0.059479;
1091;757;0.259610;1.439546;0.999985;0.000978;-0.005989;0.014209;0.001388;0.014304;-0.006084;86.086845;0.014357;
1211;492;-0.047274;0.235752;0.999999;0.000210;-0.000603;0.001608;-0.000094;0.001612;-0.000607;-87.581405;0.001628;
1086;412;0.015709;0.111777;1.000000;0.000055;-0.000330;0.001448;0.000074;0.001451;-0.000333;87.609538;0.001520;
1111;667;0.043683;0.666260;0.999999;0.000291;-0.001859;0.004589;0.000279;0.004601;-0.001871;87.523373;0.004627;
1126;672;0.017790;0.687751;0.999999;0.000299;-0.001965;0.004841;0.000106;0.004843;-0.001966;89.104649;0.004871;
1186;382;-0.010670;0.069535;1.000000;0.000047;-0.000211;0.001380;-0.000088;0.001384;-0.000216;-86.838999;0.001490;
1146;1817;-0.004739;86.277818;1.000000;0.000166;-0.000380;0.001472;0.000018;0.001472;-0.000380;89.428182;0.001529;
1316;1817;-0.076126;86.251645;1.000000;0.000195;-0.000557;0.001455;0.000055;0.001456;-0.000558;88.433988;0.001469;
1106;672;0.055515;0.687540;0.999999;0.000382;-0.001976;0.004906;0.000365;0.004925;-0.001995;86.973827;0.004954;
1026;582;0.105891;0.391011;0.999998;0.000410;-0.000713;0.001876;0.000324;0.001916;-0.000753;82.970526;0.001930;
1121;1297;0.387665;77.860140;0.999659;0.004276;-0.033849;0.078629;-0.001240;0.078643;-0.033862;-89.368351;0.078895;
1201;662;-0.113077;0.635194;0.999998;0.000527;-0.001789;0.004510;-0.000755;0.004599;-0.001879;-83.256342;0.004624;
1096;757;0.231627;1.438750;0.999989;0.000850;-0.005983;0.014230;0.001226;0.014304;-0.006057;86.541298;0.014360;
1106;912;0.728749;6.299378;0.999799;0.003735;-0.025501;0.058266;0.002437;0.058337;-0.025572;88.335036;0.058485;
1116;667;0.034990;0.666052;0.999999;0.000241;-0.001856;0.004569;0.000219;0.004577;-0.001864;88.049120;0.004603;
1186;387;-0.011659;0.076443;1.000000;0.000051;-0.000232;0.001391;-0.000087;0.001396;-0.000236;-86.956787;0.001494;
1126;677;0.018960;0.713035;0.999999;0.000254;-0.002083;0.005149;0.000113;0.005151;-0.002085;89.109029;0.005182;
1131;512;0.002711;0.264597;0.999999;0.000232;-0.000733;0.001676;0.000007;0.001676;-0.000733;89.838425;0.001680;
1316;1822;-0.073035;86.257956;1.000000;0.000209;-0.000549;0.001468;0.000061;0.001470;-0.000550;88.270468;0.001486;
1151;1817;-0.006945;86.277863;1.000000;0.000149;-0.000380;0.001473;0.000026;0.001474;-0.000380;89.198285;0.001530;
1091;1342;0.982248;80.657657;0.999832;0.004197;-0.024117;0.054146;-0.003717;0.054323;-0.024294;-87.286814;0.054423;
1111;672;0.045869;0.687380;0.999999;0.000280;-0.001970;0.004884;0.000299;0.004897;-0.001983;87.509998;0.004926;
1031;567;0.095249;0.363749;0.999998;0.000407;-0.000706;0.001791;0.000262;0.001818;-0.000733;84.077683;0.001829;
1106;1322;0.748248;79.546098;0.999784;0.004675;-0.028105;0.063792;-0.002488;0.063859;-0.028173;-88.450408;0.064006;
1166;622;-0.039650;0.504921;0.999998;0.000330;-0.001273;0.002921;-0.000194;0.002930;-0.001282;-87.361046;0.002938;
1101;757;0.203887;1.434368;0.999990;0.000913;-0.005982;0.014257;0.001073;0.014314;-0.006039;86.974621;0.014372;
1101;907;0.824775;6.022498;0.999820;0.003491;-0.024609;0.055817;0.002852;0.055918;-0.024710;87.971362;0.056044;
1121;667;0.026225;0.665850;0.999999;0.000313;-0.001857;0.004554;0.000160;0.004558;-0.001861;88.574346;0.004583;
1311;1807;-0.078736;86.238339;0.999999;0.000222;-0.000547;0.001456;0.000056;0.001458;-0.000548;88.403057;0.001472;
1111;662;0.041463;0.644958;0.999999;0.000380;-0.001758;0.004310;0.000256;0.004321;-0.001768;87.584287;0.004344;
1311;437;-0.077265;0.170627;0.999999;0.000199;-0.000462;0.001448;-0.000070;0.001450;-0.000465;-87.901506;0.001481;
1156;1817;-0.008722;86.277689;1.000000;0.000114;-0.000379;0.001474;0.000033;0.001475;-0.000380;88.992577;0.001532;
1116;672;0.037034;0.687393;0.999999;0.000224;-0.001966;0.004865;0.000233;0.004873;-0.001974;88.047597;0.004902;
1031;572;0.097751;0.372491;0.999998;0.000391;-0.000718;0.001831;0.000276;0.001861;-0.000748;83.897408;0.001872;
1171;1312;-1.168434;78.904923;0.999720;0.004271;-0.030380;0.069642;0.003470;0.069762;-0.030500;88.015356;0.069946;
1111;1322;0.600187;79.555836;0.999828;0.004322;-0.027997;0.063697;-0.001992;0.063740;-0.028041;-88.756235;0.063893;
1141;642;-0.008582;0.570910;0.999998;0.000401;-0.001482;0.003441;-0.000060;0.003442;-0.001483;-89.306247;0.003453;
1316;1807;-0.080756;86.236120;1.000000;0.000233;-0.000579;0.001442;0.000048;0.001443;-0.000580;88.645658;0.001452;
1171;757;-0.217956;1.437794;0.999989;0.001092;-0.005929;0.014218;-0.001216;0.014291;-0.006002;-86.559732;0.014352;
1191;902;-1.337418;5.762639;0.999807;0.002959;-0.024120;0.054181;-0.004872;0.054483;-0.024422;-86.453057;0.054580;
1121;672;0.027852;0.687239;0.999999;0.000278;-0.001965;0.004851;0.000169;0.004856;-0.001969;88.577894;0.004884;
1116;662;0.033098;0.645427;0.999999;0.000338;-0.001758;0.004291;0.000200;0.004298;-0.001764;88.110739;0.004321;
1106;1697;0.024334;86.083552;1.000000;0.000099;-0.000896;0.001941;-0.000072;0.001943;-0.000897;-88.540124;0.001945;
1116;677;0.039189;0.712177;0.999999;0.000215;-0.002084;0.005171;0.000246;0.005180;-0.002092;88.058988;0.005211;
1031;577;0.100478;0.382368;0.999998;0.000409;-0.000732;0.001879;0.000292;0.001912;-0.000764;83.687407;0.001924;
1071;497;0.040967;0.243842;0.999999;0.000197;-0.000637;0.001620;0.000081;0.001623;-0.000640;87.951877;0.001635;
1171;1317;-1.122031;79.225981;0.999789;0.003522;-0.029101;0.066734;0.003383;0.066854;-0.029220;87.981097;0.067030;
1116;1322;0.450733;79.560982;0.999817;0.004748;-0.027912;0.063647;-0.001509;0.063672;-0.027937;-89.055951;0.063831;
1151;637;-0.022082;0.553256;0.999997;0.000510;-0.001429;0.003292;-0.000129;0.003296;-0.001433;-88.440837;0.003305;
1101;762;0.215420;1.504291;0.999989;0.000861;-0.006348;0.015069;0.001112;0.015127;-0.006406;87.036346;0.015186;
1191;907;-1.391407;6.038766;0.999824;0.003664;-0.025146;0.056657;-0.005007;0.056962;-0.025451;-86.510662;0.057070;
1136;1882;-0.000513;86.368352;1.000000;0.000175;-0.000123;0.001326;0.000008;0.001326;-0.000123;89.694084;0.001465;
1121;677;0.029298;0.712636;0.999999;0.000263;-0.002083;0.005158;0.000178;0.005162;-0.002087;88.591459;0.005194;
1121;662;0.024593;0.645643;0.999999;0.000337;-0.001761;0.004277;0.000144;0.004280;-0.001765;88.632715;0.004302;
1106;1702;0.023737;86.093280;1.000000;0.000101;-0.000869;0.001891;-0.000069;0.001892;-0.000870;-88.560054;0.001895;
1116;682;0.041682;0.738286;0.999999;0.000264;-0.002213;0.005516;0.000260;0.005524;-0.002221;88.078009;0.005559;
1216;1317;-2.463370;79.118034;0.999771;0.003558;-0.030467;0.068853;0.008546;0.069583;-0.031197;85.117857;0.069707;
1121;1322;0.308351;79.563519;0.999810;0.003850;-0.027832;0.063611;-0.001037;0.063623;-0.027843;-89.350645;0.063787;
1031;582;0.102311;0.392019;0.999997;0.000449;-0.000746;0.001914;0.000315;0.001951;-0.000783;83.344440;0.001963;
1001;452;0.065651;0.181450;1.000000;0.000177;-0.000488;0.001521;0.000121;0.001528;-0.000495;86.575933;0.001559;
1096;1902;0.001988;86.394722;0.999999;0.000230;-0.000049;0.001319;-0.000073;0.001323;-0.000052;-86.970990;0.001498;
1216;912;-2.123208;6.365138;0.999758;0.003378;-0.026964;0.060336;-0.007774;0.061023;-0.027651;-84.950673;0.061112;
1056;572;0.077441;0.375172;0.999998;0.000341;-0.000854;0.001991;0.000237;0.002011;-0.000874;85.265093;0.002017;
1106;762;0.182485;1.502418;0.999991;0.000716;-0.006340;0.015087;0.000955;0.015130;-0.006382;87.454408;0.015191;
1121;682;0.031461;0.738970;0.999999;0.000286;-0.002213;0.005502;0.000188;0.005507;-0.002217;88.604786;0.005541;
1126;682;0.020272;0.739587;0.999999;0.000269;-0.002215;0.005494;0.000118;0.005496;-0.002217;89.120193;0.005530;
1081;1697;0.046165;86.083367;1.000000;0.000105;-0.000836;0.001875;-0.000134;0.001881;-0.000843;-87.182211;0.001884;
1131;682;0.008858;0.739835;0.999999;0.000295;-0.002223;0.005490;0.000049;0.005490;-0.002223;89.639620;0.005523;
1126;1312;0.190196;78.888422;0.999796;0.002991;-0.030041;0.069252;-0.000673;0.069257;-0.030046;-89.611905;0.069458;
1086;1327;1.262284;79.825262;0.999808;0.004573;-0.027250;0.061637;-0.004428;0.061857;-0.027470;-87.155099;0.061986;
1066;657;0.111762;0.613675;0.999998;0.000376;-0.001704;0.004282;0.000723;0.004368;-0.001790;83.213772;0.004391;
1101;1902;0.001879;86.394932;0.999999;0.000200;-0.000052;0.001312;-0.000063;0.001315;-0.000055;-87.356629;0.001487;
1016;457;0.059704;0.187054;0.999999;0.000210;-0.000506;0.001544;0.000124;0.001552;-0.000514;86.544836;0.001581;
1221;912;-2.258948;6.370837;0.999752;0.004129;-0.027080;0.060494;-0.008305;0.061275;-0.027861;-84.630380;0.061358;
1256;707;-0.387120;0.915358;0.999987;0.000879;-0.003464;0.008388;-0.002496;0.008893;-0.003968;-78.578918;0.008910;
1061;572;0.073307;0.376026;0.999998;0.000286;-0.000876;0.002021;0.000229;0.002039;-0.000894;85.498482;0.002044;
1106;667;0.052661;0.666487;0.999999;0.000441;-0.001862;0.004609;0.000340;0.004627;-0.001880;86.999162;0.004654;
1126;687;0.021786;0.767695;0.999999;0.000299;-0.002361;0.005893;0.000128;0.005895;-0.002363;89.111936;0.005934;
1106;1902;0.002150;86.394705;0.999999;0.000255;-0.000053;0.001309;-0.000053;0.001311;-0.000055;-87.784690;0.001483;
1131;687;0.010357;0.768247;0.999999;0.000263;-0.002371;0.005891;0.000052;0.005891;-0.002372;89.636506;0.005928;
1116;1802;0.007379;86.256041;1.000000;0.000131;-0.000437;0.001502;-0.000023;0.001502;-0.000437;-89.334505;0.001545;
1126;1317;0.176282;79.226448;0.999828;0.003069;-0.028893;0.066314;-0.000622;0.066318;-0.028897;-89.625587;0.066500;
1316;437;-0.079071;0.172963;0.999999;0.000221;-0.000469;0.001438;-0.000066;0.001440;-0.000471;-88.016989;0.001469;
1086;1332;1.206331;80.102268;0.999816;0.004637;-0.026152;0.059181;-0.004361;0.059403;-0.026375;-87.081764;0.059527;
1066;662;0.118456;0.635917;0.999998;0.000372;-0.001811;0.004552;0.000778;0.004646;-0.001905;83.132762;0.004671;
1101;912;0.857395;6.305052;0.999815;0.003189;-0.025643;0.058402;0.002898;0.058502;-0.025742;88.027409;0.058642;
1101;667;0.061876;0.666132;0.999999;0.000364;-0.001864;0.004630;0.000400;0.004654;-0.001889;86.490990;0.004682;
1066;572;0.069500;0.375671;0.999998;0.000377;-0.000892;0.002050;0.000219;0.002066;-0.000908;85.771002;0.002071;
1106;662;0.049693;0.644746;0.999998;0.000418;-0.001759;0.004327;0.000314;0.004343;-0.001775;87.058198;0.004367;
1021;467;0.061404;0.201099;0.999999;0.000233;-0.000532;0.001550;0.000123;0.001557;-0.000539;86.636359;0.001581;
1321;437;-0.081627;0.176478;0.999979;0.001506;-0.000477;0.001427;-0.000061;0.001429;-0.000479;-88.168317;0.001455;
1131;692;0.010748;0.797195;0.999999;0.000292;-0.002533;0.006334;0.000062;0.006334;-0.002533;89.601680;0.006376;
1121;1802;0.005301;86.256127;1.000000;0.000124;-0.000435;0.001501;-0.000016;0.001501;-0.000435;-89.529486;0.001545;
1086;1337;1.157842;80.378239;0.999811;0.003996;-0.025105;0.056684;-0.004293;0.056908;-0.025329;-87.003628;0.057023;
1271;1857;-0.034780;86.327189;0.999999;0.000220;-0.000334;0.001510;0.000193;0.001530;-0.000354;84.078846;0.001601;
1126;662;0.016027;0.645688;0.999999;0.000354;-0.001763;0.004266;0.000089;0.004268;-0.001765;89.150639;0.004289;
1121;687;0.033621;0.766756;0.999999;0.000357;-0.002358;0.005900;0.000202;0.005905;-0.002363;88.597932;0.005944;
1166;762;-0.198187;1.514476;0.999987;0.001219;-0.006290;0.014993;-0.001092;0.015049;-0.006346;-87.069269;0.015110;
1066;667;0.126735;0.659883;0.999998;0.000431;-0.001931;0.004855;0.000840;0.004958;-0.002033;83.047286;0.004984;
1126;1322;0.167884;79.561741;0.999864;0.002816;-0.027782;0.063582;-0.000577;0.063586;-0.027786;-89.638112;0.063754;
1016;592;0.117449;0.407796;0.999998;0.000387;-0.000688;0.001933;0.000405;0.001994;-0.000749;81.410189;0.002014;
1031;472;0.057283;0.208191;0.999999;0.000189;-0.000550;0.001565;0.000117;0.001571;-0.000557;86.853479;0.001593;
1131;667;0.007737;0.665798;0.999999;0.000298;-0.001859;0.004534;0.000041;0.004534;-0.001859;89.631481;0.004559;
1241;1757;-0.064668;86.178533;1.000000;0.000185;-0.000583;0.001588;0.000124;0.001595;-0.000591;86.736969;0.001612;
1061;392;0.018327;0.084221;1.000000;0.000084;-0.000265;0.001417;0.000122;0.001426;-0.000274;85.874674;0.001513;
961;1837;0.060813;86.286697;1.000000;0.000177;-0.000531;0.001499;-0.000070;0.001501;-0.000534;-88.014711;0.001522;
1191;912;-1.450302;6.324360;0.999848;0.003631;-0.026222;0.059370;-0.005163;0.059680;-0.026533;-86.560525;0.059802;
1191;1312;-1.781008;78.841746;0.999724;0.004320;-0.031014;0.070720;0.005600;0.071027;-0.031322;86.859011;0.071192;
1126;692;0.023311;0.796844;0.999999;0.000306;-0.002521;0.006335;0.000143;0.006337;-0.002524;89.072170;0.006381;
1136;697;-0.002373;0.827773;0.999999;0.000388;-0.002714;0.006805;-0.000021;0.006805;-0.002714;-89.874991;0.006852;
1066;652;0.106554;0.593057;0.999997;0.000365;-0.001603;0.004047;0.000672;0.004125;-0.001682;83.312404;0.004149;
1141;772;-0.045816;1.666708;0.999990;0.001020;-0.007076;0.016709;-0.000226;0.016711;-0.007078;-89.455467;0.016776;
1096;1322;1.036059;79.534249;0.999765;0.004284;-0.028296;0.064030;-0.003478;0.064161;-0.028427;-87.845519;0.064299;
1036;472;0.054760;0.207581;0.999999;0.000201;-0.000554;0.001570;0.000111;0.001575;-0.000559;87.006721;0.001597;
1131;672;0.007890;0.686995;0.999999;0.000258;-0.001968;0.004834;0.000044;0.004834;-0.001968;89.631513;0.004862;
961;1842;0.057925;86.293913;0.999999;0.000176;-0.000532;0.001519;-0.000079;0.001522;-0.000535;-87.805830;0.001544;
1026;467;0.057669;0.200790;0.999999;0.000212;-0.000534;0.001553;0.000119;0.001559;-0.000541;86.754004;0.001584;
1231;1332;-2.589053;79.994964;0.999781;0.004767;-0.027232;0.060772;0.009209;0.061726;-0.028185;84.089832;0.061803;
981;1657;0.129315;86.023778;1.000000;0.000211;-0.000496;0.001660;-0.000463;0.001755;-0.000591;-78.383159;0.001786;
1191;387;-0.012917;0.076579;1.000000;0.000047;-0.000233;0.001394;-0.000095;0.001400;-0.000239;-86.665277;0.001498;
1001;712;0.458955;0.975963;0.999648;0.005435;-0.003685;0.008933;0.002857;0.009550;-0.004301;77.819445;0.009565;
1101;662;0.058778;0.644388;0.999998;0.000396;-0.001760;0.004343;0.000369;0.004366;-0.001783;86.551146;0.004390;
1136;667;-0.000995;0.665654;0.999999;0.000243;-0.001864;0.004528;-0.000019;0.004528;-0.001864;-89.831343;0.004551;
1076;597;0.066348;0.432786;0.999997;0.000423;-0.001046;0.002413;0.000247;0.002430;-0.001064;85.931865;0.002437;
1101;1322;0.892486;79.540524;0.999799;0.003722;-0.028215;0.063914;-0.002993;0.064011;-0.028312;-88.141266;0.064153;
1321;1812;-0.088142;86.244249;0.999987;0.001409;-0.000610;0.001416;0.000048;0.001417;-0.000612;88.648090;0.001422;
1041;472;0.051592;0.206917;0.999999;0.000217;-0.000554;0.001573;0.000108;0.001578;-0.000560;87.110006;0.001600;
1111;657;0.038508;0.623697;0.999998;0.000391;-0.001669;0.004063;0.000237;0.004073;-0.001679;87.633529;0.004094;
1001;717;0.493416;1.016360;0.999547;0.005531;-0.003936;0.009395;0.002992;0.010036;-0.004577;77.911583;0.010049;
986;1657;0.127106;86.022716;1.000000;0.000206;-0.000511;0.001678;-0.000452;0.001768;-0.000601;-78.784796;0.001798;
1086;1342;1.107029;80.653989;0.999804;0.003416;-0.024108;0.054239;-0.004182;0.054462;-0.024331;-86.953072;0.054565;
1301;437;-0.073193;0.167012;1.000000;0.000202;-0.000459;0.001465;-0.000075;0.001468;-0.000462;-87.759256;0.001501;
1181;372;-0.007624;0.055934;1.000000;0.000052;-0.000170;0.001350;-0.000082;0.001355;-0.000174;-86.924459;0.001474;
1131;677;0.008412;0.712808;0.999999;0.000257;-0.002089;0.005144;0.000047;0.005144;-0.002089;89.629079;0.005174;
1136;672;-0.001243;0.686736;0.999999;0.000253;-0.001972;0.004830;-0.000020;0.004830;-0.001972;-89.833205;0.004857;
1321;1817;-0.087607;86.248476;0.999984;0.001558;-0.000594;0.001437;0.000048;0.001438;-0.000596;88.649098;0.001445;
1126;1307;0.205457;78.552981;0.999787;0.003199;-0.031228;0.072310;-0.000736;0.072315;-0.031233;-89.592563;0.072538;
1016;587;0.114482;0.397466;0.999998;0.000384;-0.000666;0.001853;0.000372;0.001907;-0.000719;81.773028;0.001926;
961;437;0.076256;0.169954;0.999999;0.000170;-0.000636;0.001511;0.000091;0.001515;-0.000640;87.585669;0.001521;
1116;657;0.030744;0.624347;0.999999;0.000382;-0.001671;0.004046;0.000184;0.004052;-0.001677;88.158268;0.004072;
1306;437;-0.075508;0.168868;0.999999;0.000205;-0.000461;0.001456;-0.000073;0.001459;-0.000463;-87.822562;0.001491;
1091;1337;1.024141;80.386194;0.999811;0.004615;-0.025109;0.056605;-0.003811;0.056783;-0.025287;-87.335479;0.056896;
1186;372;-0.008496;0.056060;1.000000;0.000059;-0.000171;0.001353;-0.000091;0.001358;-0.000176;-86.596886;0.001477;
1181;747;-0.242037;1.310766;0.999987;0.000824;-0.005325;0.012795;-0.001414;0.012905;-0.005434;-85.563022;0.012958;
1321;1822;-0.083218;86.256106;0.999980;0.001376;-0.000584;0.001451;0.000057;0.001452;-0.000586;88.406324;0.001461;
1181;1882;-0.005777;86.368070;1.000000;0.000158;-0.000127;0.001348;0.000087;0.001353;-0.000132;86.633439;0.001492;
1126;657;0.014394;0.624828;0.999998;0.000360;-0.001680;0.004023;0.000082;0.004025;-0.001681;89.180288;0.004043;
1116;652;0.029287;0.603742;0.999998;0.000393;-0.001593;0.003832;0.000169;0.003837;-0.001599;88.218474;0.003855;
1021;587;0.111753;0.399047;0.999999;0.000311;-0.000696;0.001891;0.000358;0.001939;-0.000745;82.262518;0.001957;
1081;1312;1.572320;78.850401;0.999594;0.004613;-0.030893;0.070688;-0.005257;0.070959;-0.031164;-87.045527;0.071134;
966;437;0.074599;0.168186;0.999999;0.000192;-0.000602;0.001506;0.000088;0.001510;-0.000606;87.609802;0.001520;
1121;657;0.022750;0.624200;0.999999;0.000349;-0.001676;0.004033;0.000132;0.004036;-0.001679;88.673949;0.004055;
1321;1807;-0.086453;86.233672;0.999982;0.001383;-0.000621;0.001425;0.000036;0.001426;-0.000622;88.987114;0.001430;
1071;1322;1.738039;79.513225;0.999791;0.004869;-0.028699;0.064989;-0.006027;0.065375;-0.029086;-86.334293;0.065507;
1181;1887;-0.005169;86.375483;1.000000;0.000180;-0.000107;0.001350;0.000089;0.001355;-0.000112;86.525028;0.001505;
1191;372;-0.009417;0.056207;1.000000;0.000064;-0.000173;0.001356;-0.000100;0.001362;-0.000179;-86.276171;0.001480;
1141;777;-0.046518;1.746442;0.999988;0.001100;-0.007457;0.017515;-0.000251;0.017518;-0.007460;-89.423946;0.017582;
1131;657;0.006560;0.624714;0.999998;0.000432;-0.001681;0.004018;0.000030;0.004019;-0.001681;89.698449;0.004037;
1086;1692;0.043177;86.073654;1.000000;0.000135;-0.000873;0.001942;-0.000128;0.001948;-0.000878;-87.408640;0.001951;
1121;652;0.021901;0.604675;0.999998;0.000431;-0.001600;0.003819;0.000121;0.003822;-0.001603;88.721097;0.003838;
1026;587;0.108058;0.400322;0.999998;0.000448;-0.000730;0.001930;0.000350;0.001975;-0.000775;82.629845;0.001990;
1081;1317;1.517109;79.204976;0.999756;0.003601;-0.029653;0.067533;-0.005156;0.067806;-0.029926;-86.971507;0.067961;
1046;477;0.050857;0.214018;0.999999;0.000242;-0.000568;0.001582;0.000105;0.001588;-0.000573;87.217886;0.001608;
1311;1802;-0.080713;86.230840;0.999999;0.000266;-0.000551;0.001448;0.000062;0.001450;-0.000553;88.218744;0.001463;
1131;662;0.007266;0.645189;0.999999;0.000353;-0.001765;0.004258;0.000034;0.004259;-0.001765;89.677736;0.004279;
1151;1322;-0.528598;79.555174;0.999797;0.003731;-0.027740;0.063589;0.001587;0.063616;-0.027768;89.005012;0.063787;
1136;657;-0.001467;0.624193;0.999998;0.000490;-0.001683;0.004013;-0.000021;0.004013;-0.001683;-89.788099;0.004031;
1016;712;0.409046;0.962045;0.999993;0.000936;-0.003703;0.008926;0.002547;0.009420;-0.004197;79.018630;0.009439;
1151;1832;-0.005648;86.299930;1.000000;0.000167;-0.000323;0.001441;0.000028;0.001441;-0.000323;89.087714;0.001512;
1091;1692;0.038688;86.073667;1.000000;0.000123;-0.000887;0.001960;-0.000114;0.001964;-0.000891;-87.700180;0.001967;
1146;777;-0.083809;1.744583;0.999989;0.001287;-0.007447;0.017506;-0.000438;0.017513;-0.007455;-88.993739;0.017578;
1121;1327;0.298034;79.869806;0.999856;0.003166;-0.026766;0.061110;-0.001017;0.061121;-0.026778;-89.336962;0.061277;
1316;1802;-0.083325;86.228634;1.000000;0.000241;-0.000583;0.001434;0.000056;0.001436;-0.000585;88.416743;0.001444;
1221;562;-0.079564;0.354829;0.999998;0.000410;-0.000777;0.001832;-0.000223;0.001851;-0.000796;-85.139436;0.001857;
976;447;0.074510;0.180393;0.999999;0.000184;-0.000457;0.001482;0.000088;0.001486;-0.000461;87.408128;0.001521;
1121;697;0.037556;0.828269;0.999998;0.000365;-0.002690;0.006809;0.000243;0.006816;-0.002696;88.534731;0.006865;
1191;392;-0.013941;0.083715;1.000000;0.000054;-0.000254;0.001404;-0.000093;0.001409;-0.000259;-86.807901;0.001500;
1196;1307;-2.019514;78.506386;0.999786;0.004996;-0.032638;0.074309;0.006315;0.074680;-0.033010;86.632558;0.074848;
1136;662;-0.001158;0.645320;0.999999;0.000343;-0.001768;0.004251;-0.000022;0.004251;-0.001768;-89.790017;0.004271;
1096;1692;0.034026;86.073686;1.000000;0.000113;-0.000899;0.001974;-0.000101;0.001978;-0.000903;-87.981181;0.001980;
1321;1802;-0.091038;86.225828;0.999984;0.001125;-0.000627;0.001418;0.000047;0.001419;-0.000628;88.694577;0.001422;
1116;697;0.051049;0.828390;0.999998;0.000380;-0.002692;0.006821;0.000327;0.006832;-0.002703;88.035520;0.006882;
1151;777;-0.123301;1.743624;0.999989;0.001306;-0.007430;0.017496;-0.000635;0.017512;-0.007447;-88.541489;0.017577;
1126;1327;0.164121;79.866084;0.999905;0.002244;-0.026717;0.061080;-0.000545;0.061084;-0.026720;-89.644419;0.061243;
1221;1702;-0.073080;86.090486;1.000000;0.000162;-0.000707;0.001726;0.000175;0.001739;-0.000719;85.917466;0.001747;
1126;697;0.023927;0.828386;0.999998;0.000391;-0.002695;0.006803;0.000157;0.006806;-0.002697;89.052817;0.006855;
1251;542;-0.092185;0.320673;0.999998;0.000449;-0.000619;0.001631;-0.000216;0.001651;-0.000639;-84.561453;0.001665;
1201;502;-0.044442;0.251796;0.999999;0.000242;-0.000634;0.001624;-0.000088;0.001627;-0.000638;-87.768787;0.001640;
1201;1307;-2.169636;78.481766;0.999807;0.006110;-0.032897;0.074770;0.006902;0.075210;-0.033337;86.346695;0.075372;
1166;397;-0.008133;0.089858;1.000000;0.000064;-0.000268;0.001403;-0.000049;0.001404;-0.000269;-88.304247;0.001491;
1141;682;-0.013682;0.738748;0.999999;0.000278;-0.002229;0.005494;-0.000096;0.005495;-0.002231;-89.287190;0.005527;
1311;1827;-0.068131;86.267706;1.000000;0.000203;-0.000513;0.001490;0.000072;0.001493;-0.000515;87.940614;0.001516;
1101;1692;0.029416;86.073535;1.000000;0.000121;-0.000912;0.001986;-0.000089;0.001989;-0.000915;-88.249864;0.001991;
1146;672;-0.021636;0.687211;0.999999;0.000385;-0.001968;0.004840;-0.000148;0.004843;-0.001972;-88.752108;0.004871;
1176;752;-0.228919;1.370889;0.999987;0.000880;-0.005615;0.013517;-0.001315;0.013607;-0.005705;-86.085401;0.013665;
1131;1317;0.037163;79.234046;0.999806;0.003456;-0.028822;0.066254;-0.000176;0.066254;-0.028823;-89.893896;0.066440;
1226;1702;-0.076307;86.090050;1.000000;0.000149;-0.000692;0.001712;0.000181;0.001726;-0.000705;85.708758;0.001735;
1136;682;-0.002735;0.739602;0.999999;0.000301;-0.002229;0.005490;-0.000023;0.005490;-0.002229;-89.829891;0.005522;
1206;1307;-2.344007;78.458166;0.999780;0.007689;-0.033088;0.075063;0.007521;0.075583;-0.033609;86.041102;0.075737;
1256;542;-0.094136;0.320091;0.999998;0.000396;-0.000600;0.001616;-0.000223;0.001638;-0.000622;-84.320365;0.001654;
1316;1827;-0.070676;86.265931;1.000000;0.000223;-0.000538;0.001479;0.000068;0.001481;-0.000540;88.060087;0.001499;
1141;687;-0.013481;0.767789;0.999999;0.000315;-0.002379;0.005898;-0.000103;0.005900;-0.002381;-89.285887;0.005936;
1056;397;0.021169;0.091837;1.000000;0.000059;-0.000289;0.001435;0.000128;0.001444;-0.000298;85.790364;0.001525;
1186;392;-0.012616;0.083447;1.000000;0.000055;-0.000252;0.001401;-0.000084;0.001405;-0.000256;-87.093427;0.001497;
1146;677;-0.022824;0.711868;0.999999;0.000314;-0.002088;0.005156;-0.000157;0.005160;-0.002092;-88.758409;0.005190;
1116;1682;0.016631;86.053323;1.000000;0.000134;-0.000987;0.002115;-0.000055;0.002116;-0.000988;-88.986609;0.002117;
1131;1322;0.030730;79.568715;0.999831;0.002930;-0.027720;0.063549;-0.000139;0.063549;-0.027720;-89.912755;0.063721;
1101;767;0.226963;1.581241;0.999985;0.000854;-0.006731;0.015849;0.001149;0.015907;-0.006789;87.093524;0.015964;
1321;1827;-0.079993;86.263817;0.999986;0.001181;-0.000570;0.001460;0.000066;0.001462;-0.000572;88.130940;0.001474;
1056;1827;0.027024;86.289914;1.000000;0.000166;-0.000365;0.001472;-0.000111;0.001479;-0.000372;-86.551435;0.001539;
1136;687;-0.002009;0.767985;0.999999;0.000315;-0.002378;0.005894;-0.000024;0.005894;-0.002378;-89.831980;0.005930;
1176;1322;-1.219844;79.517601;0.999777;0.003742;-0.027931;0.063902;0.003862;0.064064;-0.028093;87.596364;0.064225;
1136;707;-0.001255;0.898022;0.999997;0.000442;-0.003110;0.007773;-0.000024;0.007773;-0.003110;-89.873854;0.007824;
1141;692;-0.014120;0.797503;0.999999;0.000354;-0.002541;0.006345;-0.000107;0.006346;-0.002542;-89.310974;0.006388;
1056;402;0.022653;0.099016;1.000000;0.000065;-0.000310;0.001448;0.000124;0.001457;-0.000318;85.995117;0.001532;
1146;682;-0.023851;0.738321;0.999999;0.000351;-0.002224;0.005502;-0.000168;0.005506;-0.002228;-88.754685;0.005539;
1121;1682;0.011455;86.053193;1.000000;0.000131;-0.000991;0.002121;-0.000041;0.002121;-0.000991;-89.250734;0.002123;
1131;1327;0.037044;79.862532;0.999894;0.002577;-0.026660;0.061026;-0.000102;0.061026;-0.026660;-89.933423;0.061188;
1121;427;0.005155;0.132695;1.000000;0.000072;-0.000378;0.001466;0.000018;0.001466;-0.000378;89.426492;0.001523;
1106;767;0.192938;1.582758;0.999986;0.000857;-0.006720;0.015861;0.000990;0.015905;-0.006763;87.493886;0.015964;
1141;1882;-0.000951;86.368208;0.999999;0.000166;-0.000124;0.001326;0.000016;0.001326;-0.000124;89.352387;0.001465;
1136;692;-0.001831;0.797174;0.999999;0.000322;-0.002539;0.006339;-0.000021;0.006339;-0.002540;-89.862575;0.006380;
1061;1827;0.025315;86.290480;1.000000;0.000178;-0.000361;0.001469;-0.000105;0.001475;-0.000367;-86.723895;0.001536;
1141;697;-0.015295;0.827445;0.999999;0.000380;-0.002717;0.006811;-0.000112;0.006812;-0.002718;-89.324671;0.006858;
961;527;0.118031;0.294760;0.999998;0.000424;-0.000547;0.001300;0.000235;0.001329;-0.000576;82.860992;0.001333;
1186;1352;-1.165054;81.139443;0.999793;0.002905;-0.021945;0.049617;0.004295;0.049874;-0.022202;86.577621;0.049974;
1056;407;0.024298;0.106281;1.000000;0.000080;-0.000330;0.001461;0.000120;0.001468;-0.000338;86.195025;0.001538;
1146;687;-0.024424;0.767542;0.999999;0.000346;-0.002375;0.005907;-0.000181;0.005911;-0.002379;-88.747506;0.005948;
1131;1312;0.046970;78.904150;0.999772;0.003418;-0.029956;0.069168;-0.000207;0.069168;-0.029957;-89.880299;0.069374;
1156;352;-0.001930;0.029183;1.000000;0.000053;-0.000087;0.001313;-0.000039;0.001314;-0.000088;-88.410256;0.001469;
1111;767;0.157463;1.582080;0.999986;0.000938;-0.006708;0.015867;0.000829;0.015897;-0.006738;87.899849;0.015959;
1136;1802;-0.001342;86.256077;1.000000;0.000109;-0.000435;0.001503;0.000003;0.001503;-0.000435;89.923603;0.001546;
1141;1887;-0.000845;86.374959;1.000000;0.000157;-0.000104;0.001317;0.000015;0.001318;-0.000105;89.397494;0.001465;
1136;677;-0.002194;0.712369;0.999999;0.000281;-0.002093;0.005143;-0.000020;0.005143;-0.002093;-89.838658;0.005173;
1066;1827;0.023534;86.291070;1.000000;0.000181;-0.000357;0.001466;-0.000097;0.001471;-0.000362;-86.954709;0.001533;
1141;672;-0.011274;0.686855;0.999999;0.000292;-0.001973;0.004832;-0.000084;0.004833;-0.001974;-89.289282;0.004860;
1146;1322;-0.384460;79.566433;0.999779;0.004393;-0.027718;0.063570;0.001192;0.063585;-0.027734;89.252048;0.063758;
1076;357;0.006326;0.036050;1.000000;0.000067;-0.000113;0.001335;0.000107;0.001342;-0.000121;85.784119;0.001485;
1151;347;-0.001077;0.022750;1.000000;0.000055;-0.000068;0.001305;-0.000030;0.001306;-0.000069;-88.742425;0.001470;
1276;522;-0.097698;0.289144;0.999998;0.000306;-0.000560;0.001530;-0.000205;0.001549;-0.000580;-84.457264;0.001566;
1146;692;-0.025496;0.797139;0.999999;0.000365;-0.002538;0.006357;-0.000191;0.006361;-0.002543;-88.768947;0.006403;
1106;1327;0.707723;79.856040;0.999820;0.004674;-0.027024;0.061224;-0.002452;0.061292;-0.027092;-88.409608;0.061429;
1076;737;0.273021;1.195523;0.999985;0.000804;-0.004763;0.011415;0.001596;0.011571;-0.004919;84.420287;0.011614;
1071;1712;0.049359;86.110269;1.000000;0.000131;-0.000744;0.001737;-0.000126;0.001744;-0.000751;-87.098628;0.001749;
961;1847;0.055393;86.301459;1.000000;0.000173;-0.000521;0.001538;-0.000089;0.001542;-0.000525;-87.543549;0.001568;
1036;1327;2.663426;79.713756;0.999761;0.003282;-0.028250;0.063323;-0.009971;0.064396;-0.029323;-83.857259;0.064482;
1131;697;0.010585;0.828414;0.999999;0.000374;-0.002707;0.006802;0.000069;0.006802;-0.002707;89.584932;0.006849;
1141;677;-0.012663;0.711919;0.999999;0.000256;-0.002094;0.005146;-0.000089;0.005147;-0.002095;-89.292695;0.005177;
1151;352;-0.001508;0.029232;1.000000;0.000047;-0.000087;0.001312;-0.000030;0.001313;-0.000088;-88.788483;0.001468;
996;1642;0.131730;85.993517;0.999999;0.000209;-0.000650;0.001991;-0.000579;0.002112;-0.000771;-78.172288;0.002138;
1196;377;-0.011544;0.063100;1.000000;0.000053;-0.000195;0.001373;-0.000107;0.001380;-0.000202;-86.099696;0.001491;
1146;667;-0.019556;0.664433;0.999999;0.000469;-0.001862;0.004533;-0.000139;0.004536;-0.001865;-88.753230;0.004560;
1281;522;-0.100353;0.288901;0.999998;0.000374;-0.000547;0.001506;-0.000210;0.001527;-0.000568;-84.231570;0.001544;
1156;1307;-0.731172;78.569127;0.999787;0.005030;-0.031409;0.072241;0.002134;0.072285;-0.031453;88.821299;0.072488;
1191;917;-1.511775;6.604959;0.999851;0.003593;-0.027345;0.062188;-0.005297;0.062500;-0.027657;-86.625592;0.062638;
1196;382;-0.012815;0.069996;1.000000;0.000048;-0.000215;0.001386;-0.000105;0.001393;-0.000222;-86.245642;0.001497;
1051;477;0.047995;0.213555;0.999999;0.000227;-0.000568;0.001584;0.000097;0.001588;-0.000572;87.416855;0.001609;
1021;592;0.114676;0.408582;0.999998;0.000358;-0.000719;0.001971;0.000389;0.002026;-0.000775;81.940455;0.002045;
1206;502;-0.047214;0.252115;0.999999;0.000192;-0.000631;0.001624;-0.000093;0.001628;-0.000635;-87.633877;0.001641;
1231;1557;-0.235501;85.640291;0.999994;0.000548;-0.002662;0.006601;0.001613;0.006874;-0.002935;80.397441;0.006898;
1016;717;0.436523;1.007029;0.999989;0.001260;-0.003945;0.009404;0.002677;0.009921;-0.004462;79.071349;0.009938;
1181;377;-0.008674;0.062642;1.000000;0.000055;-0.000190;0.001364;-0.000081;0.001368;-0.000194;-87.028000;0.001480;
1151;677;-0.031945;0.711542;0.999999;0.000359;-0.002083;0.005172;-0.000225;0.005179;-0.002090;-88.224460;0.005211;
1141;667;-0.010146;0.665472;0.999999;0.000308;-0.001865;0.004527;-0.000079;0.004528;-0.001866;-89.288613;0.004551;
1016;1762;0.067826;86.185658;1.000000;0.000171;-0.000562;0.001561;-0.000132;0.001570;-0.000570;-86.457295;0.001589;
1161;1307;-0.894496;78.566524;0.999788;0.004309;-0.031491;0.072362;0.002632;0.072428;-0.031558;88.549208;0.072628;
1196;387;-0.014143;0.076753;1.000000;0.000045;-0.000235;0.001398;-0.000104;0.001404;-0.000242;-86.382922;0.001501;
1186;377;-0.009594;0.062815;1.000000;0.000054;-0.000191;0.001366;-0.000090;0.001371;-0.000196;-86.716952;0.001483;
1196;917;-1.651040;6.610989;0.999833;0.004055;-0.027516;0.062455;-0.005831;0.062831;-0.027893;-86.307171;0.062963;
1021;717;0.413579;1.003937;0.999988;0.001291;-0.003933;0.009379;0.002564;0.009856;-0.004409;79.467222;0.009874;
1141;662;-0.009607;0.643949;0.999999;0.000389;-0.001769;0.004250;-0.000078;0.004251;-0.001770;-89.257980;0.004270;
1151;682;-0.033920;0.737694;0.999999;0.000327;-0.002221;0.005517;-0.000240;0.005525;-0.002228;-88.225468;0.005559;
1056;477;0.044889;0.212939;0.999999;0.000215;-0.000572;0.001584;0.000089;0.001588;-0.000576;87.644112;0.001608;
1026;592;0.110903;0.408747;0.999998;0.000494;-0.000752;0.002011;0.000379;0.002063;-0.000803;82.327152;0.002079;
1211;497;-0.048793;0.244160;1.000000;0.000199;-0.000617;0.001614;-0.000096;0.001618;-0.000621;-87.528511;0.001633;
1011;1802;0.054998;86.247478;1.000000;0.000226;-0.000472;0.001516;-0.000121;0.001523;-0.000479;-86.538017;0.001558;
1071;1517;0.246938;85.329355;0.999994;0.000765;-0.004164;0.009995;-0.001532;0.010159;-0.004328;-83.893703;0.010196;
1166;1307;-1.055341;78.565889;0.999712;0.004207;-0.031594;0.072493;0.003105;0.072586;-0.031687;88.293084;0.072780;
1006;712;0.443996;0.962628;0.999990;0.000820;-0.003710;0.008953;0.002762;0.009529;-0.004287;78.217221;0.009545;
1196;372;-0.010250;0.056226;1.000000;0.000052;-0.000174;0.001359;-0.000109;0.001366;-0.000182;-85.953970;0.001484;
1111;352;0.002029;0.029143;1.000000;0.000053;-0.000086;0.001315;0.000044;0.001316;-0.000088;88.211652;0.001472;
1151;687;-0.035515;0.766736;0.999999;0.000323;-0.002373;0.005924;-0.000258;0.005932;-0.002381;-88.218686;0.005970;
1201;917;-1.785765;6.624332;0.999827;0.003812;-0.027747;0.062744;-0.006346;0.063187;-0.028190;-86.008067;0.063309;
1211;502;-0.049633;0.252804;1.000000;0.000173;-0.000631;0.001624;-0.000100;0.001629;-0.000635;-87.469936;0.001642;
1111;652;0.036808;0.602376;0.999998;0.000326;-0.001592;0.003848;0.000220;0.003857;-0.001601;87.690986;0.003875;
1036;552;0.085512;0.337205;0.999998;0.000443;-0.000697;0.001736;0.000210;0.001754;-0.000715;85.105901;0.001764;
1011;1807;0.052919;86.254530;1.000000;0.000206;-0.000459;0.001514;-0.000123;0.001521;-0.000467;-86.455908;0.001559;
1121;517;0.010229;0.272564;0.999999;0.000218;-0.000756;0.001703;0.000029;0.001703;-0.000756;89.327094;0.001707;
1151;1317;-0.545107;79.260918;0.999797;0.003717;-0.028899;0.066280;0.001582;0.066306;-0.028925;89.047979;0.066485;
966;1847;0.053434;86.303415;1.000000;0.000182;-0.000502;0.001536;-0.000099;0.001541;-0.000507;-87.231789;0.001571;
1016;1552;0.303544;85.615811;0.999991;0.000821;-0.002792;0.006960;-0.002012;0.007359;-0.003190;-78.788377;0.007380;
1151;342;-0.000819;0.016445;1.000000;0.000055;-0.000049;0.001294;-0.000030;0.001295;-0.000050;-88.711212;0.001468;
1196;392;-0.015340;0.083846;1.000000;0.000056;-0.000256;0.001408;-0.000101;0.001414;-0.000262;-86.534680;0.001504;
1151;692;-0.037454;0.796592;0.999999;0.000408;-0.002538;0.006373;-0.000275;0.006382;-0.002547;-88.237151;0.006425;
1206;722;-0.269588;1.040079;0.999987;0.000994;-0.003984;0.009682;-0.001724;0.009896;-0.004198;-82.921304;0.009934;
1286;447;-0.071420;0.177303;1.000000;0.000172;-0.000465;0.001484;-0.000098;0.001489;-0.000470;-87.122418;0.001522;
1101;917;0.890969;6.581358;0.999765;0.003309;-0.026701;0.061069;0.002968;0.061169;-0.026801;88.065419;0.061325;
1011;1812;0.051081;86.262988;1.000000;0.000196;-0.000447;0.001513;-0.000127;0.001521;-0.000455;-86.306327;0.001562;
1226;1327;-2.555613;79.720795;0.999773;0.004292;-0.028263;0.063063;0.008989;0.063939;-0.029139;84.431724;0.064023;
1126;517;0.006861;0.272482;1.000000;0.000190;-0.000759;0.001705;0.000018;0.001705;-0.000759;89.578007;0.001709;
1071;592;0.071138;0.420526;0.999997;0.000459;-0.000997;0.002310;0.000254;0.002330;-0.001016;85.630492;0.002336;
971;1847;0.052080;86.305567;1.000000;0.000221;-0.000486;0.001533;-0.000106;0.001539;-0.000491;-86.990069;0.001572;
1226;1552;-0.239393;85.609325;0.999994;0.000461;-0.002836;0.006930;0.001612;0.007189;-0.003095;80.868306;0.007212;
1181;367;-0.006699;0.049104;1.000000;0.000055;-0.000150;0.001338;-0.000083;0.001342;-0.000154;-86.811724;0.001469;
1096;427;0.014602;0.133496;1.000000;0.000077;-0.000385;0.001475;0.000053;0.001477;-0.000386;88.356079;0.001532;
1151;667;-0.028934;0.663840;0.999999;0.000445;-0.001857;0.004542;-0.000200;0.004549;-0.001863;-88.213225;0.004573;
1286;452;-0.073367;0.184189;1.000000;0.000160;-0.000470;0.001477;-0.000103;0.001482;-0.000475;-86.990409;0.001514;
1236;717;-0.364624;0.996608;0.999986;0.000834;-0.003876;0.009280;-0.002322;0.009678;-0.004274;-80.276944;0.009700;
1186;912;-1.315021;6.316731;0.999817;0.004033;-0.026090;0.059135;-0.004652;0.059389;-0.026343;-86.885137;0.059514;
1086;1322;1.318451;79.532329;0.999802;0.003686;-0.028378;0.064338;-0.004521;0.064558;-0.028598;-87.215051;0.064698;
1131;517;0.002745;0.272590;0.999999;0.000220;-0.000759;0.001706;0.000007;0.001706;-0.000759;89.829589;0.001709;
1241;1752;-0.066268;86.170684;1.000000;0.000155;-0.000594;0.001598;0.000128;0.001606;-0.000601;86.676570;0.001623;
1201;607;-0.076191;0.455615;0.999998;0.000357;-0.001064;0.002524;-0.000311;0.002551;-0.001091;-85.088381;0.002560;
1186;367;-0.007442;0.049108;1.000000;0.000060;-0.000151;0.001340;-0.000092;0.001346;-0.000156;-86.468026;0.001472;
1191;377;-0.010542;0.063013;1.000000;0.000048;-0.000193;0.001369;-0.000098;0.001376;-0.000199;-86.410384;0.001487;
1036;1887;0.010919;86.374435;0.999999;0.000218;-0.000131;0.001371;-0.000185;0.001393;-0.000154;-83.092900;0.001528;
1221;1542;-0.262748;85.530496;0.999992;0.000630;-0.003201;0.007758;0.001687;0.008012;-0.003455;81.444081;0.008037;
1151;697;-0.041553;0.827635;0.999998;0.000469;-0.002719;0.006835;-0.000289;0.006844;-0.002728;-88.267255;0.006890;
1281;457;-0.072524;0.190976;0.999999;0.000223;-0.000482;0.001486;-0.000111;0.001492;-0.000488;-86.781561;0.001522;
1241;717;-0.383779;0.997664;0.999986;0.001019;-0.003888;0.009290;-0.002429;0.009724;-0.004321;-79.883204;0.009744;
1206;917;-1.927468;6.639637;0.999791;0.003654;-0.027890;0.062905;-0.006940;0.063433;-0.028417;-85.654184;0.063547;
1091;1332;1.076622;80.113875;0.999821;0.004064;-0.026142;0.059084;-0.003872;0.059259;-0.026318;-87.404101;0.059382;
1261;462;-0.064980;0.195352;1.000000;0.000195;-0.000513;0.001527;-0.000120;0.001534;-0.000521;-86.645334;0.001560;
976;1677;0.122815;86.056559;1.000000;0.000165;-0.000429;0.001530;-0.000335;0.001586;-0.000485;-80.545275;0.001625;
1191;367;-0.008344;0.049276;1.000000;0.000063;-0.000152;0.001343;-0.000101;0.001350;-0.000159;-86.134659;0.001476;
1036;1892;0.008908;86.380963;0.999999;0.000205;-0.000108;0.001364;-0.000187;0.001388;-0.000131;-82.864180;0.001532;
1191;382;-0.011780;0.069869;1.000000;0.000044;-0.000213;0.001383;-0.000097;0.001388;-0.000219;-86.538054;0.001493;
1161;652;-0.040313;0.601844;0.999998;0.000399;-0.001582;0.003814;-0.000255;0.003826;-0.001594;-87.295211;0.003844;
1151;662;-0.027846;0.643019;0.999999;0.000454;-0.001762;0.004260;-0.000189;0.004266;-0.001768;-88.199992;0.004287;
1226;1547;-0.257804;85.570226;0.999993;0.000580;-0.003027;0.007334;0.001703;0.007606;-0.003299;80.900557;0.007629;
1286;457;-0.075147;0.191913;0.999999;0.000194;-0.000475;0.001472;-0.000107;0.001478;-0.000481;-86.869073;0.001508;
1211;722;-0.289998;1.040733;0.999986;0.001166;-0.004001;0.009699;-0.001843;0.009943;-0.004244;-82.468486;0.009978;
1151;1312;-0.566544;78.926719;0.999801;0.003833;-0.030083;0.069121;0.001625;0.069148;-0.030109;89.062020;0.069340;
1171;917;-0.966850;6.567246;0.999818;0.004701;-0.026791;0.061152;-0.003264;0.061273;-0.026912;-87.877284;0.061424;
1261;467;-0.067141;0.203327;0.999999;0.000185;-0.000524;0.001533;-0.000123;0.001540;-0.000531;-86.595309;0.001565;
976;1682;0.120935;86.063833;1.000000;0.000142;-0.000441;0.001498;-0.000317;0.001549;-0.000492;-80.933742;0.001583;
1321;1767;-0.109134;86.175060;0.999975;0.001361;-0.000575;0.001379;0.000053;0.001381;-0.000576;88.448831;0.001387;
1196;367;-0.008930;0.049405;1.000000;0.000052;-0.000153;0.001346;-0.000111;0.001354;-0.000161;-85.806939;0.001479;
1196;397;-0.016449;0.090880;1.000000;0.000054;-0.000276;0.001418;-0.000099;0.001424;-0.000282;-86.676547;0.001508;
1246;542;-0.088160;0.321030;0.999998;0.000461;-0.000632;0.001647;-0.000212;0.001666;-0.000652;-84.732522;0.001679;
1086;662;0.084731;0.640473;0.999999;0.000546;-0.001789;0.004422;0.000540;0.004468;-0.001835;85.067468;0.004492;
1066;1517;0.267435;85.330530;0.999994;0.000623;-0.004190;0.010011;-0.001669;0.010205;-0.004384;-83.387186;0.010239;
1156;777;-0.161787;1.746694;0.999988;0.001152;-0.007433;0.017493;-0.000830;0.017520;-0.007461;-88.094461;0.017585;
1081;502;0.035777;0.250882;0.999999;0.000235;-0.000655;0.001630;0.000073;0.001632;-0.000658;88.174141;0.001642;
1321;1772;-0.104996;86.185043;0.999984;0.001087;-0.000588;0.001377;0.000060;0.001379;-0.000590;88.245486;0.001383;
1076;1322;1.594652;79.520944;0.999797;0.003989;-0.028557;0.064765;-0.005521;0.065091;-0.028882;-86.626199;0.065228;
1176;917;-1.101164;6.571653;0.999834;0.003987;-0.026882;0.061388;-0.003752;0.061547;-0.027041;-87.570461;0.061698;
976;442;0.072406;0.172930;1.000000;0.000177;-0.000453;0.001485;0.000085;0.001489;-0.000457;87.502375;0.001526;
1061;387;0.016866;0.077193;1.000000;0.000072;-0.000245;0.001406;0.000125;0.001416;-0.000254;85.707444;0.001509;
1201;397;-0.017743;0.091064;1.000000;0.000056;-0.000278;0.001423;-0.000107;0.001429;-0.000284;-86.425427;0.001513;
946;497;0.120046;0.263412;0.999871;0.002318;-0.000805;0.001126;0.000008;0.001126;-0.000805;89.762413;0.001160;
1231;1787;-0.048532;86.226748;1.000000;0.000209;-0.000512;0.001553;0.000104;0.001558;-0.000517;87.110405;0.001588;
1086;667;0.089493;0.663904;0.999999;0.000598;-0.001903;0.004718;0.000584;0.004770;-0.001954;84.997823;0.004795;
1231;1552;-0.252033;85.607093;0.999993;0.000625;-0.002844;0.006976;0.001709;0.007264;-0.003133;80.406175;0.007287;
1321;1777;-0.105642;86.193970;0.999983;0.001105;-0.000599;0.001381;0.000058;0.001383;-0.000601;88.331320;0.001387;
1181;752;-0.256759;1.371727;0.999986;0.000753;-0.005636;0.013508;-0.001477;0.013621;-0.005749;-85.614783;0.013676;
996;452;0.067956;0.181934;1.000000;0.000294;-0.000479;0.001513;0.000119;0.001520;-0.000486;86.594134;0.001552;
1081;1322;1.456619;79.525773;0.999787;0.003348;-0.028467;0.064531;-0.005039;0.064804;-0.028739;-86.907545;0.064942;
1166;922;-0.865918;6.858241;0.999817;0.003717;-0.027844;0.063664;-0.002866;0.063754;-0.027933;-88.207557;0.063916;
1281;447;-0.069045;0.175858;1.000000;0.000186;-0.000470;0.001494;-0.000104;0.001499;-0.000475;-86.984716;0.001532;
1066;387;0.015697;0.076950;1.000000;0.000067;-0.000242;0.001402;0.000117;0.001410;-0.000250;85.949317;0.001505;
1206;377;-0.013383;0.063299;1.000000;0.000057;-0.000199;0.001380;-0.000125;0.001390;-0.000209;-85.486858;0.001500;
1126;702;0.026631;0.862684;0.999998;0.000416;-0.002882;0.007276;0.000164;0.007279;-0.002885;89.074196;0.007331;
1016;1897;0.008940;86.386875;0.999999;0.000209;-0.000100;0.001386;-0.000229;0.001421;-0.000134;-81.432571;0.001569;
996;567;0.116724;0.361776;0.999998;0.000463;-0.000528;0.001609;0.000321;0.001656;-0.000576;81.638029;0.001682;
1236;1552;-0.268569;85.606336;0.999990;0.000829;-0.002839;0.007019;0.001803;0.007339;-0.003158;79.953955;0.007362;
1181;1822;-0.017125;86.284316;1.000000;0.000178;-0.000367;0.001467;0.000068;0.001470;-0.000370;87.883006;0.001529;
1246;712;-0.377047;0.956790;0.999984;0.001124;-0.003700;0.008829;-0.002408;0.009276;-0.004147;-79.486607;0.009293;
996;457;0.069867;0.189651;1.000000;0.000252;-0.000486;0.001513;0.000122;0.001520;-0.000494;86.528288;0.001551;
1211;1312;-2.427298;78.766221;0.999788;0.005721;-0.031747;0.071955;0.008061;0.072578;-0.032369;85.581841;0.072719;
1171;922;-1.014941;6.869798;0.999829;0.004243;-0.027936;0.063845;-0.003353;0.063968;-0.028059;-87.910279;0.064128;
1156;342;-0.001144;0.016423;1.000000;0.000065;-0.000049;0.001296;-0.000039;0.001297;-0.000050;-88.339889;0.001469;
1281;452;-0.070807;0.183451;1.000000;0.000147;-0.000476;0.001489;-0.000108;0.001494;-0.000482;-86.875423;0.001526;
1016;1902;0.006381;86.393291;0.999999;0.000243;-0.000074;0.001375;-0.000233;0.001411;-0.000111;-81.092039;0.001569;
1206;382;-0.014924;0.070198;1.000000;0.000043;-0.000219;0.001394;-0.000123;0.001404;-0.000229;-85.664384;0.001506;
1131;702;0.012269;0.862001;0.999998;0.000401;-0.002896;0.007273;0.000070;0.007273;-0.002897;89.604611;0.007323;
1001;567;0.112900;0.361221;0.999998;0.000343;-0.000553;0.001631;0.000311;0.001674;-0.000596;82.059709;0.001697;
1236;1557;-0.251690;85.639742;0.999991;0.000691;-0.002660;0.006646;0.001702;0.006947;-0.002962;79.953669;0.006972;
1226;912;-2.397712;6.377359;0.999764;0.005107;-0.027181;0.060596;-0.008862;0.061482;-0.028067;-84.292322;0.061559;
1001;457;0.067107;0.188747;1.000000;0.000175;-0.000496;0.001521;0.000123;0.001529;-0.000504;86.520888;0.001558;
1181;1322;-1.357500;79.509383;0.999729;0.004309;-0.028048;0.064010;0.004363;0.064217;-0.028254;87.292623;0.064371;
1096;767;0.259096;1.580834;0.999984;0.001099;-0.006729;0.015839;0.001311;0.015915;-0.006805;86.687312;0.015971;
1246;1677;-0.101003;86.046734;1.000000;0.000178;-0.000650;0.001735;0.000274;0.001766;-0.000681;83.520411;0.001782;
1201;377;-0.012485;0.063182;1.000000;0.000059;-0.000197;0.001376;-0.000116;0.001385;-0.000205;-85.788456;0.001495;
1051;1897;0.005951;86.387086;0.999999;0.000229;-0.000075;0.001331;-0.000156;0.001348;-0.000092;-83.756520;0.001507;
1196;497;-0.039587;0.242316;0.999999;0.000289;-0.000623;0.001614;-0.000080;0.001617;-0.000626;-87.958114;0.001630;
1206;387;-0.016315;0.077034;1.000000;0.000042;-0.000239;0.001406;-0.000120;0.001415;-0.000248;-85.834757;0.001511;
1156;672;-0.039504;0.687140;0.999999;0.000379;-0.001957;0.004870;-0.000276;0.004881;-0.001968;-87.687465;0.004912;
1111;627;0.032410;0.519782;0.999997;0.000477;-0.001326;0.003030;0.000149;0.003035;-0.001331;88.049207;0.003043;
1196;1512;-0.274016;85.266330;0.999992;0.000780;-0.004494;0.010863;0.001615;0.011031;-0.004662;84.061938;0.011075;
1186;917;-1.373444;6.597423;0.999830;0.004071;-0.027202;0.061914;-0.004777;0.062170;-0.027457;-86.940167;0.062311;
991;452;0.070101;0.183233;1.000000;0.000241;-0.000478;0.001504;0.000117;0.001511;-0.000485;86.639980;0.001543;
1056;1897;0.005639;86.387266;0.999999;0.000238;-0.000074;0.001325;-0.000144;0.001339;-0.000089;-84.190187;0.001498;
1181;1327;-1.306609;79.824856;0.999762;0.004090;-0.026875;0.061132;0.004302;0.061342;-0.027085;87.207927;0.061481;
1091;762;0.275476;1.509305;0.999987;0.001033;-0.006353;0.015030;0.001435;0.015126;-0.006449;86.177153;0.015180;
1201;382;-0.013951;0.070069;1.000000;0.000048;-0.000217;0.001390;-0.000114;0.001398;-0.000225;-85.956439;0.001502;
1221;1657;-0.092034;86.005868;1.000000;0.000172;-0.000855;0.002109;0.000306;0.002140;-0.000886;84.169630;0.002150;
1201;497;-0.042729;0.243103;1.000000;0.000207;-0.000619;0.001614;-0.000085;0.001617;-0.000622;-87.823653;0.001632;
1206;392;-0.017630;0.084301;1.000000;0.000053;-0.000260;0.001416;-0.000118;0.001424;-0.000268;-86.002873;0.001514;
1156;677;-0.041818;0.711349;0.999999;0.000326;-0.002079;0.005192;-0.000292;0.005203;-0.002091;-87.705727;0.005237;
1111;632;0.032769;0.534662;0.999998;0.000407;-0.001367;0.003162;0.000158;0.003168;-0.001372;88.001306;0.003177;
1201;1512;-0.295455;85.265222;0.999989;0.000829;-0.004500;0.010869;0.001753;0.011067;-0.004698;83.574438;0.011109;
1186;922;-1.431551;6.889207;0.999817;0.004061;-0.028362;0.064615;-0.004910;0.064874;-0.028620;-86.985536;0.065023;
991;457;0.072143;0.190929;1.000000;0.000257;-0.000484;0.001504;0.000119;0.001511;-0.000492;86.576205;0.001541;
1181;1332;-1.257914;80.120554;0.999788;0.003002;-0.025779;0.058474;0.004190;0.058682;-0.025987;87.159620;0.058810;
966;1852;0.050173;86.311166;1.000000;0.000173;-0.000494;0.001553;-0.000114;0.001559;-0.000501;-86.823314;0.001592;
1091;767;0.293255;1.583364;0.999984;0.001121;-0.006735;0.015834;0.001483;0.015931;-0.006832;86.256288;0.015985;
1201;387;-0.015208;0.076895;1.000000;0.000037;-0.000238;0.001402;-0.000112;0.001410;-0.000245;-86.111518;0.001506;
1206;497;-0.045825;0.243472;1.000000;0.000167;-0.000617;0.001615;-0.000090;0.001618;-0.000620;-87.692222;0.001633;
1226;1657;-0.096023;86.006909;1.000000;0.000146;-0.000827;0.002074;0.000319;0.002109;-0.000862;83.803815;0.002120;
1076;1712;0.045704;86.110646;1.000000;0.000120;-0.000758;0.001749;-0.000120;0.001755;-0.000764;-87.262726;0.001760;
1191;922;-1.572731;6.898157;0.999809;0.004200;-0.028503;0.064910;-0.005439;0.065226;-0.028819;-86.678681;0.065373;
1176;1317;-1.268773;79.211457;0.999778;0.003337;-0.029162;0.066871;0.003881;0.067028;-0.029319;87.689727;0.067203;
1091;1502;0.198801;85.170018;0.999988;0.000969;-0.004938;0.011896;-0.001178;0.011978;-0.005020;-86.016052;0.012030;
991;462;0.074654;0.199176;1.000000;0.000239;-0.000493;0.001505;0.000124;0.001513;-0.000501;86.450310;0.001541;
1141;782;-0.046975;1.834947;0.999987;0.000986;-0.007860;0.018407;-0.000267;0.018409;-0.007863;-89.418141;0.018475;
1146;697;-0.028533;0.827562;0.999999;0.000415;-0.002716;0.006821;-0.000202;0.006825;-0.002721;-88.789694;0.006871;
1201;392;-0.016571;0.083956;1.000000;0.000041;-0.000258;0.001412;-0.000109;0.001419;-0.000265;-86.272667;0.001509;
971;1852;0.048514;86.312722;1.000000;0.000182;-0.000477;0.001546;-0.000121;0.001554;-0.000484;-86.596640;0.001590;
1276;457;-0.070247;0.189553;0.999999;0.000199;-0.000487;0.001499;-0.000115;0.001506;-0.000494;-86.704620;0.001535;
1286;522;-0.102606;0.287998;0.999998;0.000480;-0.000532;0.001479;-0.000220;0.001503;-0.000556;-83.820741;0.001520;
1111;1682;0.021851;86.053312;1.000000;0.000119;-0.000981;0.002107;-0.000069;0.002108;-0.000982;-88.721194;0.002110;
1186;1672;-0.054807;86.032522;1.000000;0.000155;-0.000955;0.002134;0.000170;0.002143;-0.000964;86.863264;0.002146;
1196;922;-1.714443;6.900746;0.999809;0.004233;-0.028692;0.065206;-0.005987;0.065587;-0.029073;-86.366291;0.065727;
1046;1312;2.690858;78.773284;0.999710;0.004452;-0.031982;0.072510;-0.009393;0.073348;-0.032819;-84.904061;0.073483;
1146;782;-0.087696;1.833307;0.999988;0.001089;-0.007848;0.018385;-0.000460;0.018394;-0.007856;-88.995647;0.018459;
1146;662;-0.018204;0.643300;0.999999;0.000512;-0.001767;0.004252;-0.000133;0.004255;-0.001770;-88.731817;0.004275;
996;462;0.071967;0.197619;0.999999;0.000194;-0.000495;0.001513;0.000126;0.001521;-0.000503;86.423701;0.001550;
961;1852;0.052257;86.309471;1.000000;0.000196;-0.000515;0.001558;-0.000105;0.001563;-0.000520;-87.106182;0.001592;
1241;1562;-0.248783;85.670407;0.999993;0.000881;-0.002500;0.006300;0.001692;0.006614;-0.002814;79.481086;0.006639;
1201;372;-0.011106;0.056349;1.000000;0.000055;-0.000176;0.001362;-0.000118;0.001371;-0.000185;-85.633116;0.001488;
1161;502;-0.017909;0.248700;0.999999;0.000230;-0.000672;0.001632;-0.000041;0.001633;-0.000672;-88.978326;0.001641;
1051;567;0.080218;0.365719;0.999998;0.000514;-0.000807;0.001914;0.000232;0.001933;-0.000827;85.152242;0.001940;
1051;1312;2.519499;78.781020;0.999775;0.004279;-0.031849;0.072245;-0.008758;0.072977;-0.032581;-85.224037;0.073117;
1176;922;-1.153796;6.873759;0.999831;0.004751;-0.028035;0.064072;-0.003850;0.064232;-0.028196;-87.610852;0.064392;
1236;1777;-0.054970;86.211008;1.000000;0.000140;-0.000539;0.001566;0.000109;0.001571;-0.000545;87.030887;0.001596;
1131;1797;0.000956;86.248175;1.000000;0.000128;-0.000454;0.001509;-0.000004;0.001509;-0.000455;-89.878881;0.001549;
1151;782;-0.129436;1.833046;0.999987;0.001362;-0.007834;0.018372;-0.000662;0.018389;-0.007851;-88.553946;0.018455;
1001;462;0.069216;0.196953;0.999999;0.000154;-0.000505;0.001521;0.000126;0.001529;-0.000513;86.455919;0.001556;
1061;1897;0.005053;86.387655;0.999999;0.000183;-0.000072;0.001324;-0.000131;0.001336;-0.000084;-84.667324;0.001496;
1076;662;0.101303;0.638214;0.999998;0.000307;-0.001799;0.004481;0.000655;0.004548;-0.001867;84.108461;0.004573;
1191;362;-0.007142;0.042551;1.000000;0.000060;-0.000132;0.001337;-0.000103;0.001344;-0.000139;-86.018291;0.001478;
1246;1562;-0.261669;85.670877;0.999994;0.000751;-0.002521;0.006313;0.001787;0.006661;-0.002869;78.988382;0.006682;
1051;572;0.081911;0.374022;0.999998;0.000432;-0.000829;0.001960;0.000246;0.001981;-0.000850;85.003227;0.001988;
1251;472;-0.063539;0.209834;0.999999;0.000220;-0.000542;0.001551;-0.000123;0.001558;-0.000549;-86.651876;0.001581;
1056;1312;2.365105;78.792712;0.999778;0.004082;-0.031729;0.071965;-0.008137;0.072600;-0.032364;-85.540285;0.072742;
1181;917;-1.232752;6.587474;0.999827;0.003775;-0.027027;0.061648;-0.004251;0.061851;-0.027231;-87.261813;0.061998;
1221;1652;-0.093932;85.995422;1.000000;0.000141;-0.000877;0.002177;0.000329;0.002212;-0.000912;83.927622;0.002223;
1076;742;0.291916;1.251381;0.999986;0.001022;-0.005056;0.012074;0.001663;0.012234;-0.005216;84.506131;0.012278;
1186;1787;-0.026072;86.230714;1.000000;0.000110;-0.000497;0.001544;0.000064;0.001546;-0.000500;88.193361;0.001578;
1196;362;-0.007785;0.042653;1.000000;0.000057;-0.000133;0.001340;-0.000112;0.001348;-0.000141;-85.681191;0.001482;
1291;447;-0.073178;0.178453;1.000000;0.000215;-0.000456;0.001475;-0.000088;0.001479;-0.000460;-87.382678;0.001514;
1251;1562;-0.274455;85.669534;0.999995;0.000555;-0.002547;0.006326;0.001862;0.006701;-0.002922;78.617832;0.006719;
976;1862;0.038839;86.330226;1.000000;0.000204;-0.000376;0.001542;-0.000179;0.001558;-0.000393;-84.706994;0.001621;
1186;747;-0.268541;1.311963;0.999986;0.000872;-0.005331;0.012779;-0.001572;0.012914;-0.005467;-85.074093;0.012965;
1176;672;-0.077156;0.684286;0.999998;0.000372;-0.001971;0.004962;-0.000532;0.005002;-0.002012;-85.639373;0.005034;
1196;1302;-2.099987;78.153184;0.999787;0.004627;-0.034118;0.077813;0.006511;0.078190;-0.034496;86.681871;0.078370;
1216;512;-0.055972;0.269213;1.000000;0.000206;-0.000655;0.001630;-0.000115;0.001636;-0.000660;-87.135963;0.001646;
1181;577;-0.048295;0.388401;0.999998;0.000348;-0.001002;0.002204;-0.000164;0.002212;-0.001010;-87.084051;0.002215;
1226;1652;-0.098102;85.996983;1.000000;0.000131;-0.000850;0.002142;0.000343;0.002181;-0.000889;83.536836;0.002193;
1131;772;0.024915;1.664821;0.999988;0.001052;-0.007106;0.016703;0.000147;0.016704;-0.007107;89.645626;0.016766;
1201;362;-0.008443;0.042724;1.000000;0.000047;-0.000134;0.001343;-0.000121;0.001353;-0.000144;-85.345901;0.001486;
1256;1567;-0.266032;85.703016;0.999994;0.000710;-0.002395;0.005965;0.001828;0.006347;-0.002777;78.188424;0.006364;
1291;452;-0.075513;0.185850;0.999999;0.000195;-0.000460;0.001466;-0.000093;0.001471;-0.000464;-87.248386;0.001504;
981;1862;0.037004;86.331607;1.000000;0.000166;-0.000356;0.001532;-0.000192;0.001552;-0.000375;-84.251687;0.001619;
1091;1687;0.039923;86.063790;1.000000;0.000112;-0.000910;0.002009;-0.000121;0.002013;-0.000915;-87.637708;0.002016;
1216;722;-0.311131;1.040174;0.999986;0.001048;-0.004015;0.009715;-0.001960;0.009989;-0.004289;-82.034755;0.010023;
1211;577;-0.076584;0.383715;0.999997;0.000378;-0.000879;0.002042;-0.000240;0.002062;-0.000899;-85.325186;0.002067;
1201;1302;-2.270093;78.138914;0.999797;0.005800;-0.034397;0.078332;0.007115;0.078780;-0.034845;86.402669;0.078954;
986;467;0.079660;0.207809;1.000000;0.000226;-0.000496;0.001487;0.000120;0.001494;-0.000503;86.544701;0.001521;
1156;707;-0.063516;0.898483;0.999996;0.000537;-0.003129;0.007819;-0.000427;0.007836;-0.003146;-87.769299;0.007886;
1201;367;-0.009787;0.049484;1.000000;0.000055;-0.000155;0.001349;-0.000120;0.001359;-0.000164;-85.481272;0.001483;
1136;772;-0.010150;1.666266;0.999990;0.001059;-0.007088;0.016710;-0.000041;0.016710;-0.007088;-89.902183;0.016774;
1241;1777;-0.057529;86.210242;1.000000;0.000124;-0.000539;0.001561;0.000114;0.001567;-0.000545;86.892998;0.001591;
1256;1572;-0.248354;85.733495;0.999995;0.000735;-0.002247;0.005634;0.001721;0.005994;-0.002606;78.205601;0.006011;
1291;457;-0.077496;0.193081;0.999999;0.000164;-0.000464;0.001461;-0.000098;0.001466;-0.000469;-87.107595;0.001497;
1011;722;0.484330;1.058437;0.999988;0.001061;-0.004179;0.009889;0.002935;0.010477;-0.004767;78.676814;0.010491;
1096;1687;0.035014;86.063773;1.000000;0.000101;-0.000923;0.002024;-0.000107;0.002028;-0.000927;-87.924561;0.002031;
1181;572;-0.047246;0.376822;0.999998;0.000374;-0.000980;0.002147;-0.000157;0.002155;-0.000988;-87.136831;0.002157;
1066;1847;0.018065;86.319362;0.999999;0.000222;-0.000281;0.001428;-0.000108;0.001435;-0.000287;-86.397278;0.001518;
1206;1302;-2.435865;78.110537;0.999772;0.007147;-0.034621;0.078694;0.007701;0.079215;-0.035142;86.129934;0.079383;
991;467;0.076869;0.206834;0.999999;0.000191;-0.000502;0.001499;0.000127;0.001507;-0.000510;86.385267;0.001533;
1191;397;-0.015034;0.090742;1.000000;0.000058;-0.000274;0.001415;-0.000091;0.001420;-0.000279;-86.941009;0.001505;
1126;772;0.060983;1.665724;0.999981;0.001066;-0.007108;0.016692;0.000335;0.016696;-0.007113;89.194731;0.016757;
1246;1777;-0.059975;86.208986;1.000000;0.000113;-0.000537;0.001557;0.000118;0.001564;-0.000544;86.789465;0.001588;
1271;522;-0.095591;0.288767;0.999998;0.000311;-0.000571;0.001551;-0.000201;0.001570;-0.000590;-84.627897;0.001586;
1261;1572;-0.258635;85.734765;0.999995;0.000621;-0.002246;0.005659;0.001800;0.006049;-0.002637;77.756737;0.006066;
1006;457;0.064594;0.188608;0.999999;0.000157;-0.000501;0.001530;0.000126;0.001538;-0.000508;86.468520;0.001567;
1016;722;0.463538;1.056210;0.999988;0.001091;-0.004178;0.009896;0.002818;0.010439;-0.004721;79.088382;0.010455;
1101;1687;0.030268;86.063558;1.000000;0.000108;-0.000937;0.002037;-0.000093;0.002040;-0.000940;-88.205502;0.002042;
996;467;0.074246;0.205737;0.999999;0.000154;-0.000505;0.001509;0.000128;0.001517;-0.000513;86.387108;0.001543;
1071;1317;1.811624;79.182024;0.999772;0.004655;-0.029940;0.067998;-0.006180;0.068387;-0.030329;-86.403639;0.068532;
1016;597;0.120100;0.418248;0.999997;0.000412;-0.000719;0.002026;0.000443;0.002096;-0.000789;81.055402;0.002117;
1266;1572;-0.268388;85.735745;0.999994;0.000699;-0.002256;0.005673;0.001878;0.006095;-0.002678;77.328534;0.006110;
1166;1597;-0.050047;85.826155;0.999999;0.000167;-0.001524;0.003659;0.000279;0.003674;-0.001539;86.928528;0.003690;
1211;387;-0.017457;0.077229;1.000000;0.000057;-0.000242;0.001411;-0.000129;0.001421;-0.000252;-85.559071;0.001516;
1191;737;-0.258123;1.189600;0.999987;0.001241;-0.004727;0.011426;-0.001581;0.011579;-0.004880;-84.461820;0.011626;
1271;527;-0.097079;0.296387;0.999998;0.000354;-0.000570;0.001554;-0.000212;0.001575;-0.000590;-84.361477;0.001592;
1021;722;0.443142;1.054549;0.999987;0.001236;-0.004167;0.009886;0.002698;0.010386;-0.004667;79.495752;0.010404;
1016;462;0.061929;0.194674;0.999999;0.000226;-0.000518;0.001546;0.000125;0.001554;-0.000526;86.559084;0.001581;
1206;1862;-0.015297;86.340556;1.000000;0.000141;-0.000226;0.001402;0.000129;0.001412;-0.000236;85.496878;0.001512;
1086;1687;0.044325;86.064047;1.000000;0.000173;-0.000895;0.001990;-0.000134;0.001996;-0.000901;-87.339180;0.002000;
1211;1307;-2.527217;78.428014;0.999782;0.005969;-0.033229;0.075486;0.008187;0.076099;-0.033842;85.717222;0.076254;
1216;497;-0.051686;0.244990;1.000000;0.000222;-0.000616;0.001614;-0.000102;0.001619;-0.000620;-87.381412;0.001634;
1021;597;0.117482;0.419260;0.999998;0.000410;-0.000749;0.002063;0.000425;0.002126;-0.000812;81.599086;0.002146;
1211;392;-0.019011;0.084410;1.000000;0.000069;-0.000262;0.001421;-0.000126;0.001430;-0.000272;-85.739666;0.001519;
1171;1597;-0.057530;85.827332;0.999999;0.000222;-0.001527;0.003673;0.000322;0.003693;-0.001546;86.464632;0.003709;
1156;782;-0.172896;1.835820;0.999986;0.001407;-0.007840;0.018368;-0.000867;0.018397;-0.007869;-88.106336;0.018461;
1096;762;0.245085;1.506827;0.999989;0.001156;-0.006348;0.015047;0.001268;0.015122;-0.006423;86.619654;0.015179;
1206;507;-0.048231;0.259756;0.999999;0.000195;-0.000644;0.001632;-0.000099;0.001636;-0.000649;-87.519982;0.001648;
1156;637;-0.029202;0.551975;0.999998;0.000425;-0.001418;0.003290;-0.000167;0.003296;-0.001424;-87.975417;0.003306;
1161;1507;-0.128591;85.223009;0.999992;0.000732;-0.004674;0.011445;0.000728;0.011478;-0.004707;87.417996;0.011540;
1211;1862;-0.016285;86.340753;1.000000;0.000174;-0.000228;0.001406;0.000138;0.001418;-0.000240;85.200010;0.001518;
1106;1692;0.024812;86.073539;1.000000;0.000117;-0.000922;0.001995;-0.000076;0.001997;-0.000924;-88.514586;0.001999;
981;452;0.074323;0.185721;1.000000;0.000221;-0.000469;0.001487;0.000100;0.001493;-0.000474;87.072651;0.001525;
1026;597;0.114940;0.420144;0.999997;0.000559;-0.000782;0.002102;0.000414;0.002160;-0.000840;82.000554;0.002178;
1136;1312;-0.100271;78.911622;0.999763;0.004921;-0.029920;0.069119;0.000277;0.069120;-0.029921;89.839494;0.069327;
1196;352;-0.005382;0.029664;1.000000;0.000052;-0.000092;0.001327;-0.000113;0.001336;-0.000101;-85.462770;0.001488;
1176;1597;-0.065794;85.828117;0.999999;0.000313;-0.001525;0.003690;0.000366;0.003715;-0.001551;86.006365;0.003732;
1221;722;-0.331685;1.040285;0.999987;0.001059;-0.004032;0.009732;-0.002080;0.010040;-0.004340;-81.592383;0.010071;
1166;767;-0.208203;1.589567;0.999989;0.000992;-0.006655;0.015834;-0.001133;0.015891;-0.006712;-87.123790;0.015955;
1211;507;-0.051235;0.260804;1.000000;0.000157;-0.000644;0.001632;-0.000105;0.001637;-0.000649;-87.365058;0.001649;
1161;637;-0.035946;0.551350;0.999998;0.000390;-0.001404;0.003287;-0.000204;0.003296;-0.001413;-87.520558;0.003307;
1036;1322;2.763808;79.430246;0.999457;0.005791;-0.029452;0.066291;-0.010201;0.067366;-0.030527;-83.985095;0.067464;
1061;1522;0.270472;85.376061;0.999992;0.000724;-0.003944;0.009462;-0.001709;0.009676;-0.004159;-82.847608;0.009708;
981;457;0.076236;0.192954;1.000000;0.000239;-0.000474;0.001485;0.000103;0.001491;-0.000479;87.006333;0.001522;
1201;352;-0.005879;0.029727;1.000000;0.000049;-0.000094;0.001330;-0.000123;0.001341;-0.000104;-85.104657;0.001491;
1126;1792;0.003482;86.240712;1.000000;0.000136;-0.000473;0.001516;-0.000009;0.001516;-0.000473;-89.748035;0.001551;
1011;1757;0.072574;86.178191;1.000000;0.000222;-0.000565;0.001560;-0.000138;0.001568;-0.000574;-86.290706;0.001587;
1081;602;0.062929;0.445490;0.999998;0.000377;-0.001094;0.002487;0.000241;0.002503;-0.001110;86.166579;0.002508;
1166;772;-0.219756;1.672033;0.999986;0.001286;-0.007028;0.016670;-0.001182;0.016729;-0.007087;-87.152146;0.016794;
1201;727;-0.269839;1.087537;0.999987;0.001094;-0.004222;0.010253;-0.001678;0.010445;-0.004414;-83.473919;0.010486;
986;452;0.072318;0.184528;1.000000;0.000187;-0.000475;0.001496;0.000110;0.001502;-0.000481;86.811350;0.001534;
946;492;0.115003;0.262064;0.999853;0.003035;-0.000831;0.001156;-0.000037;0.001156;-0.000831;-88.923238;0.001193;
1301;1802;-0.076329;86.234972;1.000000;0.000180;-0.000521;0.001473;0.000071;0.001475;-0.000524;87.972399;0.001496;
1221;1322;-2.505010;79.431330;0.999771;0.004304;-0.029309;0.066009;0.008865;0.066827;-0.030126;84.731315;0.066934;
1206;352;-0.006339;0.029852;1.000000;0.000044;-0.000095;0.001334;-0.000132;0.001346;-0.000107;-84.762910;0.001496;
981;462;0.079511;0.201010;1.000000;0.000268;-0.000479;0.001484;0.000108;0.001490;-0.000485;86.848940;0.001520;
1056;1532;0.252728;85.467348;0.999994;0.000641;-0.003475;0.008422;-0.001643;0.008645;-0.003698;-82.279356;0.008675;
1011;1762;0.070768;86.185373;1.000000;0.000200;-0.000555;0.001553;-0.000133;0.001562;-0.000564;-86.399711;0.001582;
1056;1747;0.048985;86.166770;1.000000;0.000139;-0.000618;0.001617;-0.000094;0.001621;-0.000622;-87.596506;0.001635;
1176;677;-0.082152;0.710259;0.999998;0.000354;-0.002103;0.005304;-0.000568;0.005347;-0.002147;-85.642961;0.005382;
1136;777;-0.010614;1.747563;0.999987;0.001017;-0.007473;0.017530;-0.000061;0.017530;-0.007473;-89.860504;0.017593;
1321;507;-0.114530;0.270159;0.999939;0.002021;-0.000515;0.001215;-0.000161;0.001230;-0.000530;-84.721327;0.001234;
1201;732;-0.287142;1.136602;0.999983;0.001064;-0.004491;0.010829;-0.001758;0.011029;-0.004690;-83.537463;0.011070;
986;457;0.074391;0.192026;1.000000;0.000265;-0.000480;0.001495;0.000112;0.001501;-0.000487;86.750600;0.001532;
1211;352;-0.006742;0.029912;1.000000;0.000052;-0.000096;0.001338;-0.000142;0.001352;-0.000110;-84.398844;0.001501;
1191;1307;-1.859300;78.516207;0.999708;0.003795;-0.032423;0.073910;0.005747;0.074219;-0.032733;86.915387;0.074391;
1221;502;-0.056045;0.254076;0.999999;0.000204;-0.000626;0.001621;-0.000111;0.001627;-0.000632;-87.182895;0.001640;
1251;1857;-0.028487;86.329722;1.000000;0.000223;-0.000288;0.001470;0.000186;0.001490;-0.000307;84.029733;0.001573;
1271;1572;-0.282329;85.734231;0.999994;0.000795;-0.002263;0.005669;0.001955;0.006125;-0.002718;76.882362;0.006137;
1011;1767;0.069589;86.193686;1.000000;0.000191;-0.000546;0.001547;-0.000128;0.001555;-0.000554;-86.502834;0.001576;
1056;1752;0.047716;86.175060;1.000000;0.000122;-0.000606;0.001607;-0.000093;0.001611;-0.000610;-87.608878;0.001627;
1181;677;-0.092468;0.709660;0.999998;0.000452;-0.002122;0.005342;-0.000641;0.005396;-0.002177;-85.123628;0.005430;
1186;742;-0.253526;1.249935;0.999986;0.001187;-0.005022;0.012073;-0.001509;0.012206;-0.005154;-84.993362;0.012255;
986;462;0.076559;0.199937;1.000000;0.000280;-0.000487;0.001495;0.000118;0.001502;-0.000494;86.615170;0.001531;
1211;357;-0.008281;0.036243;1.000000;0.000059;-0.000117;0.001346;-0.000141;0.001359;-0.000131;-84.541323;0.001500;
1171;762;-0.227486;1.514252;0.999984;0.000949;-0.006275;0.014973;-0.001271;0.015049;-0.006351;-86.589552;0.015110;
1276;1572;-0.295802;85.734028;0.999980;0.001457;-0.002282;0.005636;0.002041;0.006131;-0.002777;76.363974;0.006140;
1106;607;0.035864;0.463577;0.999997;0.000386;-0.001192;0.002641;0.000138;0.002646;-0.001197;87.940264;0.002650;
1221;507;-0.057870;0.261940;0.999999;0.000211;-0.000638;0.001628;-0.000116;0.001634;-0.000643;-87.085888;0.001646;
1146;1307;-0.420073;78.555692;0.999820;0.003936;-0.031200;0.072151;0.001198;0.072165;-0.031214;89.335921;0.072384;
1246;1852;-0.029222;86.323618;1.000000;0.000171;-0.000300;0.001471;0.000174;0.001487;-0.000317;84.449800;0.001567;
1016;1767;0.066599;86.194485;1.000000;0.000184;-0.000551;0.001554;-0.000128;0.001562;-0.000559;-86.532348;0.001583;
1056;1757;0.046263;86.182632;1.000000;0.000107;-0.000592;0.001598;-0.000091;0.001602;-0.000596;-87.632512;0.001619;
1156;682;-0.044810;0.737652;0.999999;0.000317;-0.002218;0.005538;-0.000311;0.005550;-0.002230;-87.709975;0.005586;
1111;1327;0.575435;79.862278;0.999849;0.004579;-0.026926;0.061158;-0.001968;0.061202;-0.026970;-88.720470;0.061345;
1266;702;-0.394688;0.872200;0.999982;0.000979;-0.003209;0.007835;-0.002513;0.008379;-0.003753;-77.766289;0.008394;
1211;362;-0.009825;0.042845;1.000000;0.000074;-0.000138;0.001351;-0.000140;0.001364;-0.000151;-84.690810;0.001495;
1156;692;-0.050906;0.797136;0.999999;0.000394;-0.002537;0.006394;-0.000358;0.006408;-0.002552;-87.710935;0.006452;
1221;512;-0.059686;0.270009;0.999999;0.000241;-0.000649;0.001627;-0.000120;0.001634;-0.000655;-86.979861;0.001644;
1146;1312;-0.412827;78.924503;0.999787;0.004276;-0.030007;0.069096;0.001195;0.069111;-0.030021;89.309276;0.069309;
1096;602;0.046361;0.449887;0.999997;0.000532;-0.001138;0.002542;0.000179;0.002551;-0.001147;87.226459;0.002555;
1246;1857;-0.027072;86.330534;1.000000;0.000190;-0.000279;0.001462;0.000181;0.001481;-0.000298;84.136002;0.001567;
1181;922;-1.289858;6.881102;0.999829;0.003954;-0.028186;0.064334;-0.004365;0.064540;-0.028392;-87.304716;0.064695;
1021;1767;0.063446;86.194750;1.000000;0.000176;-0.000556;0.001563;-0.000125;0.001570;-0.000564;-86.624650;0.001591;
1156;667;-0.037784;0.663555;0.999999;0.000482;-0.001849;0.004555;-0.000259;0.004566;-0.001859;-87.689555;0.004592;
1141;1812;-0.002955;86.270142;1.000000;0.000147;-0.000399;0.001483;0.000011;0.001483;-0.000399;89.667885;0.001535;
1116;1327;0.431285;79.865139;0.999849;0.003631;-0.026850;0.061123;-0.001494;0.061148;-0.026875;-89.027141;0.061297;
1176;757;-0.244278;1.437269;0.999984;0.000892;-0.005930;0.014211;-0.001376;0.014305;-0.006024;-86.110439;0.014364;
1196;402;-0.017680;0.098025;1.000000;0.000050;-0.000296;0.001430;-0.000097;0.001435;-0.000301;-86.806827;0.001514;
1246;1862;-0.024708;86.337412;1.000000;0.000197;-0.000257;0.001447;0.000187;0.001467;-0.000277;83.819564;0.001559;
1156;662;-0.035961;0.642097;0.999998;0.000471;-0.001753;0.004272;-0.000244;0.004282;-0.001763;-87.683249;0.004304;
1201;922;-1.858561;6.917932;0.999798;0.003845;-0.028939;0.065518;-0.006521;0.065966;-0.029387;-86.069450;0.066096;
1031;587;0.104873;0.401536;0.999998;0.000510;-0.000764;0.001968;0.000340;0.002010;-0.000806;83.013100;0.002023;
1076;667;0.107650;0.662247;0.999998;0.000328;-0.001916;0.004783;0.000707;0.004857;-0.001990;84.037367;0.004883;
1156;687;-0.047488;0.765780;0.999999;0.000403;-0.002370;0.005945;-0.000335;0.005958;-0.002384;-87.695868;0.005998;
1226;1707;-0.074177;86.098512;1.000000;0.000180;-0.000683;0.001695;0.000170;0.001707;-0.000695;85.925206;0.001717;
1096;1327;0.987943;79.853591;0.999811;0.003876;-0.027193;0.061392;-0.003420;0.061524;-0.027325;-87.792411;0.061652;
1106;1682;0.026542;86.053724;1.000000;0.000119;-0.000972;0.002096;-0.000084;0.002098;-0.000974;-88.434166;0.002100;
1131;777;0.024898;1.749937;0.999988;0.001138;-0.007496;0.017538;0.000135;0.017538;-0.007497;89.690249;0.017600;
1146;1317;-0.395025;79.255032;0.999774;0.004650;-0.028852;0.066244;0.001173;0.066258;-0.028866;89.293224;0.066441;
1201;402;-0.019110;0.098285;1.000000;0.000069;-0.000298;0.001434;-0.000104;0.001440;-0.000304;-86.566389;0.001518;
1156;697;-0.055061;0.828148;0.999998;0.000464;-0.002720;0.006854;-0.000377;0.006869;-0.002735;-87.748270;0.006916;
1251;1852;-0.031023;86.323097;1.000000;0.000184;-0.000309;0.001479;0.000179;0.001496;-0.000327;84.351843;0.001574;
1031;592;0.106495;0.411077;0.999997;0.000690;-0.000786;0.002048;0.000370;0.002096;-0.000833;82.688107;0.002111;
1166;927;-0.908840;7.184906;0.999772;0.003794;-0.029026;0.066477;-0.002957;0.066568;-0.029117;-88.227990;0.066742;
1151;652;-0.025421;0.603326;0.999999;0.000340;-0.001603;0.003800;-0.000161;0.003805;-0.001608;-88.299039;0.003820;
1081;662;0.093801;0.639765;0.999998;0.000432;-0.001797;0.004451;0.000599;0.004508;-0.001854;84.576343;0.004532;
1176;762;-0.257365;1.513511;0.999984;0.000880;-0.006268;0.014955;-0.001440;0.015052;-0.006365;-86.135943;0.015112;
1101;1327;0.851066;79.858743;0.999842;0.003778;-0.027119;0.061304;-0.002946;0.061402;-0.027217;-88.094082;0.061533;
1011;727;0.516169;1.110667;0.999986;0.001030;-0.004412;0.010373;0.003094;0.010995;-0.005033;78.645497;0.011008;
1206;1867;-0.013605;86.347109;1.000000;0.000136;-0.000204;0.001388;0.000130;0.001399;-0.000215;85.349778;0.001507;
1201;347;-0.004618;0.023195;1.000000;0.000049;-0.000073;0.001322;-0.000124;0.001333;-0.000084;-84.978093;0.001493;
1151;1307;-0.582674;78.561972;0.999823;0.004671;-0.031302;0.072169;0.001657;0.072195;-0.031328;89.082907;0.072405;
1251;1862;-0.026119;86.336782;1.000000;0.000193;-0.000266;0.001455;0.000193;0.001476;-0.000288;83.674280;0.001565;
1091;662;0.075725;0.642317;0.999998;0.000406;-0.001776;0.004392;0.000482;0.004430;-0.001813;85.557835;0.004454;
1171;927;-1.060200;7.187707;0.999795;0.004339;-0.029135;0.066659;-0.003446;0.066783;-0.029259;-87.942599;0.066953;
1156;652;-0.032328;0.602738;0.999998;0.000335;-0.001594;0.003806;-0.000208;0.003814;-0.001602;-87.798470;0.003830;
1201;612;-0.078110;0.467020;0.999998;0.000392;-0.001093;0.002621;-0.000334;0.002650;-0.001123;-84.907388;0.002661;
1081;672;0.104986;0.685814;0.999999;0.000443;-0.002039;0.005067;0.000693;0.005134;-0.002106;84.481704;0.005161;
1131;1307;0.051457;78.566355;0.999771;0.003699;-0.031124;0.072234;-0.000253;0.072235;-0.031125;-89.859669;0.072464;
1171;767;-0.240175;1.588493;0.999985;0.000938;-0.006637;0.015813;-0.001318;0.015890;-0.006714;-86.652632;0.015953;
1221;497;-0.054818;0.245968;0.999999;0.000214;-0.000614;0.001612;-0.000108;0.001617;-0.000619;-87.229590;0.001632;
1206;347;-0.004958;0.023249;1.000000;0.000039;-0.000074;0.001326;-0.000133;0.001338;-0.000086;-84.628201;0.001498;
1211;1867;-0.014524;86.346520;1.000000;0.000151;-0.000207;0.001393;0.000139;0.001405;-0.000219;85.059864;0.001512;
1216;1312;-2.582463;78.761941;0.999745;0.004315;-0.031870;0.072282;0.008712;0.073006;-0.032594;85.251480;0.073145;
1206;372;-0.012084;0.056491;1.000000;0.000071;-0.000178;0.001366;-0.000127;0.001376;-0.000188;-85.321120;0.001492;
1176;927;-1.193414;7.189724;0.999785;0.005661;-0.029239;0.066881;-0.003962;0.067044;-0.029402;-87.643633;0.067213;
976;1857;0.042532;86.321938;1.000000;0.000189;-0.000391;0.001540;-0.000164;0.001553;-0.000405;-85.192720;0.001612;
1256;1562;-0.285818;85.669602;0.999995;0.000599;-0.002556;0.006326;0.001935;0.006729;-0.002959;78.230227;0.006746;
1136;702;-0.001474;0.860872;0.999998;0.000453;-0.002904;0.007274;-0.000025;0.007274;-0.002904;-89.860490;0.007323;
1206;512;-0.049803;0.268139;0.999999;0.000212;-0.000659;0.001636;-0.000105;0.001640;-0.000664;-87.395187;0.001650;
1151;672;-0.030016;0.687648;0.999999;0.000406;-0.001963;0.004854;-0.000213;0.004860;-0.001970;-88.213168;0.004889;
1201;617;-0.080144;0.479921;0.999998;0.000440;-0.001131;0.002741;-0.000362;0.002775;-0.001164;-84.709723;0.002787;
1171;772;-0.254549;1.671464;0.999985;0.001246;-0.007013;0.016659;-0.001371;0.016738;-0.007092;-86.697231;0.016802;
1216;492;-0.050288;0.236200;0.999999;0.000205;-0.000602;0.001609;-0.000099;0.001613;-0.000606;-87.430922;0.001630;
1076;1317;1.664688;79.200096;0.999763;0.004005;-0.029773;0.067760;-0.005662;0.068087;-0.030101;-86.688910;0.068239;
1106;1627;0.033528;85.920890;1.000000;0.000146;-0.001241;0.002819;-0.000149;0.002824;-0.001246;-87.903051;0.002831;
1206;367;-0.010579;0.049587;1.000000;0.000061;-0.000157;0.001353;-0.000129;0.001364;-0.000168;-85.166299;0.001487;
1206;922;-2.008086;6.934087;0.999768;0.003262;-0.029069;0.065700;-0.007129;0.066233;-0.029602;-85.721788;0.066357;
981;1857;0.040307;86.324294;1.000000;0.000206;-0.000373;0.001532;-0.000176;0.001548;-0.000390;-84.769707;0.001611;
1166;682;-0.066183;0.736619;0.999998;0.000319;-0.002222;0.005591;-0.000457;0.005618;-0.002249;-86.660545;0.005655;
1171;687;-0.081811;0.764714;0.999998;0.000374;-0.002391;0.006021;-0.000575;0.006060;-0.002430;-86.106361;0.006099;
1211;512;-0.052531;0.268557;0.999999;0.000162;-0.000658;0.001634;-0.000110;0.001639;-0.000663;-87.259754;0.001649;
1221;492;-0.053336;0.237143;0.999999;0.000220;-0.000601;0.001608;-0.000105;0.001613;-0.000606;-87.288654;0.001629;
1051;1532;0.270121;85.465517;0.999993;0.000727;-0.003489;0.008453;-0.001752;0.008705;-0.003741;-81.825033;0.008734;
1226;722;-0.348701;1.042052;0.999983;0.001030;-0.004061;0.009755;-0.002196;0.010096;-0.004401;-81.181595;0.010123;
1271;532;-0.098540;0.304950;0.999998;0.000387;-0.000567;0.001555;-0.000221;0.001578;-0.000589;-84.120790;0.001595;
1196;1297;-2.185398;77.757742;0.999779;0.004239;-0.035678;0.081683;0.006661;0.082060;-0.036055;86.762082;0.082261;
1206;362;-0.009135;0.042740;1.000000;0.000056;-0.000136;0.001347;-0.000130;0.001358;-0.000147;-85.024323;0.001490;
1181;927;-1.350019;7.203418;0.999791;0.004978;-0.029391;0.067135;-0.004495;0.067344;-0.029600;-87.339647;0.067508;
1166;1862;-0.006472;86.341249;1.000000;0.000167;-0.000205;0.001372;0.000057;0.001374;-0.000207;87.946429;0.001482;
971;1857;0.044600;86.319917;0.999999;0.000154;-0.000468;0.001552;-0.000132;0.001560;-0.000477;-86.278259;0.001599;
1166;687;-0.071210;0.764917;0.999999;0.000313;-0.002378;0.005992;-0.000494;0.006021;-0.002407;-86.636056;0.006061;
1171;692;-0.087362;0.796464;0.999998;0.000394;-0.002562;0.006464;-0.000621;0.006507;-0.002604;-86.085081;0.006550;
1216;502;-0.053122;0.253203;1.000000;0.000197;-0.000629;0.001624;-0.000105;0.001629;-0.000634;-87.331140;0.001642;
1251;1557;-0.293372;85.637020;0.999995;0.000595;-0.002723;0.006719;0.001966;0.007112;-0.003116;78.696199;0.007130;
1016;467;0.063498;0.201977;0.999999;0.000244;-0.000529;0.001543;0.000125;0.001551;-0.000537;86.555350;0.001575;
1206;612;-0.083440;0.463850;0.999998;0.000448;-0.001077;0.002603;-0.000358;0.002637;-0.001112;-84.496938;0.002648;
1086;757;0.288086;1.440872;0.999983;0.001090;-0.006006;0.014191;0.001558;0.014310;-0.006126;85.615996;0.014359;
1201;1297;-2.369166;77.744713;0.999745;0.004925;-0.035974;0.082236;0.007287;0.082683;-0.036422;86.485518;0.082878;
1191;357;-0.006070;0.035999;1.000000;0.000060;-0.000112;0.001332;-0.000103;0.001339;-0.000119;-85.921969;0.001482;
1186;927;-1.495034;7.208238;0.999817;0.003689;-0.029555;0.067419;-0.005053;0.067682;-0.029818;-87.025014;0.067841;
971;1862;0.040615;86.328573;0.999999;0.000180;-0.000454;0.001558;-0.000150;0.001569;-0.000465;-85.767542;0.001612;
1166;692;-0.075533;0.796251;0.999998;0.000368;-0.002549;0.006438;-0.000531;0.006469;-0.002580;-86.627953;0.006513;
1251;1657;-0.114172;86.012201;1.000000;0.000171;-0.000676;0.001901;0.000379;0.001955;-0.000730;81.811277;0.001976;
1161;697;-0.068102;0.829169;0.999998;0.000458;-0.002725;0.006874;-0.000467;0.006897;-0.002748;-87.220627;0.006944;
1216;507;-0.054232;0.260682;1.000000;0.000194;-0.000642;0.001630;-0.000110;0.001636;-0.000647;-87.239852;0.001648;
1256;1557;-0.304536;85.637559;0.999995;0.000524;-0.002730;0.006736;0.002047;0.007160;-0.003153;78.305004;0.007177;
1196;357;-0.006574;0.036159;1.000000;0.000048;-0.000113;0.001335;-0.000113;0.001343;-0.000121;-85.570877;0.001486;
1206;1297;-2.545900;77.719960;0.999720;0.006999;-0.036221;0.082625;0.007850;0.083141;-0.036738;86.237078;0.083328;
1206;617;-0.085478;0.477853;0.999998;0.000392;-0.001118;0.002725;-0.000389;0.002764;-0.001157;-84.282982;0.002776;
1196;737;-0.282492;1.189947;0.999986;0.001050;-0.004751;0.011426;-0.001715;0.011606;-0.004930;-84.014712;0.011650;
1231;912;-2.537129;6.375456;0.999771;0.003932;-0.027193;0.060622;-0.009396;0.061616;-0.028187;-83.960856;0.061690;
1061;477;0.042053;0.212272;0.999999;0.000199;-0.000573;0.001584;0.000084;0.001587;-0.000577;87.781619;0.001607;
1261;1557;-0.316735;85.638157;0.999995;0.000693;-0.002723;0.006740;0.002127;0.007196;-0.003179;77.895005;0.007213;
971;1867;0.037234;86.336957;0.999999;0.000185;-0.000434;0.001569;-0.000171;0.001584;-0.000448;-85.165641;0.001632;
1166;672;-0.058105;0.685664;0.999998;0.000372;-0.001952;0.004913;-0.000403;0.004937;-0.001975;-86.653253;0.004970;
1251;1662;-0.111907;86.021042;1.000000;0.000153;-0.000654;0.001832;0.000351;0.001880;-0.000703;82.120304;0.001900;
1081;657;0.088097;0.617067;0.999998;0.000461;-0.001693;0.004187;0.000554;0.004238;-0.001744;84.664604;0.004260;
1201;357;-0.007127;0.036142;1.000000;0.000046;-0.000114;0.001338;-0.000122;0.001348;-0.000124;-85.224425;0.001490;
1076;502;0.039079;0.251196;0.999999;0.000262;-0.000655;0.001630;0.000078;0.001633;-0.000658;88.037170;0.001643;
1061;1312;2.207801;78.811211;0.999747;0.004538;-0.031626;0.071676;-0.007499;0.072217;-0.032168;-85.869670;0.072361;
1181;682;-0.097755;0.737199;0.999998;0.000485;-0.002271;0.005696;-0.000686;0.005755;-0.002329;-85.116060;0.005789;
1081;757;0.320891;1.444874;0.999982;0.000984;-0.006033;0.014175;0.001724;0.014321;-0.006179;85.159876;0.014366;
1226;477;-0.051758;0.214053;1.000000;0.000224;-0.000559;0.001582;-0.000105;0.001587;-0.000565;-87.200978;0.001609;
1146;922;-0.316492;6.849355;0.999792;0.004373;-0.027598;0.063091;-0.001065;0.063104;-0.027610;-89.327308;0.063268;
1261;1562;-0.296641;85.670725;0.999995;0.000684;-0.002549;0.006326;0.002014;0.006762;-0.002984;77.795929;0.006777;
1166;677;-0.061931;0.711642;0.999998;0.000344;-0.002079;0.005243;-0.000427;0.005268;-0.002104;-86.671153;0.005303;
1251;1867;-0.023710;86.344565;1.000000;0.000165;-0.000244;0.001445;0.000199;0.001468;-0.000268;83.364606;0.001563;
1206;357;-0.007752;0.036124;1.000000;0.000055;-0.000115;0.001341;-0.000131;0.001353;-0.000127;-84.891425;0.001495;
1086;657;0.080345;0.617928;0.999998;0.000498;-0.001686;0.004160;0.000500;0.004203;-0.001729;85.151463;0.004224;
1251;1667;-0.109453;86.029602;1.000000;0.000150;-0.000640;0.001775;0.000325;0.001818;-0.000683;82.465393;0.001836;
946;522;0.133516;0.289132;0.999930;0.002370;-0.000620;0.001076;0.000159;0.001091;-0.000635;84.673866;0.001096;
1006;722;0.507143;1.055404;0.999990;0.001009;-0.004175;0.009858;0.003046;0.010491;-0.004808;78.267764;0.010503;
1146;1302;-0.433193;78.208614;0.999791;0.004342;-0.032465;0.075440;0.001185;0.075453;-0.032478;89.370684;0.075696;
976;452;0.076821;0.187213;1.000000;0.000246;-0.000461;0.001478;0.000091;0.001482;-0.000465;87.320588;0.001516;
1151;927;-0.475661;7.165369;0.999786;0.004242;-0.028762;0.066044;-0.001552;0.066069;-0.028787;-89.062546;0.066251;
1231;477;-0.054892;0.214556;0.999999;0.000193;-0.000561;0.001579;-0.000109;0.001585;-0.000567;-87.099808;0.001606;
1261;1567;-0.276623;85.704497;0.999994;0.000708;-0.002390;0.005977;0.001907;0.006391;-0.002804;77.746325;0.006407;
1091;657;0.071401;0.620599;0.999998;0.000466;-0.001678;0.004134;0.000447;0.004168;-0.001712;85.631806;0.004190;
951;522;0.119766;0.289471;0.999998;0.000403;-0.000575;0.001173;0.000178;0.001191;-0.000593;84.247055;0.001191;
1191;402;-0.016193;0.097887;1.000000;0.000058;-0.000294;0.001427;-0.000089;0.001431;-0.000299;-87.060914;0.001510;
1006;727;0.540469;1.110939;0.999989;0.001090;-0.004398;0.010302;0.003222;0.010977;-0.005073;78.164499;0.010987;
1021;1842;0.033567;86.309115;1.000000;0.000187;-0.000343;0.001475;-0.000161;0.001489;-0.000357;-84.974011;0.001555;
1086;602;0.057697;0.446494;0.999998;0.000411;-0.001111;0.002506;0.000222;0.002520;-0.001125;86.505266;0.002525;
1156;1832;-0.007659;86.299893;1.000000;0.000172;-0.000323;0.001442;0.000036;0.001443;-0.000324;88.821712;0.001514;
1151;1302;-0.597389;78.207111;0.999808;0.004201;-0.032586;0.075489;0.001667;0.075515;-0.032611;89.116297;0.075748;
976;457;0.079164;0.194842;1.000000;0.000259;-0.000464;0.001475;0.000094;0.001479;-0.000469;87.236659;0.001512;
1156;927;-0.616998;7.169941;0.999806;0.003787;-0.028837;0.066151;-0.002015;0.066194;-0.028879;-88.785195;0.066373;
1246;1557;-0.280495;85.637737;0.999994;0.000914;-0.002692;0.006706;0.001893;0.007073;-0.003058;79.029953;0.007094;
1166;502;-0.021151;0.248750;0.999999;0.000203;-0.000668;0.001631;-0.000048;0.001632;-0.000669;-88.799004;0.001641;
956;522;0.117844;0.289717;0.999998;0.000402;-0.000553;0.001248;0.000193;0.001268;-0.000573;83.944107;0.001270;
1166;662;-0.052196;0.641200;0.999998;0.000383;-0.001738;0.004299;-0.000353;0.004319;-0.001759;-86.665771;0.004344;
1211;377;-0.014374;0.063532;1.000000;0.000046;-0.000201;0.001385;-0.000135;0.001396;-0.000212;-85.183595;0.001504;
1246;1867;-0.022774;86.345173;1.000000;0.000221;-0.000235;0.001436;0.000192;0.001458;-0.000257;83.532975;0.001557;
1146;787;-0.092727;1.935861;0.999984;0.001090;-0.008264;0.019348;-0.000482;0.019356;-0.008273;-89.000674;0.019424;
1156;1302;-0.755257;78.200909;0.999779;0.003952;-0.032720;0.075604;0.002175;0.075648;-0.032764;88.850025;0.075873;
1091;602;0.053006;0.447747;0.999998;0.000575;-0.001123;0.002526;0.000200;0.002537;-0.001134;86.868904;0.002542;
1161;927;-0.756305;7.177179;0.999775;0.003972;-0.028940;0.066310;-0.002484;0.066374;-0.029005;-88.507030;0.066550;
976;462;0.082068;0.202360;0.999999;0.000277;-0.000469;0.001473;0.000100;0.001478;-0.000474;87.057763;0.001510;
1266;1567;-0.289126;85.705440;0.999994;0.000733;-0.002396;0.005976;0.001984;0.006422;-0.002842;77.322284;0.006436;
981;1692;0.114564;86.078111;1.000000;0.000152;-0.000478;0.001501;-0.000293;0.001544;-0.000521;-81.742931;0.001571;
1056;577;0.079754;0.386030;0.999998;0.000377;-0.000874;0.002046;0.000252;0.002068;-0.000896;85.107712;0.002074;
1146;507;-0.007727;0.256238;0.999999;0.000253;-0.000700;0.001652;-0.000021;0.001652;-0.000701;-89.495126;0.001658;
1211;382;-0.015899;0.070629;1.000000;0.000050;-0.000222;0.001399;-0.000132;0.001409;-0.000232;-85.374754;0.001511;
1126;777;0.061780;1.751100;0.999984;0.001313;-0.007505;0.017536;0.000333;0.017541;-0.007509;89.237244;0.017601;
1141;652;-0.009335;0.604321;0.999998;0.000427;-0.001606;0.003797;-0.000066;0.003797;-0.001607;-89.295501;0.003812;
1241;1857;-0.025464;86.331307;1.000000;0.000152;-0.000272;0.001453;0.000176;0.001471;-0.000289;84.241612;0.001559;
1141;1302;-0.270756;78.217798;0.999724;0.004260;-0.032362;0.075420;0.000708;0.075425;-0.032366;89.623758;0.075677;
1211;347;-0.005253;0.023483;1.000000;0.000050;-0.000075;0.001330;-0.000143;0.001344;-0.000089;-84.246177;0.001503;
1066;577;0.070735;0.386692;0.999998;0.000343;-0.000910;0.002102;0.000230;0.002119;-0.000928;85.649521;0.002125;
1166;667;-0.054826;0.662063;0.999998;0.000360;-0.001840;0.004589;-0.000377;0.004611;-0.001862;-86.652774;0.004640;
1146;927;-0.330558;7.159835;0.999753;0.004512;-0.028724;0.065959;-0.001102;0.065972;-0.028737;-89.333562;0.066154;
1151;787;-0.135945;1.935783;0.999983;0.001491;-0.008253;0.019328;-0.000690;0.019345;-0.008270;-88.567062;0.019413;
1121;1332;0.284073;80.146970;0.999840;0.003164;-0.025734;0.058743;-0.000997;0.058755;-0.025746;-89.324056;0.058905;
1106;1687;0.025775;86.063394;1.000000;0.000130;-0.000947;0.002048;-0.000080;0.002050;-0.000949;-88.479994;0.002052;
1126;782;0.065444;1.841138;0.999987;0.001188;-0.007913;0.018476;0.000339;0.018480;-0.007917;89.265102;0.018543;
1191;407;-0.017296;0.105139;1.000000;0.000061;-0.000314;0.001438;-0.000086;0.001443;-0.000318;-87.187403;0.001516;
1076;677;0.120196;0.709297;0.999998;0.000435;-0.002183;0.005424;0.000808;0.005509;-0.002268;84.000408;0.005538;
1141;1307;-0.259336;78.558698;0.999772;0.004464;-0.031106;0.072164;0.000736;0.072170;-0.031112;89.591429;0.072398;
1241;1862;-0.023269;86.338261;1.000000;0.000192;-0.000250;0.001439;0.000181;0.001458;-0.000269;83.967162;0.001552;
1206;397;-0.019005;0.091306;1.000000;0.000069;-0.000280;0.001427;-0.000115;0.001434;-0.000287;-86.165134;0.001518;
1096;662;0.067145;0.643803;0.999998;0.000354;-0.001766;0.004365;0.000425;0.004394;-0.001795;86.057694;0.004418;
1191;927;-1.638001;7.217360;0.999803;0.003820;-0.029693;0.067727;-0.005587;0.068047;-0.030013;-86.728178;0.068204;
1246;717;-0.403730;0.999501;0.999981;0.001181;-0.003911;0.009288;-0.002528;0.009756;-0.004378;-79.519981;0.009773;
1261;537;-0.094714;0.312370;0.999998;0.000314;-0.000583;0.001593;-0.000219;0.001615;-0.000605;-84.303610;0.001632;
1126;1332;0.160147;80.145279;0.999898;0.002206;-0.025677;0.058674;-0.000517;0.058678;-0.025681;-89.648753;0.058829;
1131;782;0.029303;1.839784;0.999989;0.000991;-0.007902;0.018462;0.000131;0.018463;-0.007902;89.715979;0.018527;
1196;407;-0.018872;0.105086;1.000000;0.000050;-0.000316;0.001441;-0.000094;0.001446;-0.000321;-86.944902;0.001519;
1146;647;-0.016561;0.586178;0.999998;0.000331;-0.001539;0.003601;-0.000105;0.003603;-0.001541;-88.829031;0.003616;
1101;1682;0.031180;86.053696;1.000000;0.000103;-0.000961;0.002084;-0.000099;0.002087;-0.000964;-88.146293;0.002089;
1141;1312;-0.257308;78.921192;0.999668;0.005138;-0.029926;0.069103;0.000750;0.069109;-0.029931;89.566123;0.069315;
1241;1867;-0.021098;86.345843;1.000000;0.000240;-0.000228;0.001427;0.000185;0.001448;-0.000248;83.697648;0.001549;
1206;402;-0.020293;0.098550;1.000000;0.000082;-0.000299;0.001438;-0.000112;0.001445;-0.000307;-86.320213;0.001522;
1106;657;0.046803;0.622561;0.999998;0.000377;-0.001670;0.004078;0.000291;0.004092;-0.001684;87.111057;0.004114;
1016;727;0.495802;1.109047;0.999985;0.000973;-0.004418;0.010406;0.002966;0.010977;-0.004989;79.096250;0.010992;
1131;1332;0.032043;80.150832;0.999894;0.002515;-0.025615;0.058570;-0.000071;0.058570;-0.025615;-89.951534;0.058723;
1266;537;-0.097821;0.312699;0.999998;0.000322;-0.000571;0.001578;-0.000225;0.001602;-0.000594;-84.079345;0.001619;
1106;917;0.757887;6.573220;0.999779;0.003416;-0.026565;0.060903;0.002486;0.060973;-0.026636;88.373583;0.061135;
1136;782;-0.008679;1.834800;0.999987;0.000866;-0.007879;0.018438;-0.000070;0.018438;-0.007879;-89.847061;0.018503;
1201;407;-0.020301;0.105361;1.000000;0.000071;-0.000318;0.001445;-0.000101;0.001450;-0.000324;-86.715390;0.001523;
1151;647;-0.023576;0.585417;0.999998;0.000310;-0.001537;0.003602;-0.000149;0.003606;-0.001542;-88.335974;0.003619;
1141;1317;-0.254680;79.257006;0.999696;0.005112;-0.028791;0.066237;0.000744;0.066243;-0.028797;89.551570;0.066431;
1096;1682;0.035911;86.053708;1.000000;0.000119;-0.000947;0.002071;-0.000113;0.002075;-0.000951;-87.856050;0.002077;
1241;1852;-0.028014;86.324249;1.000000;0.000157;-0.000293;0.001463;0.000169;0.001479;-0.000310;84.540543;0.001560;
1186;362;-0.006427;0.042461;1.000000;0.000064;-0.000130;0.001334;-0.000094;0.001340;-0.000136;-86.358117;0.001475;
1141;702;-0.015962;0.860142;0.999998;0.000373;-0.002907;0.007277;-0.000121;0.007278;-0.002909;-89.319496;0.007327;
1021;727;0.476186;1.106992;0.999984;0.001245;-0.004410;0.010414;0.002834;0.010937;-0.004934;79.536432;0.010955;
1136;1322;-0.106836;79.571484;0.999793;0.003585;-0.027691;0.063543;0.000306;0.063545;-0.027692;89.807636;0.063719;
1271;537;-0.100517;0.313192;0.999998;0.000479;-0.000562;0.001560;-0.000230;0.001584;-0.000587;-83.891306;0.001602;
1211;372;-0.012883;0.056668;1.000000;0.000063;-0.000180;0.001370;-0.000137;0.001382;-0.000192;-85.003856;0.001497;
1116;922;0.508857;6.850916;0.999781;0.004120;-0.027540;0.063229;0.001572;0.063256;-0.027568;89.008055;0.063430;
1161;777;-0.196099;1.750873;0.999986;0.001234;-0.007434;0.017494;-0.001032;0.017537;-0.007476;-87.632592;0.017600;
1101;1677;0.032149;86.043136;1.000000;0.000098;-0.000984;0.002130;-0.000105;0.002134;-0.000987;-88.077318;0.002136;
1176;1312;-1.313851;78.889021;0.999706;0.004083;-0.030465;0.069840;0.003964;0.069996;-0.030621;87.740212;0.070179;
1246;1872;-0.020195;86.352042;1.000000;0.000196;-0.000211;0.001422;0.000197;0.001446;-0.000235;83.206813;0.001552;
1061;577;0.075115;0.387022;0.999998;0.000309;-0.000894;0.002075;0.000242;0.002094;-0.000914;85.377324;0.002100;
1216;387;-0.018730;0.077629;1.000000;0.000066;-0.000245;0.001415;-0.000138;0.001426;-0.000257;-85.286141;0.001520;
1261;707;-0.404391;0.916400;0.999983;0.000921;-0.003459;0.008382;-0.002583;0.008921;-0.003998;-78.214054;0.008937;
1146;702;-0.029858;0.859931;0.999998;0.000369;-0.002909;0.007286;-0.000215;0.007290;-0.002914;-88.791360;0.007339;
1136;1327;-0.098001;79.859917;0.999870;0.003124;-0.026632;0.060984;0.000344;0.060985;-0.026633;89.774825;0.061148;
1216;347;-0.005827;0.023445;1.000000;0.000080;-0.000076;0.001334;-0.000154;0.001351;-0.000093;-83.846639;0.001509;
951;527;0.120861;0.292955;0.999998;0.000373;-0.000581;0.001158;0.000227;0.001187;-0.000610;82.681806;0.001187;
1121;922;0.370400;6.847186;0.999777;0.004043;-0.027542;0.063130;0.001111;0.063143;-0.027556;89.298074;0.063313;
1161;782;-0.209829;1.838491;0.999984;0.001281;-0.007841;0.018367;-0.001077;0.018411;-0.007885;-87.651425;0.018474;
1216;1307;-2.687505;78.411220;0.999756;0.004412;-0.033387;0.075918;0.008843;0.076629;-0.034097;85.404486;0.076783;
1106;1677;0.027161;86.043180;1.000000;0.000094;-0.000995;0.002143;-0.000089;0.002146;-0.000998;-88.373640;0.002147;
1251;1872;-0.021265;86.352104;1.000000;0.000165;-0.000220;0.001431;0.000205;0.001456;-0.000245;83.026090;0.001559;
1101;622;0.044153;0.505137;0.999997;0.000362;-0.001271;0.002909;0.000195;0.002918;-0.001280;87.341638;0.002925;
1156;347;-0.001515;0.022708;1.000000;0.000059;-0.000068;0.001306;-0.000039;0.001308;-0.000069;-88.368476;0.001471;
1216;352;-0.007372;0.029995;1.000000;0.000074;-0.000097;0.001342;-0.000153;0.001358;-0.000113;-84.017781;0.001507;
1166;777;-0.235684;1.751197;0.999984;0.001636;-0.007420;0.017494;-0.001238;0.017556;-0.007481;-87.163149;0.017619;
1151;702;-0.044087;0.860354;0.999998;0.000509;-0.002914;0.007299;-0.000308;0.007308;-0.002924;-88.274270;0.007357;
956;527;0.119636;0.294671;0.999997;0.000386;-0.000558;0.001238;0.000233;0.001268;-0.000587;82.716807;0.001269;
1136;1332;-0.093637;80.144146;0.999884;0.003057;-0.025585;0.058473;0.000364;0.058475;-0.025586;89.751719;0.058627;
1181;932;-1.403262;7.545982;0.999796;0.005159;-0.030655;0.070228;-0.004639;0.070441;-0.030868;-87.372959;0.070620;
1111;1677;0.022392;86.042964;1.000000;0.000140;-0.001004;0.002154;-0.000073;0.002156;-0.001006;-88.669269;0.002157;
1116;772;0.130707;1.664241;0.999981;0.001108;-0.007108;0.016674;0.000686;0.016693;-0.007128;88.348415;0.016753;
1161;1302;-0.926266;78.202569;0.999776;0.004227;-0.032822;0.075754;0.002698;0.075821;-0.032889;88.577207;0.076043;
1161;342;-0.001349;0.016310;1.000000;0.000075;-0.000050;0.001297;-0.000047;0.001299;-0.000051;-87.995610;0.001471;
1201;342;-0.003298;0.016508;1.000000;0.000054;-0.000053;0.001312;-0.000124;0.001323;-0.000064;-84.844013;0.001493;
1141;657;-0.009142;0.623460;0.999998;0.000530;-0.001682;0.004012;-0.000072;0.004013;-0.001683;-89.275276;0.004030;
986;1727;0.098608;86.130429;0.999999;0.000200;-0.000543;0.001499;-0.000199;0.001518;-0.000563;-84.487578;0.001535;
1126;792;0.071277;2.026267;0.999987;0.001230;-0.008762;0.020432;0.000339;0.020436;-0.008766;89.334340;0.020504;
1261;542;-0.096591;0.320116;0.999998;0.000379;-0.000579;0.001601;-0.000230;0.001625;-0.000603;-84.046054;0.001643;
1116;1332;0.409895;80.140187;0.999844;0.003546;-0.025823;0.058781;-0.001478;0.058807;-0.025849;-88.999711;0.058950;
1006;572;0.112506;0.370226;0.999998;0.000338;-0.000578;0.001684;0.000323;0.001730;-0.000623;82.030272;0.001752;
1186;932;-1.555787;7.560765;0.999810;0.004370;-0.030816;0.070501;-0.005212;0.070768;-0.031084;-87.062676;0.070942;
1206;342;-0.003592;0.016495;1.000000;0.000055;-0.000053;0.001315;-0.000133;0.001328;-0.000066;-84.491652;0.001497;
1161;347;-0.001877;0.022796;1.000000;0.000070;-0.000068;0.001308;-0.000048;0.001309;-0.000070;-88.018654;0.001473;
1091;1682;0.040969;86.054064;1.000000;0.000125;-0.000933;0.002054;-0.000127;0.002060;-0.000938;-87.562520;0.002062;
1121;772;0.095208;1.665439;0.999983;0.001046;-0.007105;0.016677;0.000515;0.016688;-0.007116;88.759572;0.016749;
1166;1302;-1.096767;78.200810;0.999675;0.004705;-0.032954;0.075899;0.003191;0.075992;-0.033047;88.322240;0.076207;
1131;792;0.030779;2.030367;0.999988;0.001071;-0.008755;0.020413;0.000117;0.020413;-0.008755;89.769483;0.020482;
986;1732;0.096302;86.137445;0.999999;0.000198;-0.000542;0.001498;-0.000188;0.001515;-0.000559;-84.771234;0.001533;
1266;542;-0.099670;0.320051;0.999998;0.000412;-0.000566;0.001584;-0.000236;0.001610;-0.000592;-83.805942;0.001628;
1106;1332;0.673910;80.138064;0.999788;0.004684;-0.025969;0.058899;-0.002421;0.058968;-0.026038;-88.367205;0.059102;
1211;342;-0.003875;0.016565;1.000000;0.000059;-0.000054;0.001319;-0.000144;0.001334;-0.000069;-84.093696;0.001502;
1181;402;-0.013076;0.097355;1.000000;0.000064;-0.000292;0.001422;-0.000072;0.001425;-0.000295;-87.584331;0.001504;
1186;1317;-1.562293;79.183751;0.999748;0.004735;-0.029486;0.067295;0.004932;0.067545;-0.029737;87.090161;0.067706;
1231;722;-0.369258;1.043645;0.999984;0.001008;-0.004087;0.009781;-0.002314;0.010157;-0.004463;-80.773538;0.010182;
1131;1802;0.000876;86.256036;1.000000;0.000137;-0.000435;0.001502;-0.000004;0.001502;-0.000435;-89.880590;0.001546;
1216;342;-0.004184;0.016812;1.000000;0.000072;-0.000055;0.001324;-0.000155;0.001341;-0.000073;-83.679638;0.001508;
1171;682;-0.076831;0.736976;0.999998;0.000322;-0.002232;0.005622;-0.000533;0.005658;-0.002268;-86.137400;0.005695;
1111;1332;0.545940;80.142333;0.999823;0.004568;-0.025890;0.058836;-0.001947;0.058880;-0.025934;-88.684154;0.059019;
1271;542;-0.102194;0.320184;0.999997;0.000523;-0.000557;0.001565;-0.000241;0.001592;-0.000584;-83.588796;0.001611;
1186;1897;-0.003510;86.387666;1.000000;0.000172;-0.000068;0.001342;0.000101;0.001349;-0.000075;85.934070;0.001516;
1006;577;0.115506;0.378532;0.999998;0.000407;-0.000582;0.001712;0.000348;0.001764;-0.000634;81.553125;0.001787;
1136;792;-0.012338;2.031539;0.999982;0.001141;-0.008731;0.020387;-0.000093;0.020387;-0.008731;-89.816868;0.020457;
1141;787;-0.049210;1.934769;0.999984;0.000992;-0.008280;0.019378;-0.000280;0.019381;-0.008282;-89.420100;0.019449;
1181;407;-0.014045;0.104471;1.000000;0.000051;-0.000312;0.001434;-0.000070;0.001437;-0.000314;-87.691274;0.001511;
1146;1297;-0.450639;77.860360;0.999778;0.004409;-0.033795;0.078844;0.001165;0.078856;-0.033807;89.407535;0.079123;
1216;357;-0.008892;0.036319;1.000000;0.000066;-0.000119;0.001351;-0.000151;0.001366;-0.000134;-84.184211;0.001506;
1191;1897;-0.003858;86.387787;1.000000;0.000164;-0.000070;0.001345;0.000107;0.001353;-0.000079;85.684721;0.001520;
1191;1742;-0.038973;86.159891;1.000000;0.000104;-0.000645;0.001627;0.000080;0.001630;-0.000648;87.988430;0.001642;
1096;1332;0.947231;80.125493;0.999777;0.004021;-0.026115;0.059015;-0.003376;0.059149;-0.026249;-87.732777;0.059273;
1161;647;-0.038981;0.583947;0.999998;0.000502;-0.001515;0.003608;-0.000237;0.003618;-0.001526;-87.354470;0.003633;
1071;662;0.109737;0.637218;0.999998;0.000363;-0.001804;0.004513;0.000717;0.004593;-0.001884;83.609659;0.004618;
1111;772;0.166252;1.665281;0.999982;0.001000;-0.007105;0.016671;0.000856;0.016702;-0.007136;87.940233;0.016760;
1101;602;0.040388;0.450042;0.999998;0.000468;-0.001153;0.002558;0.000157;0.002564;-0.001160;87.584056;0.002568;
1151;1297;-0.614530;77.850838;0.999792;0.003617;-0.033931;0.078969;0.001665;0.078994;-0.033956;89.155342;0.079253;
1181;412;-0.014955;0.111810;1.000000;0.000048;-0.000330;0.001444;-0.000069;0.001447;-0.000333;-87.777205;0.001515;
1126;787;0.070297;1.933371;0.999986;0.001115;-0.008332;0.019463;0.000345;0.019467;-0.008336;89.289841;0.019534;
1196;1897;-0.004198;86.387858;1.000000;0.000164;-0.000074;0.001350;0.000114;0.001359;-0.000083;85.462311;0.001524;
1186;397;-0.013503;0.090578;1.000000;0.000075;-0.000272;0.001412;-0.000082;0.001416;-0.000276;-87.221181;0.001502;
1101;1332;0.809813;80.134368;0.999796;0.004222;-0.026049;0.058956;-0.002907;0.059056;-0.026148;-88.043930;0.059184;
1191;1747;-0.037640;86.167426;1.000000;0.000108;-0.000629;0.001619;0.000077;0.001621;-0.000631;88.051645;0.001634;
1071;667;0.116782;0.660624;0.999998;0.000408;-0.001921;0.004817;0.000773;0.004904;-0.002009;83.534899;0.004931;
1301;537;-0.116775;0.308351;0.999997;0.000378;-0.000502;0.001391;-0.000278;0.001431;-0.000542;-81.829604;0.001445;
986;552;0.114833;0.335135;0.999997;0.000553;-0.000502;0.001542;0.000289;0.001582;-0.000542;82.104261;0.001608;
1091;667;0.079816;0.665732;0.999998;0.000457;-0.001886;0.004686;0.000522;0.004727;-0.001927;85.489518;0.004754;
1156;1297;-0.781191;77.842381;0.999751;0.003390;-0.034089;0.079164;0.002190;0.079206;-0.034131;88.892388;0.079458;
1131;787;0.030431;1.930923;0.999989;0.000932;-0.008324;0.019445;0.000129;0.019445;-0.008325;89.733795;0.019512;
1206;727;-0.290406;1.088485;0.999988;0.001045;-0.004241;0.010265;-0.001803;0.010486;-0.004462;-83.021799;0.010524;
1186;402;-0.014584;0.097696;1.000000;0.000072;-0.000293;0.001425;-0.000080;0.001428;-0.000296;-87.333259;0.001508;
1236;1862;-0.022171;86.339083;1.000000;0.000183;-0.000244;0.001432;0.000174;0.001450;-0.000262;84.131932;0.001545;
1136;1317;-0.107137;79.251806;0.999775;0.004296;-0.028786;0.066232;0.000282;0.066233;-0.028786;89.829925;0.066422;
1191;1752;-0.036288;86.175601;1.000000;0.000117;-0.000613;0.001611;0.000074;0.001614;-0.000615;88.099321;0.001629;
1161;657;-0.041839;0.622236;0.999998;0.000401;-0.001655;0.004041;-0.000276;0.004054;-0.001668;-87.229483;0.004075;
1161;702;-0.072565;0.861850;0.999997;0.000596;-0.002923;0.007340;-0.000496;0.007364;-0.002947;-87.241672;0.007412;
1136;787;-0.008327;1.934330;0.999985;0.000978;-0.008301;0.019416;-0.000076;0.019416;-0.008301;-89.841946;0.019484;
1141;1297;-0.285010;77.866437;0.999689;0.004137;-0.033676;0.078752;0.000683;0.078756;-0.033680;89.651727;0.079031;
1011;582;0.115044;0.387527;0.999997;0.000465;-0.000617;0.001769;0.000359;0.001821;-0.000670;81.628841;0.001842;
1146;657;-0.018211;0.622809;0.999999;0.000517;-0.001680;0.004014;-0.000123;0.004016;-0.001683;-88.767767;0.004034;
1186;407;-0.015625;0.104762;1.000000;0.000060;-0.000312;0.001436;-0.000078;0.001440;-0.000316;-87.449910;0.001513;
1236;1867;-0.019662;86.345847;1.000000;0.000205;-0.000222;0.001420;0.000177;0.001439;-0.000241;83.905818;0.001542;
1191;932;-1.709150;7.571621;0.999795;0.004144;-0.030958;0.070797;-0.005751;0.071121;-0.031282;-86.775445;0.071293;
1211;727;-0.311749;1.090822;0.999985;0.001031;-0.004255;0.010279;-0.001928;0.010531;-0.004506;-82.569817;0.010567;
1121;1337;0.279532;80.412156;0.999854;0.003332;-0.024709;0.056207;-0.000985;0.056219;-0.024721;-89.302583;0.056355;
1166;657;-0.050076;0.621380;0.999998;0.000407;-0.001648;0.004053;-0.000326;0.004071;-0.001667;-86.736834;0.004093;
1006;732;0.583048;1.166710;0.999974;0.001398;-0.004685;0.010799;0.003352;0.011494;-0.005380;78.294749;0.011502;
1196;1707;-0.052910;86.100868;1.000000;0.000138;-0.000768;0.001769;0.000135;0.001776;-0.000775;86.961533;0.001781;
1221;1317;-2.612128;79.102180;0.999762;0.004221;-0.030616;0.069146;0.009149;0.069978;-0.031448;84.802989;0.070098;
1026;557;0.093631;0.346518;0.999998;0.000378;-0.000663;0.001716;0.000237;0.001739;-0.000687;84.375013;0.001752;
1151;657;-0.026682;0.622956;0.999999;0.000426;-0.001676;0.004020;-0.000174;0.004025;-0.001682;-88.250650;0.004043;
1236;1872;-0.017970;86.352232;1.000000;0.000184;-0.000199;0.001404;0.000183;0.001425;-0.000220;83.577523;0.001534;
1216;377;-0.015413;0.063703;1.000000;0.000053;-0.000203;0.001389;-0.000144;0.001402;-0.000216;-84.886769;0.001509;
1251;712;-0.397176;0.958228;0.999984;0.000913;-0.003720;0.008847;-0.002518;0.009332;-0.004205;-79.082371;0.009347;
1156;647;-0.030867;0.584658;0.999998;0.000415;-0.001527;0.003604;-0.000193;0.003611;-0.001535;-87.844600;0.003624;
1126;922;0.230848;6.842596;0.999756;0.004434;-0.027495;0.063057;0.000660;0.063061;-0.027500;89.582327;0.063233;
1111;647;0.036458;0.583852;0.999998;0.000322;-0.001526;0.003648;0.000201;0.003656;-0.001534;87.777724;0.003671;
1011;732;0.550371;1.164267;0.999985;0.001052;-0.004699;0.010893;0.003219;0.011532;-0.005337;78.782540;0.011542;
1231;1327;-2.708370;79.708889;0.999780;0.003905;-0.028298;0.063057;0.009547;0.064044;-0.029285;84.097443;0.064122;
1196;1712;-0.051593;86.109619;1.000000;0.000148;-0.000748;0.001736;0.000127;0.001743;-0.000755;87.085243;0.001748;
1031;557;0.090940;0.346411;0.999998;0.000431;-0.000684;0.001738;0.000232;0.001760;-0.000707;84.568213;0.001771;
1216;382;-0.017043;0.070746;1.000000;0.000063;-0.000224;0.001403;-0.000141;0.001415;-0.000236;-85.089013;0.001516;
1241;1872;-0.018861;86.351925;1.000000;0.000202;-0.000204;0.001412;0.000191;0.001434;-0.000226;83.364695;0.001542;
986;1692;0.111785;86.076700;1.000000;0.000145;-0.000510;0.001524;-0.000290;0.001565;-0.000551;-82.033949;0.001588;
1196;927;-1.787271;7.220845;0.999815;0.003616;-0.029888;0.068042;-0.006149;0.068426;-0.030272;-86.421119;0.068578;
1116;647;0.028430;0.585441;0.999998;0.000415;-0.001527;0.003637;0.000154;0.003641;-0.001532;88.294383;0.003656;
1126;652;0.014065;0.604186;0.999998;0.000442;-0.001605;0.003809;0.000074;0.003810;-0.001606;89.212998;0.003826;
1186;412;-0.016703;0.112062;1.000000;0.000059;-0.000331;0.001446;-0.000076;0.001450;-0.000335;-87.549738;0.001518;
1051;1527;0.289401;85.421937;0.999992;0.000679;-0.003711;0.008962;-0.001849;0.009226;-0.003975;-81.867497;0.009255;
1151;507;-0.011492;0.256631;0.999999;0.000236;-0.000699;0.001650;-0.000029;0.001650;-0.000699;-89.288943;0.001656;
1191;1297;-2.007779;77.756774;0.999751;0.004305;-0.035428;0.081190;0.006070;0.081505;-0.035743;87.028613;0.081710;
1196;1742;-0.042008;86.159100;1.000000;0.000087;-0.000641;0.001628;0.000086;0.001631;-0.000644;87.840838;0.001643;
1031;562;0.093598;0.355573;0.999998;0.000400;-0.000694;0.001762;0.000247;0.001787;-0.000719;84.316223;0.001798;
1236;1857;-0.024341;86.331592;1.000000;0.000161;-0.000266;0.001444;0.000170;0.001461;-0.000283;84.368203;0.001549;
976;1657;0.132388;86.025984;1.000000;0.000197;-0.000481;0.001643;-0.000473;0.001744;-0.000581;-77.984624;0.001776;
1121;647;0.021200;0.586218;0.999998;0.000443;-0.001533;0.003625;0.000110;0.003627;-0.001536;88.779539;0.003642;
1106;652;0.044929;0.601989;0.999999;0.000270;-0.001592;0.003863;0.000270;0.003876;-0.001606;87.173241;0.003895;
1201;927;-1.939338;7.237701;0.999804;0.003491;-0.030157;0.068373;-0.006712;0.068829;-0.030612;-86.120776;0.068969;
1066;382;0.014263;0.070067;1.000000;0.000068;-0.000221;0.001392;0.000119;0.001400;-0.000230;85.796981;0.001502;
1191;412;-0.018397;0.112384;1.000000;0.000064;-0.000334;0.001449;-0.000084;0.001453;-0.000338;-87.302394;0.001521;
1191;1302;-1.937099;78.148931;0.999745;0.004036;-0.033885;0.077358;0.005933;0.077673;-0.034201;86.955825;0.077857;
1196;1747;-0.040437;86.166958;1.000000;0.000085;-0.000626;0.001620;0.000082;0.001623;-0.000629;87.910506;0.001637;
1056;1527;0.270720;85.422639;0.999993;0.000726;-0.003703;0.008935;-0.001735;0.009169;-0.003937;-82.321925;0.009199;
1156;507;-0.015033;0.256814;0.999999;0.000237;-0.000697;0.001647;-0.000036;0.001648;-0.000697;-89.114130;0.001654;
1296;527;-0.110822;0.295749;0.999998;0.000407;-0.000507;0.001418;-0.000246;0.001449;-0.000538;-82.826201;0.001465;
1236;1852;-0.026538;86.324299;1.000000;0.000184;-0.000288;0.001454;0.000165;0.001470;-0.000304;84.646114;0.001552;
1101;647;0.050650;0.581595;0.999998;0.000242;-0.001522;0.003673;0.000292;0.003689;-0.001538;86.796504;0.003706;
1076;657;0.095855;0.615770;0.999998;0.000383;-0.001695;0.004214;0.000607;0.004276;-0.001757;84.197626;0.004298;
1086;352;0.004235;0.029434;1.000000;0.000053;-0.000091;0.001326;0.000090;0.001332;-0.000096;86.382052;0.001485;
996;572;0.118937;0.370810;0.999998;0.000475;-0.000530;0.001638;0.000345;0.001691;-0.000584;81.165914;0.001718;
1136;922;-0.040218;6.841119;0.999802;0.004317;-0.027441;0.062991;-0.000208;0.062992;-0.027442;-89.868326;0.063165;
1196;1752;-0.039128;86.175043;1.000000;0.000101;-0.000611;0.001613;0.000079;0.001616;-0.000614;87.962337;0.001631;
1246;1672;-0.103550;86.038289;1.000000;0.000175;-0.000657;0.001765;0.000294;0.001800;-0.000692;83.170717;0.001816;
1026;1537;0.334722;85.502030;0.999992;0.000873;-0.003338;0.008154;-0.002184;0.008555;-0.003739;-79.594359;0.008577;
1111;432;0.009421;0.140186;1.000000;0.000065;-0.000398;0.001479;0.000032;0.001480;-0.000399;89.015153;0.001531;
1066;482;0.040978;0.220077;0.999999;0.000221;-0.000588;0.001592;0.000081;0.001595;-0.000591;87.875794;0.001612;
1186;1902;-0.002734;86.395885;0.999999;0.000214;-0.000048;0.001352;0.000104;0.001360;-0.000056;85.782733;0.001539;
1046;572;0.085972;0.373603;0.999997;0.000480;-0.000801;0.001929;0.000255;0.001953;-0.000825;84.710143;0.001961;
1091;352;0.003740;0.029364;1.000000;0.000075;-0.000090;0.001323;0.000081;0.001328;-0.000094;86.730013;0.001482;
1101;652;0.052380;0.601255;0.999999;0.000263;-0.001590;0.003878;0.000318;0.003897;-0.001609;86.685967;0.003916;
1071;657;0.103478;0.615427;0.999998;0.000352;-0.001699;0.004245;0.000665;0.004319;-0.001772;83.696982;0.004342;
1141;922;-0.174762;6.845262;0.999802;0.003761;-0.027504;0.063025;-0.000629;0.063029;-0.027509;-89.601735;0.063198;
1001;572;0.115340;0.369741;0.999998;0.000415;-0.000553;0.001658;0.000335;0.001708;-0.000603;81.568415;0.001732;
1191;1737;-0.040080;86.151527;1.000000;0.000103;-0.000663;0.001638;0.000086;0.001641;-0.000666;87.866916;0.001651;
1191;1902;-0.002660;86.395752;1.000000;0.000180;-0.000050;0.001357;0.000109;0.001365;-0.000058;85.592232;0.001544;
1256;1657;-0.117576;86.013146;1.000000;0.000181;-0.000647;0.001870;0.000392;0.001930;-0.000707;81.350659;0.001953;
1096;352;0.003198;0.029217;1.000000;0.000091;-0.000089;0.001321;0.000072;0.001324;-0.000093;87.098413;0.001479;
1071;412;0.020788;0.112586;1.000000;0.000066;-0.000339;0.001458;0.000096;0.001463;-0.000345;86.961102;0.001530;
1231;1547;-0.270861;85.570202;0.999991;0.000730;-0.003033;0.007370;0.001805;0.007674;-0.003337;80.430069;0.007696;
1101;657;0.055197;0.622007;0.999998;0.000340;-0.001669;0.004092;0.000342;0.004113;-0.001689;86.610711;0.004134;
1006;462;0.066547;0.196151;0.999999;0.000178;-0.000511;0.001531;0.000128;0.001539;-0.000519;86.419261;0.001566;
1146;642;-0.016010;0.571143;0.999998;0.000310;-0.001482;0.003438;-0.000099;0.003440;-0.001484;-88.848269;0.003451;
1166;617;-0.039239;0.490051;0.999998;0.000325;-0.001242;0.002831;-0.000180;0.002839;-0.001249;-87.477634;0.002846;
1151;932;-0.489907;7.484993;0.999764;0.004778;-0.029951;0.069076;-0.001583;0.069102;-0.029976;-89.084440;0.069303;
1196;1737;-0.043421;86.150910;1.000000;0.000096;-0.000657;0.001637;0.000092;0.001640;-0.000661;87.717993;0.001651;
1196;1902;-0.002932;86.395620;0.999999;0.000192;-0.000052;0.001361;0.000114;0.001371;-0.000062;85.409844;0.001548;
1186;677;-0.102738;0.709083;0.999998;0.000502;-0.002140;0.005381;-0.000716;0.005449;-0.002208;-84.613710;0.005481;
1106;647;0.043021;0.582852;0.999999;0.000237;-0.001525;0.003660;0.000247;0.003672;-0.001537;87.274059;0.003688;
1071;372;0.010622;0.056347;1.000000;0.000052;-0.000176;0.001362;0.000113;0.001370;-0.000184;85.835629;0.001487;
1061;412;0.023938;0.113045;1.000000;0.000079;-0.000347;0.001466;0.000109;0.001472;-0.000353;86.556433;0.001537;
1151;642;-0.022914;0.569975;0.999998;0.000368;-0.001480;0.003436;-0.000140;0.003440;-0.001484;-88.371170;0.003450;
1211;1537;-0.246694;85.495118;0.999987;0.000722;-0.003367;0.008196;0.001565;0.008404;-0.003575;82.426501;0.008436;
1181;1897;-0.003123;86.387726;0.999999;0.000203;-0.000066;0.001337;0.000095;0.001343;-0.000073;86.157255;0.001511;
1156;932;-0.642658;7.487386;0.999793;0.003938;-0.030038;0.069186;-0.002057;0.069228;-0.030081;-88.812774;0.069426;
1191;677;-0.112833;0.707856;0.999998;0.000505;-0.002158;0.005422;-0.000792;0.005504;-0.002240;-84.099330;0.005535;
1191;742;-0.276150;1.250409;0.999987;0.001143;-0.005022;0.012065;-0.001654;0.012224;-0.005181;-84.520447;0.012271;
1121;522;0.010717;0.280992;0.999999;0.000234;-0.000781;0.001745;0.000030;0.001745;-0.000782;89.312523;0.001748;
1096;1677;0.036963;86.043051;1.000000;0.000151;-0.000970;0.002117;-0.000120;0.002121;-0.000975;-87.778038;0.002123;
1236;557;-0.088622;0.344974;0.999997;0.000500;-0.000690;0.001717;-0.000232;0.001740;-0.000712;-84.536427;0.001749;
1181;1902;-0.002395;86.395683;0.999999;0.000249;-0.000047;0.001345;0.000101;0.001353;-0.000054;85.873145;0.001531;
1141;647;-0.009115;0.586730;0.999998;0.000437;-0.001539;0.003603;-0.000063;0.003604;-0.001540;-89.301239;0.003616;
1066;412;0.022309;0.112823;1.000000;0.000064;-0.000343;0.001462;0.000103;0.001467;-0.000349;86.749900;0.001533;
1156;642;-0.029820;0.568113;0.999998;0.000439;-0.001470;0.003434;-0.000181;0.003441;-0.001476;-87.893947;0.003452;
1171;397;-0.009449;0.089940;1.000000;0.000060;-0.000270;0.001404;-0.000058;0.001406;-0.000272;-88.027305;0.001492;
1161;932;-0.790788;7.503979;0.999762;0.003688;-0.030158;0.069344;-0.002541;0.069409;-0.030223;-88.537870;0.069601;
1196;1717;-0.049474;86.117970;1.000000;0.000145;-0.000730;0.001710;0.000118;0.001715;-0.000735;87.226785;0.001721;
1166;607;-0.037244;0.463860;0.999998;0.000456;-0.001187;0.002633;-0.000155;0.002639;-0.001193;-87.675648;0.002643;
1196;742;-0.302714;1.250084;0.999986;0.001103;-0.005046;0.012060;-0.001795;0.012246;-0.005232;-84.074269;0.012289;
1046;577;0.088170;0.383848;0.999997;0.000397;-0.000821;0.001984;0.000273;0.002011;-0.000847;84.500760;0.002019;
1226;482;-0.053029;0.220842;0.999999;0.000274;-0.000572;0.001588;-0.000104;0.001593;-0.000577;-87.241044;0.001613;
1091;1902;0.002229;86.395030;0.999999;0.000256;-0.000047;0.001322;-0.000080;0.001326;-0.000052;-86.682755;0.001503;
1176;352;-0.003523;0.029343;1.000000;0.000048;-0.000089;0.001318;-0.000075;0.001322;-0.000093;-86.944911;0.001476;
1171;677;-0.072119;0.711093;0.999998;0.000313;-0.002088;0.005271;-0.000497;0.005305;-0.002122;-86.156525;0.005340;
976;467;0.084371;0.209463;0.999999;0.000288;-0.000476;0.001465;0.000105;0.001470;-0.000481;86.907340;0.001499;
1101;642;0.049220;0.566602;0.999998;0.000291;-0.001459;0.003489;0.000266;0.003503;-0.001474;86.932503;0.003518;
1196;932;-1.866584;7.581251;0.999819;0.003268;-0.031163;0.071114;-0.006322;0.071503;-0.031553;-86.476011;0.071667;
1176;397;-0.010718;0.090172;1.000000;0.000057;-0.000271;0.001407;-0.000066;0.001409;-0.000274;-87.751614;0.001495;
1051;577;0.083549;0.384543;0.999998;0.000357;-0.000850;0.002015;0.000263;0.002039;-0.000874;84.805370;0.002046;
1181;757;-0.273173;1.437672;0.999983;0.000792;-0.005949;0.014202;-0.001546;0.014320;-0.006067;-85.637464;0.014375;
1231;482;-0.056161;0.221637;0.999999;0.000216;-0.000574;0.001585;-0.000108;0.001591;-0.000579;-87.130704;0.001610;
1206;652;-0.108062;0.590017;0.999998;0.000393;-0.001581;0.003977;-0.000698;0.004063;-0.001668;-82.945557;0.004085;
1081;1792;0.024962;86.239370;1.000000;0.000125;-0.000482;0.001530;-0.000066;0.001532;-0.000484;-88.127090;0.001566;
1181;362;-0.005827;0.042404;1.000000;0.000060;-0.000130;0.001331;-0.000084;0.001336;-0.000134;-86.712525;0.001472;
1231;1862;-0.020807;86.339920;1.000000;0.000180;-0.000239;0.001424;0.000168;0.001441;-0.000256;84.295099;0.001538;
1081;652;0.084027;0.597132;0.999998;0.000387;-0.001599;0.003965;0.000514;0.004012;-0.001646;84.770834;0.004034;
1106;642;0.042227;0.567152;0.999998;0.000323;-0.001464;0.003483;0.000226;0.003493;-0.001474;87.385552;0.003507;
981;467;0.082544;0.208780;1.000000;0.000250;-0.000487;0.001475;0.000112;0.001481;-0.000493;86.752535;0.001509;
1191;937;-1.789719;7.928706;0.999747;0.004818;-0.032262;0.074119;-0.005904;0.074446;-0.032589;-86.833200;0.074638;
1181;397;-0.012151;0.090296;1.000000;0.000070;-0.000272;0.001410;-0.000074;0.001413;-0.000275;-87.482965;0.001498;
1111;342;0.001189;0.016433;1.000000;0.000068;-0.000048;0.001298;0.000046;0.001300;-0.000049;88.034377;0.001473;
1206;732;-0.309094;1.139564;0.999985;0.000967;-0.004512;0.010838;-0.001887;0.011067;-0.004740;-83.093495;0.011105;
991;567;0.119414;0.360917;0.999997;0.000530;-0.000506;0.001586;0.000332;0.001637;-0.000558;81.205338;0.001665;
1001;577;0.118615;0.379089;0.999998;0.000497;-0.000558;0.001684;0.000363;0.001741;-0.000615;81.036868;0.001766;
1126;522;0.006692;0.281139;0.999999;0.000245;-0.000784;0.001747;0.000019;0.001747;-0.000784;89.559647;0.001750;
1191;1757;-0.035060;86.183952;1.000000;0.000107;-0.000597;0.001603;0.000070;0.001605;-0.000599;88.168563;0.001622;
1086;652;0.076964;0.597541;0.999998;0.000403;-0.001596;0.003942;0.000463;0.003981;-0.001634;85.252232;0.004002;
1231;1867;-0.018692;86.346302;1.000000;0.000182;-0.000217;0.001413;0.000170;0.001430;-0.000235;84.101211;0.001534;
1111;642;0.034880;0.568665;0.999998;0.000369;-0.001466;0.003477;0.000185;0.003484;-0.001473;87.859090;0.003498;
1196;937;-1.951865;7.936855;0.999796;0.004009;-0.032475;0.074466;-0.006488;0.074858;-0.032867;-86.540574;0.075044;
1061;382;0.015190;0.070286;1.000000;0.000065;-0.000224;0.001396;0.000127;0.001406;-0.000234;85.533735;0.001507;
1111;347;0.001569;0.022783;1.000000;0.000056;-0.000067;0.001308;0.000045;0.001309;-0.000068;88.133521;0.001474;
1296;447;-0.074798;0.179750;0.999999;0.000271;-0.000471;0.001466;-0.000080;0.001469;-0.000475;-87.653733;0.001500;
1211;732;-0.330935;1.140444;0.999984;0.000814;-0.004522;0.010851;-0.002015;0.011110;-0.004782;-82.656016;0.011146;
1321;502;-0.111758;0.261640;0.999935;0.002075;-0.000529;0.001239;-0.000148;0.001251;-0.000542;-85.258690;0.001255;
1131;522;0.002917;0.281010;0.999999;0.000219;-0.000784;0.001747;0.000009;0.001747;-0.000784;89.791992;0.001750;
1216;567;-0.078198;0.363804;0.999998;0.000427;-0.000816;0.001898;-0.000227;0.001917;-0.000834;-85.252651;0.001922;
1096;647;0.057439;0.581093;0.999998;0.000390;-0.001519;0.003686;0.000336;0.003707;-0.001540;86.316124;0.003725;
1231;1872;-0.016827;86.353006;1.000000;0.000151;-0.000195;0.001396;0.000175;0.001416;-0.000214;83.785115;0.001526;
1091;652;0.068198;0.599620;0.999998;0.000440;-0.001591;0.003918;0.000414;0.003949;-0.001622;85.722562;0.003970;
1066;1717;0.051301;86.118286;1.000000;0.000122;-0.000714;0.001700;-0.000124;0.001707;-0.000720;-87.071213;0.001713;
1106;342;0.001391;0.016548;1.000000;0.000056;-0.000047;0.001300;0.000056;0.001302;-0.000050;87.629214;0.001476;
1101;352;0.002846;0.029186;1.000000;0.000076;-0.000088;0.001319;0.000062;0.001321;-0.000091;87.469727;0.001476;
1201;932;-2.020335;7.595995;0.999822;0.003090;-0.031451;0.071462;-0.006899;0.071922;-0.031911;-86.181888;0.072074;
1266;1557;-0.331796;85.638241;0.999995;0.000739;-0.002725;0.006724;0.002206;0.007214;-0.003215;77.485354;0.007228;
1296;452;-0.078022;0.187516;0.999999;0.000268;-0.000477;0.001454;-0.000086;0.001458;-0.000480;-87.447627;0.001486;
1046;562;0.082226;0.355431;0.999997;0.000462;-0.000764;0.001846;0.000226;0.001866;-0.000783;85.097318;0.001874;
1126;797;0.074613;2.130028;0.999983;0.001458;-0.009202;0.021382;0.000343;0.021386;-0.009206;89.358237;0.021454;
1221;567;-0.082047;0.363102;0.999998;0.000389;-0.000794;0.001866;-0.000234;0.001886;-0.000815;-85.016311;0.001892;
1106;347;0.001823;0.022768;1.000000;0.000060;-0.000067;0.001310;0.000054;0.001312;-0.000069;87.739263;0.001477;
1096;652;0.059527;0.601104;0.999998;0.000337;-0.001591;0.003896;0.000366;0.003920;-0.001615;86.205056;0.003940;
971;452;0.079309;0.188812;0.999999;0.000230;-0.000614;0.001496;0.000067;0.001498;-0.000616;88.188909;0.001506;
1171;667;-0.063699;0.661572;0.999998;0.000394;-0.001847;0.004608;-0.000435;0.004637;-0.001876;-86.158176;0.004665;
1181;357;-0.004936;0.035803;1.000000;0.000052;-0.000109;0.001326;-0.000085;0.001331;-0.000114;-86.631951;0.001476;
1201;937;-2.112005;7.953635;0.999809;0.003009;-0.032778;0.074819;-0.007078;0.075283;-0.033242;-86.252658;0.075454;
1166;1792;-0.015797;86.239714;1.000000;0.000179;-0.000476;0.001524;0.000042;0.001524;-0.000477;88.791250;0.001560;
1266;1562;-0.309640;85.672789;0.999995;0.000713;-0.002550;0.006308;0.002091;0.006777;-0.003019;77.366865;0.006790;
981;472;0.084208;0.215167;0.999999;0.000241;-0.000494;0.001471;0.000118;0.001478;-0.000501;86.587730;0.001503;
1086;347;0.003319;0.022859;1.000000;0.000065;-0.000072;0.001320;0.000091;0.001326;-0.000077;86.286095;0.001489;
1046;567;0.083960;0.364314;0.999997;0.000587;-0.000781;0.001884;0.000241;0.001905;-0.000803;84.881661;0.001913;
1131;797;0.031267;2.130464;0.999985;0.001421;-0.009195;0.021367;0.000117;0.021367;-0.009195;89.781040;0.021436;
1216;572;-0.079703;0.373449;0.999998;0.000420;-0.000835;0.001947;-0.000238;0.001967;-0.000855;-85.141659;0.001973;
1096;657;0.063222;0.621720;0.999998;0.000362;-0.001672;0.004110;0.000394;0.004137;-0.001699;86.120239;0.004159;
971;457;0.081445;0.195924;0.999999;0.000274;-0.000627;0.001488;0.000065;0.001490;-0.000629;88.247079;0.001496;
1186;357;-0.005408;0.035935;1.000000;0.000058;-0.000110;0.001329;-0.000094;0.001335;-0.000116;-86.269220;0.001479;
1116;702;0.055307;0.863350;0.999997;0.000453;-0.002878;0.007296;0.000346;0.007308;-0.002890;88.053152;0.007361;
1181;937;-1.464433;7.899440;0.999755;0.004642;-0.031945;0.073517;-0.004755;0.073731;-0.032159;-87.423786;0.073931;
1171;1792;-0.017877;86.239589;1.000000;0.000140;-0.000476;0.001526;0.000048;0.001527;-0.000477;88.637561;0.001563;
1246;1552;-0.299389;85.604796;0.999992;0.000942;-0.002872;0.007090;0.001999;0.007476;-0.003258;79.067159;0.007496;
1091;347;0.002992;0.022792;1.000000;0.000078;-0.000070;0.001318;0.000082;0.001323;-0.000075;86.618444;0.001486;
986;472;0.081844;0.215256;0.999999;0.000209;-0.000504;0.001485;0.000125;0.001492;-0.000511;86.407097;0.001517;
966;537;0.119558;0.310175;0.999997;0.000427;-0.000530;0.001378;0.000272;0.001416;-0.000568;82.043453;0.001425;
1136;797;-0.014844;2.129779;0.999981;0.001324;-0.009176;0.021343;-0.000096;0.021343;-0.009177;-89.819737;0.021413;
1061;377;0.013787;0.063508;1.000000;0.000062;-0.000202;0.001383;0.000129;0.001394;-0.000213;85.375458;0.001502;
1221;572;-0.083857;0.372574;0.999998;0.000447;-0.000812;0.001914;-0.000246;0.001936;-0.000834;-84.892385;0.001942;
1256;1662;-0.114772;86.021870;1.000000;0.000140;-0.000626;0.001800;0.000363;0.001853;-0.000679;81.679772;0.001875;
1186;937;-1.628301;7.917001;0.999757;0.004547;-0.032110;0.073800;-0.005342;0.074069;-0.032378;-87.119763;0.074263;
1121;702;0.040981;0.863188;0.999998;0.000467;-0.002876;0.007283;0.000257;0.007290;-0.002882;88.554132;0.007343;
1126;1337;0.157390;80.407348;0.999891;0.002698;-0.024633;0.056106;-0.000507;0.056109;-0.024637;-89.640207;0.056248;
1096;347;0.002541;0.022818;1.000000;0.000097;-0.000069;0.001315;0.000073;0.001319;-0.000073;86.987304;0.001482;
1251;1552;-0.312843;85.606103;0.999995;0.000650;-0.002908;0.007106;0.002071;0.007517;-0.003319;78.766006;0.007534;
1256;712;-0.413673;0.959996;0.999982;0.000956;-0.003727;0.008852;-0.002624;0.009377;-0.004252;-78.679111;0.009391;
991;472;0.078812;0.213994;0.999999;0.000169;-0.000511;0.001498;0.000132;0.001507;-0.000520;86.259988;0.001531;
1156;787;-0.182095;1.935106;0.999983;0.001634;-0.008259;0.019317;-0.000901;0.019346;-0.008289;-88.130100;0.019412;
1081;622;0.069199;0.500413;0.999998;0.000435;-0.001224;0.002884;0.000307;0.002907;-0.001247;85.745191;0.002917;
1066;377;0.012827;0.063380;1.000000;0.000071;-0.000199;0.001379;0.000121;0.001388;-0.000209;85.656225;0.001497;
1206;927;-2.093669;7.254163;0.999773;0.003391;-0.030297;0.068586;-0.007319;0.069124;-0.030836;-85.789575;0.069258;
1101;347;0.002306;0.022868;1.000000;0.000083;-0.000069;0.001312;0.000064;0.001315;-0.000072;87.366027;0.001479;
1156;702;-0.058664;0.861197;0.999998;0.000557;-0.002918;0.007317;-0.000401;0.007333;-0.002933;-87.758781;0.007382;
1226;562;-0.083143;0.354053;0.999998;0.000401;-0.000753;0.001802;-0.000229;0.001822;-0.000774;-84.923613;0.001829;
1256;1667;-0.112247;86.030127;1.000000;0.000147;-0.000613;0.001744;0.000335;0.001790;-0.000660;82.067204;0.001811;
1131;1337;0.032561;80.408981;0.999869;0.002750;-0.024563;0.055988;-0.000065;0.055988;-0.024563;-89.953925;0.056128;
1256;1552;-0.325250;85.605758;0.999995;0.000586;-0.002914;0.007129;0.002154;0.007571;-0.003357;78.393895;0.007588;
1186;752;-0.284932;1.371572;0.999985;0.000790;-0.005645;0.013493;-0.001641;0.013633;-0.005785;-85.135619;0.013685;
1266;462;-0.067931;0.195737;1.000000;0.000205;-0.000507;0.001520;-0.000121;0.001527;-0.000514;-86.597335;0.001554;
1206;932;-2.179210;7.607646;0.999795;0.003901;-0.031609;0.071679;-0.007493;0.072220;-0.032149;-85.872533;0.072364;
1056;392;0.019522;0.084525;1.000000;0.000075;-0.000268;0.001421;0.000130;0.001431;-0.000278;85.612556;0.001518;
1166;612;-0.038207;0.476575;0.999998;0.000346;-0.001214;0.002723;-0.000166;0.002730;-0.001221;-87.583107;0.002735;
1236;722;-0.390025;1.045179;0.999983;0.001186;-0.004106;0.009781;-0.002442;0.010198;-0.004523;-80.311481;0.010220;
1116;642;0.027908;0.569256;0.999998;0.000358;-0.001469;0.003471;0.000142;0.003475;-0.001474;88.355643;0.003489;
1216;362;-0.010548;0.043090;1.000000;0.000065;-0.000140;0.001355;-0.000149;0.001370;-0.000155;-84.351035;0.001501;
1261;1552;-0.338448;85.605629;0.999995;0.000692;-0.002909;0.007138;0.002235;0.007612;-0.003384;78.006699;0.007628;
1226;567;-0.085676;0.362730;0.999998;0.000349;-0.000769;0.001834;-0.000242;0.001856;-0.000792;-84.744848;0.001863;
1251;1672;-0.106739;86.038365;1.000000;0.000135;-0.000632;0.001733;0.000301;0.001771;-0.000670;82.858111;0.001788;
1136;1337;-0.088487;80.411754;0.999866;0.003117;-0.024543;0.055863;0.000353;0.055865;-0.024544;89.748333;0.056002;
1116;782;0.148344;1.838976;0.999983;0.001225;-0.007935;0.018499;0.000742;0.018520;-0.007956;88.393964;0.018581;
1101;342;0.001657;0.016526;1.000000;0.000072;-0.000050;0.001303;0.000065;0.001306;-0.000053;87.253314;0.001478;
1271;462;-0.070287;0.196300;0.999999;0.000237;-0.000499;0.001510;-0.000122;0.001518;-0.000506;-86.548732;0.001545;
1266;1552;-0.353311;85.603962;0.999995;0.000964;-0.002913;0.007127;0.002312;0.007634;-0.003420;77.634907;0.007648;
1191;352;-0.004977;0.029654;1.000000;0.000066;-0.000092;0.001325;-0.000104;0.001332;-0.000099;-85.824670;0.001484;
1121;642;0.020637;0.569754;0.999998;0.000361;-0.001475;0.003462;0.000102;0.003464;-0.001477;88.819381;0.003477;
1136;927;-0.039591;7.149147;0.999773;0.004595;-0.028577;0.065850;-0.000212;0.065851;-0.028577;-89.871113;0.066042;
1121;777;0.100717;1.750001;0.999984;0.001245;-0.007508;0.017533;0.000529;0.017544;-0.007519;88.791328;0.017604;
1226;572;-0.087039;0.372333;0.999998;0.000384;-0.000785;0.001880;-0.000255;0.001905;-0.000809;-84.592389;0.001912;
1206;607;-0.081934;0.452861;0.999998;0.000509;-0.001046;0.002505;-0.000333;0.002535;-0.001077;-84.687456;0.002545;
1256;1672;-0.109618;86.038699;1.000000;0.000149;-0.000608;0.001705;0.000310;0.001745;-0.000649;82.492561;0.001765;
1141;1327;-0.234657;79.850316;0.999779;0.003203;-0.026608;0.060954;0.000799;0.060961;-0.026615;89.476973;0.061124;
1116;787;0.154563;1.931198;0.999982;0.001143;-0.008361;0.019499;0.000769;0.019520;-0.008382;88.420598;0.019585;
1106;352;0.002403;0.029231;1.000000;0.000063;-0.000086;0.001317;0.000053;0.001319;-0.000088;87.832652;0.001474;
1081;342;0.002521;0.016266;1.000000;0.000081;-0.000055;0.001313;0.000100;0.001321;-0.000062;85.836361;0.001490;
976;472;0.086628;0.216481;0.999999;0.000236;-0.000481;0.001459;0.000112;0.001465;-0.000488;86.696456;0.001492;
1126;642;0.013844;0.570429;0.999998;0.000378;-0.001480;0.003454;0.000061;0.003455;-0.001481;89.291753;0.003467;
1141;927;-0.183549;7.153375;0.999781;0.005097;-0.028637;0.065893;-0.000654;0.065898;-0.028641;-89.603863;0.066085;
1121;782;0.107519;1.839096;0.999987;0.001305;-0.007920;0.018484;0.000546;0.018496;-0.007931;88.815855;0.018558;
1046;582;0.090339;0.394203;0.999997;0.000418;-0.000842;0.002030;0.000290;0.002059;-0.000871;84.293968;0.002068;
1231;562;-0.086873;0.354222;0.999998;0.000456;-0.000729;0.001775;-0.000236;0.001797;-0.000751;-84.650722;0.001805;
1066;1512;0.284948;85.283417;0.999994;0.000630;-0.004459;0.010621;-0.001755;0.010822;-0.004660;-83.449363;0.010857;
1141;1332;-0.221904;80.134977;0.999785;0.003189;-0.025556;0.058393;0.000807;0.058401;-0.025564;89.449172;0.058551;
1096;342;0.001656;0.016548;1.000000;0.000083;-0.000050;0.001306;0.000074;0.001310;-0.000054;86.875864;0.001483;
1121;792;0.115599;2.024862;0.999986;0.001213;-0.008775;0.020451;0.000569;0.020462;-0.008786;88.885170;0.020530;
1081;347;0.003624;0.023160;1.000000;0.000072;-0.000073;0.001323;0.000099;0.001330;-0.000080;85.946250;0.001491;
1026;1767;0.060891;86.195925;1.000000;0.000150;-0.000561;0.001570;-0.000119;0.001576;-0.000567;-86.799672;0.001597;
1191;1732;-0.041729;86.143315;1.000000;0.000120;-0.000682;0.001652;0.000093;0.001656;-0.000685;87.730115;0.001664;
1266;467;-0.070266;0.203493;0.999999;0.000234;-0.000516;0.001525;-0.000124;0.001533;-0.000524;-86.524591;0.001558;
1126;647;0.013993;0.586973;0.999998;0.000498;-0.001538;0.003616;0.000067;0.003617;-0.001539;89.252816;0.003630;
1091;342;0.002159;0.016512;1.000000;0.000072;-0.000050;0.001309;0.000083;0.001314;-0.000056;86.511351;0.001487;
1121;787;0.111795;1.932176;0.999987;0.001168;-0.008340;0.019479;0.000562;0.019490;-0.008352;88.843084;0.019557;
1231;567;-0.089564;0.362934;0.999998;0.000369;-0.000742;0.001805;-0.000251;0.001830;-0.000766;-84.424879;0.001838;
1051;582;0.086072;0.395693;0.999998;0.000338;-0.000871;0.002063;0.000279;0.002089;-0.000898;84.620321;0.002096;
1141;1337;-0.213138;80.415328;0.999848;0.003123;-0.024519;0.055767;0.000782;0.055775;-0.024526;89.441897;0.055910;
1071;1512;0.263102;85.282749;0.999994;0.000707;-0.004434;0.010607;-0.001610;0.010777;-0.004605;-83.956719;0.010815;
1121;797;0.119679;2.127952;0.999982;0.001612;-0.009220;0.021394;0.000582;0.021405;-0.009231;88.911923;0.021472;
1026;1772;0.058764;86.203380;1.000000;0.000153;-0.000549;0.001559;-0.000119;0.001566;-0.000556;-86.787920;0.001587;
1171;407;-0.010934;0.104151;1.000000;0.000068;-0.000310;0.001430;-0.000055;0.001432;-0.000311;-88.190758;0.001506;
1086;342;0.002286;0.016295;1.000000;0.000076;-0.000053;0.001311;0.000092;0.001318;-0.000059;86.179653;0.001488;
1196;1732;-0.045047;86.142821;1.000000;0.000117;-0.000675;0.001649;0.000099;0.001653;-0.000679;87.568400;0.001662;
1271;467;-0.072451;0.204024;0.999999;0.000230;-0.000507;0.001515;-0.000126;0.001523;-0.000515;-86.453600;0.001549;
1141;707;-0.016524;0.897746;0.999998;0.000417;-0.003114;0.007779;-0.000126;0.007781;-0.003115;-89.337708;0.007832;
1191;747;-0.294021;1.313478;0.999985;0.001067;-0.005330;0.012765;-0.001725;0.012928;-0.005493;-84.603976;0.012977;
1231;572;-0.091240;0.372412;0.999998;0.000333;-0.000755;0.001848;-0.000265;0.001875;-0.000782;-84.247793;0.001883;
1141;1322;-0.244283;79.572455;0.999730;0.004075;-0.027680;0.063552;0.000768;0.063558;-0.027687;89.517496;0.063734;
971;462;0.083840;0.203108;0.999999;0.000264;-0.000634;0.001469;0.000065;0.001471;-0.000636;88.227700;0.001476;
1116;792;0.159321;2.024663;0.999980;0.001231;-0.008802;0.020477;0.000789;0.020498;-0.008824;88.457966;0.020564;
1081;1507;0.233150;85.226637;0.999989;0.000816;-0.004665;0.011241;-0.001399;0.011364;-0.004787;-85.010917;0.011410;
971;1652;0.132194;86.015923;0.999976;0.001120;-0.000500;0.001615;-0.000599;0.001773;-0.000658;-75.224263;0.001792;
1196;412;-0.020050;0.112519;1.000000;0.000052;-0.000336;0.001452;-0.000092;0.001457;-0.000341;-87.071514;0.001524;
1211;367;-0.011234;0.049808;1.000000;0.000072;-0.000159;0.001357;-0.000138;0.001369;-0.000171;-84.843947;0.001492;
1176;1792;-0.020250;86.239492;1.000000;0.000105;-0.000476;0.001529;0.000053;0.001530;-0.000478;88.483328;0.001566;
1146;707;-0.032108;0.897631;0.999998;0.000404;-0.003119;0.007790;-0.000227;0.007795;-0.003124;-88.810917;0.007846;
1196;502;-0.040470;0.251232;0.999999;0.000330;-0.000639;0.001623;-0.000083;0.001626;-0.000642;-87.908527;0.001638;
1196;747;-0.321666;1.314821;0.999987;0.001026;-0.005352;0.012754;-0.001870;0.012946;-0.005543;-84.163815;0.012990;
1221;577;-0.085240;0.382174;0.999998;0.000582;-0.000828;0.001974;-0.000260;0.001998;-0.000852;-84.747123;0.002005;
1261;712;-0.431782;0.960543;0.999980;0.001173;-0.003738;0.008843;-0.002720;0.009406;-0.004301;-78.306405;0.009417;
971;1657;0.133860;86.028549;1.000000;0.000161;-0.000460;0.001627;-0.000483;0.001733;-0.000566;-77.580909;0.001767;
1111;1337;0.524539;80.413319;0.999820;0.004303;-0.024866;0.056368;-0.001918;0.056413;-0.024911;-88.648345;0.056541;
1086;1507;0.212216;85.227346;0.999990;0.000913;-0.004653;0.011226;-0.001260;0.011326;-0.004752;-85.491352;0.011374;
1296;457;-0.080404;0.194960;0.999999;0.000204;-0.000481;0.001446;-0.000090;0.001450;-0.000486;-87.328623;0.001476;
1201;412;-0.021658;0.112701;1.000000;0.000071;-0.000338;0.001455;-0.000099;0.001461;-0.000343;-86.854114;0.001528;
1151;707;-0.048287;0.898387;0.999998;0.000484;-0.003126;0.007803;-0.000326;0.007812;-0.003136;-88.290779;0.007863;
1091;417;0.014852;0.118774;1.000000;0.000063;-0.000347;0.001455;0.000064;0.001457;-0.000350;87.961486;0.001522;
971;1662;0.131345;86.036297;1.000000;0.000165;-0.000434;0.001566;-0.000440;0.001659;-0.000526;-78.136823;0.001695;
1056;1762;0.044839;86.190277;1.000000;0.000116;-0.000577;0.001592;-0.000089;0.001596;-0.000581;-87.657145;0.001616;
1116;777;0.138786;1.750089;0.999981;0.001247;-0.007517;0.017539;0.000711;0.017560;-0.007537;88.376235;0.017618;
1226;577;-0.088809;0.381754;0.999998;0.000570;-0.000798;0.001938;-0.000270;0.001965;-0.000825;-84.413962;0.001973;
971;442;0.074456;0.174184;0.999999;0.000247;-0.000590;0.001504;0.000083;0.001507;-0.000593;87.724955;0.001518;
1191;752;-0.312550;1.373800;0.999984;0.000996;-0.005646;0.013478;-0.001798;0.013645;-0.005814;-84.675157;0.013695;
1116;1337;0.398925;80.416764;0.999853;0.004436;-0.024803;0.056287;-0.001456;0.056313;-0.024829;-88.971915;0.056444;
1241;1552;-0.282773;85.605689;0.999991;0.001009;-0.002845;0.007064;0.001901;0.007417;-0.003197;79.506254;0.007440;
1001;467;0.071180;0.204112;0.999999;0.000180;-0.000515;0.001517;0.000127;0.001525;-0.000523;86.444957;0.001550;
1206;407;-0.021813;0.105885;1.000000;0.000090;-0.000320;0.001448;-0.000109;0.001455;-0.000326;-86.489135;0.001527;
976;1652;0.135015;86.017931;1.000000;0.000196;-0.000512;0.001659;-0.000566;0.001797;-0.000651;-76.226327;0.001820;
1121;637;0.020150;0.553394;0.999998;0.000316;-0.001425;0.003312;0.000096;0.003314;-0.001427;88.839308;0.003324;
1231;1877;-0.014951;86.360043;1.000000;0.000158;-0.000173;0.001389;0.000179;0.001410;-0.000193;83.561631;0.001529;
1231;577;-0.092585;0.381263;0.999998;0.000417;-0.000766;0.001903;-0.000282;0.001932;-0.000796;-84.031773;0.001942;
1196;752;-0.340502;1.375812;0.999987;0.001144;-0.005672;0.013466;-0.001948;0.013662;-0.005868;-84.247484;0.013707;
971;447;0.076661;0.181517;0.999999;0.000236;-0.000600;0.001499;0.000076;0.001502;-0.000603;87.931586;0.001512;
1221;727;-0.354381;1.093038;0.999984;0.001039;-0.004283;0.010308;-0.002182;0.010627;-0.004602;-81.674914;0.010659;
1136;1807;-0.001300;86.263275;1.000000;0.000131;-0.000417;0.001494;0.000003;0.001494;-0.000417;89.919905;0.001541;
1081;352;0.004725;0.029408;1.000000;0.000054;-0.000092;0.001328;0.000099;0.001335;-0.000099;86.034478;0.001488;
1246;1547;-0.318328;85.570481;0.999989;0.000802;-0.003051;0.007459;0.002106;0.007866;-0.003458;79.078682;0.007885;
1106;1337;0.644967;80.406959;0.999790;0.003855;-0.024940;0.056438;-0.002382;0.056508;-0.025009;-88.324937;0.056632;
1301;447;-0.077304;0.181204;0.999999;0.000300;-0.000472;0.001456;-0.000077;0.001459;-0.000475;-87.729751;0.001488;
981;1652;0.131862;86.015659;1.000000;0.000270;-0.000524;0.001693;-0.000539;0.001817;-0.000648;-77.024575;0.001842;
1126;637;0.013514;0.553296;0.999998;0.000371;-0.001429;0.003308;0.000059;0.003309;-0.001430;89.290982;0.003319;
1236;1877;-0.015776;86.359785;1.000000;0.000182;-0.000176;0.001396;0.000187;0.001418;-0.000198;83.322558;0.001536;
1201;742;-0.327382;1.250830;0.999985;0.001067;-0.005065;0.012057;-0.001938;0.012273;-0.005282;-83.622790;0.012313;
1216;577;-0.081585;0.383174;0.999998;0.000476;-0.000853;0.002009;-0.000252;0.002031;-0.000875;-85.011681;0.002037;
1301;442;-0.075107;0.173812;0.999999;0.000228;-0.000463;0.001457;-0.000073;0.001460;-0.000465;-87.816303;0.001492;
1226;727;-0.373464;1.094794;0.999981;0.001083;-0.004310;0.010327;-0.002306;0.010682;-0.004665;-81.254459;0.010711;
1251;1547;-0.334606;85.570579;0.999994;0.000648;-0.003083;0.007467;0.002180;0.007900;-0.003516;78.775092;0.007916;
1086;1682;0.045533;86.054383;1.000000;0.000179;-0.000917;0.002036;-0.000142;0.002042;-0.000924;-87.262029;0.002046;
1306;447;-0.080019;0.182829;0.999999;0.000237;-0.000475;0.001444;-0.000073;0.001447;-0.000478;-87.814260;0.001475;
1051;392;0.020836;0.085005;1.000000;0.000061;-0.000271;0.001427;0.000138;0.001438;-0.000282;85.369677;0.001524;
1091;1322;1.178583;79.535033;0.999789;0.003838;-0.028329;0.064167;-0.003993;0.064339;-0.028501;-87.532646;0.064478;
1251;1677;-0.104384;86.046838;1.000000;0.000140;-0.000628;0.001707;0.000281;0.001740;-0.000661;83.232770;0.001757;
1131;637;0.007117;0.553114;0.999998;0.000525;-0.001430;0.003306;0.000019;0.003306;-0.001430;89.764187;0.003316;
1306;442;-0.077725;0.175751;0.999999;0.000228;-0.000465;0.001447;-0.000071;0.001450;-0.000468;-87.889908;0.001480;
1201;747;-0.348506;1.315484;0.999985;0.000975;-0.005372;0.012744;-0.002020;0.012967;-0.005594;-83.713346;0.013007;
1241;1877;-0.016337;86.359737;1.000000;0.000192;-0.000181;0.001404;0.000195;0.001427;-0.000204;83.092734;0.001544;
1046;587;0.092219;0.403394;0.999998;0.000372;-0.000864;0.002086;0.000309;0.002118;-0.000896;84.077093;0.002127;
1256;1547;-0.348051;85.570131;0.999994;0.000671;-0.003088;0.007482;0.002265;0.007947;-0.003553;78.402393;0.007962;
1086;762;0.307012;1.513208;0.999986;0.001057;-0.006372;0.015013;0.001609;0.015133;-0.006492;85.721509;0.015184;
1051;397;0.022532;0.092292;1.000000;0.000063;-0.000291;0.001440;0.000135;0.001450;-0.000302;85.558858;0.001530;
1136;1812;-0.001141;86.270336;1.000000;0.000149;-0.000399;0.001482;0.000004;0.001482;-0.000399;89.881912;0.001534;
1256;1677;-0.107138;86.047089;1.000000;0.000162;-0.000606;0.001682;0.000290;0.001718;-0.000642;82.882003;0.001736;
1121;1342;0.275269;80.674898;0.999877;0.003353;-0.023676;0.053643;-0.001024;0.053657;-0.023690;-89.241234;0.053779;
1141;507;-0.004316;0.256262;0.999999;0.000221;-0.000703;0.001654;-0.000012;0.001654;-0.000703;-89.716181;0.001660;
1131;642;0.006393;0.570286;0.999998;0.000461;-0.001481;0.003450;0.000019;0.003450;-0.001481;89.776922;0.003461;
956;432;0.076283;0.164903;0.999999;0.000171;-0.000658;0.001525;0.000087;0.001529;-0.000662;87.719777;0.001533;
1271;1557;-0.348588;85.638042;0.999992;0.000799;-0.002712;0.006675;0.002285;0.007202;-0.003238;77.017860;0.007214;
1201;752;-0.370947;1.379269;0.999986;0.001186;-0.005695;0.013453;-0.002102;0.013681;-0.005923;-83.808460;0.013722;
1246;1877;-0.017533;86.359502;0.999999;0.000175;-0.000187;0.001413;0.000202;0.001438;-0.000212;82.921710;0.001552;
1051;587;0.088070;0.404901;0.999998;0.000338;-0.000894;0.002121;0.000297;0.002150;-0.000923;84.432544;0.002157;
1086;767;0.325722;1.585143;0.999983;0.001272;-0.006755;0.015828;0.001661;0.015950;-0.006877;85.816728;0.016000;
1051;402;0.024481;0.099491;1.000000;0.000089;-0.000312;0.001453;0.000131;0.001463;-0.000322;85.783248;0.001537;
956;437;0.078604;0.172198;0.999999;0.000193;-0.000682;0.001521;0.000097;0.001525;-0.000686;87.491008;0.001528;
1076;1697;0.050352;86.083641;1.000000;0.000103;-0.000820;0.001857;-0.000145;0.001864;-0.000828;-86.917811;0.001868;
1271;1562;-0.325726;85.673344;0.999994;0.000722;-0.002540;0.006257;0.002172;0.006764;-0.003047;76.862877;0.006775;
1126;1342;0.151457;80.673125;0.999895;0.003446;-0.023600;0.053556;-0.000555;0.053560;-0.023604;-89.587628;0.053686;
1131;647;0.006632;0.587521;0.999998;0.000409;-0.001539;0.003611;0.000023;0.003611;-0.001539;89.748085;0.003624;
996;472;0.076527;0.213262;0.999999;0.000189;-0.000516;0.001510;0.000132;0.001519;-0.000524;86.290590;0.001543;
1056;587;0.083476;0.406982;0.999997;0.000357;-0.000917;0.002154;0.000282;0.002180;-0.000942;84.802504;0.002186;
1261;1667;-0.115385;86.031274;1.000000;0.000149;-0.000589;0.001714;0.000345;0.001764;-0.000640;81.657010;0.001786;
1056;582;0.081672;0.395961;0.999998;0.000376;-0.000896;0.002095;0.000266;0.002118;-0.000919;84.960911;0.002124;
1186;757;-0.303118;1.437424;0.999982;0.000873;-0.005964;0.014188;-0.001717;0.014334;-0.006109;-85.165138;0.014386;
1096;642;0.056089;0.565511;0.999998;0.000340;-0.001455;0.003496;0.000308;0.003515;-0.001474;86.458189;0.003530;
1191;757;-0.331618;1.436564;0.999979;0.001087;-0.005973;0.014175;-0.001879;0.014348;-0.006147;-84.716724;0.014397;
1126;1302;0.212794;78.227164;0.999709;0.003756;-0.032459;0.075442;-0.000765;0.075447;-0.032464;-89.593775;0.075691;
1131;1342;0.030179;80.673305;0.999883;0.002997;-0.023533;0.053476;-0.000108;0.053476;-0.023533;-89.920017;0.053604;
1076;1702;0.048807;86.092832;1.000000;0.000110;-0.000799;0.001815;-0.000137;0.001822;-0.000806;-87.008190;0.001826;
1226;582;-0.092092;0.391249;0.999999;0.000502;-0.000816;0.001999;-0.000289;0.002028;-0.000845;-84.200538;0.002038;
1211;517;-0.054436;0.276652;0.999999;0.000216;-0.000672;0.001648;-0.000116;0.001654;-0.000678;-87.137510;0.001663;
1311;442;-0.079537;0.177553;0.999999;0.000229;-0.000468;0.001438;-0.000067;0.001440;-0.000470;-87.976272;0.001469;
1261;1672;-0.112682;86.039488;1.000000;0.000158;-0.000585;0.001677;0.000319;0.001722;-0.000629;82.128190;0.001742;
1241;722;-0.410767;1.045723;0.999984;0.001156;-0.004118;0.009782;-0.002548;0.010234;-0.004571;-79.931443;0.010254;
1196;757;-0.362494;1.440929;0.999985;0.001141;-0.006002;0.014165;-0.002034;0.014368;-0.006205;-84.298700;0.014412;
1166;697;-0.080725;0.829070;0.999998;0.000405;-0.002735;0.006897;-0.000563;0.006930;-0.002768;-86.665978;0.006977;
1131;1302;0.056397;78.238014;0.999705;0.003988;-0.032343;0.075413;-0.000282;0.075414;-0.032344;-89.850174;0.075667;
1136;1342;-0.094654;80.679582;0.999886;0.002960;-0.023521;0.053389;0.000310;0.053390;-0.023522;89.768708;0.053516;
1231;582;-0.095763;0.389633;0.999999;0.000455;-0.000781;0.001958;-0.000302;0.001991;-0.000814;-83.779365;0.002002;
1076;1707;0.047288;86.101883;1.000000;0.000108;-0.000779;0.001780;-0.000128;0.001786;-0.000785;-87.134990;0.001791;
1246;722;-0.432980;1.046317;0.999978;0.001139;-0.004126;0.009790;-0.002668;0.010285;-0.004620;-79.508989;0.010302;
1316;442;-0.081701;0.179544;1.000000;0.000244;-0.000475;0.001428;-0.000064;0.001431;-0.000477;-88.077742;0.001457;
1216;517;-0.057807;0.277501;0.999999;0.000236;-0.000668;0.001644;-0.000121;0.001650;-0.000674;-87.018402;0.001659;
1201;757;-0.392385;1.443539;0.999984;0.001196;-0.006031;0.014155;-0.002192;0.014390;-0.006267;-83.874305;0.014430;
1261;1677;-0.110199;86.047675;1.000000;0.000183;-0.000584;0.001657;0.000298;0.001696;-0.000623;82.543700;0.001716;
1171;672;-0.067498;0.685101;0.999998;0.000346;-0.001960;0.004936;-0.000467;0.004967;-0.001991;-86.146610;0.005000;
1141;1342;-0.212833;80.692948;0.999884;0.003539;-0.023520;0.053327;0.000733;0.053334;-0.023527;89.453276;0.053457;
1321;442;-0.088414;0.179272;0.999986;0.001374;-0.000484;0.001420;-0.000059;0.001422;-0.000486;-88.228408;0.001445;
1236;572;-0.095821;0.371776;0.999998;0.000392;-0.000723;0.001813;-0.000275;0.001842;-0.000752;-83.874958;0.001852;
1071;1707;0.051083;86.101480;1.000000;0.000110;-0.000763;0.001766;-0.000135;0.001773;-0.000770;-86.949082;0.001778;
1221;517;-0.061542;0.277248;0.999999;0.000265;-0.000660;0.001640;-0.000127;0.001647;-0.000667;-86.852022;0.001656;
1066;1312;2.041789;78.823192;0.999704;0.004653;-0.031488;0.071511;-0.006896;0.071971;-0.031948;-86.186498;0.072121;
1106;772;0.202486;1.668258;0.999983;0.000963;-0.007123;0.016670;0.001023;0.016714;-0.007166;87.542660;0.016770;
1171;697;-0.093785;0.829807;0.999998;0.000405;-0.002749;0.006924;-0.000660;0.006969;-0.002794;-86.114784;0.007014;
1071;742;0.316207;1.253289;0.999986;0.000864;-0.005073;0.012087;0.001815;0.012277;-0.005263;84.028400;0.012318;
1021;1772;0.061843;86.202298;1.000000;0.000142;-0.000545;0.001553;-0.000124;0.001560;-0.000553;-86.634371;0.001582;
1116;1342;0.394156;80.675334;0.999868;0.003520;-0.023775;0.053728;-0.001470;0.053756;-0.023803;-88.913471;0.053873;
946;432;0.089181;0.168825;0.999956;0.001519;-0.000807;0.001575;0.000102;0.001579;-0.000811;87.562360;0.001579;
1236;577;-0.096230;0.380225;0.999998;0.000329;-0.000732;0.001863;-0.000293;0.001895;-0.000765;-83.633793;0.001907;
1101;772;0.238463;1.665711;0.999981;0.000942;-0.007135;0.016661;0.001188;0.016721;-0.007194;87.148964;0.016775;
1216;487;-0.048723;0.228843;0.999999;0.000174;-0.000588;0.001602;-0.000096;0.001606;-0.000592;-87.493870;0.001624;
1061;1732;0.050073;86.142740;1.000000;0.000130;-0.000661;0.001643;-0.000103;0.001648;-0.000666;-87.455541;0.001658;
1131;652;0.006982;0.605209;0.999998;0.000463;-0.001605;0.003804;0.000027;0.003804;-0.001605;89.717222;0.003819;
1171;1307;-1.213967;78.555525;0.999690;0.004910;-0.031712;0.072656;0.003605;0.072780;-0.031836;88.023799;0.072970;
1216;727;-0.331559;1.093355;0.999983;0.000993;-0.004267;0.010293;-0.002053;0.010577;-0.004550;-82.125780;0.010612;
951;432;0.078220;0.167182;0.999999;0.000205;-0.000717;0.001543;0.000093;0.001547;-0.000720;87.636912;0.001548;
1111;1342;0.498855;80.676638;0.999831;0.003527;-0.023837;0.053825;-0.001905;0.053871;-0.023884;-88.595479;0.053986;
1236;582;-0.098706;0.388028;0.999998;0.000387;-0.000745;0.001917;-0.000314;0.001953;-0.000782;-83.355267;0.001966;
1091;1852;0.010491;86.328031;1.000000;0.000156;-0.000254;0.001402;-0.000073;0.001405;-0.000257;-87.482295;0.001496;
1201;737;-0.306696;1.190817;0.999985;0.001099;-0.004772;0.011426;-0.001847;0.011634;-0.004980;-83.575587;0.011674;
1171;657;-0.058319;0.620388;0.999998;0.000398;-0.001650;0.004071;-0.000375;0.004095;-0.001674;-86.261558;0.004118;
1221;487;-0.051453;0.229271;0.999999;0.000211;-0.000587;0.001601;-0.000101;0.001606;-0.000592;-87.351615;0.001624;
1146;1292;-0.462663;77.489335;0.999676;0.004523;-0.035203;0.082317;0.001203;0.082329;-0.035216;89.413381;0.082615;
1081;767;0.363394;1.587465;0.999982;0.001401;-0.006774;0.015817;0.001836;0.015966;-0.006922;85.383244;0.016013;
1186;1692;-0.049131;86.073397;1.000000;0.000118;-0.000864;0.001927;0.000140;0.001934;-0.000871;87.141029;0.001937;
1146;1332;-0.350755;80.130717;0.999822;0.003355;-0.025553;0.058336;0.001215;0.058353;-0.025571;89.170681;0.058501;
1221;582;-0.088549;0.392451;0.999998;0.000516;-0.000846;0.002038;-0.000277;0.002064;-0.000872;-84.557523;0.002073;
1066;487;0.041950;0.228181;0.999999;0.000182;-0.000603;0.001598;0.000084;0.001601;-0.000606;87.829790;0.001617;
1216;1712;-0.065555;86.107491;1.000000;0.000147;-0.000696;0.001698;0.000148;0.001707;-0.000705;86.477320;0.001715;
1116;797;0.163143;2.128485;0.999974;0.001497;-0.009249;0.021412;0.000812;0.021434;-0.009270;88.483244;0.021499;
1171;662;-0.060613;0.640414;0.999998;0.000362;-0.001743;0.004318;-0.000406;0.004345;-0.001770;-86.182050;0.004370;
1151;1292;-0.637288;77.491824;0.999679;0.004342;-0.035351;0.082516;0.001715;0.082541;-0.035376;89.166624;0.082821;
1201;507;-0.045289;0.259072;0.999999;0.000274;-0.000649;0.001632;-0.000093;0.001636;-0.000653;-87.667333;0.001647;
1166;782;-0.246586;1.839341;0.999981;0.001457;-0.007824;0.018365;-0.001289;0.018428;-0.007887;-87.188166;0.018492;
1191;1692;-0.053397;86.073418;1.000000;0.000140;-0.000848;0.001910;0.000149;0.001918;-0.000856;86.906234;0.001921;
1146;1337;-0.334318;80.423509;0.999841;0.003546;-0.024521;0.055710;0.001186;0.055727;-0.024538;89.153296;0.055859;
1216;582;-0.083808;0.394055;0.999998;0.000473;-0.000872;0.002073;-0.000269;0.002098;-0.000896;-84.831886;0.002105;
1131;922;0.098347;6.838068;0.999782;0.005957;-0.027461;0.063005;0.000229;0.063005;-0.027461;89.855098;0.063178;
1171;502;-0.024213;0.249179;0.999999;0.000237;-0.000662;0.001629;-0.000055;0.001631;-0.000663;-88.622055;0.001640;
1246;1652;-0.113300;86.002315;1.000000;0.000163;-0.000732;0.002006;0.000397;0.002062;-0.000789;81.915433;0.002081;
1016;732;0.528454;1.161984;0.999982;0.000959;-0.004701;0.010937;0.003089;0.011525;-0.005289;79.222887;0.011538;
1156;1292;-0.813985;77.483157;0.999640;0.004776;-0.035529;0.082790;0.002246;0.082832;-0.035571;88.912869;0.083107;
961;442;0.078863;0.177186;0.999999;0.000178;-0.000652;0.001510;0.000086;0.001513;-0.000655;87.722398;0.001518;
1146;1342;-0.330923;80.701813;0.999882;0.004163;-0.023536;0.053314;0.001142;0.053331;-0.023553;89.148627;0.053452;
1191;1697;-0.051782;86.082610;1.000000;0.000123;-0.000825;0.001865;0.000142;0.001873;-0.000833;86.987826;0.001876;
1161;787;-0.219473;1.934360;0.999980;0.001431;-0.008260;0.019307;-0.001115;0.019352;-0.008305;-87.686681;0.019417;
1071;672;0.123066;0.685189;0.999998;0.000427;-0.002050;0.005143;0.000827;0.005236;-0.002144;83.528414;0.005265;
1131;927;0.103491;7.156052;0.999759;0.005011;-0.028609;0.065854;0.000234;0.065854;-0.028610;89.857909;0.066043;
1206;747;-0.376554;1.317354;0.999984;0.001003;-0.005391;0.012730;-0.002174;0.012987;-0.005648;-83.254347;0.013024;
1311;447;-0.082048;0.184597;0.999999;0.000201;-0.000481;0.001435;-0.000069;0.001438;-0.000483;-87.936931;0.001463;
1226;1322;-2.653136;79.417420;0.999763;0.004555;-0.029412;0.066300;0.009522;0.067238;-0.030350;84.373487;0.067344;
1011;457;0.062179;0.187946;0.999999;0.000168;-0.000504;0.001538;0.000125;0.001546;-0.000511;86.499322;0.001575;
1011;1777;0.065051;86.209408;1.000000;0.000182;-0.000527;0.001533;-0.000121;0.001540;-0.000534;-86.637985;0.001564;
1106;1342;0.618986;80.669776;0.999833;0.003366;-0.023911;0.053915;-0.002350;0.053986;-0.023982;-88.272151;0.054098;
1211;747;-0.400355;1.317222;0.999985;0.001193;-0.005401;0.012720;-0.002320;0.013012;-0.005694;-82.819384;0.013046;
1081;647;0.079971;0.578543;0.999997;0.000342;-0.001517;0.003738;0.000475;0.003780;-0.001559;84.875150;0.003800;
1191;1762;-0.034097;86.192059;1.000000;0.000098;-0.000581;0.001593;0.000068;0.001595;-0.000583;88.217435;0.001614;
1316;447;-0.084165;0.187169;0.999999;0.000202;-0.000490;0.001428;-0.000066;0.001431;-0.000492;-88.040611;0.001454;
1206;937;-2.280830;7.961585;0.999803;0.003941;-0.032953;0.075034;-0.007650;0.075573;-0.033492;-85.968101;0.075735;
1206;752;-0.398716;1.381867;0.999986;0.001038;-0.005716;0.013436;-0.002260;0.013699;-0.005979;-83.361654;0.013736;
1211;1302;-2.623124;78.085070;0.999742;0.005375;-0.034787;0.079193;0.008372;0.079805;-0.035399;85.821521;0.079974;
1016;1777;0.062213;86.210053;1.000000;0.000176;-0.000531;0.001539;-0.000122;0.001546;-0.000538;-86.643989;0.001570;
1236;477;-0.057166;0.214961;0.999999;0.000183;-0.000562;0.001576;-0.000112;0.001582;-0.000568;-87.006633;0.001602;
1091;1327;1.123919;79.843950;0.999816;0.003898;-0.027222;0.061500;-0.003923;0.061673;-0.027395;-87.473366;0.061801;
1211;752;-0.425534;1.383548;0.999985;0.000927;-0.005726;0.013425;-0.002410;0.013724;-0.006025;-82.936501;0.013758;
1086;647;0.073581;0.579490;0.999998;0.000382;-0.001516;0.003721;0.000428;0.003756;-0.001551;85.359876;0.003775;
1321;447;-0.088811;0.188699;0.999984;0.001392;-0.000501;0.001424;-0.000061;0.001426;-0.000503;-88.191980;0.001446;
1206;757;-0.423658;1.441843;0.999985;0.001094;-0.006056;0.014142;-0.002352;0.014412;-0.006326;-83.445071;0.014448;
1196;942;-2.033184;8.289716;0.999775;0.004317;-0.033832;0.077836;-0.006632;0.078228;-0.034224;-86.613276;0.078432;
1216;1302;-2.797983;78.064546;0.999694;0.004299;-0.034972;0.079720;0.009032;0.080427;-0.035679;85.524695;0.080597;
1191;1767;-0.032874;86.199628;1.000000;0.000103;-0.000564;0.001583;0.000067;0.001585;-0.000566;88.211614;0.001607;
966;442;0.077055;0.175451;0.999999;0.000223;-0.000616;0.001505;0.000085;0.001508;-0.000619;87.712556;0.001516;
1121;1347;0.268011;80.928640;0.999872;0.003476;-0.022672;0.051204;-0.001038;0.051219;-0.022686;-89.194896;0.051330;
1211;757;-0.452311;1.443816;0.999981;0.001059;-0.006067;0.014135;-0.002508;0.014442;-0.006374;-83.028721;0.014475;
1126;627;0.012890;0.521954;0.999998;0.000356;-0.001345;0.003038;0.000055;0.003039;-0.001346;89.287631;0.003045;
1026;472;0.059653;0.207941;0.999999;0.000206;-0.000546;0.001561;0.000121;0.001568;-0.000553;86.710947;0.001591;
1231;1322;-2.814861;79.402019;0.999772;0.003694;-0.029419;0.066456;0.010197;0.067529;-0.030492;83.995628;0.067635;
1141;1852;-0.001897;86.328230;1.000000;0.000148;-0.000244;0.001392;0.000012;0.001392;-0.000244;89.562322;0.001487;
1201;942;-2.202370;8.309827;0.999766;0.004109;-0.034149;0.078236;-0.007234;0.078699;-0.034612;-86.332321;0.078889;
1081;762;0.341210;1.514894;0.999984;0.001198;-0.006397;0.014994;0.001781;0.015141;-0.006544;85.274171;0.015188;
1301;452;-0.080838;0.188793;1.000000;0.000329;-0.000477;0.001442;-0.000085;0.001446;-0.000480;-87.481473;0.001472;
1126;1347;0.147929;80.932522;0.999883;0.003560;-0.022611;0.051163;-0.000581;0.051168;-0.022615;-89.548880;0.051282;
1191;1772;-0.031763;86.207426;1.000000;0.000121;-0.000549;0.001575;0.000067;0.001577;-0.000551;88.204822;0.001601;
1171;777;-0.269684;1.753692;0.999983;0.001478;-0.007405;0.017490;-0.001435;0.017572;-0.007488;-86.710941;0.017636;
1131;627;0.005641;0.522460;0.999999;0.000329;-0.001347;0.003040;0.000020;0.003040;-0.001347;89.734335;0.003047;
1186;497;-0.032927;0.241375;0.999999;0.000239;-0.000632;0.001614;-0.000069;0.001616;-0.000634;-88.234191;0.001628;
1191;1292;-2.091269;77.349386;0.999757;0.003885;-0.037075;0.085337;0.006168;0.085647;-0.037386;87.122605;0.085877;
1251;1682;-0.102316;86.055319;1.000000;0.000165;-0.000626;0.001691;0.000264;0.001721;-0.000655;83.569602;0.001737;
1206;942;-2.382293;8.331605;0.999772;0.004468;-0.034349;0.078457;-0.007776;0.078991;-0.034882;-86.075244;0.079170;
1216;732;-0.354029;1.142677;0.999983;0.001050;-0.004533;0.010865;-0.002143;0.011158;-0.004826;-82.221986;0.011192;
1306;452;-0.082957;0.190509;0.999999;0.000262;-0.000481;0.001428;-0.000083;0.001431;-0.000484;-87.525045;0.001456;
1131;1347;0.027297;80.941474;0.999871;0.003413;-0.022558;0.051133;-0.000129;0.051133;-0.022558;-89.899588;0.051251;
1126;802;0.080316;2.236955;0.999983;0.001288;-0.009664;0.022398;0.000363;0.022402;-0.009668;89.351868;0.022471;
1136;627;-0.000488;0.521640;0.999998;0.000320;-0.001349;0.003040;-0.000012;0.003040;-0.001349;-89.849235;0.003047;
1211;627;-0.095862;0.504497;0.999998;0.000415;-0.001198;0.002979;-0.000489;0.003036;-0.001254;-83.406821;0.003051;
1201;512;-0.047017;0.268011;0.999999;0.000285;-0.000665;0.001637;-0.000100;0.001641;-0.000670;-87.523959;0.001650;
1191;1727;-0.042618;86.134658;1.000000;0.000145;-0.000701;0.001671;0.000099;0.001675;-0.000705;87.612249;0.001682;
1196;1292;-2.280630;77.340888;0.999755;0.003804;-0.037344;0.085871;0.006788;0.086243;-0.037717;86.856388;0.086469;
1256;1682;-0.104939;86.055505;1.000000;0.000152;-0.000605;0.001668;0.000274;0.001700;-0.000638;83.224745;0.001718;
1216;737;-0.375579;1.194246;0.999985;0.001251;-0.004807;0.011445;-0.002249;0.011750;-0.005113;-82.265584;0.011783;
1211;917;-2.074406;6.648287;0.999767;0.003689;-0.027980;0.063136;-0.007501;0.063749;-0.028593;-85.325191;0.063862;
1136;1347;-0.089225;80.947383;0.999884;0.003364;-0.022565;0.051091;0.000293;0.051093;-0.022566;89.772086;0.051208;
1161;507;-0.018694;0.256981;0.999999;0.000220;-0.000694;0.001645;-0.000044;0.001646;-0.000695;-88.934320;0.001653;
1131;802;0.032829;2.235302;0.999984;0.001639;-0.009659;0.022380;0.000135;0.022380;-0.009659;89.759196;0.022450;
1121;627;0.018977;0.521118;0.999998;0.000350;-0.001342;0.003035;0.000087;0.003037;-0.001344;88.865929;0.003043;
1201;1292;-2.469985;77.318781;0.999676;0.004974;-0.037656;0.086447;0.007448;0.086893;-0.038102;86.577833;0.087112;
1261;1682;-0.107908;86.056116;1.000000;0.000184;-0.000585;0.001645;0.000282;0.001680;-0.000620;82.896887;0.001699;
1211;632;-0.098359;0.519025;0.999997;0.000480;-0.001257;0.003145;-0.000533;0.003208;-0.001320;-83.199411;0.003225;
1136;512;-0.001048;0.264357;0.999999;0.000277;-0.000731;0.001674;-0.000004;0.001674;-0.000731;-89.906814;0.001679;
1216;742;-0.399582;1.252824;0.999985;0.001541;-0.005101;0.012047;-0.002361;0.012366;-0.005420;-82.300790;0.012398;
1046;917;2.407031;6.691278;0.999766;0.004093;-0.028267;0.063548;0.008594;0.064345;-0.029064;84.698172;0.064445;
1141;1347;-0.208529;80.952761;0.999894;0.003914;-0.022576;0.051072;0.000710;0.051079;-0.022583;89.447845;0.051193;
1166;507;-0.021681;0.257192;0.999999;0.000204;-0.000689;0.001643;-0.000051;0.001644;-0.000691;-88.740545;0.001651;
1066;1767;0.038347;86.199297;1.000000;0.000126;-0.000563;0.001579;-0.000079;0.001582;-0.000566;-87.902067;0.001603;
1136;802;-0.014266;2.236346;0.999982;0.001538;-0.009648;0.022355;-0.000086;0.022355;-0.009648;-89.845814;0.022425;
1121;632;0.019130;0.535502;0.999998;0.000304;-0.001380;0.003162;0.000090;0.003164;-0.001382;88.861560;0.003172;
1161;1297;-0.955869;77.830964;0.999761;0.004539;-0.034218;0.079373;0.002728;0.079439;-0.034283;88.625220;0.079686;
1266;1672;-0.115139;86.040233;1.000000;0.000125;-0.000565;0.001650;0.000329;0.001697;-0.000613;81.735455;0.001719;
1216;747;-0.427139;1.317565;0.999986;0.001358;-0.005412;0.012715;-0.002465;0.013044;-0.005741;-82.393894;0.013076;
1041;917;2.555320;6.698716;0.999765;0.004361;-0.028335;0.063724;0.009133;0.064621;-0.029232;84.388493;0.064719;
1216;587;-0.085236;0.404308;0.999998;0.000413;-0.000893;0.002136;-0.000286;0.002163;-0.000920;-84.646628;0.002171;
1281;462;-0.075449;0.198539;1.000000;0.000233;-0.000488;0.001486;-0.000116;0.001492;-0.000494;-86.637582;0.001520;
956;442;0.081125;0.179742;0.999999;0.000211;-0.000701;0.001521;0.000090;0.001525;-0.000705;87.685499;0.001526;
1146;1347;-0.317676;80.955772;0.999891;0.003443;-0.022598;0.051100;0.001122;0.051117;-0.022616;89.128075;0.051230;
1021;732;0.507450;1.159111;0.999981;0.001166;-0.004691;0.010952;0.002954;0.011491;-0.005231;79.654585;0.011507;
1181;1312;-1.470747;78.881056;0.999692;0.004588;-0.030608;0.070105;0.004475;0.070303;-0.030807;87.460673;0.070482;
1091;647;0.065275;0.581030;0.999998;0.000465;-0.001515;0.003703;0.000382;0.003730;-0.001542;85.830443;0.003749;
1041;922;2.667056;7.009417;0.999811;0.004250;-0.029464;0.066860;0.009583;0.067804;-0.030408;84.373063;0.067924;
1216;752;-0.452848;1.386571;0.999986;0.001165;-0.005740;0.013422;-0.002562;0.013758;-0.006077;-82.513089;0.013789;
1266;1677;-0.112885;86.048361;1.000000;0.000153;-0.000565;0.001632;0.000308;0.001674;-0.000607;82.172904;0.001695;
1271;1567;-0.302828;85.705757;0.999993;0.000800;-0.002397;0.005949;0.002063;0.006432;-0.002879;76.844090;0.006443;
1211;582;-0.078199;0.395055;0.999997;0.000387;-0.000899;0.002105;-0.000256;0.002127;-0.000921;-85.157229;0.002134;
1216;367;-0.012060;0.049922;1.000000;0.000058;-0.000161;0.001362;-0.000147;0.001376;-0.000175;-84.519387;0.001498;
1096;637;0.055134;0.549556;0.999998;0.000354;-0.001397;0.003320;0.000279;0.003336;-0.001414;86.627101;0.003349;
1006;467;0.068941;0.203539;0.999999;0.000230;-0.000521;0.001526;0.000129;0.001534;-0.000529;86.407333;0.001559;
1216;392;-0.020340;0.084588;1.000000;0.000072;-0.000266;0.001425;-0.000134;0.001435;-0.000276;-85.480210;0.001523;
1181;1317;-1.413635;79.200116;0.999707;0.004570;-0.029292;0.067057;0.004393;0.067257;-0.029491;87.394798;0.067426;
1206;737;-0.329273;1.192390;0.999987;0.001026;-0.004790;0.011428;-0.001983;0.011667;-0.005029;-83.128358;0.011704;
1136;647;-0.000841;0.587151;0.999998;0.000427;-0.001540;0.003607;-0.000021;0.003607;-0.001540;-89.771374;0.003619;
1041;927;2.775889;7.318549;0.999794;0.004568;-0.030698;0.069843;0.009836;0.070796;-0.031651;84.464413;0.070928;
1261;1547;-0.361462;85.569333;0.999994;0.000801;-0.003077;0.007480;0.002346;0.007978;-0.003575;78.019260;0.007992;
1266;1682;-0.110561;86.056218;1.000000;0.000181;-0.000566;0.001623;0.000291;0.001661;-0.000604;82.560736;0.001681;
1176;767;-0.271898;1.591229;0.999987;0.001152;-0.006626;0.015790;-0.001494;0.015889;-0.006726;-86.204787;0.015951;
1211;587;-0.079934;0.405831;0.999997;0.000417;-0.000920;0.002167;-0.000274;0.002191;-0.000944;-84.976451;0.002198;
1101;637;0.048352;0.550421;0.999998;0.000371;-0.001404;0.003318;0.000242;0.003330;-0.001416;87.071375;0.003343;
1216;372;-0.013803;0.056785;1.000000;0.000052;-0.000182;0.001374;-0.000146;0.001388;-0.000196;-84.695290;0.001502;
1011;462;0.063939;0.195367;0.999999;0.000200;-0.000515;0.001539;0.000127;0.001547;-0.000523;86.483689;0.001574;
1211;737;-0.352454;1.193469;0.999986;0.000972;-0.004799;0.011435;-0.002116;0.011706;-0.005070;-82.695838;0.011741;
1046;927;2.618910;7.306506;0.999803;0.004606;-0.030636;0.069576;0.009202;0.070414;-0.031473;84.797004;0.070546;
1051;1307;2.633590;78.417251;0.999697;0.003757;-0.033279;0.075604;-0.008920;0.076329;-0.034005;-85.347717;0.076480;
1141;627;-0.007255;0.521020;0.999999;0.000314;-0.001348;0.003041;-0.000042;0.003042;-0.001348;-89.448429;0.003048;
1061;372;0.012170;0.056569;1.000000;0.000074;-0.000181;0.001370;0.000130;0.001380;-0.000192;85.233510;0.001496;
1266;1547;-0.379714;85.568853;0.999994;0.000900;-0.003074;0.007453;0.002423;0.007984;-0.003604;77.642054;0.007997;
1176;772;-0.288525;1.671608;0.999987;0.001264;-0.007005;0.016646;-0.001553;0.016747;-0.007107;-86.259950;0.016811;
1106;637;0.041255;0.551070;0.999998;0.000421;-0.001409;0.003317;0.000207;0.003326;-0.001419;87.492535;0.003338;
1236;567;-0.093412;0.362641;0.999997;0.000447;-0.000712;0.001773;-0.000261;0.001800;-0.000739;-84.071064;0.001810;
1016;1772;0.064669;86.202339;1.000000;0.000164;-0.000541;0.001545;-0.000125;0.001553;-0.000548;-86.572489;0.001575;
1296;532;-0.112946;0.303556;0.999998;0.000358;-0.000507;0.001419;-0.000260;0.001454;-0.000541;-82.440748;0.001469;
1011;467;0.066189;0.202889;0.999999;0.000257;-0.000525;0.001535;0.000127;0.001543;-0.000533;86.477827;0.001567;
1206;742;-0.352344;1.250656;0.999985;0.001009;-0.005084;0.012048;-0.002084;0.012298;-0.005334;-83.163476;0.012334;
1056;1307;2.469766;78.435360;0.999716;0.004226;-0.033142;0.075299;-0.008282;0.075928;-0.033771;-85.657740;0.076082;
1191;417;-0.019484;0.119286;1.000000;0.000071;-0.000353;0.001459;-0.000082;0.001463;-0.000356;-87.408673;0.001525;
1271;1547;-0.406708;85.575922;0.999665;0.005870;-0.003040;0.007380;0.002492;0.007945;-0.003605;77.219869;0.007956;
1066;372;0.011509;0.056545;1.000000;0.000068;-0.000178;0.001365;0.000121;0.001375;-0.000188;85.533094;0.001491;
1006;737;0.612976;1.221439;0.999927;0.002232;-0.005009;0.011334;0.003491;0.012048;-0.005723;78.433521;0.012053;
1176;932;-1.247250;7.535653;0.999801;0.005107;-0.030498;0.069971;-0.004069;0.070136;-0.030663;-87.684638;0.070320;
1116;637;0.027131;0.551572;0.999998;0.000386;-0.001419;0.003316;0.000132;0.003319;-0.001423;88.401870;0.003330;
1296;537;-0.114340;0.309452;0.999998;0.000308;-0.000506;0.001425;-0.000272;0.001463;-0.000544;-82.127694;0.001479;
1176;1882;-0.005231;86.368131;1.000000;0.000174;-0.000127;0.001344;0.000078;0.001348;-0.000131;86.982321;0.001487;
1061;1307;2.298633;78.453522;0.999727;0.004819;-0.033033;0.074978;-0.007622;0.075513;-0.033568;-85.983588;0.075668;
1141;792;-0.056101;2.034109;0.999979;0.001028;-0.008707;0.020350;-0.000304;0.020353;-0.008710;-89.401605;0.020423;
1271;1552;-0.369744;85.604756;0.999923;0.002493;-0.002894;0.007082;0.002385;0.007623;-0.003435;77.224281;0.007635;
1196;417;-0.021286;0.119552;1.000000;0.000066;-0.000355;0.001462;-0.000089;0.001466;-0.000360;-87.191422;0.001528;
1201;417;-0.023017;0.120044;1.000000;0.000068;-0.000358;0.001465;-0.000096;0.001470;-0.000363;-86.988650;0.001532;
1176;937;-1.306760;7.883508;0.999765;0.004596;-0.031797;0.073231;-0.004160;0.073395;-0.031961;-87.735367;0.073599;
1096;772;0.272786;1.664874;0.999981;0.001175;-0.007130;0.016656;0.001355;0.016733;-0.007207;86.750732;0.016786;
1136;652;-0.001119;0.605341;0.999998;0.000389;-0.001607;0.003799;-0.000020;0.003799;-0.001607;-89.789366;0.003814;
1151;1337;-0.473231;80.424983;0.999852;0.003664;-0.024500;0.055668;0.001569;0.055699;-0.024531;88.879138;0.055830;
1236;562;-0.090585;0.353732;0.999997;0.000562;-0.000700;0.001745;-0.000246;0.001769;-0.000725;-84.312960;0.001779;
1176;1887;-0.004612;86.374936;1.000000;0.000224;-0.000107;0.001346;0.000080;0.001350;-0.000111;86.865455;0.001499;
1211;742;-0.375780;1.253037;0.999985;0.001400;-0.005093;0.012045;-0.002224;0.012329;-0.005377;-82.726119;0.012363;
1076;342;0.002926;0.016304;1.000000;0.000065;-0.000055;0.001316;0.000109;0.001324;-0.000063;85.494422;0.001494;
1206;657;-0.114210;0.610432;0.999998;0.000438;-0.001687;0.004262;-0.000757;0.004357;-0.001782;-82.864002;0.004381;
1186;417;-0.017752;0.118979;1.000000;0.000065;-0.000350;0.001456;-0.000075;0.001459;-0.000353;-87.642175;0.001523;
1036;917;2.702238;6.713359;0.999670;0.005357;-0.028287;0.063811;0.009613;0.064803;-0.029279;84.104129;0.064904;
1141;632;-0.008169;0.536887;0.999999;0.000365;-0.001386;0.003162;-0.000047;0.003162;-0.001386;-89.404311;0.003170;
1241;1557;-0.265725;85.639179;0.999994;0.000922;-0.002669;0.006690;0.001796;0.007023;-0.003002;79.501171;0.007047;
1216;757;-0.481172;1.445771;0.999981;0.001198;-0.006084;0.014134;-0.002666;0.014479;-0.006430;-82.613644;0.014510;
1151;1342;-0.454738;80.698470;0.999890;0.003139;-0.023510;0.053319;0.001541;0.053350;-0.023541;88.851617;0.053473;
1176;682;-0.087289;0.736710;0.999998;0.000382;-0.002250;0.005657;-0.000609;0.005703;-0.002297;-85.624134;0.005739;
971;542;0.118368;0.318960;0.999998;0.000426;-0.000491;0.001419;0.000270;0.001456;-0.000529;82.097010;0.001474;
1036;922;2.808826;7.036191;0.999351;0.006613;-0.029353;0.067054;0.010147;0.068110;-0.030410;84.056079;0.068240;
1076;347;0.004206;0.023263;1.000000;0.000073;-0.000074;0.001325;0.000108;0.001333;-0.000082;85.609287;0.001495;
1221;747;-0.456349;1.317665;0.999986;0.001763;-0.005419;0.012720;-0.002613;0.013089;-0.005788;-81.962989;0.013118;
1206;1647;-0.081795;85.979475;1.000000;0.000163;-0.000982;0.002346;0.000302;0.002373;-0.001010;84.860091;0.002382;
1186;422;-0.018807;0.126443;1.000000;0.000064;-0.000369;0.001467;-0.000073;0.001470;-0.000372;-87.720072;0.001529;
1211;652;-0.115498;0.588072;0.999998;0.000381;-0.001586;0.004002;-0.000754;0.004102;-0.001686;-82.452638;0.004123;
1141;637;-0.008010;0.553565;0.999998;0.000394;-0.001431;0.003301;-0.000053;0.003302;-0.001431;-89.361556;0.003311;
1201;762;-0.415214;1.515453;0.999982;0.001269;-0.006378;0.014882;-0.002288;0.015125;-0.006621;-83.925353;0.015164;
1151;1347;-0.431298;80.947118;0.999892;0.002760;-0.022565;0.051147;0.001529;0.051178;-0.022597;88.812515;0.051295;
1036;927;2.930648;7.343529;0.999192;0.006471;-0.030563;0.070058;0.010424;0.071126;-0.031631;84.147193;0.071271;
1176;687;-0.093870;0.764472;0.999998;0.000396;-0.002410;0.006053;-0.000656;0.006103;-0.002460;-85.593926;0.006141;
1066;1507;0.302595;85.225409;0.999990;0.000731;-0.004739;0.011269;-0.001847;0.011480;-0.004949;-83.502733;0.011516;
1161;642;-0.036820;0.568162;0.999998;0.000509;-0.001456;0.003433;-0.000221;0.003443;-0.001466;-87.421200;0.003456;
1166;347;-0.002107;0.022867;1.000000;0.000075;-0.000069;0.001309;-0.000057;0.001311;-0.000072;-87.647637;0.001474;
1221;752;-0.485913;1.384901;0.999986;0.001950;-0.005746;0.013423;-0.002719;0.013801;-0.006125;-82.080705;0.013830;
1111;637;0.034367;0.551106;0.999998;0.000446;-0.001414;0.003317;0.000171;0.003323;-0.001420;87.936760;0.003335;
1211;657;-0.122788;0.608984;0.999998;0.000404;-0.001693;0.004292;-0.000816;0.004401;-0.001803;-82.372489;0.004425;
1171;402;-0.010153;0.096984;1.000000;0.000054;-0.000290;0.001417;-0.000056;0.001419;-0.000292;-88.110949;0.001499;
1176;777;-0.306585;1.752300;0.999984;0.001216;-0.007399;0.017487;-0.001628;0.017593;-0.007505;-86.274082;0.017656;
1041;932;2.902624;7.672095;0.999783;0.005400;-0.032023;0.073107;0.010101;0.074069;-0.032985;84.561262;0.074217;
1261;1542;-0.386541;85.529713;0.999993;0.000804;-0.003259;0.007854;0.002464;0.008376;-0.003780;78.043324;0.008389;
1221;1817;-0.034170;86.274430;1.000000;0.000145;-0.000414;0.001499;0.000120;0.001506;-0.000421;86.430056;0.001554;
1126;632;0.012822;0.535783;0.999998;0.000338;-0.001384;0.003162;0.000056;0.003162;-0.001384;89.298038;0.003171;
1116;1347;0.372646;80.919914;0.999866;0.003092;-0.022752;0.051272;-0.001464;0.051301;-0.022781;-88.867395;0.051408;
1171;347;-0.002470;0.022938;1.000000;0.000057;-0.000069;0.001310;-0.000066;0.001313;-0.000072;-87.278087;0.001476;
1221;757;-0.512553;1.449860;0.999984;0.001368;-0.006092;0.014138;-0.002828;0.014526;-0.006480;-82.189803;0.014554;
1031;552;0.088609;0.337299;0.999997;0.000406;-0.000676;0.001715;0.000218;0.001735;-0.000696;84.820646;0.001746;
1266;1542;-0.405221;85.529493;0.999993;0.000802;-0.003245;0.007814;0.002541;0.008370;-0.003801;77.661051;0.008382;
1046;932;2.736652;7.652132;0.999782;0.004939;-0.031954;0.072826;0.009453;0.073672;-0.032800;84.885899;0.073819;
1141;1292;-0.289758;77.486738;0.999620;0.004373;-0.035079;0.082156;0.000709;0.082161;-0.035083;89.653641;0.082452;
1226;592;-0.094805;0.413224;0.999998;0.000348;-0.000865;0.002130;-0.000333;0.002166;-0.000901;-83.730938;0.002176;
1181;767;-0.306084;1.591950;0.999985;0.001075;-0.006644;0.015770;-0.001681;0.015896;-0.006770;-85.733971;0.015954;
1176;402;-0.011574;0.097143;1.000000;0.000057;-0.000292;0.001420;-0.000064;0.001422;-0.000294;-87.845331;0.001501;
1131;632;0.005792;0.535824;0.999999;0.000362;-0.001385;0.003162;0.000019;0.003162;-0.001385;89.756385;0.003171;
1226;1817;-0.036303;86.273758;1.000000;0.000173;-0.000416;0.001502;0.000124;0.001510;-0.000424;86.301260;0.001557;
1111;1347;0.477524;80.920117;0.999858;0.003434;-0.022807;0.051370;-0.001869;0.051417;-0.022854;-88.557308;0.051523;
1051;387;0.019191;0.077778;1.000000;0.000073;-0.000250;0.001417;0.000142;0.001429;-0.000262;85.170857;0.001521;
1221;742;-0.427776;1.253150;0.999985;0.001700;-0.005108;0.012055;-0.002502;0.012412;-0.005465;-81.872778;0.012442;
1256;1542;-0.371928;85.529904;0.999992;0.000713;-0.003276;0.007868;0.002380;0.008355;-0.003763;78.435932;0.008369;
1226;587;-0.092502;0.402245;0.999998;0.000364;-0.000838;0.002059;-0.000310;0.002091;-0.000871;-83.966997;0.002101;
1181;772;-0.325251;1.672556;0.999987;0.000912;-0.007024;0.016633;-0.001745;0.016761;-0.007151;-85.804679;0.016821;
1231;592;-0.099410;0.411513;0.999998;0.000424;-0.000829;0.002089;-0.000350;0.002131;-0.000871;-83.264951;0.002143;
1186;1312;-1.624752;78.867958;0.999701;0.004671;-0.030808;0.070414;0.005019;0.070663;-0.031056;87.168576;0.070835;
1071;362;0.007978;0.042766;1.000000;0.000056;-0.000135;0.001343;0.000115;0.001352;-0.000144;85.573605;0.001485;
1136;632;-0.001140;0.536386;0.999998;0.000387;-0.001387;0.003163;-0.000014;0.003163;-0.001387;-89.817677;0.003171;
1151;1332;-0.488463;80.132893;0.999840;0.003815;-0.025534;0.058279;0.001597;0.058310;-0.025565;88.908580;0.058457;
1266;1667;-0.117574;86.032155;1.000000;0.000144;-0.000570;0.001684;0.000356;0.001739;-0.000625;81.230148;0.001761;
1056;387;0.017958;0.077456;1.000000;0.000080;-0.000248;0.001411;0.000133;0.001422;-0.000258;85.431839;0.001515;
1161;672;-0.048891;0.686425;0.999999;0.000348;-0.001952;0.004891;-0.000340;0.004908;-0.001969;-87.165434;0.004940;
1221;737;-0.400174;1.195510;0.999986;0.001336;-0.004816;0.011459;-0.002386;0.011802;-0.005159;-81.829176;0.011833;
1246;1542;-0.340125;85.529828;0.999990;0.000743;-0.003249;0.007866;0.002214;0.008290;-0.003674;79.141358;0.008308;
1231;587;-0.097264;0.400487;0.999999;0.000430;-0.000802;0.002016;-0.000324;0.002053;-0.000839;-83.518854;0.002064;
1181;777;-0.343220;1.751996;0.999985;0.001090;-0.007419;0.017489;-0.001826;0.017622;-0.007552;-85.828413;0.017682;
1236;592;-0.103989;0.409818;0.999998;0.000450;-0.000792;0.002055;-0.000365;0.002101;-0.000838;-82.808996;0.002115;
1166;1297;-1.141821;77.821394;0.999661;0.005437;-0.034381;0.079569;0.003238;0.079661;-0.034473;88.373636;0.079901;
1071;367;0.009364;0.049635;1.000000;0.000059;-0.000156;0.001349;0.000113;0.001357;-0.000164;85.713354;0.001482;
1136;637;-0.000210;0.552909;0.999998;0.000469;-0.001432;0.003304;-0.000017;0.003304;-0.001432;-89.792919;0.003314;
1136;1352;-0.089008;81.193170;0.999892;0.002971;-0.021655;0.049053;0.000300;0.049054;-0.021656;89.756908;0.049166;
1186;352;-0.004454;0.029365;1.000000;0.000063;-0.000090;0.001323;-0.000095;0.001329;-0.000096;-86.183412;0.001482;
1271;1667;-0.120372;86.032981;1.000000;0.000179;-0.000554;0.001657;0.000369;0.001717;-0.000614;80.764137;0.001740;
1251;1542;-0.358117;85.530463;0.999992;0.000672;-0.003275;0.007865;0.002293;0.008318;-0.003728;78.813066;0.008333;
1161;677;-0.051882;0.711180;0.999999;0.000333;-0.002078;0.005216;-0.000359;0.005233;-0.002095;-87.188145;0.005268;
1071;647;0.095526;0.577129;0.999998;0.000495;-0.001509;0.003775;0.000571;0.003836;-0.001571;83.899677;0.003857;
1066;342;0.003457;0.016611;1.000000;0.000071;-0.000053;0.001322;0.000127;0.001333;-0.000065;84.759638;0.001504;
1041;1317;2.732367;79.110804;0.999768;0.004360;-0.030736;0.069475;-0.009834;0.070431;-0.031691;-84.448173;0.070548;
1181;762;-0.289325;1.513932;0.999984;0.000913;-0.006284;0.014938;-0.001619;0.015061;-0.006407;-85.663178;0.015117;
1221;592;-0.090937;0.412961;0.999998;0.000352;-0.000892;0.002170;-0.000318;0.002202;-0.000924;-84.136307;0.002212;
1136;642;-0.001017;0.570572;0.999998;0.000535;-0.001483;0.003445;-0.000021;0.003445;-0.001483;-89.759449;0.003456;
1181;352;-0.004088;0.029356;1.000000;0.000053;-0.000089;0.001320;-0.000085;0.001325;-0.000094;-86.557639;0.001479;
1141;1352;-0.199650;81.188047;0.999899;0.003035;-0.021672;0.049031;0.000707;0.049038;-0.021679;89.427157;0.049147;
1271;1672;-0.117912;86.041125;1.000000;0.000152;-0.000547;0.001623;0.000340;0.001675;-0.000599;81.301494;0.001697;
1296;462;-0.082552;0.202725;0.999999;0.000199;-0.000489;0.001446;-0.000096;0.001451;-0.000493;-87.154007;0.001476;
1161;682;-0.055787;0.736831;0.999999;0.000343;-0.002219;0.005562;-0.000383;0.005581;-0.002238;-87.189069;0.005617;
1066;347;0.004791;0.023095;1.000000;0.000052;-0.000074;0.001331;0.000127;0.001342;-0.000085;84.885889;0.001503;
1046;1307;2.808086;78.404321;0.999644;0.005071;-0.033443;0.075901;-0.009559;0.076731;-0.034272;-85.041412;0.076876;
1071;1507;0.279519;85.223605;0.999990;0.000747;-0.004713;0.011260;-0.001693;0.011437;-0.004891;-84.016451;0.011477;
1136;622;-0.000952;0.507831;0.999998;0.000284;-0.001314;0.002943;-0.000010;0.002943;-0.001314;-89.869181;0.002949;
1186;762;-0.320412;1.512194;0.999982;0.001040;-0.006304;0.014918;-0.001795;0.015069;-0.006455;-85.198445;0.015120;
1211;592;-0.081477;0.416209;0.999996;0.000466;-0.000942;0.002235;-0.000291;0.002261;-0.000968;-84.803210;0.002269;
1176;692;-0.100092;0.796409;0.999998;0.000415;-0.002581;0.006495;-0.000708;0.006550;-0.002636;-85.563234;0.006591;
1146;1352;-0.299511;81.190960;0.999895;0.002555;-0.021689;0.049048;0.001113;0.049066;-0.021707;89.098809;0.049174;
1051;407;0.026076;0.106698;1.000000;0.000098;-0.000332;0.001465;0.000126;0.001474;-0.000341;86.001869;0.001543;
1271;1677;-0.115693;86.048903;1.000000;0.000155;-0.000545;0.001608;0.000317;0.001653;-0.000591;81.790280;0.001676;
1066;352;0.006037;0.029481;1.000000;0.000042;-0.000094;0.001338;0.000126;0.001349;-0.000105;84.989651;0.001501;
1301;462;-0.085437;0.203566;1.000000;0.000250;-0.000489;0.001432;-0.000096;0.001437;-0.000493;-87.160532;0.001461;
1161;667;-0.046672;0.662582;0.999999;0.000382;-0.001841;0.004572;-0.000318;0.004587;-0.001857;-87.164431;0.004615;
1211;1297;-2.738554;77.687077;0.999720;0.005348;-0.036411;0.083172;0.008537;0.083778;-0.037017;85.937238;0.083967;
1141;622;-0.007565;0.507081;0.999999;0.000286;-0.001312;0.002945;-0.000037;0.002945;-0.001313;-89.498253;0.002951;
1071;342;0.003118;0.016513;1.000000;0.000060;-0.000055;0.001319;0.000118;0.001329;-0.000065;85.132854;0.001498;
1176;782;-0.322909;1.838457;0.999979;0.001233;-0.007803;0.018356;-0.001702;0.018466;-0.007913;-86.292197;0.018529;
1216;592;-0.086705;0.414472;0.999998;0.000400;-0.000916;0.002204;-0.000306;0.002234;-0.000945;-84.457438;0.002243;
1076;1507;0.257038;85.224239;0.999989;0.000864;-0.004694;0.011251;-0.001545;0.011399;-0.004842;-84.517100;0.011442;
1151;1352;-0.401954;81.177941;0.999892;0.002636;-0.021647;0.049092;0.001516;0.049124;-0.021679;88.772955;0.049237;
1221;732;-0.375661;1.144060;0.999984;0.001053;-0.004545;0.010881;-0.002277;0.011210;-0.004874;-81.777551;0.011242;
1271;1682;-0.113667;86.056631;1.000000;0.000151;-0.000547;0.001599;0.000300;0.001640;-0.000588;82.203228;0.001662;
1211;932;-2.349205;7.610299;0.999711;0.004470;-0.031752;0.071995;-0.008098;0.072624;-0.032380;-85.563492;0.072766;
1231;1857;-0.023306;86.331800;0.999999;0.000196;-0.000261;0.001435;0.000165;0.001451;-0.000277;84.499333;0.001541;
1071;352;0.005579;0.029563;1.000000;0.000053;-0.000094;0.001334;0.000117;0.001344;-0.000104;85.347498;0.001495;
1306;462;-0.086878;0.204114;0.999999;0.000227;-0.000494;0.001417;-0.000094;0.001422;-0.000498;-87.197548;0.001443;
1071;347;0.004330;0.023051;1.000000;0.000049;-0.000075;0.001328;0.000117;0.001338;-0.000085;85.255278;0.001498;
1146;622;-0.013843;0.506964;0.999999;0.000284;-0.001311;0.002945;-0.000066;0.002946;-0.001312;-89.110268;0.002952;
1236;587;-0.101828;0.399078;0.999998;0.000465;-0.000765;0.001977;-0.000339;0.002019;-0.000806;-83.064206;0.002032;
1156;1342;-0.572789;80.691051;0.999887;0.002848;-0.023514;0.053322;0.001917;0.053370;-0.023562;88.571612;0.053491;
1206;1527;-0.259683;85.412609;0.999993;0.000754;-0.003774;0.009129;0.001622;0.009330;-0.003974;82.944096;0.009364;
1061;582;0.077338;0.397119;0.999998;0.000384;-0.000915;0.002124;0.000253;0.002145;-0.000936;85.263994;0.002150;
1206;762;-0.448887;1.512480;0.999981;0.001126;-0.006404;0.014871;-0.002455;0.015151;-0.006683;-83.502603;0.015186;
1076;352;0.005187;0.029499;1.000000;0.000064;-0.000093;0.001331;0.000108;0.001339;-0.000101;85.693313;0.001491;
1211;937;-2.455078;7.975518;0.999725;0.004672;-0.033108;0.075361;-0.008268;0.075988;-0.033735;-85.666167;0.076147;
1266;1687;-0.108290;86.063933;1.000000;0.000185;-0.000569;0.001616;0.000274;0.001650;-0.000603;82.953358;0.001669;
1311;462;-0.088986;0.206420;0.999999;0.000239;-0.000501;0.001403;-0.000090;0.001407;-0.000505;-87.284897;0.001425;
966;1772;0.089896;86.194386;0.999999;0.000202;-0.000497;0.001399;-0.000089;0.001404;-0.000501;-87.305154;0.001423;
1191;422;-0.020718;0.126670;1.000000;0.000066;-0.000371;0.001470;-0.000080;0.001473;-0.000375;-87.503524;0.001532;
1146;627;-0.014236;0.520982;0.999999;0.000343;-0.001347;0.003041;-0.000074;0.003042;-0.001348;-89.036534;0.003049;
1221;587;-0.089690;0.402632;0.999998;0.000390;-0.000867;0.002100;-0.000296;0.002129;-0.000897;-84.349985;0.002138;
1156;1347;-0.545256;80.932111;0.999908;0.002652;-0.022559;0.051188;0.001912;0.051237;-0.022608;88.515737;0.051355;
1206;1532;-0.243261;85.457981;0.999994;0.000672;-0.003548;0.008645;0.001541;0.008837;-0.003740;82.908916;0.008872;
1186;767;-0.340985;1.591553;0.999981;0.001044;-0.006671;0.015746;-0.001866;0.015900;-0.006825;-85.274859;0.015953;
1211;942;-2.558971;8.358421;0.999731;0.005077;-0.034511;0.078815;-0.008402;0.079434;-0.035131;-85.783046;0.079611;
1271;1687;-0.110589;86.064332;1.000000;0.000178;-0.000552;0.001594;0.000282;0.001631;-0.000589;82.627302;0.001652;
1191;427;-0.021686;0.134009;1.000000;0.000060;-0.000389;0.001480;-0.000078;0.001483;-0.000393;-87.615586;0.001537;
1066;582;0.072303;0.398015;0.999998;0.000383;-0.000931;0.002150;0.000241;0.002168;-0.000950;85.554313;0.002174;
1316;452;-0.086703;0.194378;0.999999;0.000197;-0.000495;0.001404;-0.000079;0.001407;-0.000499;-87.616045;0.001427;
1266;1897;-0.010078;86.385330;1.000000;0.000195;-0.000119;0.001434;0.000261;0.001477;-0.000162;80.701216;0.001620;
1196;422;-0.022642;0.126978;1.000000;0.000071;-0.000374;0.001473;-0.000087;0.001477;-0.000378;-87.300178;0.001534;
1146;632;-0.014654;0.536449;0.999998;0.000386;-0.001386;0.003160;-0.000081;0.003161;-0.001387;-88.974186;0.003169;
1156;1352;-0.514384;81.161409;0.999893;0.002800;-0.021632;0.049131;0.001894;0.049182;-0.021683;88.468139;0.049296;
1241;577;-0.100874;0.379885;0.999998;0.000375;-0.000696;0.001821;-0.000304;0.001857;-0.000732;-83.215033;0.001871;
1316;457;-0.088734;0.201447;0.999999;0.000202;-0.000499;0.001381;-0.000083;0.001385;-0.000502;-87.488193;0.001402;
1206;1517;-0.297953;85.314187;0.999992;0.000735;-0.004263;0.010256;0.001790;0.010473;-0.004480;83.073746;0.010510;
1196;427;-0.023647;0.134404;1.000000;0.000068;-0.000391;0.001483;-0.000085;0.001486;-0.000395;-87.420663;0.001540;
1271;1897;-0.010476;86.384938;1.000000;0.000184;-0.000124;0.001452;0.000276;0.001499;-0.000171;80.340490;0.001641;
1241;597;-0.109563;0.418353;0.999998;0.000340;-0.000788;0.002115;-0.000414;0.002173;-0.000846;-82.049861;0.002191;
1171;932;-1.107079;7.524894;0.999797;0.004809;-0.030373;0.069741;-0.003534;0.069866;-0.030498;-87.980896;0.070053;
1181;782;-0.360956;1.836885;0.999980;0.001386;-0.007820;0.018360;-0.001910;0.018498;-0.007959;-85.849750;0.018558;
1231;1817;-0.038736;86.273190;1.000000;0.000159;-0.000417;0.001505;0.000129;0.001514;-0.000426;86.182752;0.001561;
1316;462;-0.090441;0.208424;0.999999;0.000243;-0.000512;0.001390;-0.000087;0.001394;-0.000516;-87.375158;0.001409;
1201;422;-0.024314;0.127392;1.000000;0.000060;-0.000376;0.001475;-0.000094;0.001480;-0.000380;-87.109083;0.001537;
1126;622;0.012285;0.507029;0.999998;0.000378;-0.001310;0.002940;0.000051;0.002941;-0.001311;89.307980;0.002946;
1156;1337;-0.594428;80.420474;0.999870;0.003316;-0.024508;0.055626;0.001935;0.055673;-0.024554;88.617735;0.055802;
1241;582;-0.102717;0.388212;0.999998;0.000364;-0.000711;0.001876;-0.000326;0.001916;-0.000751;-82.918512;0.001931;
1276;1897;-0.011353;86.384776;1.000000;0.000184;-0.000129;0.001470;0.000289;0.001520;-0.000180;80.075761;0.001662;
1206;1522;-0.278431;85.365508;0.999994;0.000798;-0.004013;0.009657;0.001705;0.009866;-0.004223;82.998155;0.009900;
1201;427;-0.025581;0.134812;1.000000;0.000061;-0.000393;0.001484;-0.000091;0.001489;-0.000397;-87.239848;0.001542;
1171;937;-1.151020;7.873983;0.999767;0.004369;-0.031669;0.072972;-0.003608;0.073097;-0.031793;-88.027388;0.073303;
1246;597;-0.113136;0.416865;0.999998;0.000377;-0.000771;0.002080;-0.000431;0.002144;-0.000835;-81.581718;0.002161;
1231;747;-0.508074;1.320811;0.999987;0.000901;-0.005450;0.012695;-0.002911;0.013151;-0.005906;-81.105411;0.013173;
1196;347;-0.004258;0.023141;1.000000;0.000057;-0.000072;0.001320;-0.000114;0.001329;-0.000081;-85.348055;0.001490;
1071;652;0.099496;0.594472;0.999998;0.000383;-0.001600;0.004017;0.000618;0.004084;-0.001667;83.800205;0.004107;
1131;622;0.005563;0.507654;0.999999;0.000363;-0.001312;0.002942;0.000019;0.002942;-0.001312;89.738258;0.002948;
1076;1642;0.064709;85.966602;1.000000;0.000155;-0.001060;0.002460;-0.000259;0.002479;-0.001079;-85.810831;0.002486;
1276;462;-0.072880;0.197404;1.000000;0.000232;-0.000494;0.001500;-0.000119;0.001507;-0.000501;-86.586291;0.001535;
1241;587;-0.105505;0.398643;0.999998;0.000425;-0.000730;0.001940;-0.000351;0.001985;-0.000776;-82.626745;0.002001;
1181;417;-0.015777;0.118935;1.000000;0.000062;-0.000348;0.001454;-0.000068;0.001456;-0.000351;-87.855384;0.001520;
1016;1547;0.323932;85.579843;0.999993;0.000822;-0.002956;0.007330;-0.002129;0.007753;-0.003379;-78.753621;0.007774;
1226;1867;-0.017743;86.346757;1.000000;0.000175;-0.000214;0.001407;0.000163;0.001423;-0.000230;84.319556;0.001528;
1231;752;-0.540276;1.388505;0.999987;0.000851;-0.005769;0.013383;-0.003036;0.013853;-0.006239;-81.205122;0.013875;
1191;942;-1.867395;8.274438;0.999734;0.004701;-0.033593;0.077454;-0.006033;0.077781;-0.033920;-86.899298;0.077992;
1251;587;-0.112768;0.395663;0.999998;0.000362;-0.000684;0.001857;-0.000380;0.001913;-0.000739;-81.680938;0.001929;
1186;427;-0.019742;0.133766;1.000000;0.000057;-0.000387;0.001477;-0.000071;0.001480;-0.000390;-87.819621;0.001535;
1146;637;-0.014883;0.553881;0.999998;0.000409;-0.001430;0.003297;-0.000089;0.003299;-0.001432;-88.915748;0.003308;
1076;652;0.091157;0.596280;0.999998;0.000371;-0.001599;0.003991;0.000564;0.004047;-0.001655;84.298736;0.004069;
1276;467;-0.075623;0.205325;1.000000;0.000217;-0.000501;0.001504;-0.000124;0.001511;-0.000509;-86.460837;0.001538;
1211;1717;-0.059901;86.116252;1.000000;0.000138;-0.000695;0.001688;0.000134;0.001695;-0.000703;86.788615;0.001703;
1181;422;-0.016765;0.126227;1.000000;0.000071;-0.000367;0.001465;-0.000066;0.001467;-0.000369;-87.925191;0.001526;
971;547;0.120604;0.325910;0.999997;0.000478;-0.000474;0.001430;0.000293;0.001474;-0.000518;81.453860;0.001495;
1211;1527;-0.280272;85.413519;0.999987;0.000882;-0.003808;0.009151;0.001741;0.009380;-0.004038;82.481562;0.009410;
1231;757;-0.574072;1.452347;0.999988;0.000878;-0.006113;0.014109;-0.003158;0.014591;-0.006595;-81.327046;0.014614;
1226;1872;-0.015920;86.353641;1.000000;0.000147;-0.000192;0.001390;0.000167;0.001407;-0.000210;84.031574;0.001518;
1166;932;-0.945369;7.509651;0.999771;0.004574;-0.030248;0.069532;-0.003032;0.069624;-0.030341;-88.261335;0.069816;
1176;417;-0.013962;0.118517;1.000000;0.000063;-0.000348;0.001452;-0.000061;0.001454;-0.000350;-88.073763;0.001517;
1226;1317;-2.768747;79.086998;0.999755;0.005242;-0.030716;0.069377;0.009847;0.070337;-0.031675;84.434594;0.070452;
1116;627;0.025290;0.520713;0.999998;0.000433;-0.001335;0.003033;0.000117;0.003036;-0.001338;88.469599;0.003043;
1281;467;-0.077712;0.206207;1.000000;0.000176;-0.000495;0.001489;-0.000122;0.001496;-0.000502;-86.489375;0.001523;
1176;697;-0.107674;0.830459;0.999997;0.000509;-0.002767;0.006955;-0.000754;0.007013;-0.002825;-85.591442;0.007057;
1056;352;0.006952;0.029776;1.000000;0.000075;-0.000096;0.001345;0.000147;0.001360;-0.000110;84.251211;0.001510;
1301;457;-0.083824;0.196034;1.000000;0.000307;-0.000481;0.001432;-0.000089;0.001436;-0.000485;-87.335084;0.001461;
1196;1757;-0.038108;86.183224;1.000000;0.000126;-0.000596;0.001604;0.000076;0.001607;-0.000598;88.035710;0.001624;
1231;742;-0.478054;1.257247;0.999987;0.001159;-0.005150;0.012057;-0.002780;0.012496;-0.005588;-81.046046;0.012519;
1226;1877;-0.014110;86.360098;1.000000;0.000183;-0.000170;0.001384;0.000170;0.001403;-0.000189;83.831019;0.001522;
1166;937;-0.992416;7.854963;0.999754;0.004455;-0.031536;0.072722;-0.003092;0.072814;-0.031628;-88.302646;0.073023;
1011;1817;0.049089;86.270089;1.000000;0.000184;-0.000436;0.001513;-0.000133;0.001522;-0.000445;-86.126223;0.001565;
1231;1317;-2.940714;79.076685;0.999784;0.004156;-0.030704;0.069416;0.010581;0.070522;-0.031810;84.032855;0.070634;
1066;357;0.007314;0.036096;1.000000;0.000049;-0.000115;0.001342;0.000126;0.001353;-0.000126;85.103547;0.001495;
1116;632;0.025750;0.535235;0.999998;0.000395;-0.001373;0.003163;0.000123;0.003166;-0.001377;88.441893;0.003175;
1286;462;-0.077730;0.199647;0.999999;0.000189;-0.000480;0.001470;-0.000113;0.001477;-0.000486;-86.704426;0.001505;
1061;352;0.006535;0.029606;1.000000;0.000054;-0.000095;0.001341;0.000136;0.001354;-0.000108;84.623576;0.001505;
1151;627;-0.020816;0.520476;0.999998;0.000365;-0.001345;0.003038;-0.000108;0.003041;-0.001348;-88.582931;0.003047;
1306;457;-0.084813;0.197492;1.000000;0.000221;-0.000485;0.001415;-0.000088;0.001419;-0.000489;-87.367798;0.001441;
1226;1882;-0.012106;86.367386;1.000000;0.000197;-0.000149;0.001378;0.000172;0.001397;-0.000168;83.650987;0.001526;
1221;762;-0.541351;1.518973;0.999984;0.001130;-0.006452;0.014865;-0.002952;0.015266;-0.006853;-82.260969;0.015293;
1226;1312;-2.899611;78.736365;0.999707;0.004330;-0.032138;0.072820;0.010040;0.073772;-0.033090;84.584723;0.073902;
1211;927;-2.246353;7.263069;0.999729;0.003878;-0.030421;0.068894;-0.007915;0.069521;-0.031048;-85.471615;0.069653;
1071;357;0.006793;0.036075;1.000000;0.000055;-0.000114;0.001338;0.000116;0.001347;-0.000124;85.444809;0.001490;
1016;1817;0.046418;86.270673;1.000000;0.000153;-0.000434;0.001514;-0.000132;0.001523;-0.000443;-86.126147;0.001566;
1181;1687;-0.046264;86.063552;1.000000;0.000128;-0.000901;0.001988;0.000136;0.001995;-0.000907;87.320291;0.001997;
1086;642;0.070280;0.563525;0.999998;0.000415;-0.001446;0.003514;0.000391;0.003545;-0.001476;85.524373;0.003561;
1286;467;-0.079866;0.206660;0.999999;0.000172;-0.000486;0.001473;-0.000119;0.001480;-0.000493;-86.534468;0.001507;
1221;342;-0.004358;0.016940;1.000000;0.000064;-0.000056;0.001328;-0.000164;0.001348;-0.000075;-83.318973;0.001514;
1151;632;-0.021945;0.536034;0.999998;0.000468;-0.001384;0.003157;-0.000118;0.003160;-0.001387;-88.511301;0.003168;
1311;452;-0.084676;0.192049;0.999999;0.000192;-0.000486;0.001415;-0.000080;0.001419;-0.000489;-87.585222;0.001441;
1251;592;-0.115304;0.404185;0.999998;0.000399;-0.000712;0.001943;-0.000412;0.002005;-0.000775;-81.370677;0.002023;
1061;342;0.003883;0.016811;1.000000;0.000071;-0.000053;0.001325;0.000137;0.001338;-0.000067;84.360579;0.001508;
1226;762;-0.574643;1.519281;0.999986;0.001071;-0.006471;0.014870;-0.003123;0.015317;-0.006918;-81.843113;0.015341;
1231;1882;-0.012792;86.367879;1.000000;0.000165;-0.000150;0.001383;0.000181;0.001404;-0.000171;83.358655;0.001532;
1276;1667;-0.123038;86.033659;1.000000;0.000211;-0.000525;0.001638;0.000375;0.001702;-0.000588;80.444287;0.001728;
1096;922;1.074752;6.879554;0.999761;0.004075;-0.027893;0.063883;0.003537;0.064019;-0.028029;87.795890;0.064184;
1311;457;-0.086696;0.199275;1.000000;0.000180;-0.000490;0.001398;-0.000085;0.001402;-0.000494;-87.432183;0.001422;
1091;642;0.062907;0.564120;0.999998;0.000406;-0.001448;0.003504;0.000350;0.003529;-0.001473;85.982336;0.003545;
1271;472;-0.074444;0.212182;0.999999;0.000210;-0.000515;0.001516;-0.000131;0.001525;-0.000523;-86.311274;0.001550;
1126;617;0.012235;0.492804;0.999999;0.000394;-0.001277;0.002858;0.000047;0.002858;-0.001278;89.354475;0.002864;
1251;597;-0.116958;0.414558;0.999998;0.000359;-0.000746;0.002043;-0.000451;0.002114;-0.000817;-81.036360;0.002132;
1101;1802;0.013824;86.255729;1.000000;0.000139;-0.000440;0.001502;-0.000043;0.001503;-0.000440;-88.728884;0.001545;
1061;347;0.005177;0.023204;1.000000;0.000057;-0.000074;0.001334;0.000137;0.001347;-0.000088;84.501436;0.001507;
1161;687;-0.059854;0.764845;0.999999;0.000318;-0.002373;0.005966;-0.000413;0.005987;-0.002394;-87.172664;0.006026;
1231;762;-0.608083;1.520091;0.999988;0.000990;-0.006476;0.014843;-0.003293;0.015340;-0.006972;-81.417332;0.015361;
1236;1882;-0.013482;86.367817;1.000000;0.000153;-0.000153;0.001389;0.000190;0.001412;-0.000176;83.078542;0.001539;
1036;932;3.045765;7.726896;0.998892;0.009526;-0.031891;0.073312;0.010705;0.074390;-0.032969;84.248586;0.074550;
1276;1672;-0.120628;86.041945;1.000000;0.000206;-0.000517;0.001608;0.000343;0.001662;-0.000571;81.046788;0.001689;
1136;617;-0.000839;0.493148;0.999999;0.000290;-0.001282;0.002858;-0.000010;0.002858;-0.001282;-89.862987;0.002863;
1211;1532;-0.263151;85.457154;0.999986;0.000787;-0.003583;0.008674;0.001654;0.008894;-0.003802;82.450033;0.008925;
1276;472;-0.077377;0.213699;1.000000;0.000185;-0.000509;0.001504;-0.000130;0.001512;-0.000517;-86.311632;0.001537;
1131;617;0.005583;0.492400;0.999999;0.000359;-0.001280;0.002858;0.000017;0.002858;-0.001280;89.769237;0.002863;
1226;602;-0.100019;0.435277;0.999998;0.000434;-0.000921;0.002304;-0.000394;0.002351;-0.000969;-83.128484;0.002363;
1176;422;-0.014802;0.125947;1.000000;0.000082;-0.000366;0.001463;-0.000060;0.001464;-0.000368;-88.136748;0.001524;
1106;1802;0.011804;86.255916;1.000000;0.000107;-0.000440;0.001503;-0.000036;0.001503;-0.000441;-88.934011;0.001546;
1231;737;-0.449052;1.199529;0.999986;0.001145;-0.004873;0.011489;-0.002652;0.011908;-0.005292;-81.020604;0.011933;
1226;1862;-0.019682;86.340339;1.000000;0.000205;-0.000236;0.001420;0.000161;0.001435;-0.000251;84.495482;0.001533;
1161;692;-0.063314;0.796638;0.999998;0.000352;-0.002542;0.006415;-0.000442;0.006436;-0.002563;-87.180776;0.006481;
1276;1677;-0.118011;86.049591;1.000000;0.000196;-0.000517;0.001596;0.000319;0.001643;-0.000564;81.586357;0.001670;
1151;937;-0.514064;7.818257;0.999770;0.005113;-0.031226;0.072218;-0.001607;0.072242;-0.031251;-89.110235;0.072461;
1141;617;-0.007363;0.493632;0.999999;0.000307;-0.001280;0.002858;-0.000035;0.002859;-0.001280;-89.519988;0.002864;
1281;472;-0.079894;0.214981;1.000000;0.000157;-0.000502;0.001489;-0.000129;0.001497;-0.000510;-86.320069;0.001522;
1086;637;0.067718;0.546122;0.999998;0.000402;-0.001382;0.003322;0.000354;0.003349;-0.001409;85.722355;0.003363;
1231;602;-0.104086;0.431828;0.999998;0.000377;-0.000886;0.002271;-0.000414;0.002325;-0.000939;-82.650724;0.002339;
1176;427;-0.015617;0.133426;1.000000;0.000091;-0.000385;0.001473;-0.000058;0.001475;-0.000387;-88.218270;0.001530;
1061;1507;0.326639;85.225060;0.999990;0.000875;-0.004750;0.011278;-0.001990;0.011521;-0.004993;-83.027621;0.011555;
1231;732;-0.422654;1.149157;0.999986;0.001176;-0.004598;0.010917;-0.002534;0.011320;-0.005002;-80.953760;0.011346;
1241;1882;-0.014318;86.367254;1.000000;0.000180;-0.000157;0.001396;0.000199;0.001421;-0.000182;82.827552;0.001546;
1161;662;-0.044131;0.641507;0.999998;0.000418;-0.001743;0.004285;-0.000299;0.004300;-0.001757;-87.167392;0.004323;
1196;1762;-0.036961;86.191508;1.000000;0.000113;-0.000580;0.001594;0.000073;0.001596;-0.000583;88.079907;0.001616;
1156;937;-0.673381;7.821221;0.999790;0.004418;-0.031323;0.072343;-0.002084;0.072384;-0.031364;-88.848584;0.072599;
1266;1662;-0.120237;86.024140;1.000000;0.000157;-0.000582;0.001738;0.000390;0.001802;-0.000646;80.719492;0.001826;
1146;617;-0.013976;0.492535;0.999999;0.000291;-0.001279;0.002858;-0.000061;0.002859;-0.001279;-89.152331;0.002865;
1286;472;-0.081746;0.214369;0.999999;0.000158;-0.000493;0.001471;-0.000126;0.001479;-0.000501;-86.344463;0.001505;
1091;637;0.061502;0.547970;0.999998;0.000382;-0.001387;0.003320;0.000316;0.003341;-0.001408;86.171256;0.003355;
1166;342;-0.001604;0.016424;1.000000;0.000089;-0.000050;0.001298;-0.000056;0.001300;-0.000052;-87.615978;0.001472;
1236;602;-0.108103;0.430311;0.999998;0.000317;-0.000851;0.002243;-0.000432;0.002302;-0.000911;-82.199512;0.002319;
1061;1512;0.306290;85.283664;0.999992;0.000685;-0.004472;0.010636;-0.001888;0.010869;-0.004704;-82.985324;0.010901;
1226;1857;-0.021912;86.332165;0.999999;0.000277;-0.000257;0.001429;0.000158;0.001443;-0.000272;84.693860;0.001534;
1161;937;-0.828247;7.836216;0.999754;0.004072;-0.031451;0.072507;-0.002583;0.072571;-0.031515;-88.577517;0.072780;
1196;1767;-0.035686;86.199264;1.000000;0.000097;-0.000565;0.001585;0.000072;0.001587;-0.000567;88.075684;0.001609;
1226;597;-0.097187;0.423221;0.999998;0.000383;-0.000892;0.002210;-0.000363;0.002252;-0.000934;-83.412150;0.002263;
1156;657;-0.034137;0.622912;0.999998;0.000409;-0.001666;0.004029;-0.000225;0.004038;-0.001675;-87.739565;0.004058;
1221;347;-0.006145;0.023449;1.000000;0.000074;-0.000077;0.001339;-0.000164;0.001357;-0.000096;-83.481665;0.001515;
1171;342;-0.001874;0.016479;1.000000;0.000075;-0.000050;0.001300;-0.000065;0.001303;-0.000053;-87.238423;0.001475;
1131;1352;0.027306;81.195347;0.999877;0.003645;-0.021627;0.049081;-0.000119;0.049081;-0.021628;-89.903710;0.049196;
1151;617;-0.019697;0.491490;0.999999;0.000329;-0.001277;0.002855;-0.000091;0.002857;-0.001279;-88.740856;0.002862;
1271;1662;-0.122797;86.024761;1.000000;0.000190;-0.000562;0.001709;0.000405;0.001779;-0.000632;80.190469;0.001803;
1186;772;-0.360955;1.671018;0.999984;0.000954;-0.007055;0.016618;-0.001934;0.016774;-0.007212;-85.361037;0.016829;
1216;602;-0.090738;0.438034;0.999998;0.000469;-0.000968;0.002368;-0.000357;0.002405;-0.001005;-83.965300;0.002416;
1211;922;-2.157177;6.940619;0.999725;0.003507;-0.029170;0.065965;-0.007709;0.066586;-0.029790;-85.397134;0.066709;
1196;1772;-0.034502;86.206812;1.000000;0.000087;-0.000549;0.001576;0.000072;0.001579;-0.000552;88.055999;0.001603;
1146;652;-0.017337;0.604009;0.999998;0.000410;-0.001605;0.003797;-0.000113;0.003799;-0.001607;-88.803845;0.003814;
1176;347;-0.002784;0.022926;1.000000;0.000054;-0.000069;0.001311;-0.000075;0.001316;-0.000073;-86.883010;0.001479;
1221;352;-0.007819;0.029987;1.000000;0.000068;-0.000099;0.001347;-0.000162;0.001365;-0.000117;-83.669780;0.001513;
1231;597;-0.101466;0.422161;0.999998;0.000383;-0.000857;0.002174;-0.000382;0.002221;-0.000904;-82.928525;0.002234;
1106;1602;0.036824;85.843828;1.000000;0.000196;-0.001450;0.003463;-0.000224;0.003473;-0.001460;-87.389332;0.003488;
1121;1352;0.248167;81.181165;0.999889;0.002953;-0.021705;0.049111;-0.001015;0.049125;-0.021719;-89.178848;0.049235;
1276;1662;-0.125348;86.025886;1.000000;0.000234;-0.000533;0.001688;0.000412;0.001762;-0.000607;79.820196;0.001790;
1186;777;-0.380192;1.750664;0.999984;0.001229;-0.007452;0.017483;-0.002017;0.017645;-0.007614;-85.404837;0.017700;
1181;347;-0.003224;0.022925;1.000000;0.000064;-0.000069;0.001314;-0.000085;0.001319;-0.000075;-86.484801;0.001482;
1221;602;-0.094828;0.436720;0.999998;0.000513;-0.000946;0.002336;-0.000375;0.002378;-0.000988;-83.565769;0.002390;
1146;932;-0.342406;7.483724;0.999764;0.004826;-0.029911;0.068986;-0.001128;0.068999;-0.029924;-89.346667;0.069201;
1191;1777;-0.031026;86.215529;1.000000;0.000130;-0.000533;0.001565;0.000067;0.001567;-0.000535;88.179833;0.001594;
1156;627;-0.027296;0.520516;0.999998;0.000411;-0.001333;0.003035;-0.000143;0.003039;-0.001338;-88.124246;0.003046;
1241;477;-0.059596;0.214677;0.999999;0.000210;-0.000561;0.001571;-0.000117;0.001577;-0.000567;-86.875285;0.001598;
1236;597;-0.105957;0.419043;0.999998;0.000343;-0.000821;0.002144;-0.000399;0.002197;-0.000874;-82.472289;0.002212;
1126;1352;0.135712;81.187419;0.999891;0.002837;-0.021662;0.049084;-0.000566;0.049088;-0.021666;-89.541959;0.049200;
1211;397;-0.020478;0.091713;1.000000;0.000063;-0.000282;0.001431;-0.000123;0.001440;-0.000291;-85.911388;0.001522;
1276;1682;-0.115996;86.057338;1.000000;0.000175;-0.000521;0.001589;0.000301;0.001631;-0.000564;82.028515;0.001657;
1226;732;-0.397562;1.145187;0.999982;0.000985;-0.004570;0.010898;-0.002406;0.011264;-0.004936;-81.360259;0.011293;
971;1777;0.085348;86.202060;0.999999;0.000198;-0.000495;0.001426;-0.000080;0.001430;-0.000498;-87.627692;0.001451;
1186;347;-0.003628;0.023004;1.000000;0.000072;-0.000070;0.001316;-0.000095;0.001322;-0.000076;-86.096723;0.001484;
1036;937;3.188602;8.100028;0.998352;0.012989;-0.033340;0.076857;0.010921;0.077929;-0.034412;84.394586;0.078106;
1196;1777;-0.033475;86.214572;1.000000;0.000096;-0.000534;0.001567;0.000072;0.001569;-0.000537;88.029558;0.001595;
1121;612;0.017326;0.476151;0.999999;0.000365;-0.001247;0.002757;0.000071;0.002758;-0.001248;88.984985;0.002762;
1276;527;-0.099213;0.297342;0.999998;0.000369;-0.000558;0.001532;-0.000216;0.001554;-0.000580;-84.168651;0.001571;
1211;597;-0.083220;0.428187;0.999996;0.000412;-0.000967;0.002312;-0.000314;0.002342;-0.000996;-84.581618;0.002350;
1246;477;-0.063263;0.215871;0.999999;0.000269;-0.000556;0.001565;-0.000122;0.001572;-0.000563;-86.719805;0.001593;
1211;402;-0.021961;0.098953;1.000000;0.000075;-0.000302;0.001442;-0.000120;0.001450;-0.000310;-86.085117;0.001527;
1116;1352;0.349320;81.171795;0.999887;0.003214;-0.021765;0.049170;-0.001421;0.049198;-0.021794;-88.852668;0.049305;
1226;737;-0.422891;1.198221;0.999985;0.001179;-0.004841;0.011473;-0.002519;0.011854;-0.005222;-81.418744;0.011882;
1041;937;3.029397;8.054840;0.999746;0.005777;-0.033462;0.076592;0.010338;0.077555;-0.034425;84.679860;0.077718;
1011;1822;0.046843;86.277399;1.000000;0.000155;-0.000423;0.001511;-0.000138;0.001521;-0.000433;-85.943316;0.001567;
971;1782;0.083056;86.209162;0.999999;0.000226;-0.000493;0.001439;-0.000073;0.001441;-0.000495;-87.846837;0.001465;
1176;407;-0.012460;0.104240;1.000000;0.000058;-0.000311;0.001432;-0.000063;0.001434;-0.000313;-87.939484;0.001508;
1101;1807;0.013450;86.262340;1.000000;0.000154;-0.000421;0.001493;-0.000044;0.001494;-0.000422;-88.677044;0.001541;
1121;617;0.018159;0.492733;0.999998;0.000391;-0.001277;0.002851;0.000075;0.002853;-0.001278;88.958322;0.002858;
1216;597;-0.088042;0.426156;0.999998;0.000444;-0.000941;0.002281;-0.000331;0.002315;-0.000974;-84.202844;0.002325;
1241;572;-0.099333;0.370536;0.999997;0.000446;-0.000687;0.001775;-0.000285;0.001808;-0.000720;-83.486900;0.001820;
1046;937;2.854089;8.035775;0.999721;0.005170;-0.033375;0.076247;0.009688;0.077097;-0.034224;84.988228;0.077258;
1226;742;-0.451196;1.255336;0.999985;0.001467;-0.005132;0.012066;-0.002641;0.012462;-0.005529;-81.462692;0.012489;
1056;342;0.003973;0.016890;1.000000;0.000063;-0.000052;0.001328;0.000148;0.001344;-0.000068;83.944286;0.001514;
1161;1342;-0.687562;80.680412;0.999880;0.002811;-0.023516;0.053359;0.002307;0.053429;-0.023585;88.282332;0.053551;
1021;472;0.063208;0.208777;0.999999;0.000256;-0.000543;0.001557;0.000125;0.001564;-0.000550;86.606504;0.001587;
1016;1822;0.044420;86.277847;1.000000;0.000143;-0.000420;0.001510;-0.000138;0.001520;-0.000430;-85.920330;0.001567;
1056;412;0.025791;0.113522;1.000000;0.000097;-0.000349;0.001470;0.000116;0.001477;-0.000357;86.365284;0.001542;
1221;1877;-0.013365;86.359654;1.000000;0.000167;-0.000167;0.001379;0.000161;0.001396;-0.000184;84.119544;0.001516;
1106;1807;0.011181;86.263146;1.000000;0.000147;-0.000421;0.001493;-0.000037;0.001494;-0.000422;-88.882342;0.001540;
1221;597;-0.092934;0.424036;0.999998;0.000406;-0.000917;0.002247;-0.000346;0.002284;-0.000955;-83.839811;0.002294;
1136;607;-0.000487;0.465270;0.999999;0.000431;-0.001225;0.002671;-0.000010;0.002671;-0.001225;-89.848914;0.002674;
1056;347;0.005621;0.023295;1.000000;0.000057;-0.000074;0.001337;0.000147;0.001352;-0.000089;84.108955;0.001513;
1256;587;-0.115533;0.394725;0.999998;0.000343;-0.000653;0.001815;-0.000390;0.001876;-0.000713;-81.223890;0.001893;
1226;747;-0.481108;1.317349;0.999988;0.001165;-0.005442;0.012722;-0.002761;0.013132;-0.005852;-81.546322;0.013158;
1161;1347;-0.655687;80.920359;0.999891;0.002353;-0.022559;0.051257;0.002303;0.051329;-0.022630;88.214467;0.051448;
1151;942;-0.534137;8.168554;0.999758;0.004290;-0.032582;0.075516;-0.001678;0.075542;-0.032608;-89.111039;0.075777;
1221;1882;-0.011235;86.367005;1.000000;0.000183;-0.000146;0.001373;0.000163;0.001391;-0.000163;83.962216;0.001520;
1296;472;-0.086905;0.216128;0.999999;0.000264;-0.000508;0.001440;-0.000114;0.001446;-0.000514;-86.665936;0.001466;
1021;1817;0.044609;86.271990;1.000000;0.000135;-0.000431;0.001512;-0.000132;0.001521;-0.000440;-86.127246;0.001566;
1046;387;0.020518;0.077979;1.000000;0.000071;-0.000254;0.001423;0.000149;0.001436;-0.000267;84.947682;0.001527;
1176;342;-0.002044;0.016532;1.000000;0.000069;-0.000050;0.001302;-0.000075;0.001306;-0.000054;-86.827855;0.001478;
1111;1807;0.009293;86.263242;1.000000;0.000150;-0.000421;0.001493;-0.000030;0.001493;-0.000421;-89.098724;0.001540;
1141;607;-0.007094;0.465847;0.999998;0.000501;-0.001223;0.002669;-0.000031;0.002669;-0.001223;-89.538283;0.002673;
1246;577;-0.104449;0.380134;0.999998;0.000373;-0.000674;0.001782;-0.000315;0.001821;-0.000713;-82.805181;0.001836;
1256;592;-0.117758;0.402809;0.999998;0.000340;-0.000681;0.001904;-0.000425;0.001972;-0.000749;-80.896478;0.001991;
1226;752;-0.514548;1.388933;0.999988;0.001245;-0.005765;0.013420;-0.002875;0.013842;-0.006186;-81.658491;0.013868;
1231;1312;-3.076024;78.709709;0.999729;0.004331;-0.032142;0.072819;0.010795;0.073918;-0.033240;84.188344;0.074043;
1221;1887;-0.009843;86.374445;1.000000;0.000195;-0.000124;0.001367;0.000163;0.001384;-0.000142;83.830832;0.001523;
1156;942;-0.695165;8.177191;0.999771;0.004551;-0.032667;0.075652;-0.002167;0.075696;-0.032710;-88.854621;0.075928;
1296;467;-0.083941;0.208599;0.999999;0.000237;-0.000498;0.001448;-0.000104;0.001454;-0.000504;-86.962363;0.001476;
1021;1822;0.042277;86.279079;1.000000;0.000151;-0.000417;0.001507;-0.000138;0.001517;-0.000427;-85.930165;0.001564;
1181;342;-0.002297;0.016639;1.000000;0.000070;-0.000049;0.001304;-0.000085;0.001309;-0.000055;-86.423909;0.001481;
1046;392;0.022157;0.085192;1.000000;0.000071;-0.000274;0.001432;0.000146;0.001445;-0.000286;85.159125;0.001530;
1096;1802;0.016206;86.255362;1.000000;0.000133;-0.000440;0.001503;-0.000049;0.001504;-0.000441;-88.566958;0.001546;
1256;597;-0.119807;0.412754;0.999998;0.000360;-0.000716;0.002009;-0.000466;0.002086;-0.000794;-80.550145;0.002106;
1246;582;-0.106454;0.388241;0.999998;0.000372;-0.000690;0.001835;-0.000339;0.001880;-0.000735;-82.482340;0.001895;
1146;607;-0.013707;0.465208;0.999998;0.000550;-0.001219;0.002666;-0.000054;0.002667;-0.001220;-89.207973;0.002670;
1226;757;-0.544357;1.450380;0.999987;0.001088;-0.006111;0.014142;-0.002991;0.014575;-0.006544;-81.771965;0.014600;
1186;342;-0.002748;0.016583;1.000000;0.000077;-0.000050;0.001306;-0.000095;0.001312;-0.000057;-86.019890;0.001484;
1226;1887;-0.010145;86.374565;1.000000;0.000164;-0.000126;0.001371;0.000174;0.001391;-0.000146;83.455556;0.001529;
1051;342;0.004281;0.016888;1.000000;0.000058;-0.000052;0.001332;0.000158;0.001350;-0.000070;83.553693;0.001520;
1161;942;-0.864131;8.188002;0.999724;0.005821;-0.032784;0.075806;-0.002681;0.075872;-0.032850;-88.586416;0.076099;
1301;467;-0.087188;0.210113;1.000000;0.000219;-0.000498;0.001434;-0.000103;0.001440;-0.000504;-86.956903;0.001461;
1071;1312;1.890605;78.830651;0.999647;0.004599;-0.031229;0.071187;-0.006331;0.071577;-0.031619;-86.476117;0.071738;
1226;1822;-0.034533;86.281249;1.000000;0.000178;-0.000397;0.001495;0.000128;0.001504;-0.000405;86.157691;0.001556;
1096;1807;0.015690;86.262279;1.000000;0.000145;-0.000421;0.001494;-0.000050;0.001495;-0.000423;-88.501250;0.001542;
1241;602;-0.111440;0.429442;0.999998;0.000377;-0.000821;0.002217;-0.000449;0.002282;-0.000886;-81.762618;0.002301;
1051;347;0.005850;0.023418;1.000000;0.000061;-0.000074;0.001341;0.000157;0.001358;-0.000092;83.740823;0.001518;
1231;1887;-0.010738;86.374373;1.000000;0.000169;-0.000127;0.001375;0.000184;0.001397;-0.000149;83.113996;0.001535;
1236;757;-0.600980;1.456945;0.999986;0.001018;-0.006151;0.014073;-0.003297;0.014597;-0.006675;-80.972099;0.014615;
1121;607;0.017403;0.465906;0.999999;0.000359;-0.001219;0.002669;0.000066;0.002670;-0.001220;89.034210;0.002673;
1246;587;-0.108818;0.397836;0.999998;0.000374;-0.000710;0.001900;-0.000366;0.001950;-0.000760;-82.171364;0.001966;
1306;467;-0.089420;0.211341;0.999999;0.000281;-0.000505;0.001419;-0.000101;0.001424;-0.000510;-87.003423;0.001443;
1221;367;-0.012845;0.050181;1.000000;0.000058;-0.000164;0.001366;-0.000156;0.001382;-0.000180;-84.231751;0.001503;
1126;927;0.245189;7.160757;0.999759;0.004650;-0.028674;0.065880;0.000673;0.065885;-0.028679;89.592147;0.066068;
1076;1312;1.731635;78.844104;0.999580;0.005123;-0.031036;0.070918;-0.005788;0.071246;-0.031364;-86.760872;0.071415;
1011;1827;0.044389;86.284757;1.000000;0.000163;-0.000409;0.001507;-0.000144;0.001518;-0.000419;-85.733783;0.001568;
1051;352;0.007470;0.029921;1.000000;0.000070;-0.000097;0.001349;0.000156;0.001366;-0.000113;83.901094;0.001516;
1246;602;-0.114856;0.426854;0.999998;0.000376;-0.000806;0.002187;-0.000470;0.002259;-0.000878;-81.283922;0.002278;
1236;1887;-0.011519;86.373784;1.000000;0.000178;-0.000129;0.001380;0.000194;0.001405;-0.000154;82.796195;0.001541;
1236;762;-0.637892;1.524340;0.999986;0.001070;-0.006508;0.014816;-0.003443;0.015358;-0.007050;-81.052316;0.015375;
1061;1767;0.040933;86.198896;1.000000;0.000125;-0.000563;0.001581;-0.000084;0.001584;-0.000566;-87.769420;0.001605;
1126;607;0.011428;0.465786;0.999999;0.000276;-0.001219;0.002673;0.000039;0.002674;-0.001219;89.421992;0.002677;
1241;592;-0.107298;0.408443;0.999998;0.000369;-0.000757;0.002022;-0.000379;0.002073;-0.000808;-82.373956;0.002089;
1291;462;-0.079918;0.201158;0.999999;0.000162;-0.000468;0.001458;-0.000103;0.001463;-0.000473;-86.935304;0.001493;
1076;647;0.087503;0.579011;0.999998;0.000426;-0.001512;0.003756;0.000522;0.003808;-0.001563;84.398368;0.003828;
1116;927;0.528036;7.170268;0.999753;0.004123;-0.028765;0.066019;0.001614;0.066047;-0.028792;89.024692;0.066227;
1016;1827;0.042418;86.285838;1.000000;0.000157;-0.000404;0.001504;-0.000144;0.001515;-0.000415;-85.697944;0.001565;
1136;1307;-0.101329;78.566578;0.999806;0.004976;-0.031091;0.072191;0.000249;0.072192;-0.031092;89.861690;0.072422;
1056;357;0.008542;0.036306;1.000000;0.000064;-0.000118;0.001350;0.000146;0.001364;-0.000132;84.389767;0.001505;
1241;1887;-0.011987;86.373239;1.000000;0.000168;-0.000133;0.001387;0.000203;0.001414;-0.000160;82.523990;0.001548;
1251;602;-0.119146;0.424324;0.999998;0.000342;-0.000784;0.002155;-0.000493;0.002235;-0.000865;-80.726026;0.002254;
1226;767;-0.608285;1.594764;0.999983;0.001263;-0.006862;0.015647;-0.003279;0.016115;-0.007330;-81.877477;0.016137;
1061;1772;0.039587;86.206606;1.000000;0.000118;-0.000548;0.001571;-0.000084;0.001574;-0.000551;-87.743011;0.001597;
1131;607;0.005393;0.465150;0.999999;0.000345;-0.001223;0.002672;0.000013;0.002673;-0.001223;89.807492;0.002676;
1246;592;-0.111304;0.406605;0.999998;0.000382;-0.000738;0.001984;-0.000395;0.002040;-0.000794;-81.898570;0.002056;
1291;467;-0.081831;0.207919;1.000000;0.000198;-0.000473;0.001459;-0.000110;0.001465;-0.000479;-86.750256;0.001494;
1136;612;-0.000811;0.478264;0.999999;0.000330;-0.001253;0.002760;-0.000009;0.002760;-0.001253;-89.875418;0.002764;
1121;927;0.387428;7.162992;0.999766;0.004299;-0.028745;0.065935;0.001138;0.065949;-0.028758;89.311257;0.066128;
1021;1827;0.040302;86.286744;1.000000;0.000153;-0.000400;0.001499;-0.000144;0.001509;-0.000411;-85.698241;0.001561;
1061;357;0.007866;0.036231;1.000000;0.000057;-0.000117;0.001346;0.000135;0.001358;-0.000129;84.751655;0.001499;
1136;1302;-0.104480;78.227935;0.999759;0.004172;-0.032325;0.075413;0.000217;0.075414;-0.032325;89.884368;0.075670;
1256;602;-0.121702;0.422050;0.999997;0.000362;-0.000756;0.002125;-0.000512;0.002214;-0.000844;-80.216501;0.002234;
1246;1882;-0.015258;86.366704;0.999999;0.000179;-0.000163;0.001405;0.000206;0.001431;-0.000189;82.650635;0.001555;
1231;767;-0.642890;1.593161;0.999985;0.001015;-0.006875;0.015614;-0.003453;0.016132;-0.007393;-81.465480;0.016151;
1191;1782;-0.030052;86.222864;1.000000;0.000127;-0.000517;0.001556;0.000068;0.001558;-0.000519;88.116392;0.001587;
1151;607;-0.019183;0.464199;0.999998;0.000483;-0.001217;0.002661;-0.000079;0.002663;-0.001219;-88.840288;0.002666;
1291;472;-0.083950;0.214737;0.999999;0.000223;-0.000480;0.001456;-0.000117;0.001463;-0.000487;-86.539883;0.001490;
1111;612;0.030708;0.476725;0.999997;0.000445;-0.001230;0.002741;0.000121;0.002744;-0.001233;88.262734;0.002749;
1141;612;-0.007534;0.479397;0.999999;0.000354;-0.001250;0.002759;-0.000032;0.002759;-0.001251;-89.549102;0.002763;
1136;932;-0.032555;7.479759;0.999736;0.004576;-0.029779;0.068874;-0.000241;0.068875;-0.029780;-89.859775;0.069084;
1281;1667;-0.125931;86.035105;1.000000;0.000184;-0.000464;0.001624;0.000390;0.001695;-0.000535;79.758843;0.001733;
1046;397;0.024119;0.092430;1.000000;0.000077;-0.000295;0.001445;0.000142;0.001456;-0.000307;85.355168;0.001535;
1221;1312;-2.734061;78.746366;0.999720;0.004097;-0.032027;0.072595;0.009332;0.073421;-0.032853;84.942753;0.073556;
1246;1887;-0.012540;86.372462;0.999999;0.000214;-0.000138;0.001396;0.000210;0.001424;-0.000166;82.347753;0.001557;
1236;767;-0.676435;1.595205;0.999984;0.001142;-0.006887;0.015601;-0.003641;0.016175;-0.007461;-81.029456;0.016192;
1106;627;0.038632;0.519726;0.999997;0.000374;-0.001318;0.003025;0.000179;0.003033;-0.001326;87.643763;0.003041;
1196;1782;-0.032688;86.222663;1.000000;0.000127;-0.000519;0.001557;0.000074;0.001559;-0.000521;87.971996;0.001588;
1186;782;-0.401218;1.836807;0.999978;0.001289;-0.007859;0.018359;-0.002108;0.018527;-0.008027;-85.431341;0.018582;
1156;607;-0.025471;0.464075;0.999998;0.000449;-0.001208;0.002654;-0.000104;0.002656;-0.001211;-88.455468;0.002660;
1146;612;-0.014039;0.478236;0.999999;0.000407;-0.001248;0.002757;-0.000056;0.002758;-0.001249;-89.198681;0.002762;
1256;547;-0.096599;0.328237;0.999997;0.000395;-0.000599;0.001618;-0.000236;0.001643;-0.000623;-83.989277;0.001658;
1141;932;-0.187124;7.481484;0.999779;0.004826;-0.029837;0.068920;-0.000685;0.068924;-0.029842;-89.602802;0.069131;
1281;1672;-0.123315;86.043350;1.000000;0.000178;-0.000453;0.001594;0.000353;0.001653;-0.000512;80.486104;0.001692;
1036;1312;2.993955;78.736647;0.999326;0.008308;-0.032105;0.072834;-0.010645;0.073903;-0.033173;-84.265938;0.074031;
1046;402;0.026216;0.099785;1.000000;0.000098;-0.000316;0.001457;0.000138;0.001468;-0.000327;85.588057;0.001542;
996;1832;0.048394;86.289930;0.999999;0.000180;-0.000417;0.001509;-0.000136;0.001519;-0.000427;-85.974029;0.001567;
1236;737;-0.473635;1.201366;0.999985;0.000918;-0.004901;0.011486;-0.002787;0.011947;-0.005363;-80.606861;0.011968;
1106;632;0.039607;0.534588;0.999997;0.000393;-0.001361;0.003160;0.000191;0.003168;-0.001369;87.580214;0.003178;
1036;1317;2.895529;79.101144;0.999392;0.007653;-0.030721;0.069544;-0.010451;0.070622;-0.031799;-84.111934;0.070739;
1211;762;-0.479323;1.513219;0.999979;0.001264;-0.006418;0.014864;-0.002617;0.015181;-0.006735;-83.092578;0.015213;
1121;622;0.018559;0.507333;0.999998;0.000352;-0.001309;0.002934;0.000081;0.002935;-0.001310;88.901149;0.002941;
1046;352;0.007892;0.030051;1.000000;0.000063;-0.000099;0.001354;0.000166;0.001373;-0.000118;83.557904;0.001522;
1151;622;-0.020018;0.506209;0.999999;0.000331;-0.001309;0.002942;-0.000098;0.002944;-0.001312;-88.673621;0.002950;
1261;547;-0.099665;0.328430;0.999998;0.000402;-0.000576;0.001601;-0.000244;0.001628;-0.000603;-83.694110;0.001646;
1301;472;-0.089211;0.217347;0.999999;0.000267;-0.000509;0.001423;-0.000115;0.001430;-0.000515;-86.609536;0.001448;
1221;372;-0.014679;0.057034;1.000000;0.000052;-0.000186;0.001379;-0.000154;0.001394;-0.000201;-84.424364;0.001507;
1061;1517;0.287671;85.331278;0.999992;0.000630;-0.004206;0.010031;-0.001793;0.010253;-0.004428;-82.929707;0.010285;
1041;1312;2.856849;78.747955;0.999782;0.005178;-0.032118;0.072718;-0.010029;0.073669;-0.033068;-84.584212;0.073797;
1236;742;-0.503459;1.257954;0.999985;0.000918;-0.005181;0.012044;-0.002915;0.012524;-0.005661;-80.651794;0.012544;
1281;527;-0.102303;0.296789;0.999998;0.000373;-0.000544;0.001507;-0.000221;0.001531;-0.000568;-83.906538;0.001547;
1271;1732;-0.092429;86.135904;1.000000;0.000210;-0.000573;0.001551;0.000182;0.001567;-0.000589;85.147688;0.001583;
1191;762;-0.352080;1.510587;0.999979;0.001029;-0.006314;0.014900;-0.001964;0.015081;-0.006495;-84.754716;0.015129;
1041;342;0.004747;0.017022;1.000000;0.000056;-0.000054;0.001341;0.000180;0.001364;-0.000077;82.761986;0.001532;
1116;607;0.023510;0.465653;0.999998;0.000407;-0.001214;0.002661;0.000090;0.002663;-0.001216;88.671719;0.002666;
1306;472;-0.091574;0.218571;0.999999;0.000250;-0.000515;0.001404;-0.000114;0.001410;-0.000522;-86.616227;0.001426;
1126;602;0.010916;0.452408;0.999999;0.000314;-0.001191;0.002604;0.000040;0.002605;-0.001191;89.401784;0.002608;
1266;547;-0.102333;0.328448;0.999997;0.000464;-0.000562;0.001581;-0.000250;0.001610;-0.000590;-83.431832;0.001629;
1221;377;-0.016378;0.063890;1.000000;0.000061;-0.000207;0.001394;-0.000152;0.001408;-0.000221;-84.627960;0.001514;
1236;747;-0.533493;1.322704;0.999983;0.001098;-0.005487;0.012671;-0.003047;0.013168;-0.005984;-80.724562;0.013186;
1021;1542;0.328789;85.541183;0.999992;0.000827;-0.003136;0.007729;-0.002165;0.008145;-0.003551;-79.137527;0.008167;
1041;347;0.006606;0.023538;1.000000;0.000072;-0.000078;0.001351;0.000178;0.001372;-0.000100;83.014065;0.001530;
1161;1292;-0.994736;77.469939;0.999649;0.006170;-0.035680;0.083064;0.002783;0.083130;-0.035745;88.658008;0.083401;
1286;527;-0.104567;0.295956;0.999997;0.000491;-0.000529;0.001479;-0.000234;0.001506;-0.000556;-83.448091;0.001523;
1236;752;-0.566944;1.390556;0.999983;0.001174;-0.005809;0.013347;-0.003172;0.013858;-0.006320;-80.838341;0.013876;
1246;1847;-0.031662;86.316283;1.000000;0.000180;-0.000322;0.001478;0.000166;0.001493;-0.000337;84.779011;0.001566;
1116;612;0.024548;0.476285;0.999998;0.000404;-0.001241;0.002749;0.000096;0.002751;-0.001243;88.623351;0.002756;
1046;342;0.004605;0.016965;1.000000;0.000052;-0.000054;0.001336;0.000169;0.001356;-0.000074;83.168827;0.001525;
1131;602;0.005165;0.451661;0.999999;0.000386;-0.001196;0.002604;0.000015;0.002604;-0.001196;89.778829;0.002607;
1271;477;-0.076307;0.218638;0.999999;0.000226;-0.000524;0.001518;-0.000136;0.001527;-0.000533;-86.192388;0.001550;
1091;617;0.056303;0.488167;0.999998;0.000473;-0.001209;0.002793;0.000237;0.002807;-0.001223;86.629832;0.002815;
1276;1567;-0.325097;85.701381;0.999675;0.004891;-0.002407;0.005887;0.002151;0.006411;-0.002931;76.293851;0.006419;
1041;352;0.008339;0.030092;1.000000;0.000066;-0.000102;0.001360;0.000176;0.001381;-0.000123;83.211933;0.001528;
1221;767;-0.573331;1.594412;0.999980;0.001144;-0.006828;0.015655;-0.003087;0.016072;-0.007244;-82.322649;0.016098;
1166;1292;-1.182997;77.443358;0.999544;0.005577;-0.035873;0.083343;0.003296;0.083434;-0.035964;88.417556;0.083698;
1241;737;-0.497004;1.204761;0.999984;0.000927;-0.004917;0.011469;-0.002907;0.011970;-0.005418;-80.232785;0.011987;
1046;347;0.006193;0.023467;1.000000;0.000067;-0.000077;0.001345;0.000167;0.001365;-0.000096;83.381692;0.001523;
1206;597;-0.078136;0.427675;0.999998;0.000407;-0.000992;0.002340;-0.000295;0.002366;-0.001018;-84.983817;0.002374;
1116;617;0.024531;0.491980;0.999997;0.000445;-0.001271;0.002843;0.000101;0.002845;-0.001273;88.593727;0.002850;
1216;1882;-0.010819;86.366892;1.000000;0.000187;-0.000144;0.001369;0.000153;0.001385;-0.000159;84.296087;0.001515;
1291;477;-0.086551;0.221854;0.999999;0.000211;-0.000487;0.001451;-0.000125;0.001459;-0.000495;-86.316881;0.001484;
1116;602;0.023423;0.452729;0.999998;0.000352;-0.001187;0.002592;0.000087;0.002594;-0.001189;88.676156;0.002597;
1096;617;0.049900;0.488914;0.999998;0.000441;-0.001224;0.002806;0.000210;0.002817;-0.001234;87.027806;0.002824;
1046;357;0.009714;0.036560;1.000000;0.000061;-0.000122;0.001359;0.000165;0.001378;-0.000140;83.721950;0.001516;
1041;1307;2.988129;78.386583;0.999747;0.006196;-0.033579;0.076143;-0.010212;0.077085;-0.034521;-84.727704;0.077225;
1236;732;-0.445600;1.149347;0.999985;0.001038;-0.004618;0.010909;-0.002671;0.011356;-0.005064;-80.507243;0.011378;
1241;742;-0.528066;1.261511;0.999985;0.001005;-0.005189;0.012043;-0.003055;0.012569;-0.005715;-80.240036;0.012586;
1211;1517;-0.320074;85.312082;0.999989;0.000780;-0.004294;0.010260;0.001921;0.010510;-0.004543;82.605010;0.010542;
1051;357;0.009101;0.036390;1.000000;0.000064;-0.000119;0.001354;0.000155;0.001370;-0.000135;84.047535;0.001510;
1216;1887;-0.008754;86.374821;1.000000;0.000238;-0.000122;0.001363;0.000153;0.001379;-0.000138;84.197615;0.001519;
1261;587;-0.117866;0.393586;0.999998;0.000398;-0.000625;0.001782;-0.000403;0.001847;-0.000690;-80.741270;0.001867;
1121;602;0.016921;0.452871;0.999999;0.000324;-0.001191;0.002601;0.000064;0.002602;-0.001192;89.031281;0.002605;
1296;477;-0.089519;0.223314;0.999999;0.000241;-0.000512;0.001432;-0.000120;0.001439;-0.000520;-86.473428;0.001458;
1136;602;-0.000878;0.451286;0.999998;0.000445;-0.001199;0.002602;-0.000008;0.002602;-0.001199;-89.881240;0.002605;
1101;617;0.043672;0.490102;0.999997;0.000402;-0.001237;0.002816;0.000183;0.002825;-0.001245;87.423275;0.002831;
1046;362;0.011671;0.043308;1.000000;0.000074;-0.000144;0.001365;0.000163;0.001382;-0.000162;83.915734;0.001511;
1231;727;-0.395444;1.096097;0.999985;0.001310;-0.004338;0.010348;-0.002430;0.010740;-0.004729;-80.844462;0.010765;
1241;747;-0.559837;1.323510;0.999983;0.001113;-0.005496;0.012655;-0.003194;0.013200;-0.006042;-80.306770;0.013216;
1131;1297;0.063833;77.882496;0.999639;0.004777;-0.033627;0.078616;-0.000275;0.078616;-0.033628;-89.859384;0.078889;
1216;1892;-0.007168;86.381076;1.000000;0.000224;-0.000101;0.001365;0.000152;0.001380;-0.000116;84.134927;0.001531;
1051;362;0.010750;0.043147;1.000000;0.000051;-0.000141;0.001360;0.000153;0.001375;-0.000157;84.227077;0.001505;
1211;1522;-0.300084;85.364283;0.999990;0.000848;-0.004046;0.009667;0.001830;0.009908;-0.004286;82.526472;0.009938;
1261;592;-0.120754;0.401868;0.999997;0.000365;-0.000653;0.001871;-0.000440;0.001946;-0.000727;-80.383512;0.001967;
1091;627;0.058229;0.515102;0.999998;0.000311;-0.001289;0.003015;0.000268;0.003031;-0.001306;86.452969;0.003041;
1141;602;-0.007061;0.451859;0.999998;0.000543;-0.001197;0.002600;-0.000029;0.002601;-0.001197;-89.568101;0.002603;
1216;522;-0.059702;0.285626;0.999999;0.000259;-0.000682;0.001660;-0.000129;0.001667;-0.000689;-86.855135;0.001675;
1046;367;0.013354;0.050323;1.000000;0.000060;-0.000167;0.001371;0.000160;0.001388;-0.000183;84.127635;0.001508;
1241;752;-0.596904;1.390904;0.999982;0.001396;-0.005816;0.013321;-0.003326;0.013882;-0.006378;-80.416634;0.013898;
1211;622;-0.093668;0.489881;0.999998;0.000427;-0.001147;0.002839;-0.000454;0.002890;-0.001198;-83.584316;0.002904;
1221;1892;-0.007938;86.381006;1.000000;0.000182;-0.000102;0.001367;0.000164;0.001385;-0.000120;83.716898;0.001535;
1136;1297;-0.109156;77.878155;0.999725;0.004152;-0.033623;0.078678;0.000204;0.078679;-0.033623;89.895741;0.078955;
1226;772;-0.642104;1.678969;0.999984;0.001346;-0.007244;0.016465;-0.003430;0.016952;-0.007730;-81.931347;0.016974;
1056;362;0.010033;0.043048;1.000000;0.000052;-0.000140;0.001355;0.000144;0.001369;-0.000154;84.561787;0.001500;
1216;1537;-0.264761;85.492825;0.999990;0.000640;-0.003393;0.008227;0.001677;0.008464;-0.003630;81.948232;0.008493;
1261;597;-0.122729;0.410385;0.999997;0.000401;-0.000689;0.001981;-0.000484;0.002066;-0.000774;-80.040789;0.002087;
1096;627;0.052327;0.516908;0.999998;0.000402;-0.001301;0.003019;0.000238;0.003032;-0.001315;86.856284;0.003041;
1161;607;-0.031567;0.463713;0.999998;0.000415;-0.001197;0.002644;-0.000131;0.002648;-0.001202;-88.054338;0.002652;
1241;757;-0.632817;1.459205;0.999986;0.001116;-0.006160;0.014048;-0.003456;0.014623;-0.006735;-80.558417;0.014638;
1051;367;0.012470;0.050099;1.000000;0.000052;-0.000163;0.001366;0.000151;0.001380;-0.000178;84.424638;0.001502;
1221;522;-0.063243;0.286358;0.999999;0.000237;-0.000674;0.001654;-0.000136;0.001662;-0.000681;-86.670418;0.001671;
1226;1892;-0.008467;86.380649;1.000000;0.000148;-0.000103;0.001372;0.000176;0.001393;-0.000124;83.277136;0.001541;
1231;772;-0.680243;1.680249;0.999986;0.000971;-0.007257;0.016409;-0.003605;0.016946;-0.007794;-81.527689;0.016964;
1061;362;0.009215;0.043015;1.000000;0.000070;-0.000138;0.001351;0.000134;0.001363;-0.000150;84.910908;0.001494;
1061;657;0.120540;0.612290;0.999997;0.000492;-0.001712;0.004316;0.000782;0.004416;-0.001811;82.724302;0.004440;
1186;1287;-1.988156;76.985110;0.999698;0.004429;-0.038480;0.088918;0.005647;0.089168;-0.038730;87.466903;0.089423;
1221;1537;-0.280621;85.492076;0.999989;0.000681;-0.003415;0.008251;0.001783;0.008517;-0.003681;81.501508;0.008543;
1096;632;0.053000;0.532251;0.999998;0.000372;-0.001347;0.003157;0.000256;0.003172;-0.001361;86.761769;0.003183;
1161;612;-0.032488;0.476788;0.999998;0.000380;-0.001225;0.002732;-0.000140;0.002737;-0.001230;-87.983118;0.002742;
1241;762;-0.669586;1.524420;0.999987;0.001175;-0.006521;0.014796;-0.003611;0.015391;-0.007116;-80.641870;0.015405;
1131;707;0.013390;0.899146;0.999996;0.000416;-0.003101;0.007772;0.000075;0.007772;-0.003102;89.603483;0.007825;
1056;367;0.011579;0.049902;1.000000;0.000061;-0.000162;0.001361;0.000141;0.001374;-0.000175;84.748656;0.001496;
1206;517;-0.051354;0.276077;0.999999;0.000231;-0.000674;0.001652;-0.000111;0.001657;-0.000679;-87.268934;0.001666;
1236;772;-0.714683;1.681034;0.999986;0.001154;-0.007266;0.016366;-0.003799;0.016962;-0.007861;-81.087670;0.016977;
1216;1877;-0.012771;86.359512;1.000000;0.000182;-0.000166;0.001375;0.000151;0.001389;-0.000180;84.437247;0.001511;
1066;362;0.008666;0.042853;1.000000;0.000064;-0.000136;0.001347;0.000124;0.001357;-0.000146;85.245318;0.001490;
1186;1292;-1.907043;77.378310;0.999738;0.004696;-0.036788;0.084865;0.005560;0.085119;-0.037041;87.388794;0.085357;
1061;662;0.127852;0.634826;0.999997;0.000401;-0.001822;0.004590;0.000841;0.004699;-0.001930;82.648458;0.004724;
1226;1542;-0.276550;85.529217;0.999991;0.000747;-0.003230;0.007786;0.001794;0.008071;-0.003514;80.977794;0.008093;
1241;767;-0.707726;1.597386;0.999985;0.001208;-0.006907;0.015583;-0.003831;0.016217;-0.007542;-80.592967;0.016231;
1136;597;-0.000801;0.438195;0.999998;0.000407;-0.001174;0.002542;-0.000009;0.002542;-0.001174;-89.867321;0.002545;
1161;617;-0.033320;0.490958;0.999998;0.000424;-0.001254;0.002839;-0.000151;0.002845;-0.001259;-87.885432;0.002851;
1236;607;-0.110475;0.441816;0.999998;0.000343;-0.000889;0.002354;-0.000470;0.002421;-0.000956;-81.912761;0.002439;
1061;367;0.010711;0.049776;1.000000;0.000078;-0.000160;0.001357;0.000131;0.001368;-0.000171;85.085005;0.001491;
1231;1892;-0.008915;86.379888;1.000000;0.000192;-0.000103;0.001374;0.000187;0.001398;-0.000127;82.889482;0.001546;
1281;482;-0.083586;0.227971;0.999999;0.000219;-0.000517;0.001489;-0.000143;0.001499;-0.000527;-85.938890;0.001521;
1241;727;-0.439851;1.098076;0.999985;0.001109;-0.004367;0.010325;-0.002672;0.010796;-0.004838;-80.005411;0.010816;
1041;392;0.023663;0.085580;1.000000;0.000077;-0.000281;0.001438;0.000152;0.001451;-0.000294;84.995517;0.001534;
1186;1297;-1.831800;77.768900;0.999732;0.004145;-0.035162;0.080771;0.005479;0.081030;-0.035421;87.300294;0.081243;
1061;667;0.136667;0.659481;0.999997;0.000398;-0.001943;0.004895;0.000909;0.005014;-0.002061;82.557232;0.005040;
1236;727;-0.418529;1.097148;0.999985;0.001317;-0.004354;0.010339;-0.002564;0.010774;-0.004789;-80.380104;0.010796;
1161;622;-0.033601;0.504707;0.999998;0.000489;-0.001285;0.002929;-0.000163;0.002935;-0.001291;-87.784890;0.002943;
1111;597;0.028881;0.438670;0.999998;0.000396;-0.001151;0.002522;0.000102;0.002525;-0.001154;88.418038;0.002528;
1241;607;-0.114291;0.439503;0.999998;0.000465;-0.000860;0.002332;-0.000491;0.002406;-0.000934;-81.451202;0.002426;
1156;1502;-0.112307;85.166025;0.999991;0.000557;-0.004953;0.012127;0.000618;0.012149;-0.004975;87.930579;0.012215;
1236;1892;-0.009371;86.379909;0.999999;0.000206;-0.000105;0.001378;0.000198;0.001404;-0.000131;82.537248;0.001551;
1066;367;0.010164;0.049709;1.000000;0.000072;-0.000157;0.001353;0.000122;0.001362;-0.000167;85.401939;0.001486;
1246;757;-0.661298;1.461617;0.999983;0.001163;-0.006168;0.014006;-0.003605;0.014631;-0.006793;-80.167337;0.014643;
1286;482;-0.086236;0.228729;0.999999;0.000202;-0.000505;0.001470;-0.000142;0.001480;-0.000515;-85.920178;0.001502;
1041;397;0.025669;0.092826;1.000000;0.000089;-0.000302;0.001450;0.000148;0.001462;-0.000314;85.201077;0.001540;
1191;1287;-2.185760;76.958482;0.999707;0.004003;-0.038788;0.089493;0.006263;0.089798;-0.039093;87.211546;0.090048;
1206;602;-0.080233;0.440996;0.999997;0.000429;-0.001017;0.002421;-0.000315;0.002450;-0.001046;-84.804430;0.002458;
1241;732;-0.468088;1.152452;0.999985;0.001034;-0.004633;0.010889;-0.002781;0.011373;-0.005117;-80.142489;0.011392;
1246;762;-0.700513;1.529056;0.999984;0.001226;-0.006531;0.014758;-0.003769;0.015406;-0.007179;-80.250380;0.015418;
1111;602;0.029050;0.451647;0.999998;0.000341;-0.001177;0.002582;0.000109;0.002585;-0.001180;88.340064;0.002588;
1086;632;0.065323;0.529437;0.999998;0.000350;-0.001329;0.003156;0.000323;0.003179;-0.001352;85.904512;0.003191;
1246;607;-0.118397;0.437677;0.999998;0.000425;-0.000848;0.002306;-0.000515;0.002388;-0.000930;-80.956465;0.002408;
1221;357;-0.009540;0.036453;1.000000;0.000064;-0.000121;0.001355;-0.000161;0.001373;-0.000139;-83.861089;0.001512;
1016;1542;0.345100;85.540921;0.999992;0.000702;-0.003131;0.007746;-0.002258;0.008196;-0.003582;-78.726700;0.008218;
1291;482;-0.089173;0.229774;0.999999;0.000222;-0.000491;0.001449;-0.000136;0.001459;-0.000500;-86.023342;0.001482;
1251;1847;-0.033414;86.315471;1.000000;0.000156;-0.000330;0.001485;0.000171;0.001501;-0.000346;84.676033;0.001572;
1041;402;0.027669;0.100044;1.000000;0.000074;-0.000322;0.001463;0.000143;0.001474;-0.000334;85.445896;0.001546;
1196;1287;-2.382321;76.933138;0.999698;0.004732;-0.039083;0.090132;0.006892;0.090499;-0.039449;86.955367;0.090746;
1246;727;-0.462330;1.099072;0.999983;0.001079;-0.004370;0.010321;-0.002795;0.010835;-0.004884;-79.583524;0.010853;
1066;672;0.134154;0.685852;0.999998;0.000427;-0.002062;0.005185;0.000897;0.005294;-0.002172;83.050261;0.005322;
1246;767;-0.741719;1.599806;0.999985;0.001232;-0.006929;0.015552;-0.004021;0.016250;-0.007626;-80.157670;0.016260;
1091;632;0.059157;0.531191;0.999999;0.000351;-0.001335;0.003156;0.000289;0.003174;-0.001354;86.331215;0.003186;
1111;607;0.029658;0.464538;0.999998;0.000361;-0.001203;0.002652;0.000113;0.002655;-0.001206;88.323424;0.002659;
1221;362;-0.011171;0.043248;1.000000;0.000062;-0.000143;0.001360;-0.000158;0.001377;-0.000159;-84.047997;0.001506;
1251;582;-0.109670;0.386884;0.999998;0.000331;-0.000663;0.001795;-0.000350;0.001844;-0.000712;-82.042795;0.001859;
1276;482;-0.081105;0.227432;0.999999;0.000250;-0.000526;0.001505;-0.000144;0.001515;-0.000536;-85.974942;0.001537;
1251;1877;-0.018516;86.359047;0.999999;0.000207;-0.000195;0.001421;0.000210;0.001448;-0.000222;82.720638;0.001560;
1056;1522;0.288763;85.375315;0.999992;0.000780;-0.003949;0.009484;-0.001821;0.009726;-0.004191;-82.415162;0.009757;
1036;352;0.009035;0.030229;1.000000;0.000087;-0.000105;0.001366;0.000186;0.001389;-0.000129;82.896725;0.001535;
1221;1302;-2.969373;78.032349;0.999664;0.004486;-0.035166;0.080265;0.009654;0.081066;-0.035968;85.252187;0.081238;
1246;732;-0.490346;1.154024;0.999984;0.001093;-0.004635;0.010883;-0.002908;0.011410;-0.005162;-79.726223;0.011428;
1226;777;-0.680390;1.762212;0.999979;0.001079;-0.007649;0.017345;-0.003572;0.017845;-0.008149;-82.024580;0.017868;
1036;342;0.005111;0.017005;1.000000;0.000085;-0.000056;0.001346;0.000191;0.001372;-0.000082;82.381933;0.001539;
1206;662;-0.121765;0.634505;0.999998;0.000509;-0.001804;0.004548;-0.000820;0.004653;-0.001908;-82.765763;0.004678;
1116;597;0.022835;0.439034;0.999999;0.000318;-0.001161;0.002532;0.000082;0.002534;-0.001163;88.728524;0.002536;
1231;607;-0.106279;0.443772;0.999998;0.000360;-0.000922;0.002379;-0.000449;0.002439;-0.000982;-82.391334;0.002455;
1116;592;0.022325;0.425996;0.999998;0.000337;-0.001135;0.002462;0.000079;0.002464;-0.001137;88.749116;0.002466;
1176;1507;-0.198033;85.220129;0.999992;0.000730;-0.004705;0.011471;0.001147;0.011552;-0.004786;85.965646;0.011609;
1001;1832;0.046331;86.290871;0.999999;0.000189;-0.000408;0.001507;-0.000143;0.001517;-0.000418;-85.751643;0.001567;
1246;772;-0.788584;1.684433;0.999986;0.001221;-0.007312;0.016235;-0.004201;0.016963;-0.008039;-80.180756;0.016970;
1031;477;0.059171;0.216045;0.999999;0.000194;-0.000563;0.001573;0.000119;0.001580;-0.000570;86.818979;0.001600;
1036;347;0.006958;0.023746;1.000000;0.000090;-0.000081;0.001356;0.000188;0.001380;-0.000105;82.668024;0.001537;
1001;472;0.073766;0.212181;0.999999;0.000224;-0.000526;0.001520;0.000130;0.001529;-0.000534;86.372079;0.001551;
1176;432;-0.016495;0.140919;1.000000;0.000079;-0.000404;0.001486;-0.000056;0.001487;-0.000405;-88.306356;0.001538;
1151;612;-0.019470;0.477486;0.999999;0.000371;-0.001247;0.002751;-0.000083;0.002753;-0.001248;-88.812454;0.002757;
1281;1677;-0.120483;86.050979;1.000000;0.000185;-0.000452;0.001582;0.000325;0.001633;-0.000503;81.141988;0.001672;
1231;777;-0.718208;1.763669;0.999983;0.001200;-0.007665;0.017270;-0.003746;0.017820;-0.008215;-81.639257;0.017839;
1211;662;-0.130750;0.632370;0.999998;0.000486;-0.001810;0.004585;-0.000883;0.004705;-0.001930;-82.285328;0.004730;
1246;777;-0.832358;1.770235;0.999983;0.001184;-0.007715;0.017019;-0.004368;0.017768;-0.008464;-80.273731;0.017774;
1181;1507;-0.222387;85.220399;0.999992;0.000883;-0.004716;0.011479;0.001285;0.011581;-0.004818;85.491992;0.011635;
1121;592;0.016609;0.426216;0.999998;0.000304;-0.001140;0.002471;0.000057;0.002472;-0.001141;89.088686;0.002474;
1036;477;0.056661;0.215576;0.999999;0.000216;-0.000567;0.001577;0.000113;0.001583;-0.000573;87.001128;0.001603;
1016;1637;0.121334;85.976938;0.999999;0.000227;-0.000794;0.002238;-0.000533;0.002329;-0.000885;-80.306101;0.002351;
1056;382;0.016473;0.070477;1.000000;0.000074;-0.000226;0.001401;0.000136;0.001412;-0.000238;85.245153;0.001512;
1156;612;-0.025674;0.476405;0.999998;0.000383;-0.001237;0.002742;-0.000111;0.002745;-0.001240;-88.402904;0.002749;
1236;777;-0.752004;1.766886;0.999982;0.001549;-0.007674;0.017210;-0.003946;0.017821;-0.008285;-81.200958;0.017835;
1221;382;-0.018300;0.070995;1.000000;0.000074;-0.000228;0.001408;-0.000149;0.001421;-0.000242;-84.842356;0.001521;
1211;522;-0.056235;0.284749;0.999999;0.000240;-0.000686;0.001665;-0.000124;0.001671;-0.000692;-86.998619;0.001679;
1251;762;-0.735293;1.532138;0.999988;0.001116;-0.006554;0.014701;-0.003918;0.015401;-0.007253;-79.880118;0.015409;
1221;607;-0.097384;0.448461;0.999998;0.000459;-0.000980;0.002434;-0.000403;0.002481;-0.001026;-83.361426;0.002493;
1026;1817;0.042465;86.272417;1.000000;0.000166;-0.000429;0.001511;-0.000131;0.001520;-0.000437;-86.165533;0.001565;
1041;477;0.053786;0.214962;0.999999;0.000240;-0.000568;0.001580;0.000108;0.001586;-0.000573;87.127601;0.001606;
1186;1507;-0.246114;85.218710;0.999992;0.000709;-0.004732;0.011485;0.001424;0.011609;-0.004856;85.019733;0.011661;
1126;592;0.011060;0.425765;0.999998;0.000347;-0.001140;0.002474;0.000036;0.002475;-0.001141;89.434747;0.002477;
1211;1892;-0.006807;86.382139;1.000000;0.000184;-0.000100;0.001363;0.000142;0.001376;-0.000114;84.519566;0.001528;
1226;352;-0.008328;0.030125;1.000000;0.000066;-0.000101;0.001353;-0.000172;0.001373;-0.000121;-83.337393;0.001520;
1241;772;-0.750951;1.682455;0.999987;0.001444;-0.007288;0.016313;-0.003999;0.016972;-0.007947;-80.640525;0.016983;
1251;767;-0.780377;1.604536;0.999989;0.001168;-0.006966;0.015507;-0.004211;0.016270;-0.007729;-79.728809;0.016277;
1156;617;-0.026209;0.491141;0.999998;0.000406;-0.001266;0.002847;-0.000121;0.002851;-0.001270;-88.319387;0.002856;
1276;477;-0.079218;0.219774;0.999999;0.000215;-0.000518;0.001503;-0.000136;0.001512;-0.000527;-86.171440;0.001535;
1206;412;-0.023319;0.113133;1.000000;0.000094;-0.000340;0.001459;-0.000106;0.001465;-0.000347;-86.647807;0.001531;
1226;607;-0.101002;0.446427;0.999997;0.000397;-0.000956;0.002407;-0.000426;0.002460;-0.001010;-82.893141;0.002473;
1026;1822;0.040405;86.279902;1.000000;0.000174;-0.000413;0.001503;-0.000135;0.001513;-0.000423;-85.982950;0.001561;
1216;1897;-0.005759;86.386261;0.999999;0.000214;-0.000079;0.001363;0.000153;0.001379;-0.000095;84.022505;0.001541;
1251;772;-0.823245;1.684124;0.999988;0.001132;-0.007339;0.016116;-0.004402;0.016915;-0.008138;-79.712640;0.016919;
1241;777;-0.794016;1.768649;0.999982;0.001578;-0.007694;0.017133;-0.004154;0.017810;-0.008371;-80.748114;0.017820;
1041;357;0.010274;0.036762;1.000000;0.000068;-0.000125;0.001365;0.000175;0.001386;-0.000146;83.407312;0.001523;
1131;592;0.004927;0.425455;0.999998;0.000358;-0.001146;0.002476;0.000014;0.002476;-0.001146;89.774995;0.002478;
1166;1507;-0.152301;85.221659;0.999992;0.000674;-0.004689;0.011456;0.000868;0.011502;-0.004735;86.932628;0.011562;
956;447;0.083767;0.187272;0.999999;0.000199;-0.000715;0.001515;0.000069;0.001517;-0.000717;88.220994;0.001517;
1156;622;-0.026381;0.505433;0.999998;0.000421;-0.001298;0.002937;-0.000131;0.002941;-0.001302;-88.229866;0.002947;
1281;477;-0.081588;0.220267;0.999999;0.000181;-0.000511;0.001487;-0.000135;0.001496;-0.000520;-86.158371;0.001519;
1206;417;-0.024708;0.120337;1.000000;0.000080;-0.000360;0.001468;-0.000103;0.001473;-0.000366;-86.792385;0.001534;
1026;1827;0.038766;86.287350;1.000000;0.000160;-0.000396;0.001494;-0.000141;0.001504;-0.000406;-85.759376;0.001556;
1246;547;-0.091000;0.329261;0.999997;0.000477;-0.000634;0.001651;-0.000226;0.001673;-0.000656;-84.413996;0.001686;
1221;1897;-0.006413;86.386696;1.000000;0.000192;-0.000079;0.001365;0.000164;0.001384;-0.000098;83.586683;0.001544;
1246;737;-0.520384;1.206168;0.999984;0.001136;-0.004923;0.011464;-0.003037;0.012009;-0.005467;-79.829588;0.012025;
1246;752;-0.625390;1.392899;0.999977;0.001276;-0.005818;0.013280;-0.003469;0.013890;-0.006429;-80.018563;0.013903;
1041;362;0.012337;0.043505;1.000000;0.000094;-0.000149;0.001371;0.000172;0.001390;-0.000168;83.623083;0.001517;
961;447;0.081501;0.184814;0.999999;0.000219;-0.000664;0.001503;0.000072;0.001506;-0.000666;88.105086;0.001509;
1191;1507;-0.268811;85.217129;0.999991;0.000701;-0.004755;0.011493;0.001566;0.011643;-0.004905;84.544223;0.011691;
1111;592;0.028177;0.425822;0.999998;0.000427;-0.001125;0.002450;0.000097;0.002453;-0.001128;88.451754;0.002455;
1126;612;0.011526;0.478539;0.999999;0.000339;-0.001247;0.002762;0.000044;0.002762;-0.001248;89.375748;0.002766;
1286;477;-0.084039;0.221259;0.999999;0.000162;-0.000501;0.001469;-0.000133;0.001478;-0.000510;-86.163539;0.001501;
1206;422;-0.026147;0.127626;1.000000;0.000070;-0.000379;0.001477;-0.000100;0.001483;-0.000384;-86.928816;0.001539;
1226;1897;-0.006689;86.386894;1.000000;0.000197;-0.000080;0.001370;0.000178;0.001391;-0.000102;83.099209;0.001551;
1251;777;-0.870086;1.771390;0.999986;0.000999;-0.007732;0.016835;-0.004581;0.017662;-0.008559;-79.773614;0.017665;
1251;547;-0.093617;0.329118;0.999997;0.000409;-0.000619;0.001634;-0.000230;0.001657;-0.000642;-84.235930;0.001671;
1246;742;-0.553759;1.261503;0.999983;0.001117;-0.005192;0.012033;-0.003189;0.012605;-0.005763;-79.842280;0.012620;
1231;1822;-0.036962;86.280820;1.000000;0.000154;-0.000399;0.001499;0.000133;0.001508;-0.000408;86.024429;0.001560;
1041;367;0.014095;0.050534;1.000000;0.000090;-0.000171;0.001377;0.000169;0.001395;-0.000190;83.855137;0.001513;
966;447;0.079605;0.182711;0.999999;0.000250;-0.000627;0.001499;0.000074;0.001501;-0.000630;87.995528;0.001508;
1106;592;0.033226;0.425228;0.999999;0.000462;-0.001116;0.002439;0.000117;0.002443;-0.001120;88.115014;0.002445;
1131;612;0.005505;0.478480;0.999999;0.000327;-0.001251;0.002761;0.000016;0.002761;-0.001251;89.774611;0.002766;
1021;1537;0.352684;85.501245;0.999992;0.000943;-0.003353;0.008164;-0.002269;0.008595;-0.003784;-79.247512;0.008615;
1211;1897;-0.005219;86.386768;0.999999;0.000241;-0.000078;0.001361;0.000142;0.001375;-0.000092;84.429233;0.001537;
1271;482;-0.077895;0.226284;0.999999;0.000265;-0.000532;0.001520;-0.000143;0.001530;-0.000542;-86.033070;0.001552;
1251;757;-0.694210;1.464207;0.999984;0.001004;-0.006184;0.013943;-0.003748;0.014618;-0.006859;-79.787096;0.014627;
1051;372;0.014006;0.056952;1.000000;0.000067;-0.000185;0.001379;0.000149;0.001393;-0.000199;84.604204;0.001507;
1246;747;-0.587837;1.324073;0.999978;0.001251;-0.005496;0.012626;-0.003332;0.013220;-0.006089;-79.904645;0.013233;
1236;1812;-0.042361;86.264907;1.000000;0.000123;-0.000438;0.001519;0.000126;0.001527;-0.000446;86.336782;0.001570;
981;552;0.117228;0.334810;0.999997;0.000455;-0.000493;0.001517;0.000298;0.001561;-0.000536;81.730736;0.001586;
1311;467;-0.091224;0.213178;0.999999;0.000268;-0.000514;0.001404;-0.000097;0.001409;-0.000519;-87.106348;0.001425;
1041;382;0.020088;0.071392;1.000000;0.000069;-0.000238;0.001419;0.000160;0.001434;-0.000254;84.525707;0.001530;
1011;1542;0.360718;85.540838;0.999991;0.000841;-0.003123;0.007752;-0.002350;0.008238;-0.003609;-78.311666;0.008259;
1256;757;-0.726374;1.466901;0.999988;0.000912;-0.006203;0.013842;-0.003888;0.014570;-0.006931;-79.398303;0.014576;
1146;602;-0.013262;0.452298;0.999998;0.000445;-0.001193;0.002597;-0.000050;0.002597;-0.001194;-89.240568;0.002600;
1106;597;0.034268;0.437947;0.999998;0.000413;-0.001141;0.002511;0.000123;0.002515;-0.001145;88.076631;0.002519;
1251;477;-0.065710;0.216929;0.999999;0.000229;-0.000552;0.001557;-0.000125;0.001564;-0.000559;-86.609802;0.001586;
1056;372;0.013152;0.056667;1.000000;0.000069;-0.000183;0.001374;0.000140;0.001387;-0.000195;84.911523;0.001501;
1021;1637;0.117535;85.974407;0.999999;0.000163;-0.000824;0.002265;-0.000511;0.002347;-0.000906;-80.842794;0.002367;
1196;762;-0.385118;1.513198;0.999981;0.001092;-0.006346;0.014890;-0.002125;0.015101;-0.006557;-84.341435;0.015145;
1316;467;-0.093346;0.216252;0.999999;0.000246;-0.000528;0.001391;-0.000093;0.001396;-0.000532;-87.226023;0.001409;
1236;1817;-0.040594;86.273028;1.000000;0.000117;-0.000421;0.001508;0.000131;0.001517;-0.000430;86.139975;0.001564;
1251;732;-0.513562;1.155733;0.999979;0.001000;-0.004661;0.010867;-0.003040;0.011441;-0.005235;-79.309875;0.011455;
1046;382;0.018906;0.071089;1.000000;0.000065;-0.000232;0.001413;0.000153;0.001427;-0.000246;84.725319;0.001525;
1011;587;0.117983;0.397109;0.999998;0.000496;-0.000634;0.001817;0.000387;0.001876;-0.000694;81.242550;0.001897;
1151;602;-0.018812;0.451016;0.999998;0.000373;-0.001191;0.002592;-0.000073;0.002593;-0.001192;-88.890622;0.002596;
1106;602;0.034984;0.450477;0.999998;0.000363;-0.001167;0.002571;0.000132;0.002576;-0.001171;87.972513;0.002579;
1161;1352;-0.626344;81.155991;0.999863;0.002403;-0.021620;0.049193;0.002267;0.049265;-0.021692;88.168303;0.049382;
1041;387;0.021918;0.078374;1.000000;0.000060;-0.000260;0.001428;0.000156;0.001443;-0.000274;84.770081;0.001532;
1191;767;-0.373540;1.591320;0.999979;0.001200;-0.006684;0.015721;-0.002043;0.015906;-0.006868;-84.831211;0.015955;
961;1767;0.094154;86.185898;0.999999;0.000183;-0.000503;0.001375;-0.000113;0.001382;-0.000510;-86.556748;0.001398;
1251;737;-0.544868;1.209594;0.999981;0.000985;-0.004951;0.011452;-0.003171;0.012044;-0.005542;-79.431049;0.012056;
1281;487;-0.086289;0.235857;0.999999;0.000330;-0.000523;0.001492;-0.000152;0.001504;-0.000535;-85.701387;0.001525;
1051;382;0.017663;0.070734;1.000000;0.000073;-0.000229;0.001406;0.000145;0.001419;-0.000241;84.965184;0.001519;
1286;1667;-0.127844;86.036350;1.000000;0.000171;-0.000438;0.001595;0.000398;0.001670;-0.000513;79.317408;0.001711;
1011;592;0.120722;0.406242;0.999997;0.000415;-0.000655;0.001896;0.000422;0.001964;-0.000723;80.839058;0.001986;
1156;602;-0.024738;0.450894;0.999998;0.000431;-0.001182;0.002584;-0.000097;0.002587;-0.001184;-88.527030;0.002590;
1226;342;-0.004691;0.017050;1.000000;0.000061;-0.000056;0.001333;-0.000175;0.001355;-0.000078;-82.944295;0.001521;
1136;592;-0.000731;0.426384;0.999998;0.000348;-0.001148;0.002478;-0.000006;0.002478;-0.001148;-89.908931;0.002480;
1136;1357;-0.084771;81.422815;0.999893;0.002429;-0.020779;0.047067;0.000308;0.047069;-0.020780;89.739839;0.047176;
1211;612;-0.089422;0.462701;0.999998;0.000453;-0.001059;0.002586;-0.000384;0.002626;-0.001100;-84.046107;0.002638;
1251;742;-0.579936;1.264254;0.999981;0.001198;-0.005212;0.012018;-0.003324;0.012637;-0.005831;-79.451150;0.012649;
1191;772;-0.394084;1.670778;0.999982;0.001336;-0.007072;0.016594;-0.002119;0.016782;-0.007260;-84.924736;0.016833;
1311;1862;-0.047308;86.321281;1.000000;0.000183;-0.000458;0.001605;0.000130;0.001613;-0.000466;86.417298;0.001660;
1286;487;-0.088613;0.236896;0.999999;0.000248;-0.000511;0.001472;-0.000151;0.001484;-0.000522;-85.666829;0.001505;
1031;342;0.005298;0.017078;1.000000;0.000072;-0.000060;0.001353;0.000202;0.001382;-0.000089;82.010795;0.001547;
1286;1672;-0.125526;86.044153;1.000000;0.000193;-0.000422;0.001575;0.000355;0.001636;-0.000483;80.228296;0.001681;
1101;587;0.037878;0.412498;0.999998;0.000508;-0.001078;0.002355;0.000133;0.002361;-0.001083;87.779451;0.002363;
1276;532;-0.101673;0.305223;0.999997;0.000421;-0.000555;0.001532;-0.000226;0.001556;-0.000579;-83.895099;0.001573;
1091;422;0.015721;0.126280;1.000000;0.000073;-0.000367;0.001467;0.000062;0.001469;-0.000369;88.067537;0.001529;
1111;582;0.026796;0.402689;0.999999;0.000351;-0.001075;0.002324;0.000088;0.002326;-0.001077;88.521838;0.002329;
1141;1357;-0.186088;81.413479;0.999910;0.002176;-0.020798;0.047030;0.000691;0.047037;-0.020805;89.416714;0.047142;
1211;617;-0.090948;0.475815;0.999998;0.000417;-0.001102;0.002712;-0.000418;0.002757;-0.001148;-83.811663;0.002770;
1316;1862;-0.049759;86.318772;1.000000;0.000155;-0.000483;0.001611;0.000108;0.001617;-0.000489;87.054143;0.001658;
1031;347;0.007288;0.023694;1.000000;0.000076;-0.000084;0.001363;0.000199;0.001390;-0.000111;82.318432;0.001544;
1171;782;-0.284946;1.839314;0.999979;0.001581;-0.007810;0.018358;-0.001498;0.018443;-0.007896;-86.734427;0.018507;
1191;777;-0.416966;1.751706;0.999978;0.001297;-0.007472;0.017470;-0.002206;0.017664;-0.007666;-84.984277;0.017715;
1291;487;-0.091002;0.237583;0.999999;0.000224;-0.000495;0.001448;-0.000146;0.001459;-0.000506;-85.739778;0.001482;
1286;1677;-0.123052;86.052035;1.000000;0.000196;-0.000417;0.001567;0.000324;0.001619;-0.000469;80.967793;0.001666;
1196;342;-0.002983;0.016616;1.000000;0.000066;-0.000052;0.001310;-0.000114;0.001319;-0.000062;-85.228356;0.001489;
1306;542;-0.120795;0.313854;0.999997;0.000456;-0.000445;0.001412;-0.000247;0.001444;-0.000477;-82.561211;0.001471;
1101;592;0.038084;0.423678;0.999999;0.000423;-0.001103;0.002426;0.000139;0.002431;-0.001109;87.743846;0.002434;
1116;582;0.021497;0.402605;0.999999;0.000414;-0.001083;0.002336;0.000069;0.002337;-0.001084;88.837736;0.002339;
1146;1357;-0.280071;81.413930;0.999904;0.002243;-0.020801;0.047019;0.001072;0.047036;-0.020818;89.094845;0.047139;
1321;1862;-0.054210;86.316449;0.999993;0.000715;-0.000516;0.001616;0.000075;0.001619;-0.000518;87.977609;0.001653;
1256;762;-0.771483;1.535770;0.999988;0.001096;-0.006577;0.014608;-0.004055;0.015358;-0.007327;-79.525880;0.015363;
1031;352;0.009348;0.030313;1.000000;0.000098;-0.000109;0.001373;0.000196;0.001399;-0.000134;82.573228;0.001543;
1161;707;-0.077935;0.898554;0.999996;0.000632;-0.003135;0.007843;-0.000528;0.007868;-0.003160;-87.253770;0.007918;
1191;782;-0.439252;1.837010;0.999975;0.001240;-0.007884;0.018356;-0.002305;0.018557;-0.008084;-85.018786;0.018608;
1276;487;-0.083707;0.235085;0.999999;0.000306;-0.000533;0.001508;-0.000153;0.001519;-0.000544;-85.741787;0.001539;
1231;1827;-0.034818;86.287506;1.000000;0.000167;-0.000381;0.001493;0.000136;0.001503;-0.000391;85.880196;0.001560;
1311;542;-0.123062;0.312616;0.999998;0.000517;-0.000433;0.001389;-0.000240;0.001420;-0.000464;-82.625024;0.001448;
1206;427;-0.027511;0.135039;1.000000;0.000075;-0.000396;0.001486;-0.000097;0.001491;-0.000401;-87.072331;0.001543;
1101;597;0.039523;0.437460;0.999998;0.000368;-0.001129;0.002500;0.000145;0.002506;-0.001135;87.709888;0.002510;
1226;347;-0.006497;0.023574;1.000000;0.000061;-0.000079;0.001344;-0.000174;0.001365;-0.000099;-83.126556;0.001522;
1151;1357;-0.377921;81.406884;0.999895;0.002523;-0.020745;0.047040;0.001451;0.047071;-0.020776;88.774319;0.047179;
1096;587;0.043380;0.412091;0.999998;0.000502;-0.001064;0.002340;0.000152;0.002346;-0.001071;87.443612;0.002349;
1261;1652;-0.123160;86.006225;0.999999;0.000204;-0.000654;0.001922;0.000445;0.001997;-0.000729;80.467805;0.002021;
1316;542;-0.128259;0.310570;0.999988;0.001229;-0.000406;0.001363;-0.000238;0.001394;-0.000438;-82.468677;0.001426;
1321;452;-0.092523;0.198182;0.999984;0.001136;-0.000506;0.001392;-0.000078;0.001395;-0.000509;-87.652446;0.001412;
1086;772;0.342400;1.664392;0.999979;0.001743;-0.007151;0.016657;0.001722;0.016780;-0.007275;85.885485;0.016830;
1076;762;0.371272;1.519263;0.999984;0.000994;-0.006406;0.014978;0.001951;0.015154;-0.006582;84.830252;0.015198;
1236;1822;-0.038457;86.280285;1.000000;0.000122;-0.000404;0.001502;0.000134;0.001511;-0.000413;85.982571;0.001562;
1216;652;-0.122670;0.585401;0.999997;0.000364;-0.001588;0.004031;-0.000811;0.004146;-0.001702;-81.952698;0.004168;
1106;587;0.032694;0.413250;0.999998;0.000400;-0.001090;0.002370;0.000112;0.002373;-0.001094;88.147761;0.002376;
1086;417;0.016702;0.118962;1.000000;0.000070;-0.000350;0.001458;0.000072;0.001461;-0.000353;87.717873;0.001525;
1321;457;-0.094118;0.201457;0.999989;0.000933;-0.000509;0.001361;-0.000080;0.001365;-0.000512;-87.549166;0.001379;
1156;1357;-0.484577;81.400438;0.999887;0.003073;-0.020720;0.047069;0.001809;0.047117;-0.020768;88.472454;0.047227;
1096;592;0.044686;0.423927;0.999998;0.000441;-0.001089;0.002410;0.000160;0.002417;-0.001096;87.393112;0.002420;
1176;412;-0.013198;0.111384;1.000000;0.000061;-0.000329;0.001442;-0.000062;0.001444;-0.000332;-88.011511;0.001513;
1256;582;-0.112436;0.385856;0.999998;0.000374;-0.000632;0.001754;-0.000359;0.001806;-0.000685;-81.627217;0.001824;
1076;767;0.393495;1.591845;0.999984;0.001055;-0.006778;0.015811;0.002014;0.015989;-0.006956;84.943708;0.016034;
1091;772;0.307588;1.663022;0.999980;0.001299;-0.007135;0.016656;0.001536;0.016755;-0.007234;86.321583;0.016806;
981;1702;0.111151;86.093100;0.999999;0.000219;-0.000487;0.001494;-0.000253;0.001526;-0.000519;-82.847996;0.001552;
1321;462;-0.093816;0.209733;0.999987;0.000975;-0.000525;0.001379;-0.000084;0.001383;-0.000528;-87.489596;0.001396;
1236;1827;-0.036605;86.287445;1.000000;0.000137;-0.000386;0.001498;0.000138;0.001508;-0.000396;85.827640;0.001563;
1206;522;-0.052895;0.283827;0.999999;0.000229;-0.000689;0.001671;-0.000118;0.001676;-0.000695;-87.141079;0.001685;
1201;1772;-0.037203;86.206414;1.000000;0.000099;-0.000550;0.001578;0.000078;0.001581;-0.000552;87.907591;0.001605;
1221;1307;-2.851537;78.389361;0.999689;0.004093;-0.033562;0.076343;0.009470;0.077153;-0.034372;85.111307;0.077306;
1161;1357;-0.598184;81.391079;0.999844;0.002878;-0.020705;0.047119;0.002160;0.047188;-0.020774;88.177966;0.047300;
1096;597;0.046073;0.437504;0.999998;0.000460;-0.001114;0.002486;0.000167;0.002494;-0.001121;87.351249;0.002498;
1216;917;-2.212622;6.657756;0.999763;0.003894;-0.028084;0.063353;-0.008076;0.064061;-0.028792;-84.991380;0.064170;
1011;1547;0.335925;85.579729;0.999992;0.000772;-0.002950;0.007337;-0.002213;0.007793;-0.003406;-78.360202;0.007813;
1311;1857;-0.050934;86.313679;1.000000;0.000208;-0.000471;0.001582;0.000113;0.001589;-0.000477;86.851004;0.001630;
1121;597;0.016588;0.438698;0.999999;0.000321;-0.001165;0.002540;0.000060;0.002541;-0.001166;89.069428;0.002544;
1146;792;-0.099159;2.035892;0.999980;0.001047;-0.008692;0.020318;-0.000511;0.020327;-0.008701;-88.990548;0.020397;
1281;1662;-0.128375;86.027197;1.000000;0.000192;-0.000476;0.001672;0.000434;0.001756;-0.000560;78.998262;0.001794;
971;467;0.086616;0.210286;0.999999;0.000234;-0.000634;0.001462;0.000060;0.001464;-0.000635;88.354256;0.001468;
1256;472;-0.066264;0.210534;0.999999;0.000177;-0.000537;0.001544;-0.000125;0.001551;-0.000545;-86.569113;0.001574;
1201;1287;-2.581893;76.903714;0.999667;0.005052;-0.039429;0.090813;0.007564;0.091251;-0.039867;86.687101;0.091493;
1201;1777;-0.035928;86.214563;1.000000;0.000103;-0.000535;0.001568;0.000078;0.001571;-0.000538;87.876819;0.001597;
1316;1857;-0.053221;86.311033;1.000000;0.000159;-0.000495;0.001583;0.000093;0.001587;-0.000499;87.454868;0.001623;
1251;752;-0.655354;1.395099;0.999979;0.001231;-0.005830;0.013220;-0.003608;0.013880;-0.006491;-79.626963;0.013890;
1101;582;0.036777;0.401308;0.999999;0.000381;-0.001054;0.002297;0.000127;0.002302;-0.001059;87.827705;0.002305;
1131;1357;0.022145;81.426275;0.999884;0.003575;-0.020748;0.047111;-0.000092;0.047111;-0.020748;-89.922632;0.047223;
1126;597;0.010549;0.439050;0.999999;0.000390;-0.001165;0.002543;0.000037;0.002543;-0.001165;89.432494;0.002546;
1191;947;-1.941942;8.639592;0.999726;0.004264;-0.034988;0.080780;-0.006192;0.081110;-0.035318;-86.947069;0.081335;
1286;1662;-0.130673;86.028761;1.000000;0.000148;-0.000459;0.001645;0.000438;0.001733;-0.000547;78.702184;0.001772;
1051;1522;0.309529;85.373086;0.999990;0.000669;-0.003953;0.009507;-0.001940;0.009781;-0.004227;-81.960548;0.009810;
1236;482;-0.058584;0.221683;0.999999;0.000196;-0.000574;0.001582;-0.000113;0.001588;-0.000580;-87.015840;0.001607;
1321;1857;-0.055063;86.308540;0.999986;0.000815;-0.000524;0.001580;0.000062;0.001582;-0.000526;88.316999;0.001612;
1186;1302;-1.766408;78.166778;0.999697;0.004086;-0.033641;0.076955;0.005353;0.077214;-0.033899;87.235348;0.077405;
1201;1782;-0.035015;86.222477;1.000000;0.000118;-0.000520;0.001558;0.000079;0.001561;-0.000523;87.820654;0.001589;
1191;497;-0.036192;0.241823;0.999999;0.000322;-0.000627;0.001613;-0.000075;0.001616;-0.000630;-88.088875;0.001629;
1256;752;-0.685035;1.396540;0.999987;0.001134;-0.005838;0.013125;-0.003748;0.013839;-0.006552;-79.215836;0.013845;
1096;582;0.042518;0.401516;0.999999;0.000408;-0.001041;0.002281;0.000146;0.002287;-0.001047;87.494957;0.002290;
1121;1357;0.229309;81.428845;0.999894;0.003152;-0.020803;0.047194;-0.000949;0.047207;-0.020817;-89.200393;0.047317;
1131;597;0.005317;0.438595;0.999998;0.000410;-0.001171;0.002543;0.000013;0.002543;-0.001171;89.794594;0.002545;
1196;947;-2.116217;8.653726;0.999745;0.004441;-0.035243;0.081203;-0.006809;0.081600;-0.035640;-86.664903;0.081817;
1001;1547;0.364826;85.581162;0.999992;0.000969;-0.002907;0.007297;-0.002343;0.007809;-0.003419;-77.669429;0.007829;
1241;1812;-0.044647;86.264361;1.000000;0.000120;-0.000440;0.001521;0.000128;0.001529;-0.000449;86.293398;0.001572;
1246;782;-0.878517;1.857804;0.999981;0.001178;-0.008145;0.017892;-0.004534;0.018659;-0.008912;-80.399818;0.018665;
1226;487;-0.054940;0.229675;0.999999;0.000281;-0.000586;0.001599;-0.000106;0.001604;-0.000591;-87.241300;0.001622;
1201;1767;-0.038615;86.198873;1.000000;0.000103;-0.000564;0.001587;0.000077;0.001590;-0.000567;87.940783;0.001611;
1066;1307;2.122790;78.467383;0.999755;0.004633;-0.032864;0.074777;-0.007032;0.075234;-0.033321;-86.278084;0.075398;
1061;482;0.043637;0.220252;0.999999;0.000193;-0.000588;0.001591;0.000086;0.001594;-0.000592;87.734552;0.001612;
1006;1547;0.351461;85.580637;0.999992;0.000783;-0.002950;0.007327;-0.002290;0.007814;-0.003437;-77.992310;0.007833;
1071;1852;0.015563;86.327782;0.999999;0.000240;-0.000258;0.001411;-0.000103;0.001417;-0.000265;-86.476878;0.001507;
1121;582;0.015873;0.402886;0.999998;0.000380;-0.001087;0.002345;0.000050;0.002346;-0.001087;89.168216;0.002348;
1201;947;-2.295063;8.668992;0.999724;0.005928;-0.035573;0.081658;-0.007421;0.082126;-0.036041;-86.392163;0.082331;
1126;1357;0.127031;81.428409;0.999899;0.003466;-0.020776;0.047141;-0.000515;0.047145;-0.020780;-89.565247;0.047255;
1251;782;-0.920527;1.861770;0.999976;0.001288;-0.008154;0.017669;-0.004751;0.018516;-0.009000;-79.899367;0.018518;
1216;762;-0.511062;1.517512;0.999980;0.001223;-0.006441;0.014862;-0.002782;0.015219;-0.006798;-82.681893;0.015248;
1241;1817;-0.042597;86.271769;1.000000;0.000118;-0.000424;0.001512;0.000133;0.001521;-0.000433;86.099931;0.001567;
1231;487;-0.057691;0.229774;0.999999;0.000254;-0.000587;0.001596;-0.000110;0.001602;-0.000593;-87.131601;0.001620;
1041;1302;3.113784;78.024980;0.999747;0.005511;-0.035033;0.079659;-0.010355;0.080587;-0.035960;-84.882425;0.080742;
1201;1762;-0.040018;86.190774;1.000000;0.000119;-0.000579;0.001595;0.000078;0.001598;-0.000582;87.943848;0.001618;
1086;1902;0.002261;86.395304;0.999999;0.000271;-0.000044;0.001321;-0.000087;0.001326;-0.000050;-86.377950;0.001503;
1061;487;0.044856;0.228584;0.999999;0.000189;-0.000602;0.001597;0.000089;0.001601;-0.000606;87.686754;0.001617;
1121;587;0.016073;0.414027;0.999998;0.000344;-0.001113;0.002402;0.000053;0.002403;-0.001114;89.130290;0.002405;
1136;1362;-0.077163;81.631495;0.999912;0.002349;-0.019921;0.045142;0.000284;0.045143;-0.019922;89.750252;0.045247;
1171;1507;-0.175207;85.221947;0.999991;0.000666;-0.004699;0.011464;0.001008;0.011526;-0.004762;86.445532;0.011584;
1151;792;-0.141954;2.034388;0.999981;0.001520;-0.008685;0.020295;-0.000724;0.020313;-0.008703;-88.570448;0.020382;
1241;1822;-0.040508;86.279117;1.000000;0.000128;-0.000408;0.001505;0.000136;0.001515;-0.000417;85.955927;0.001565;
1136;937;-0.042824;7.822131;0.999750;0.004736;-0.031049;0.071972;-0.000264;0.071972;-0.031049;-89.853337;0.072198;
1046;1302;2.922966;78.042044;0.999702;0.005119;-0.034887;0.079415;-0.009707;0.080233;-0.035706;-85.180169;0.080394;
1126;807;0.088567;2.352289;0.999979;0.001505;-0.010150;0.023490;0.000378;0.023494;-0.010154;89.357008;0.023566;
1056;487;0.047730;0.228325;0.999999;0.000233;-0.000600;0.001597;0.000094;0.001601;-0.000604;87.556146;0.001617;
1066;1772;0.036810;86.207148;1.000000;0.000116;-0.000548;0.001570;-0.000079;0.001572;-0.000550;-87.873153;0.001596;
951;437;0.080672;0.174654;0.999999;0.000265;-0.000746;0.001539;0.000107;0.001544;-0.000751;87.326730;0.001544;
1141;1362;-0.179049;81.627129;0.999921;0.002195;-0.019941;0.045099;0.000637;0.045105;-0.019947;89.438684;0.045205;
1081;632;0.071813;0.527846;0.999998;0.000443;-0.001321;0.003158;0.000357;0.003186;-0.001349;85.466306;0.003199;
1276;1727;-0.097614;86.128322;1.000000;0.000184;-0.000564;0.001537;0.000195;0.001555;-0.000582;84.735544;0.001571;
1046;1527;0.307466;85.420687;0.999990;0.000647;-0.003742;0.008986;-0.001963;0.009282;-0.004038;-81.427707;0.009308;
1216;767;-0.541317;1.594581;0.999975;0.001126;-0.006814;0.015661;-0.002908;0.016031;-0.007184;-82.746786;0.016060;
1276;1687;-0.113761;86.065257;1.000000;0.000170;-0.000528;0.001575;0.000287;0.001613;-0.000567;82.363061;0.001637;
1186;1307;-1.695483;78.532943;0.999692;0.004070;-0.032197;0.073534;0.005169;0.073786;-0.032449;87.207533;0.073965;
1141;937;-0.196826;7.819007;0.999787;0.003940;-0.031120;0.072011;-0.000706;0.072015;-0.031125;-89.608033;0.072236;
1131;807;0.034333;2.351371;0.999980;0.001870;-0.010143;0.023461;0.000141;0.023461;-0.010143;89.759393;0.023533;
1171;527;-0.028651;0.290336;0.999999;0.000276;-0.000775;0.001730;-0.000076;0.001732;-0.000777;-88.261430;0.001735;
1066;492;0.043041;0.236361;0.999999;0.000170;-0.000617;0.001605;0.000085;0.001608;-0.000620;87.804214;0.001622;
1146;1362;-0.270660;81.621038;0.999909;0.002238;-0.019936;0.045073;0.000996;0.045088;-0.019951;89.122795;0.045188;
1131;1807;0.000921;86.263338;1.000000;0.000138;-0.000417;0.001493;-0.000004;0.001493;-0.000417;-89.878609;0.001541;
1266;707;-0.422711;0.916165;0.999984;0.001096;-0.003434;0.008346;-0.002666;0.008921;-0.004009;-77.822259;0.008936;
1081;637;0.074432;0.545291;0.999998;0.000402;-0.001378;0.003326;0.000392;0.003359;-0.001410;85.264386;0.003373;
1046;1532;0.287740;85.464516;0.999992;0.000698;-0.003518;0.008484;-0.001859;0.008765;-0.003800;-81.392366;0.008791;
1241;1827;-0.038529;86.287034;1.000000;0.000116;-0.000390;0.001502;0.000140;0.001512;-0.000400;85.791816;0.001567;
1041;1822;0.034026;86.281546;0.999999;0.000206;-0.000393;0.001492;-0.000124;0.001500;-0.000401;-86.261566;0.001554;
1136;807;-0.014346;2.353238;0.999980;0.001654;-0.010136;0.023432;-0.000093;0.023432;-0.010136;-89.840462;0.023503;
1146;937;-0.359509;7.811183;0.999775;0.004331;-0.031192;0.072102;-0.001147;0.072114;-0.031205;-89.363660;0.072332;
1206;1292;-2.661711;77.285120;0.999645;0.007252;-0.037916;0.086827;0.008009;0.087339;-0.038428;86.341616;0.087549;
1261;472;-0.069165;0.210221;0.999999;0.000205;-0.000533;0.001536;-0.000128;0.001544;-0.000541;-86.481467;0.001567;
1296;482;-0.091565;0.231160;0.999999;0.000236;-0.000512;0.001431;-0.000130;0.001439;-0.000521;-86.187744;0.001457;
1151;1362;-0.364148;81.626972;0.999886;0.002382;-0.019874;0.045082;0.001355;0.045110;-0.019903;88.805487;0.045214;
1056;377;0.014776;0.063654;1.000000;0.000071;-0.000205;0.001388;0.000138;0.001400;-0.000217;85.074984;0.001507;
1106;577;0.030882;0.390309;0.999999;0.000285;-0.001042;0.002256;0.000099;0.002259;-0.001045;88.282119;0.002262;
1216;1297;-2.921091;77.678310;0.999698;0.004376;-0.036620;0.083751;0.009207;0.084451;-0.037320;85.651122;0.084641;
1111;777;0.177046;1.751376;0.999977;0.001141;-0.007519;0.017538;0.000893;0.017570;-0.007551;87.962641;0.017628;
1251;717;-0.422763;1.000604;0.999980;0.000997;-0.003930;0.009293;-0.002642;0.009801;-0.004439;-79.108272;0.009816;
1246;1817;-0.044631;86.271039;1.000000;0.000148;-0.000427;0.001514;0.000134;0.001523;-0.000436;86.058640;0.001569;
1131;932;0.112233;7.497906;0.999684;0.004476;-0.029812;0.068871;0.000209;0.068872;-0.029812;89.878868;0.069078;
1181;1682;-0.047469;86.053236;1.000000;0.000147;-0.000924;0.002039;0.000143;0.002046;-0.000931;87.240341;0.002049;
961;1742;0.105363;86.151117;1.000000;0.000204;-0.000619;0.001405;-0.000198;0.001424;-0.000639;-84.456007;0.001427;
1266;472;-0.071908;0.211323;0.999999;0.000236;-0.000525;0.001528;-0.000130;0.001536;-0.000533;-86.388957;0.001560;
1121;1362;0.222791;81.646239;0.999892;0.003630;-0.019931;0.045314;-0.000903;0.045326;-0.019944;-89.207532;0.045435;
1266;712;-0.446440;0.965212;0.999874;0.002939;-0.003745;0.008796;-0.002821;0.009401;-0.004350;-77.890440;0.009410;
1251;747;-0.617067;1.327139;0.999974;0.001430;-0.005510;0.012586;-0.003469;0.013228;-0.006152;-79.510418;0.013239;
1121;527;0.011164;0.290430;0.999999;0.000296;-0.000808;0.001773;0.000032;0.001773;-0.000809;89.292260;0.001776;
1111;577;0.025401;0.390437;0.999999;0.000319;-0.001051;0.002268;0.000081;0.002270;-0.001053;88.597588;0.002272;
1036;402;0.029181;0.100541;1.000000;0.000074;-0.000328;0.001468;0.000148;0.001480;-0.000340;85.318472;0.001550;
1181;1287;-1.800213;77.003480;0.999635;0.005737;-0.038194;0.088371;0.005084;0.088575;-0.038398;87.703495;0.088835;
1246;1822;-0.042775;86.278636;1.000000;0.000158;-0.000411;0.001507;0.000138;0.001517;-0.000421;85.917102;0.001566;
1206;947;-2.482270;8.691139;0.999698;0.005940;-0.035784;0.081895;-0.007948;0.082430;-0.036319;-86.153338;0.082623;
1201;1757;-0.040853;86.182698;1.000000;0.000132;-0.000594;0.001606;0.000081;0.001609;-0.000597;87.906735;0.001626;
966;1742;0.103146;86.152043;1.000000;0.000230;-0.000601;0.001421;-0.000187;0.001438;-0.000618;-84.758953;0.001443;
1196;507;-0.041593;0.258823;0.999999;0.000345;-0.000656;0.001632;-0.000087;0.001635;-0.000659;-87.822271;0.001646;
1256;747;-0.644581;1.327580;0.999983;0.001285;-0.005513;0.012523;-0.003606;0.013218;-0.006207;-79.101832;0.013226;
1126;1362;0.122249;81.645309;0.999904;0.003452;-0.019913;0.045243;-0.000489;0.045246;-0.019917;-89.570006;0.045354;
1111;782;0.188148;1.838613;0.999976;0.001314;-0.007944;0.018503;0.000935;0.018536;-0.007977;87.977986;0.018596;
1116;577;0.020395;0.390558;0.999999;0.000366;-0.001059;0.002278;0.000064;0.002279;-0.001060;88.894610;0.002281;
1181;1292;-1.724454;77.404956;0.999674;0.004855;-0.036523;0.084429;0.004992;0.084634;-0.036729;87.640767;0.084880;
1126;527;0.006680;0.290516;0.999999;0.000281;-0.000811;0.001774;0.000020;0.001774;-0.000811;89.558365;0.001776;
1246;1827;-0.040515;86.286141;1.000000;0.000144;-0.000394;0.001505;0.000142;0.001515;-0.000405;85.749149;0.001569;
1041;372;0.016093;0.057509;1.000000;0.000072;-0.000194;0.001391;0.000166;0.001408;-0.000211;84.087412;0.001519;
1211;947;-2.665825;8.709577;0.999699;0.004719;-0.035949;0.082281;-0.008582;0.082901;-0.036569;-85.869924;0.083092;
971;1742;0.100711;86.152016;0.999999;0.000202;-0.000589;0.001442;-0.000177;0.001457;-0.000604;-85.046112;0.001464;
1256;717;-0.442279;1.003346;0.999980;0.001087;-0.003931;0.009283;-0.002751;0.009833;-0.004481;-78.699083;0.009846;
1116;1807;0.007035;86.263353;1.000000;0.000146;-0.000419;0.001492;-0.000023;0.001492;-0.000419;-89.303286;0.001539;
1071;517;0.046602;0.276089;0.999999;0.000220;-0.000700;0.001665;0.000104;0.001670;-0.000705;87.493254;0.001676;
1131;1362;0.023139;81.640425;0.999904;0.003284;-0.019891;0.045196;-0.000089;0.045196;-0.019891;-89.921876;0.045304;
1111;787;0.196376;1.931012;0.999974;0.001408;-0.008373;0.019508;0.000972;0.019542;-0.008406;88.005690;0.019605;
1101;577;0.035812;0.389487;0.999999;0.000349;-0.001030;0.002243;0.000118;0.002248;-0.001035;87.935098;0.002250;
1041;377;0.018166;0.064612;1.000000;0.000071;-0.000216;0.001405;0.000163;0.001422;-0.000232;84.304045;0.001525;
1231;1832;-0.033088;86.295034;1.000000;0.000180;-0.000362;0.001483;0.000140;0.001493;-0.000373;85.689760;0.001554;
1221;772;-0.606762;1.678636;0.999982;0.001306;-0.007221;0.016515;-0.003221;0.016944;-0.007651;-82.408361;0.016970;
1206;1772;-0.039441;86.206476;1.000000;0.000120;-0.000550;0.001580;0.000083;0.001583;-0.000554;87.759879;0.001607;
976;1787;0.078797;86.217555;0.999999;0.000215;-0.000463;0.001458;-0.000092;0.001462;-0.000468;-87.272595;0.001493;
1156;1362;-0.465693;81.629693;0.999867;0.002589;-0.019851;0.045110;0.001701;0.045154;-0.019895;88.501047;0.045260;
1071;522;0.047680;0.285627;0.999999;0.000230;-0.000717;0.001689;0.000111;0.001694;-0.000722;87.373194;0.001700;
1256;742;-0.606933;1.267708;0.999985;0.001231;-0.005224;0.011991;-0.003461;0.012660;-0.005894;-79.047264;0.012670;
1131;527;0.002866;0.290811;0.999999;0.000231;-0.000811;0.001773;0.000009;0.001773;-0.000811;89.803297;0.001775;
1096;577;0.041792;0.390245;0.999998;0.000364;-0.001018;0.002228;0.000135;0.002234;-0.001023;87.619235;0.002236;
1046;377;0.016953;0.064262;1.000000;0.000065;-0.000210;0.001399;0.000156;0.001414;-0.000225;84.522616;0.001520;
1236;1832;-0.034619;86.294511;1.000000;0.000167;-0.000367;0.001487;0.000142;0.001498;-0.000378;85.638053;0.001558;
1226;917;-2.499930;6.678166;0.999758;0.004552;-0.028277;0.063675;-0.009265;0.064599;-0.029202;-84.303071;0.064698;
1181;1297;-1.655299;77.791851;0.999703;0.004273;-0.034921;0.080392;0.004916;0.080601;-0.035130;87.563270;0.080822;
1206;1777;-0.038546;86.214568;1.000000;0.000126;-0.000536;0.001569;0.000084;0.001572;-0.000539;87.726038;0.001598;
1221;777;-0.642522;1.761330;0.999976;0.001186;-0.007633;0.017412;-0.003348;0.017852;-0.008073;-82.515055;0.017879;
1311;1727;-0.115539;86.128366;0.999999;0.000289;-0.000564;0.001279;0.000239;0.001309;-0.000594;82.737093;0.001311;
1251;722;-0.452632;1.047888;0.999977;0.001039;-0.004147;0.009794;-0.002792;0.010332;-0.004686;-79.083963;0.010347;
1116;1357;0.329678;81.424002;0.999890;0.003776;-0.020845;0.047270;-0.001343;0.047297;-0.020871;-88.870943;0.047406;
1071;527;0.049235;0.293653;0.999999;0.000306;-0.000733;0.001708;0.000120;0.001714;-0.000739;87.188325;0.001719;
1231;917;-2.646305;6.689943;0.999770;0.004314;-0.028237;0.063703;-0.009886;0.064754;-0.029288;-83.931718;0.064852;
1121;577;0.015317;0.391072;0.999999;0.000342;-0.001062;0.002286;0.000046;0.002286;-0.001063;89.207018;0.002288;
1051;377;0.015858;0.063853;1.000000;0.000074;-0.000207;0.001393;0.000147;0.001407;-0.000220;84.778505;0.001513;
1246;1812;-0.046881;86.263464;1.000000;0.000154;-0.000442;0.001522;0.000130;0.001530;-0.000451;86.243395;0.001573;
1176;502;-0.027530;0.249063;0.999999;0.000257;-0.000659;0.001627;-0.000061;0.001629;-0.000661;-88.469968;0.001638;
1181;1302;-1.596144;78.182485;0.999651;0.004653;-0.033418;0.076588;0.004798;0.076797;-0.033627;87.507151;0.076994;
961;1737;0.107307;86.144213;1.000000;0.000199;-0.000656;0.001387;-0.000209;0.001408;-0.000677;-84.223985;0.001408;
1206;1782;-0.037428;86.222055;1.000000;0.000114;-0.000521;0.001560;0.000085;0.001563;-0.000524;87.665782;0.001591;
1116;1362;0.312576;81.651307;0.999880;0.003143;-0.019954;0.045405;-0.001292;0.045430;-0.019979;-88.868408;0.045540;
1151;947;-0.550043;8.547003;0.999730;0.003982;-0.033984;0.078931;-0.001762;0.078958;-0.034011;-89.106236;0.079211;
1046;372;0.015027;0.057259;1.000000;0.000059;-0.000188;0.001385;0.000158;0.001401;-0.000204;84.332491;0.001513;
1216;657;-0.130135;0.607647;0.999997;0.000400;-0.001697;0.004325;-0.000877;0.004451;-0.001822;-81.878252;0.004475;
1076;772;0.415015;1.665637;0.999977;0.001150;-0.007160;0.016654;0.002092;0.016837;-0.007342;85.016896;0.016883;
1081;532;0.043772;0.300610;0.999999;0.000202;-0.000774;0.001759;0.000114;0.001764;-0.000779;87.438496;0.001768;
1226;1307;-3.026983;78.358289;0.999691;0.004300;-0.033679;0.076671;0.010182;0.077603;-0.034611;84.772150;0.077754;
1081;417;0.018502;0.119297;1.000000;0.000082;-0.000352;0.001461;0.000079;0.001464;-0.000355;87.495435;0.001528;
1091;577;0.047439;0.390075;0.999999;0.000424;-0.001006;0.002213;0.000152;0.002220;-0.001013;87.302642;0.002223;
1181;502;-0.031088;0.249739;0.999999;0.000242;-0.000656;0.001624;-0.000067;0.001626;-0.000658;-88.323890;0.001636;
1291;527;-0.108418;0.295664;0.999997;0.000551;-0.000515;0.001450;-0.000243;0.001480;-0.000544;-83.062708;0.001497;
966;1737;0.104969;86.145385;1.000000;0.000203;-0.000630;0.001408;-0.000198;0.001427;-0.000649;-84.512645;0.001429;
1231;1307;-3.210915;78.333585;0.999724;0.004852;-0.033673;0.076777;0.010928;0.077848;-0.034744;84.403379;0.077997;
1166;1342;-0.798929;80.674246;0.999882;0.003277;-0.023558;0.053443;0.002723;0.053539;-0.023654;87.977135;0.053660;
1156;947;-0.716177;8.552925;0.999752;0.005848;-0.034060;0.079059;-0.002261;0.079104;-0.034105;-88.855522;0.079354;
1071;502;0.042438;0.252065;0.999999;0.000225;-0.000654;0.001630;0.000084;0.001633;-0.000657;87.898101;0.001644;
1081;772;0.381531;1.664192;0.999977;0.001618;-0.007160;0.016653;0.001904;0.016804;-0.007311;85.456923;0.016852;
1216;662;-0.138546;0.631131;0.999997;0.000524;-0.001816;0.004626;-0.000948;0.004762;-0.001953;-81.802521;0.004788;
1096;432;0.015328;0.140809;1.000000;0.000085;-0.000404;0.001485;0.000052;0.001486;-0.000405;88.426913;0.001537;
1056;482;0.046466;0.220483;0.999999;0.000200;-0.000586;0.001591;0.000091;0.001595;-0.000590;87.601776;0.001612;
1091;582;0.047775;0.401472;0.999999;0.000358;-0.001029;0.002264;0.000163;0.002272;-0.001037;87.181150;0.002275;
1171;437;-0.015123;0.147899;1.000000;0.000102;-0.000422;0.001495;-0.000049;0.001496;-0.000423;-88.540731;0.001542;
971;1737;0.102622;86.145181;1.000000;0.000179;-0.000612;0.001433;-0.000189;0.001450;-0.000630;-84.770563;0.001455;
1251;577;-0.107167;0.379610;0.999997;0.000343;-0.000647;0.001745;-0.000324;0.001788;-0.000690;-82.412867;0.001803;
1251;727;-0.483045;1.101969;0.999980;0.000991;-0.004395;0.010309;-0.002924;0.010869;-0.004956;-79.155859;0.010884;
1161;947;-0.895268;8.558389;0.999705;0.007542;-0.034183;0.079208;-0.002795;0.079277;-0.034251;-88.589012;0.079521;
1166;1347;-0.759989;80.917085;0.999896;0.002722;-0.022594;0.051354;0.002706;0.051453;-0.022693;87.906889;0.051572;
1061;1302;2.396610;78.105843;0.999671;0.005194;-0.034446;0.078432;-0.007770;0.078964;-0.034978;-86.080405;0.079135;
1136;517;-0.000919;0.272389;0.999999;0.000244;-0.000757;0.001703;-0.000004;0.001703;-0.000757;-89.915521;0.001707;
1196;672;-0.115893;0.681085;0.999997;0.000488;-0.002028;0.005102;-0.000808;0.005193;-0.002119;-83.612502;0.005222;
1091;587;0.048776;0.411864;0.999998;0.000355;-0.001051;0.002324;0.000170;0.002332;-0.001060;87.121126;0.002335;
1221;387;-0.019934;0.077868;1.000000;0.000074;-0.000249;0.001419;-0.000145;0.001432;-0.000262;-85.055683;0.001525;
1021;477;0.065074;0.217132;0.999999;0.000269;-0.000554;0.001564;0.000128;0.001572;-0.000561;86.546350;0.001593;
1036;392;0.025211;0.086027;1.000000;0.000072;-0.000287;0.001445;0.000157;0.001459;-0.000301;84.845966;0.001540;
956;532;0.122203;0.301122;0.999998;0.000410;-0.000546;0.001267;0.000258;0.001303;-0.000582;82.062230;0.001305;
971;1872;0.033514;86.345951;0.999999;0.000213;-0.000406;0.001572;-0.000196;0.001592;-0.000425;-84.408863;0.001648;
1111;587;0.027446;0.413868;0.999999;0.000362;-0.001099;0.002382;0.000092;0.002384;-0.001102;88.484603;0.002387;
1066;1302;2.203246;78.125500;0.999684;0.005332;-0.034258;0.078198;-0.007213;0.078658;-0.034718;-86.345018;0.078838;
1166;787;-0.259455;1.933652;0.999977;0.001467;-0.008240;0.019298;-0.001332;0.019362;-0.008304;-87.238109;0.019427;
1136;522;-0.000942;0.281014;0.999999;0.000202;-0.000782;0.001744;-0.000002;0.001744;-0.000782;-89.959984;0.001747;
1231;342;-0.004977;0.017333;1.000000;0.000064;-0.000057;0.001339;-0.000185;0.001363;-0.000081;-82.574162;0.001529;
1196;677;-0.123115;0.707596;0.999997;0.000484;-0.002172;0.005466;-0.000867;0.005563;-0.002269;-83.603181;0.005595;
1126;577;0.010058;0.391248;0.999998;0.000359;-0.001063;0.002290;0.000028;0.002290;-0.001063;89.516195;0.002292;
1026;477;0.061625;0.216275;0.999999;0.000222;-0.000558;0.001569;0.000124;0.001577;-0.000565;86.667878;0.001598;
1036;397;0.027022;0.093311;1.000000;0.000078;-0.000308;0.001456;0.000154;0.001469;-0.000321;85.062329;0.001545;
961;532;0.119615;0.301955;0.999998;0.000426;-0.000537;0.001323;0.000255;0.001357;-0.000571;82.321511;0.001363;
1261;737;-0.609893;1.207553;0.999860;0.003459;-0.005021;0.011343;-0.003450;0.012041;-0.005719;-78.570271;0.012046;
1231;1542;-0.292299;85.530730;0.999990;0.000786;-0.003234;0.007810;0.001901;0.008128;-0.003552;80.500682;0.008150;
971;1877;0.029743;86.352662;0.999999;0.000252;-0.000380;0.001575;-0.000221;0.001600;-0.000404;-83.639839;0.001664;
1116;587;0.021893;0.413628;0.999998;0.000419;-0.001108;0.002394;0.000074;0.002395;-0.001110;88.792546;0.002398;
1231;347;-0.006970;0.023682;1.000000;0.000061;-0.000080;0.001350;-0.000184;0.001373;-0.000103;-82.777394;0.001530;
1071;1302;2.041907;78.138828;0.999673;0.005372;-0.033967;0.077777;-0.006643;0.078171;-0.034361;-86.609730;0.078361;
1271;487;-0.080941;0.234579;0.999999;0.000256;-0.000540;0.001523;-0.000151;0.001534;-0.000551;-85.833375;0.001554;
1126;582;0.010297;0.403113;0.999998;0.000322;-0.001088;0.002349;0.000030;0.002349;-0.001088;89.498320;0.002352;
1311;472;-0.093911;0.220539;0.999999;0.000231;-0.000525;0.001383;-0.000112;0.001389;-0.000531;-86.654418;0.001402;
1066;647;0.102094;0.575767;0.999997;0.000494;-0.001508;0.003794;0.000622;0.003866;-0.001580;83.398748;0.003887;
1256;1537;-0.398090;85.486618;0.999992;0.000578;-0.003469;0.008350;0.002522;0.008866;-0.003985;78.442634;0.008881;
1201;432;-0.026559;0.142165;1.000000;0.000066;-0.000411;0.001497;-0.000088;0.001501;-0.000415;-87.372099;0.001550;
971;1882;0.025822;86.360900;0.999999;0.000235;-0.000352;0.001578;-0.000238;0.001607;-0.000381;-83.081444;0.001679;
1181;687;-0.105057;0.765198;0.999998;0.000393;-0.002432;0.006088;-0.000735;0.006151;-0.002495;-85.102349;0.006188;
1051;762;0.529607;1.526157;0.999982;0.001186;-0.006454;0.014941;0.002861;0.015317;-0.006831;82.512557;0.015347;
1226;357;-0.010099;0.036636;1.000000;0.000061;-0.000124;0.001361;-0.000170;0.001380;-0.000143;-83.553435;0.001518;
1071;1307;1.969292;78.476907;0.999731;0.005328;-0.032580;0.074407;-0.006458;0.074796;-0.032968;-86.558081;0.074970;
1156;632;-0.028297;0.534493;0.999998;0.000403;-0.001373;0.003155;-0.000154;0.003160;-0.001378;-88.050799;0.003169;
1281;492;-0.088528;0.243704;0.999999;0.000390;-0.000530;0.001497;-0.000160;0.001509;-0.000542;-85.525692;0.001529;
1316;472;-0.096032;0.222693;0.999999;0.000254;-0.000540;0.001362;-0.000111;0.001368;-0.000547;-86.659205;0.001377;
1126;587;0.010288;0.413893;0.999998;0.000312;-0.001114;0.002406;0.000033;0.002407;-0.001114;89.461851;0.002409;
1261;1537;-0.414364;85.486134;0.999993;0.000731;-0.003448;0.008338;0.002619;0.008893;-0.004003;78.019285;0.008908;
1061;672;0.145632;0.684948;0.999997;0.000471;-0.002078;0.005227;0.000969;0.005353;-0.002204;82.567606;0.005381;
1211;407;-0.023503;0.106128;1.000000;0.000084;-0.000323;0.001452;-0.000116;0.001460;-0.000330;-86.271881;0.001531;
1141;1892;-0.000586;86.381916;0.999999;0.000187;-0.000085;0.001307;0.000016;0.001307;-0.000085;89.329641;0.001462;
1071;642;0.091509;0.559807;0.999998;0.000538;-0.001430;0.003546;0.000521;0.003599;-0.001484;84.089954;0.003618;
1151;797;-0.150445;2.131486;0.999975;0.001424;-0.009134;0.021261;-0.000749;0.021280;-0.009152;-88.589825;0.021349;
1056;1302;2.571953;78.081152;0.999632;0.003975;-0.034562;0.078783;-0.008435;0.079407;-0.035186;-85.767003;0.079578;
1181;427;-0.017743;0.133792;1.000000;0.000070;-0.000386;0.001475;-0.000064;0.001477;-0.000388;-88.019182;0.001532;
1286;492;-0.091220;0.244469;0.999999;0.000261;-0.000517;0.001476;-0.000160;0.001489;-0.000530;-85.446529;0.001509;
1161;627;-0.033971;0.519816;0.999998;0.000408;-0.001319;0.003029;-0.000177;0.003037;-0.001326;-87.673028;0.003045;
1266;1537;-0.433534;85.486358;0.999992;0.000832;-0.003434;0.008306;0.002710;0.008901;-0.004029;77.609282;0.008915;
1051;482;0.049049;0.221191;0.999999;0.000233;-0.000582;0.001591;0.000099;0.001596;-0.000587;87.390085;0.001614;
1121;802;0.128194;2.239302;0.999980;0.001514;-0.009686;0.022409;0.000608;0.022420;-0.009697;88.915289;0.022488;
1186;432;-0.020509;0.141176;1.000000;0.000061;-0.000405;0.001490;-0.000069;0.001493;-0.000407;-87.927885;0.001543;
1041;557;0.083505;0.345735;0.999997;0.000392;-0.000728;0.001788;0.000218;0.001807;-0.000747;85.093725;0.001816;
996;1887;0.016758;86.371354;0.999999;0.000178;-0.000180;0.001464;-0.000256;0.001503;-0.000219;-81.359405;0.001624;
1076;642;0.083984;0.561760;0.999997;0.000409;-0.001436;0.003534;0.000475;0.003579;-0.001481;84.585573;0.003597;
1191;432;-0.022483;0.141527;1.000000;0.000064;-0.000407;0.001493;-0.000075;0.001496;-0.000410;-87.731332;0.001546;
1106;572;0.030135;0.379121;0.999999;0.000286;-0.001017;0.002197;0.000093;0.002200;-0.001020;88.350696;0.002202;
1291;492;-0.093042;0.244767;0.999999;0.000230;-0.000501;0.001449;-0.000156;0.001461;-0.000514;-85.452488;0.001483;
1161;632;-0.034947;0.534059;0.999998;0.000346;-0.001359;0.003150;-0.000189;0.003158;-0.001367;-87.597874;0.003168;
1131;1292;0.071790;77.479849;0.999553;0.005964;-0.034995;0.081951;-0.000274;0.081951;-0.034996;-89.865744;0.082242;
1236;1547;-0.287221;85.569713;0.999987;0.000839;-0.003025;0.007409;0.001906;0.007746;-0.003362;79.966188;0.007768;
1051;487;0.050573;0.228640;0.999999;0.000249;-0.000595;0.001597;0.000102;0.001602;-0.000600;87.352431;0.001619;
1046;762;0.560373;1.524288;0.999984;0.001331;-0.006486;0.014948;0.003032;0.015369;-0.006907;82.100955;0.015395;
1191;347;-0.004008;0.023051;1.000000;0.000070;-0.000072;0.001317;-0.000104;0.001325;-0.000079;-85.726525;0.001486;
1216;612;-0.094289;0.462456;0.999998;0.000437;-0.001038;0.002565;-0.000410;0.002611;-0.001084;-83.583631;0.002624;
1046;1897;0.006063;86.386891;0.999999;0.000190;-0.000076;0.001337;-0.000166;0.001356;-0.000095;-83.405490;0.001514;
1196;432;-0.024669;0.141881;1.000000;0.000069;-0.000409;0.001495;-0.000082;0.001498;-0.000413;-87.542512;0.001548;
1146;1852;-0.003025;86.328115;1.000000;0.000156;-0.000244;0.001392;0.000021;0.001392;-0.000244;89.247506;0.001487;
1111;572;0.025272;0.379435;0.999999;0.000288;-0.001026;0.002207;0.000077;0.002209;-0.001028;88.636331;0.002211;
1101;627;0.045494;0.518287;0.999998;0.000354;-0.001310;0.003022;0.000208;0.003032;-0.001320;87.259840;0.003041;
1231;492;-0.059431;0.238422;0.999999;0.000242;-0.000599;0.001601;-0.000113;0.001607;-0.000605;-87.062100;0.001623;
1136;1292;-0.106847;77.485791;0.999631;0.004861;-0.035011;0.082036;0.000219;0.082037;-0.035012;89.892983;0.082329;
1156;792;-0.188766;2.036189;0.999983;0.001408;-0.008695;0.020283;-0.000939;0.020314;-0.008725;-88.146586;0.020381;
1236;487;-0.060378;0.230215;0.999999;0.000223;-0.000587;0.001594;-0.000114;0.001600;-0.000593;-87.004832;0.001618;
1206;1512;-0.319038;85.265201;0.999988;0.000742;-0.004517;0.010875;0.001888;0.011103;-0.004746;83.109599;0.011142;
1236;342;-0.005308;0.017056;1.000000;0.000075;-0.000059;0.001346;-0.000197;0.001373;-0.000086;-82.183847;0.001539;
1091;427;0.016519;0.133739;1.000000;0.000106;-0.000386;0.001477;0.000060;0.001479;-0.000388;88.145214;0.001534;
1216;617;-0.095874;0.473747;0.999998;0.000455;-0.001082;0.002695;-0.000448;0.002748;-0.001134;-83.328035;0.002761;
1226;1302;-3.153441;77.999107;0.999692;0.005293;-0.035324;0.080736;0.010362;0.081654;-0.036242;84.937804;0.081826;
1116;572;0.020037;0.379460;0.999999;0.000307;-0.001033;0.002214;0.000062;0.002215;-0.001034;88.911527;0.002217;
1101;632;0.046511;0.534052;0.999998;0.000385;-0.001354;0.003158;0.000223;0.003169;-0.001365;87.181097;0.003179;
1046;482;0.052193;0.222198;0.999999;0.000229;-0.000582;0.001590;0.000107;0.001595;-0.000588;87.193697;0.001613;
1071;1612;0.079218;85.887270;0.999999;0.000233;-0.001298;0.003135;-0.000433;0.003176;-0.001340;-84.468972;0.003189;
1011;1772;0.067366;86.201576;1.000000;0.000168;-0.000536;0.001539;-0.000125;0.001546;-0.000544;-86.564591;0.001569;
1056;757;0.470059;1.451145;0.999981;0.001059;-0.006081;0.014163;0.002573;0.014485;-0.006403;82.870103;0.014518;
1236;347;-0.007278;0.023762;1.000000;0.000060;-0.000082;0.001357;-0.000195;0.001383;-0.000108;-82.416885;0.001539;
1126;532;0.007024;0.300349;0.999999;0.000316;-0.000836;0.001814;0.000021;0.001814;-0.000836;89.544981;0.001816;
1016;1537;0.371297;85.499427;0.999990;0.000753;-0.003349;0.008185;-0.002367;0.008652;-0.003816;-78.842651;0.008672;
1231;352;-0.008833;0.030228;1.000000;0.000062;-0.000103;0.001359;-0.000182;0.001381;-0.000125;-83.009241;0.001528;
1216;622;-0.099034;0.488305;0.999998;0.000431;-0.001129;0.002830;-0.000488;0.002889;-0.001188;-83.081156;0.002904;
1211;1292;-2.863644;77.255789;0.999645;0.005603;-0.038122;0.087373;0.008717;0.087976;-0.038725;86.045394;0.088185;
1101;572;0.035161;0.378727;0.999998;0.000368;-0.001006;0.002185;0.000111;0.002189;-0.001010;88.018187;0.002191;
1081;627;0.070824;0.511359;0.999998;0.000454;-0.001270;0.003014;0.000330;0.003039;-0.001296;85.626100;0.003050;
1046;487;0.053713;0.229564;0.999999;0.000255;-0.000595;0.001595;0.000108;0.001601;-0.000601;87.176191;0.001617;
1076;1612;0.073435;85.885305;1.000000;0.000193;-0.001308;0.003128;-0.000395;0.003163;-0.001342;-84.954910;0.003175;
1241;782;-0.836633;1.854319;0.999979;0.001588;-0.008125;0.018025;-0.004313;0.018718;-0.008818;-80.871381;0.018729;
1256;1532;-0.425273;85.445534;0.999991;0.000686;-0.003721;0.008829;0.002646;0.009364;-0.004256;78.569221;0.009377;
1236;352;-0.009272;0.030339;1.000000;0.000061;-0.000106;0.001367;-0.000192;0.001391;-0.000131;-82.676266;0.001537;
1131;532;0.002750;0.299386;0.999999;0.000265;-0.000836;0.001813;0.000009;0.001813;-0.000836;89.805527;0.001815;
1211;412;-0.024945;0.113266;1.000000;0.000079;-0.000343;0.001463;-0.000113;0.001470;-0.000350;-86.445565;0.001536;
1246;1757;-0.067791;86.178112;0.999999;0.000183;-0.000580;0.001583;0.000130;0.001591;-0.000588;86.585349;0.001609;
1216;1292;-3.052625;77.245974;0.999592;0.005095;-0.038348;0.087949;0.009405;0.088646;-0.039044;85.764401;0.088855;
1071;677;0.131780;0.709152;0.999997;0.000435;-0.002192;0.005470;0.000882;0.005570;-0.002293;83.514726;0.005599;
1121;572;0.014992;0.378891;0.999999;0.000283;-0.001036;0.002218;0.000045;0.002219;-0.001037;89.203175;0.002221;
1106;582;0.031628;0.401939;0.999999;0.000269;-0.001066;0.002312;0.000107;0.002315;-0.001069;88.189398;0.002317;
1046;492;0.055827;0.238108;0.999999;0.000339;-0.000609;0.001601;0.000110;0.001607;-0.000614;87.162875;0.001621;
1261;1532;-0.440993;85.443539;0.999991;0.000808;-0.003705;0.008819;0.002748;0.009396;-0.004281;78.154046;0.009408;
1081;1612;0.067564;85.883110;0.999999;0.000193;-0.001316;0.003127;-0.000356;0.003155;-0.001344;-85.446545;0.003166;
1121;807;0.135723;2.356988;0.999976;0.001571;-0.010175;0.023515;0.000631;0.023526;-0.010187;88.926652;0.023597;
1136;527;-0.001175;0.291002;0.999999;0.000176;-0.000809;0.001771;-0.000003;0.001771;-0.000809;-89.928311;0.001773;
1211;417;-0.026413;0.120690;1.000000;0.000074;-0.000364;0.001472;-0.000109;0.001478;-0.000370;-86.604160;0.001538;
1036;407;0.031134;0.107994;1.000000;0.000087;-0.000348;0.001479;0.000143;0.001490;-0.000359;85.553699;0.001556;
1241;1832;-0.036256;86.294154;1.000000;0.000140;-0.000372;0.001492;0.000144;0.001503;-0.000383;85.599332;0.001563;
1176;1307;-1.365413;78.545545;0.999650;0.004948;-0.031824;0.072877;0.004107;0.073038;-0.031985;87.756965;0.073225;
1266;1532;-0.461189;85.442472;0.999990;0.000898;-0.003707;0.008786;0.002846;0.009403;-0.004325;77.751695;0.009414;
1036;567;0.092838;0.364005;0.999998;0.000536;-0.000732;0.001823;0.000254;0.001848;-0.000757;84.377377;0.001858;
1096;572;0.040275;0.377595;0.999998;0.000360;-0.000995;0.002171;0.000127;0.002176;-0.001000;87.709120;0.002179;
1126;572;0.009472;0.378589;0.999999;0.000345;-0.001037;0.002223;0.000028;0.002224;-0.001037;89.502057;0.002225;
961;1732;0.109333;86.137706;1.000000;0.000227;-0.000664;0.001382;-0.000199;0.001402;-0.000683;-84.498515;0.001402;
1161;792;-0.228115;2.035943;0.999981;0.001328;-0.008699;0.020273;-0.001152;0.020318;-0.008744;-87.726790;0.020384;
1221;392;-0.021856;0.084998;1.000000;0.000073;-0.000270;0.001429;-0.000142;0.001441;-0.000282;-85.260566;0.001527;
1241;482;-0.061698;0.222811;0.999999;0.000225;-0.000572;0.001577;-0.000118;0.001583;-0.000579;-86.876899;0.001602;
1041;407;0.029630;0.107462;1.000000;0.000072;-0.000342;0.001474;0.000138;0.001484;-0.000353;85.666641;0.001551;
1136;1367;-0.069713;81.838718;0.999924;0.002613;-0.019071;0.043237;0.000253;0.043238;-0.019072;89.767046;0.043338;
1051;1302;2.739543;78.053335;0.999640;0.003649;-0.034708;0.079105;-0.009073;0.079824;-0.035427;-85.470689;0.079992;
1251;1532;-0.410312;85.446206;0.999990;0.000938;-0.003720;0.008824;0.002540;0.009319;-0.004215;78.975671;0.009333;
1036;572;0.094252;0.372573;0.999998;0.000541;-0.000747;0.001866;0.000268;0.001893;-0.000775;84.199429;0.001903;
1256;737;-0.571136;1.213031;0.999985;0.001111;-0.004972;0.011422;-0.003304;0.012063;-0.005613;-79.023824;0.012073;
1221;1707;-0.070992;86.098676;1.000000;0.000147;-0.000695;0.001706;0.000164;0.001717;-0.000706;86.121903;0.001726;
1086;577;0.052184;0.389856;0.999998;0.000396;-0.000992;0.002196;0.000167;0.002204;-0.001001;87.008395;0.002207;
966;1732;0.106848;86.138217;1.000000;0.000160;-0.000636;0.001405;-0.000193;0.001423;-0.000654;-84.653735;0.001424;
1086;572;0.050775;0.378451;0.999998;0.000452;-0.000971;0.002141;0.000158;0.002149;-0.000979;87.097198;0.002152;
1051;492;0.052669;0.237700;0.999999;0.000309;-0.000609;0.001603;0.000103;0.001608;-0.000614;87.336671;0.001622;
1146;942;-0.364364;8.167993;0.999774;0.004333;-0.032560;0.075403;-0.001202;0.075416;-0.032573;-89.362454;0.075649;
1246;482;-0.065421;0.223971;0.999999;0.000254;-0.000566;0.001572;-0.000124;0.001579;-0.000574;-86.698254;0.001598;
1076;1302;1.870640;78.153754;0.999613;0.006325;-0.033725;0.077418;-0.006077;0.077750;-0.034056;-86.879645;0.077948;
1201;667;-0.118782;0.655822;0.999998;0.000534;-0.001913;0.004805;-0.000816;0.004902;-0.002011;-83.175085;0.004929;
1071;417;0.022039;0.119866;1.000000;0.000080;-0.000359;0.001468;0.000093;0.001473;-0.000364;87.090787;0.001535;
1086;627;0.064434;0.512808;0.999998;0.000311;-0.001281;0.003013;0.000299;0.003034;-0.001301;86.042124;0.003044;
971;1732;0.105031;86.137642;1.000000;0.000165;-0.000617;0.001431;-0.000188;0.001448;-0.000634;-84.790495;0.001451;
1116;802;0.172297;2.239263;0.999973;0.001677;-0.009715;0.022417;0.000844;0.022439;-0.009737;88.495842;0.022504;
1121;1807;0.004928;86.263540;1.000000;0.000137;-0.000416;0.001492;-0.000016;0.001492;-0.000416;-89.507046;0.001540;
1091;572;0.045974;0.377911;0.999998;0.000397;-0.000983;0.002157;0.000143;0.002163;-0.000990;87.394356;0.002166;
1056;492;0.049055;0.237116;0.999999;0.000217;-0.000613;0.001603;0.000096;0.001607;-0.000617;87.530223;0.001621;
1136;942;-0.037625;8.165272;0.999749;0.005316;-0.032427;0.075282;-0.000251;0.075283;-0.032428;-89.866698;0.075523;
1301;477;-0.091245;0.224391;0.999999;0.000254;-0.000512;0.001412;-0.000121;0.001419;-0.000520;-86.410315;0.001436;
1156;797;-0.197414;2.133217;0.999978;0.001320;-0.009148;0.021250;-0.000970;0.021281;-0.009179;-88.174303;0.021348;
1076;1307;1.803817;78.490256;0.999681;0.006565;-0.032360;0.074091;-0.005898;0.074417;-0.032685;-86.838449;0.074600;
1061;652;0.114880;0.592496;0.999998;0.000456;-0.001606;0.004074;0.000728;0.004166;-0.001698;82.813836;0.004189;
1116;562;0.018827;0.358162;0.999999;0.000330;-0.000984;0.002105;0.000056;0.002106;-0.000985;88.964171;0.002107;
1076;417;0.020276;0.119527;1.000000;0.000095;-0.000355;0.001464;0.000086;0.001468;-0.000359;87.296134;0.001531;
976;1732;0.101882;86.137762;1.000000;0.000205;-0.000526;0.001449;-0.000196;0.001468;-0.000545;-84.393358;0.001484;
1111;567;0.024431;0.369075;0.999999;0.000321;-0.001002;0.002148;0.000074;0.002150;-0.001003;88.656793;0.002151;
1196;767;-0.405515;1.590565;0.999977;0.001319;-0.006716;0.015706;-0.002215;0.015922;-0.006932;-84.412969;0.015967;
1226;497;-0.058232;0.246622;0.999999;0.000195;-0.000611;0.001607;-0.000113;0.001613;-0.000616;-87.100123;0.001628;
1126;1797;0.003115;86.248021;1.000000;0.000137;-0.000454;0.001509;-0.000009;0.001509;-0.000454;-89.727032;0.001549;
1141;942;-0.200955;8.174282;0.999791;0.004944;-0.032502;0.075325;-0.000732;0.075330;-0.032507;-89.610992;0.075565;
1306;477;-0.093874;0.224975;0.999999;0.000258;-0.000517;0.001389;-0.000119;0.001396;-0.000524;-86.429869;0.001410;
1161;797;-0.241776;2.131300;0.999975;0.001880;-0.009155;0.021241;-0.001188;0.021287;-0.009201;-87.765993;0.021352;
1171;1302;-1.267510;78.194991;0.999648;0.005190;-0.033112;0.076060;0.003719;0.076187;-0.033238;88.051057;0.076393;
1121;562;0.013810;0.358676;0.999999;0.000338;-0.000987;0.002110;0.000041;0.002111;-0.000988;89.241979;0.002112;
976;1737;0.099968;86.144509;1.000000;0.000181;-0.000524;0.001444;-0.000189;0.001462;-0.000542;-84.565976;0.001478;
1116;567;0.019302;0.369012;0.999999;0.000317;-0.001008;0.002155;0.000059;0.002157;-0.001009;88.925393;0.002158;
1176;437;-0.017436;0.148313;1.000000;0.000084;-0.000423;0.001496;-0.000055;0.001498;-0.000424;-88.365964;0.001544;
1196;772;-0.428903;1.672234;0.999978;0.001385;-0.007103;0.016578;-0.002299;0.016799;-0.007324;-84.505835;0.016845;
1111;702;0.068691;0.863308;0.999997;0.000427;-0.002885;0.007312;0.000435;0.007331;-0.002904;87.559543;0.007383;
1231;497;-0.060940;0.246817;0.999999;0.000238;-0.000611;0.001603;-0.000117;0.001609;-0.000617;-86.978542;0.001624;
1141;947;-0.221910;8.551635;0.999743;0.006971;-0.033897;0.078777;-0.000764;0.078783;-0.033902;-89.611713;0.079037;
1181;1792;-0.022417;86.239147;1.000000;0.000103;-0.000478;0.001531;0.000059;0.001532;-0.000480;88.323060;0.001568;
1006;472;0.071097;0.211047;0.999999;0.000224;-0.000532;0.001530;0.000132;0.001539;-0.000540;86.361269;0.001561;
1226;782;-0.717093;1.846821;0.999974;0.001107;-0.008074;0.018262;-0.003716;0.018776;-0.008589;-82.121185;0.018799;
1126;562;0.008637;0.358242;0.999999;0.000302;-0.000988;0.002116;0.000026;0.002116;-0.000988;89.515760;0.002118;
1121;567;0.014390;0.367773;0.999999;0.000326;-0.001011;0.002160;0.000044;0.002161;-0.001011;89.207324;0.002162;
1246;342;-0.005844;0.017235;1.000000;0.000052;-0.000064;0.001362;-0.000218;0.001394;-0.000096;-81.491402;0.001558;
1126;1297;0.227856;77.865331;0.999628;0.004783;-0.033742;0.078607;-0.000739;0.078612;-0.033747;-89.623293;0.078874;
1196;777;-0.451287;1.754130;0.999973;0.001580;-0.007500;0.017464;-0.002396;0.017692;-0.007727;-84.567755;0.017739;
1236;492;-0.062671;0.238819;0.999999;0.000267;-0.000598;0.001599;-0.000118;0.001605;-0.000605;-86.923144;0.001622;
1076;602;0.068091;0.444686;0.999997;0.000403;-0.001071;0.002466;0.000262;0.002485;-0.001090;85.786839;0.002491;
1101;1607;0.042848;85.860851;1.000000;0.000211;-0.001392;0.003289;-0.000236;0.003301;-0.001404;-87.127216;0.003313;
1146;947;-0.381540;8.560428;0.999748;0.005122;-0.033959;0.078831;-0.001264;0.078845;-0.033973;-89.358131;0.079096;
1226;492;-0.056398;0.237871;0.999999;0.000230;-0.000598;0.001605;-0.000109;0.001610;-0.000604;-87.173660;0.001627;
1231;782;-0.756198;1.847920;0.999978;0.001509;-0.008093;0.018180;-0.003890;0.018744;-0.008656;-81.752765;0.018762;
1091;1797;0.019103;86.247741;1.000000;0.000120;-0.000459;0.001513;-0.000053;0.001514;-0.000461;-88.475461;0.001553;
1131;562;0.004187;0.357433;0.999999;0.000245;-0.000990;0.002122;0.000011;0.002122;-0.000990;89.790595;0.002123;
1246;347;-0.008086;0.024112;1.000000;0.000061;-0.000088;0.001373;-0.000216;0.001404;-0.000119;-81.773619;0.001558;
1106;567;0.029291;0.369028;0.999999;0.000352;-0.000993;0.002139;0.000088;0.002141;-0.000996;88.393564;0.002143;
1216;772;-0.571132;1.676500;0.999978;0.001354;-0.007204;0.016531;-0.003030;0.016912;-0.007585;-82.838143;0.016942;
1236;497;-0.064411;0.246801;0.999999;0.000255;-0.000609;0.001601;-0.000123;0.001608;-0.000616;-86.814251;0.001623;
1186;1282;-2.082445;76.569699;0.999641;0.005292;-0.040215;0.093115;0.005814;0.093368;-0.040468;87.507683;0.093643;
1226;922;-2.602627;6.989635;0.999739;0.004381;-0.029484;0.066564;-0.009533;0.067501;-0.030421;-84.386298;0.067611;
1101;1612;0.042001;85.876783;1.000000;0.000188;-0.001342;0.003133;-0.000213;0.003143;-0.001352;-87.278268;0.003153;
1251;607;-0.122173;0.434955;0.999997;0.000384;-0.000828;0.002279;-0.000542;0.002370;-0.000920;-80.388039;0.002390;
1236;782;-0.796513;1.851212;0.999977;0.001923;-0.008103;0.018113;-0.004097;0.018739;-0.008728;-81.322297;0.018753;
1246;352;-0.010382;0.030747;1.000000;0.000071;-0.000112;0.001383;-0.000213;0.001412;-0.000142;-82.062084;0.001555;
1041;482;0.055306;0.222889;0.999999;0.000202;-0.000582;0.001587;0.000110;0.001592;-0.000587;87.107247;0.001610;
1106;562;0.028938;0.357600;0.999999;0.000397;-0.000970;0.002088;0.000083;0.002090;-0.000973;88.446055;0.002092;
1126;567;0.009135;0.367085;0.999999;0.000352;-0.001011;0.002166;0.000028;0.002166;-0.001012;89.494826;0.002168;
1231;922;-2.764609;7.000001;0.999772;0.004685;-0.029423;0.066565;-0.010181;0.067633;-0.030491;-84.011598;0.067742;
1146;1692;-0.012746;86.073428;1.000000;0.000106;-0.000932;0.002003;0.000033;0.002003;-0.000932;89.363557;0.002005;
1216;777;-0.606332;1.759127;0.999973;0.001528;-0.007614;0.017429;-0.003149;0.017819;-0.008004;-82.941954;0.017850;
1066;497;0.044184;0.244068;0.999999;0.000185;-0.000632;0.001619;0.000087;0.001623;-0.000635;87.797398;0.001635;
1191;1282;-2.276241;76.552130;0.999605;0.005333;-0.040534;0.093787;0.006435;0.094094;-0.040842;87.263585;0.094367;
1256;607;-0.124914;0.432268;0.999997;0.000398;-0.000802;0.002253;-0.000564;0.002354;-0.000903;-79.869997;0.002375;
1026;1622;0.123882;85.935774;0.999999;0.000264;-0.001025;0.002777;-0.000658;0.002888;-0.001136;-80.456268;0.002909;
1246;357;-0.012642;0.037266;1.000000;0.000068;-0.000137;0.001391;-0.000208;0.001419;-0.000165;-82.371065;0.001552;
1041;487;0.056687;0.230314;0.999999;0.000197;-0.000595;0.001592;0.000111;0.001598;-0.000600;87.089028;0.001614;
1136;562;-0.000565;0.357676;0.999999;0.000248;-0.000990;0.002125;-0.000004;0.002125;-0.000990;-89.928401;0.002127;
1101;777;0.249235;1.752821;0.999979;0.001114;-0.007549;0.017536;0.001243;0.017598;-0.007611;87.169294;0.017651;
1131;567;0.003845;0.365910;0.999999;0.000299;-0.001015;0.002172;0.000012;0.002172;-0.001015;89.775422;0.002174;
1201;767;-0.440435;1.591988;0.999976;0.001454;-0.006749;0.015693;-0.002387;0.015945;-0.007000;-83.994945;0.015984;
1196;1282;-2.476388;76.527901;0.999563;0.006157;-0.040854;0.094532;0.007066;0.094900;-0.041222;87.020648;0.095172;
1226;502;-0.058709;0.254007;0.999999;0.000224;-0.000622;0.001617;-0.000117;0.001624;-0.000628;-87.019171;0.001637;
1171;1667;-0.040788;86.021250;1.000000;0.000130;-0.001023;0.002239;0.000130;0.002244;-0.001028;87.728639;0.002247;
1091;927;1.259097;7.196401;0.999761;0.004267;-0.029148;0.066866;0.004168;0.067047;-0.029329;87.519190;0.067221;
1026;1627;0.120622;85.947741;0.999999;0.000225;-0.000958;0.002600;-0.000595;0.002697;-0.001055;-80.750470;0.002718;
1031;357;0.011546;0.037094;1.000000;0.000079;-0.000133;0.001379;0.000194;0.001404;-0.000157;82.816632;0.001538;
1041;492;0.058594;0.238902;0.999999;0.000234;-0.000608;0.001598;0.000113;0.001604;-0.000613;87.073680;0.001618;
991;572;0.121469;0.369060;0.999997;0.000413;-0.000507;0.001615;0.000356;0.001674;-0.000565;80.733014;0.001703;
1136;567;-0.000930;0.366924;0.999998;0.000280;-0.001016;0.002175;-0.000003;0.002175;-0.001016;-89.947585;0.002177;
1106;777;0.213515;1.754940;0.999980;0.001025;-0.007539;0.017540;0.001068;0.017585;-0.007584;87.565918;0.017640;
1131;572;0.004522;0.379180;0.999998;0.000417;-0.001040;0.002229;0.000012;0.002229;-0.001040;89.781843;0.002231;
1256;727;-0.503899;1.101051;0.999980;0.001049;-0.004403;0.010279;-0.003050;0.010888;-0.005011;-78.719319;0.010899;
1181;1307;-1.527833;78.547670;0.999678;0.005012;-0.031987;0.073181;0.004621;0.073383;-0.032190;87.489072;0.073567;
1226;507;-0.060735;0.261698;0.999999;0.000251;-0.000632;0.001625;-0.000122;0.001631;-0.000639;-86.919103;0.001644;
1166;942;-1.034703;8.203183;0.999700;0.004928;-0.032860;0.076018;-0.003210;0.076112;-0.032954;-88.312597;0.076340;
1186;1792;-0.025057;86.239122;1.000000;0.000118;-0.000480;0.001532;0.000065;0.001534;-0.000482;88.158428;0.001569;
1026;1632;0.117326;85.960353;0.999999;0.000214;-0.000899;0.002437;-0.000540;0.002523;-0.000984;-81.033982;0.002543;
1261;727;-0.527375;1.101830;0.999984;0.001092;-0.004415;0.010214;-0.003176;0.010874;-0.005075;-78.264664;0.010882;
1036;357;0.010960;0.036881;1.000000;0.000076;-0.000129;0.001372;0.000184;0.001394;-0.000152;83.117159;0.001530;
1136;572;-0.000543;0.378912;0.999998;0.000392;-0.001042;0.002231;-0.000004;0.002231;-0.001042;-89.938511;0.002233;
1276;492;-0.085713;0.242992;0.999999;0.000316;-0.000539;0.001512;-0.000160;0.001524;-0.000552;-85.571940;0.001543;
1001;582;0.120890;0.387904;0.999997;0.000425;-0.000566;0.001705;0.000388;0.001769;-0.000631;80.569822;0.001794;
1141;797;-0.063173;2.130099;0.999978;0.001316;-0.009156;0.021311;-0.000313;0.021314;-0.009159;-89.411538;0.021384;
1131;577;0.004869;0.391141;0.999998;0.000384;-0.001067;0.002295;0.000011;0.002295;-0.001067;89.810665;0.002297;
1231;502;-0.062487;0.253957;0.999999;0.000253;-0.000622;0.001614;-0.000122;0.001621;-0.000628;-86.878347;0.001634;
1176;1292;-1.534666;77.419470;0.999601;0.005566;-0.036287;0.084020;0.004429;0.084183;-0.036450;87.894475;0.084434;
1171;942;-1.202889;8.215136;0.999720;0.003944;-0.032977;0.076277;-0.003741;0.076405;-0.033105;-88.041356;0.076631;
1256;732;-0.537828;1.156699;0.999982;0.001056;-0.004676;0.010830;-0.003170;0.011453;-0.005299;-78.879626;0.011464;
1236;362;-0.013459;0.043671;1.000000;0.000062;-0.000153;0.001380;-0.000185;0.001402;-0.000175;-83.199434;0.001527;
1206;767;-0.473408;1.591000;0.999977;0.001371;-0.006774;0.015681;-0.002563;0.015969;-0.007063;-83.570163;0.016005;
1081;1692;0.047564;86.073913;1.000000;0.000137;-0.000858;0.001923;-0.000140;0.001930;-0.000865;-87.130757;0.001933;
1241;1892;-0.009836;86.380185;0.999999;0.000179;-0.000108;0.001383;0.000207;0.001412;-0.000136;82.249826;0.001557;
1101;567;0.034667;0.368445;0.999998;0.000406;-0.000983;0.002128;0.000105;0.002132;-0.000986;88.074166;0.002134;
1101;562;0.033589;0.357617;0.999998;0.000365;-0.000960;0.002076;0.000099;0.002079;-0.000963;88.125128;0.002081;
1006;582;0.118445;0.386800;0.999998;0.000445;-0.000592;0.001735;0.000374;0.001794;-0.000650;81.079910;0.001816;
1146;512;-0.008163;0.264376;0.999999;0.000248;-0.000724;0.001669;-0.000022;0.001669;-0.000725;-89.466761;0.001674;
1236;502;-0.066126;0.254663;0.999999;0.000245;-0.000619;0.001612;-0.000129;0.001619;-0.000626;-86.706877;0.001633;
1176;1297;-1.477052;77.806789;0.999618;0.004925;-0.034730;0.080056;0.004354;0.080221;-0.034894;87.830632;0.080447;
1176;942;-1.365218;8.221170;0.999735;0.004256;-0.033093;0.076538;-0.004300;0.076707;-0.033261;-87.757291;0.076932;
1261;732;-0.562423;1.157713;0.999986;0.001075;-0.004704;0.010745;-0.003308;0.011424;-0.005383;-78.410416;0.011430;
1241;362;-0.014071;0.043769;1.000000;0.000069;-0.000157;0.001388;-0.000195;0.001412;-0.000181;-82.929917;0.001536;
1111;792;0.204623;2.023955;0.999970;0.001402;-0.008820;0.020494;0.001005;0.020528;-0.008855;88.038036;0.020592;
1096;1672;0.037788;86.032330;1.000000;0.000134;-0.000993;0.002168;-0.000127;0.002173;-0.000998;-87.707043;0.002175;
1101;1602;0.043827;85.845054;1.000000;0.000207;-0.001446;0.003468;-0.000265;0.003482;-0.001461;-86.924865;0.003497;
1081;582;0.057631;0.399771;0.999998;0.000300;-0.000998;0.002224;0.000191;0.002235;-0.001009;86.610715;0.002239;
1081;607;0.064323;0.458384;0.999997;0.000470;-0.001121;0.002566;0.000254;0.002583;-0.001138;86.073043;0.002590;
1086;592;0.055517;0.423390;0.999998;0.000361;-0.001063;0.002373;0.000197;0.002385;-0.001074;86.729361;0.002389;
1151;512;-0.011820;0.264568;0.999999;0.000249;-0.000722;0.001667;-0.000031;0.001667;-0.000722;-89.261481;0.001672;
1176;1302;-1.425575;78.186268;0.999612;0.004696;-0.033250;0.076281;0.004259;0.076446;-0.033415;87.776420;0.076647;
1226;512;-0.062978;0.270387;0.999999;0.000205;-0.000642;0.001624;-0.000127;0.001631;-0.000649;-86.801876;0.001643;
1216;922;-2.304474;6.954752;0.999717;0.004119;-0.029291;0.066212;-0.008300;0.066928;-0.030007;-85.069691;0.067047;
1141;802;-0.063559;2.236131;0.999981;0.001442;-0.009631;0.022333;-0.000315;0.022336;-0.009634;-89.434735;0.022406;
1246;362;-0.014861;0.043910;1.000000;0.000059;-0.000162;0.001396;-0.000204;0.001422;-0.000188;-82.660764;0.001545;
1096;777;0.284791;1.752307;0.999978;0.001343;-0.007539;0.017532;0.001418;0.017612;-0.007619;86.773329;0.017666;
961;1727;0.111184;86.130618;1.000000;0.000217;-0.000670;0.001373;-0.000203;0.001393;-0.000690;-84.378047;0.001393;
1081;587;0.058700;0.410411;0.999998;0.000398;-0.001021;0.002284;0.000200;0.002296;-0.001033;86.552391;0.002299;
1086;607;0.058803;0.458765;0.999997;0.000405;-0.001137;0.002583;0.000233;0.002597;-0.001152;86.425700;0.002603;
1091;592;0.049751;0.424337;0.999998;0.000400;-0.001076;0.002393;0.000179;0.002402;-0.001085;87.046894;0.002406;
1156;512;-0.015424;0.264621;0.999999;0.000238;-0.000720;0.001664;-0.000038;0.001665;-0.000720;-89.082889;0.001670;
1086;582;0.052876;0.400396;0.999998;0.000315;-0.001015;0.002245;0.000178;0.002254;-0.001025;86.889682;0.002257;
1201;1282;-2.684013;76.490266;0.999500;0.005155;-0.041239;0.095305;0.007732;0.095742;-0.041675;86.769197;0.096009;
1251;482;-0.067839;0.225009;0.999999;0.000231;-0.000562;0.001564;-0.000127;0.001571;-0.000570;-86.586511;0.001591;
1141;807;-0.065888;2.353188;0.999979;0.001281;-0.010118;0.023413;-0.000337;0.023417;-0.010121;-89.423639;0.023488;
1116;932;0.557193;7.513197;0.999698;0.003910;-0.030001;0.069056;0.001640;0.069083;-0.030028;89.051973;0.069279;
1211;422;-0.027830;0.128336;1.000000;0.000081;-0.000383;0.001481;-0.000106;0.001487;-0.000389;-86.758275;0.001543;
1211;767;-0.507766;1.589892;0.999973;0.001258;-0.006789;0.015670;-0.002734;0.015998;-0.007117;-83.157627;0.016030;
966;1727;0.109269;86.130637;1.000000;0.000169;-0.000640;0.001397;-0.000199;0.001417;-0.000659;-84.463514;0.001418;
1081;592;0.060380;0.422466;0.999998;0.000384;-0.001045;0.002353;0.000213;0.002367;-0.001058;86.426587;0.002371;
1091;607;0.053352;0.459724;0.999997;0.000446;-0.001148;0.002600;0.000210;0.002612;-0.001160;86.802916;0.002618;
1121;557;0.013805;0.347829;0.999998;0.000339;-0.000963;0.002056;0.000039;0.002057;-0.000964;89.268547;0.002058;
1061;492;0.045952;0.236505;0.999999;0.000188;-0.000616;0.001604;0.000091;0.001608;-0.000619;87.660903;0.001622;
1181;1282;-1.881459;76.593590;0.999650;0.005799;-0.039911;0.092473;0.005247;0.092681;-0.040118;87.733844;0.092959;
1036;577;0.096745;0.382766;0.999998;0.000546;-0.000764;0.001917;0.000284;0.001947;-0.000794;84.010466;0.001958;
971;1727;0.107217;86.130568;1.000000;0.000193;-0.000621;0.001425;-0.000197;0.001444;-0.000640;-84.551573;0.001447;
1046;407;0.028150;0.106948;1.000000;0.000093;-0.000336;0.001469;0.000133;0.001479;-0.000346;85.804223;0.001547;
1231;362;-0.012681;0.043555;1.000000;0.000058;-0.000149;0.001372;-0.000176;0.001392;-0.000169;-83.475998;0.001519;
1091;777;0.322735;1.750724;0.999977;0.001251;-0.007545;0.017531;0.001607;0.017634;-0.007647;86.348717;0.017685;
1141;1367;-0.167284;81.834008;0.999927;0.002284;-0.019090;0.043214;0.000580;0.043220;-0.019095;89.466959;0.043317;
1251;1537;-0.384433;85.487712;0.999992;0.000864;-0.003475;0.008346;0.002425;0.008824;-0.003953;78.846571;0.008840;
1231;1837;-0.031230;86.302843;1.000000;0.000193;-0.000343;0.001477;0.000144;0.001488;-0.000355;85.519171;0.001555;
1136;947;-0.046103;8.536454;0.999674;0.005586;-0.033823;0.078746;-0.000245;0.078746;-0.033823;-89.875129;0.079006;
1206;1767;-0.041218;86.198560;1.000000;0.000116;-0.000565;0.001588;0.000083;0.001591;-0.000568;87.785240;0.001613;
1226;517;-0.064705;0.277772;0.999999;0.000208;-0.000654;0.001635;-0.000134;0.001643;-0.000662;-86.649405;0.001653;
1241;342;-0.005520;0.017001;1.000000;0.000061;-0.000060;0.001354;-0.000208;0.001384;-0.000090;-81.809893;0.001549;
1186;682;-0.109385;0.736848;0.999997;0.000579;-0.002291;0.005738;-0.000764;0.005810;-0.002363;-84.614603;0.005844;
1126;557;0.008507;0.347825;0.999999;0.000273;-0.000963;0.002060;0.000024;0.002060;-0.000963;89.542333;0.002061;
956;1727;0.113164;86.130490;1.000000;0.000254;-0.000714;0.001353;-0.000209;0.001374;-0.000735;-84.293631;0.001375;
1241;787;-0.884798;1.942572;0.999975;0.001242;-0.008566;0.018984;-0.004491;0.019698;-0.009280;-80.970452;0.019709;
1061;417;0.025562;0.120473;1.000000;0.000097;-0.000366;0.001476;0.000107;0.001482;-0.000372;86.697113;0.001542;
1146;1367;-0.258223;81.836338;0.999918;0.002555;-0.019087;0.043197;0.000916;0.043210;-0.019100;89.157149;0.043307;
1226;927;-2.713447;7.321213;0.999699;0.004324;-0.030773;0.069602;-0.009775;0.070545;-0.031716;-84.489546;0.070664;
1241;347;-0.007667;0.023900;1.000000;0.000055;-0.000084;0.001365;-0.000206;0.001394;-0.000113;-82.076995;0.001549;
1236;1837;-0.032195;86.302003;1.000000;0.000249;-0.000349;0.001482;0.000146;0.001493;-0.000361;85.456937;0.001558;
1176;1502;-0.211607;85.163351;0.999992;0.000937;-0.005004;0.012164;0.001210;0.012248;-0.005089;85.989275;0.012307;
956;1732;0.111661;86.137231;1.000000;0.000216;-0.000703;0.001364;-0.000207;0.001385;-0.000724;-84.338240;0.001385;
1246;787;-0.926461;1.942036;0.999973;0.001387;-0.008585;0.018862;-0.004714;0.019649;-0.009372;-80.520346;0.019656;
1036;482;0.058259;0.223708;0.999999;0.000180;-0.000580;0.001583;0.000115;0.001589;-0.000586;86.972647;0.001608;
1211;1767;-0.044319;86.197939;1.000000;0.000161;-0.000566;0.001589;0.000089;0.001592;-0.000570;87.640344;0.001614;
1131;557;0.003597;0.347831;0.999999;0.000266;-0.000964;0.002063;0.000010;0.002064;-0.000964;89.811063;0.002065;
1251;342;-0.006228;0.017271;1.000000;0.000047;-0.000067;0.001370;-0.000229;0.001406;-0.000103;-81.168172;0.001567;
1181;692;-0.112800;0.796160;0.999997;0.000417;-0.002601;0.006528;-0.000794;0.006597;-0.002669;-85.067624;0.006637;
1231;927;-2.873039;7.350321;0.999686;0.005319;-0.030738;0.069629;-0.010449;0.070705;-0.031814;-84.119187;0.070823;
1131;1367;0.028761;81.845360;0.999918;0.003084;-0.019048;0.043277;-0.000094;0.043277;-0.019048;-89.913439;0.043380;
1241;352;-0.009797;0.030506;1.000000;0.000064;-0.000108;0.001375;-0.000203;0.001402;-0.000136;-82.357497;0.001546;
1251;787;-0.970443;1.944793;0.999960;0.001965;-0.008593;0.018649;-0.004935;0.019515;-0.009460;-80.041531;0.019518;
956;1737;0.109806;86.143641;0.999999;0.000188;-0.000692;0.001368;-0.000223;0.001392;-0.000716;-83.900376;0.001392;
1181;1502;-0.237074;85.160407;0.999991;0.000916;-0.005015;0.012164;0.001354;0.012270;-0.005121;85.519391;0.012326;
1246;1832;-0.038220;86.293874;1.000000;0.000136;-0.000377;0.001496;0.000147;0.001508;-0.000388;85.546758;0.001566;
1036;487;0.059775;0.230941;0.999999;0.000181;-0.000593;0.001589;0.000117;0.001595;-0.000599;86.934648;0.001612;
1211;1772;-0.042672;86.205834;1.000000;0.000152;-0.000552;0.001581;0.000088;0.001585;-0.000556;87.635401;0.001608;
1136;557;-0.000869;0.347718;0.999999;0.000268;-0.000964;0.002065;-0.000005;0.002065;-0.000964;-89.900243;0.002067;
1251;347;-0.008587;0.024311;1.000000;0.000056;-0.000092;0.001382;-0.000226;0.001416;-0.000126;-81.469374;0.001567;
1181;697;-0.121586;0.830426;0.999997;0.000604;-0.002785;0.006988;-0.000844;0.007060;-0.002858;-85.098375;0.007103;
1121;932;0.413014;7.506747;0.999696;0.004910;-0.029969;0.068961;0.001136;0.068974;-0.029982;89.342172;0.069169;
1231;357;-0.010692;0.036767;1.000000;0.000054;-0.000126;0.001367;-0.000179;0.001389;-0.000147;-83.250287;0.001525;
1151;1367;-0.355001;81.850476;0.999896;0.002314;-0.019035;0.043214;0.001263;0.043239;-0.019061;88.838283;0.043340;
1146;797;-0.107604;2.128966;0.999978;0.001324;-0.009140;0.021284;-0.000527;0.021293;-0.009149;-89.007320;0.021363;
976;1727;0.104314;86.130505;0.999999;0.000195;-0.000528;0.001446;-0.000208;0.001468;-0.000550;-84.052574;0.001483;
1251;352;-0.010887;0.031017;1.000000;0.000065;-0.000117;0.001392;-0.000223;0.001424;-0.000149;-81.777886;0.001565;
1186;1502;-0.262648;85.159989;0.999991;0.000898;-0.005026;0.012162;0.001500;0.012292;-0.005156;85.050141;0.012345;
1111;557;0.023260;0.347392;0.999999;0.000304;-0.000955;0.002047;0.000067;0.002049;-0.000957;88.723136;0.002050;
1211;1777;-0.041371;86.214015;1.000000;0.000145;-0.000538;0.001570;0.000088;0.001574;-0.000541;87.601153;0.001599;
1036;492;0.061266;0.239084;0.999999;0.000207;-0.000605;0.001595;0.000119;0.001601;-0.000612;86.915306;0.001616;
1066;1622;0.081241;85.917658;1.000000;0.000248;-0.001177;0.002826;-0.000395;0.002865;-0.001215;-84.414582;0.002876;
1126;932;0.260794;7.502296;0.999684;0.005056;-0.029885;0.068892;0.000652;0.068897;-0.029890;89.621576;0.069097;
1236;357;-0.011424;0.036905;1.000000;0.000062;-0.000130;0.001375;-0.000189;0.001398;-0.000153;-82.950267;0.001534;
1211;607;-0.087895;0.451213;0.999997;0.000454;-0.001024;0.002484;-0.000357;0.002520;-0.001060;-84.245083;0.002531;
1126;1367;0.119526;81.850086;0.999900;0.003003;-0.019070;0.043315;-0.000468;0.043318;-0.019074;-89.570125;0.043421;
1146;802;-0.111162;2.233921;0.999980;0.001279;-0.009616;0.022312;-0.000545;0.022321;-0.009625;-89.022559;0.022391;
1251;357;-0.013288;0.037561;1.000000;0.000057;-0.000142;0.001400;-0.000218;0.001430;-0.000173;-82.109047;0.001562;
1116;557;0.018554;0.347403;0.999999;0.000370;-0.000961;0.002053;0.000053;0.002053;-0.000962;88.994024;0.002055;
1211;1782;-0.040389;86.221823;1.000000;0.000139;-0.000523;0.001561;0.000090;0.001565;-0.000527;87.540099;0.001593;
1096;1597;0.051233;85.830661;0.999999;0.000222;-0.001501;0.003671;-0.000339;0.003693;-0.001523;-86.263329;0.003712;
1226;522;-0.066208;0.286728;0.999999;0.000253;-0.000666;0.001648;-0.000144;0.001657;-0.000675;-86.453708;0.001666;
1066;1627;0.080215;85.931003;1.000000;0.000174;-0.001129;0.002705;-0.000365;0.002739;-0.001164;-84.610022;0.002749;
1241;357;-0.011956;0.037035;1.000000;0.000072;-0.000133;0.001383;-0.000199;0.001409;-0.000159;-82.656360;0.001543;
1041;1527;0.324196;85.420142;0.999990;0.000778;-0.003763;0.009015;-0.002068;0.009341;-0.004089;-81.032266;0.009365;
1181;942;-1.535945;8.242813;0.999728;0.004523;-0.033234;0.076812;-0.004887;0.077029;-0.033450;-87.461967;0.077250;
1256;722;-0.472060;1.049533;0.999979;0.001137;-0.004146;0.009780;-0.002914;0.010366;-0.004732;-78.644155;0.010379;
1121;1367;0.217473;81.850091;0.999893;0.003180;-0.019089;0.043374;-0.000854;0.043386;-0.019101;-89.217228;0.043489;
1216;607;-0.092437;0.450281;0.999997;0.000405;-0.001001;0.002460;-0.000381;0.002502;-0.001042;-83.799832;0.002513;
1251;362;-0.015728;0.044305;1.000000;0.000069;-0.000167;0.001405;-0.000213;0.001433;-0.000196;-82.413264;0.001554;
1106;557;0.028123;0.347725;0.999998;0.000336;-0.000947;0.002039;0.000080;0.002041;-0.000949;88.466066;0.002043;
1096;1602;0.050496;85.846506;0.999999;0.000291;-0.001440;0.003476;-0.000305;0.003495;-0.001459;-86.466119;0.003511;
1256;352;-0.011494;0.031289;1.000000;0.000061;-0.000123;0.001403;-0.000232;0.001438;-0.000158;-81.530116;0.001577;
1086;1797;0.021523;86.247556;1.000000;0.000118;-0.000462;0.001515;-0.000059;0.001517;-0.000464;-88.289801;0.001555;
1066;1632;0.078722;85.943858;1.000000;0.000183;-0.001089;0.002599;-0.000340;0.002631;-0.001120;-84.776369;0.002640;
1261;722;-0.491548;1.050028;0.999982;0.001112;-0.004153;0.009741;-0.003032;0.010374;-0.004786;-78.210250;0.010385;
1221;917;-2.353019;6.666637;0.999761;0.004001;-0.028197;0.063552;-0.008649;0.064360;-0.029006;-84.661663;0.064465;
1041;1532;0.304404;85.464228;0.999993;0.000745;-0.003541;0.008518;-0.001958;0.008828;-0.003851;-81.004480;0.008852;
971;472;0.088775;0.217643;0.999999;0.000255;-0.000629;0.001441;0.000060;0.001442;-0.000630;88.341658;0.001446;
1166;1352;-0.733013;81.151022;0.999880;0.002557;-0.021650;0.049275;0.002647;0.049374;-0.021748;87.865992;0.049490;
1241;367;-0.016244;0.051098;1.000000;0.000063;-0.000181;0.001392;-0.000191;0.001415;-0.000203;-83.175830;0.001530;
1216;647;-0.117851;0.567164;0.999996;0.000449;-0.001489;0.003781;-0.000746;0.003884;-0.001592;-82.098364;0.003905;
1141;557;-0.005732;0.347541;0.999999;0.000253;-0.000962;0.002065;-0.000020;0.002065;-0.000962;-89.619497;0.002067;
1096;1607;0.049049;85.862320;0.999999;0.000284;-0.001385;0.003293;-0.000272;0.003309;-0.001401;-86.678384;0.003322;
1256;357;-0.013877;0.037948;1.000000;0.000079;-0.000149;0.001411;-0.000227;0.001444;-0.000182;-81.887600;0.001573;
1221;922;-2.449906;6.971776;0.999711;0.004600;-0.029409;0.066430;-0.008893;0.067249;-0.030227;-84.743498;0.067363;
1146;807;-0.115831;2.352423;0.999978;0.001295;-0.010104;0.023395;-0.000581;0.023405;-0.010114;-89.006231;0.023477;
1086;1802;0.020730;86.254718;1.000000;0.000129;-0.000444;0.001506;-0.000061;0.001508;-0.000446;-88.217671;0.001550;
1101;1622;0.040407;85.907965;1.000000;0.000151;-0.001260;0.002899;-0.000187;0.002907;-0.001268;-87.430283;0.002915;
1056;1507;0.349942;85.220849;0.999989;0.000719;-0.004752;0.011290;-0.002129;0.011568;-0.005030;-82.566806;0.011600;
1246;367;-0.017289;0.051314;1.000000;0.000069;-0.000186;0.001400;-0.000200;0.001425;-0.000210;-82.923558;0.001539;
1161;512;-0.019226;0.264999;0.999999;0.000232;-0.000716;0.001662;-0.000046;0.001663;-0.000717;-88.889049;0.001668;
1171;1342;-0.916929;80.666979;0.999866;0.002951;-0.023612;0.053541;0.003164;0.053671;-0.023742;87.655796;0.053790;
1221;1292;-3.243169;77.224507;0.999618;0.005133;-0.038566;0.088531;0.010054;0.089322;-0.039357;85.504728;0.089532;
1141;562;-0.005713;0.357586;0.999999;0.000299;-0.000988;0.002128;-0.000019;0.002128;-0.000989;-89.654541;0.002129;
1256;362;-0.016499;0.044764;1.000000;0.000098;-0.000175;0.001416;-0.000222;0.001446;-0.000206;-82.220441;0.001565;
1101;1597;0.044508;85.829319;0.999999;0.000205;-0.001506;0.003660;-0.000296;0.003677;-0.001523;-86.733215;0.003695;
1091;1802;0.018372;86.255131;1.000000;0.000112;-0.000442;0.001504;-0.000054;0.001506;-0.000443;-88.406398;0.001548;
1096;927;1.121437;7.190038;0.999755;0.005446;-0.029054;0.066638;0.003660;0.066778;-0.029194;87.812950;0.066953;
1171;787;-0.301821;1.931322;0.999976;0.001665;-0.008228;0.019289;-0.001548;0.019376;-0.008315;-86.789782;0.019440;
1056;1512;0.329287;85.281000;0.999990;0.000722;-0.004473;0.010654;-0.002015;0.010918;-0.004737;-82.539678;0.010950;
1176;1812;-0.017183;86.269769;0.999999;0.000188;-0.000401;0.001492;0.000057;0.001494;-0.000402;88.290193;0.001546;
1251;367;-0.018374;0.051622;1.000000;0.000076;-0.000192;0.001409;-0.000209;0.001436;-0.000219;-82.702200;0.001547;
1171;1347;-0.870007;80.912065;0.999890;0.002776;-0.022641;0.051452;0.003129;0.051584;-0.022773;87.586330;0.051702;
1221;1297;-3.104220;77.653423;0.999699;0.004303;-0.036834;0.084352;0.009844;0.085146;-0.037629;85.386209;0.085338;
1166;512;-0.022266;0.265677;0.999999;0.000220;-0.000711;0.001659;-0.000055;0.001660;-0.000712;-88.679424;0.001666;
1141;567;-0.006390;0.367787;0.999998;0.000341;-0.001015;0.002176;-0.000019;0.002176;-0.001015;-89.662771;0.002178;
1256;367;-0.019166;0.052047;1.000000;0.000083;-0.000201;0.001420;-0.000216;0.001449;-0.000230;-82.541902;0.001557;
1106;1597;0.037690;85.827428;0.999999;0.000216;-0.001509;0.003653;-0.000252;0.003665;-0.001522;-87.215944;0.003683;
1186;942;-1.706210;8.256451;0.999714;0.004327;-0.033412;0.077109;-0.005468;0.077379;-0.033682;-87.174375;0.077595;
1166;792;-0.271464;2.034207;0.999977;0.001514;-0.008676;0.020261;-0.001369;0.020325;-0.008740;-87.298318;0.020392;
1101;1672;0.032792;86.032008;1.000000;0.000110;-0.001007;0.002182;-0.000111;0.002186;-0.001011;-88.016849;0.002188;
1036;1527;0.344557;85.420096;0.999989;0.001075;-0.003784;0.009055;-0.002174;0.009413;-0.004142;-80.644143;0.009435;
1171;1352;-0.833753;81.153288;0.999884;0.002973;-0.021699;0.049357;0.003036;0.049486;-0.021829;87.557944;0.049600;
1101;557;0.032769;0.347508;0.999998;0.000341;-0.000936;0.002029;0.000096;0.002032;-0.000939;88.153360;0.002034;
956;1722;0.115894;86.124836;1.000000;0.000239;-0.000710;0.001348;-0.000193;0.001366;-0.000728;-84.690770;0.001367;
1246;372;-0.019863;0.058395;1.000000;0.000079;-0.000209;0.001413;-0.000196;0.001436;-0.000233;-83.210174;0.001542;
1071;1847;0.016992;86.319691;1.000000;0.000207;-0.000278;0.001425;-0.000100;0.001431;-0.000284;-86.662427;0.001515;
1241;487;-0.063279;0.231239;0.999999;0.000211;-0.000583;0.001590;-0.000120;0.001596;-0.000590;-86.842465;0.001614;
1066;417;0.023738;0.120161;1.000000;0.000080;-0.000363;0.001472;0.000100;0.001478;-0.000369;86.887327;0.001538;
1121;1292;0.420540;77.460766;0.999596;0.005103;-0.035194;0.081977;-0.001280;0.081991;-0.035208;-89.374407;0.082263;
1151;952;-0.575200;8.944740;0.999718;0.004764;-0.035433;0.082708;-0.001834;0.082737;-0.035461;-89.110631;0.083017;
1166;797;-0.285570;2.132548;0.999972;0.002029;-0.009129;0.021233;-0.001407;0.021299;-0.009194;-87.351682;0.021365;
1106;1672;0.027901;86.031652;1.000000;0.000130;-0.001018;0.002196;-0.000094;0.002198;-0.001021;-88.323826;0.002200;
1116;1367;0.302789;81.856568;0.999882;0.002662;-0.019109;0.043455;-0.001232;0.043479;-0.019133;-88.872416;0.043583;
1096;562;0.038383;0.357634;0.999998;0.000333;-0.000949;0.002063;0.000114;0.002067;-0.000954;87.832393;0.002070;
961;1722;0.113700;86.123803;1.000000;0.000180;-0.000665;0.001370;-0.000193;0.001388;-0.000684;-84.626855;0.001389;
1251;372;-0.020808;0.058857;1.000000;0.000071;-0.000217;0.001422;-0.000204;0.001447;-0.000242;-83.011860;0.001550;
1026;482;0.063442;0.224232;0.999999;0.000222;-0.000569;0.001576;0.000128;0.001584;-0.000577;86.590521;0.001603;
1006;1767;0.071748;86.193509;1.000000;0.000197;-0.000538;0.001538;-0.000129;0.001546;-0.000546;-86.453514;0.001568;
1036;387;0.023316;0.078860;1.000000;0.000077;-0.000266;0.001435;0.000162;0.001450;-0.000281;84.607143;0.001538;
1101;1277;1.285510;76.175999;0.999408;0.006739;-0.040111;0.094728;-0.004005;0.094847;-0.040230;-88.300124;0.095210;
1156;952;-0.744971;8.953433;0.999723;0.005241;-0.035506;0.082834;-0.002332;0.082880;-0.035552;-88.871354;0.083158;
1116;1677;0.016878;86.042714;1.000000;0.000142;-0.001011;0.002163;-0.000058;0.002164;-0.001012;-88.952195;0.002166;
1126;812;0.090357;2.475450;0.999976;0.001801;-0.010646;0.024630;0.000389;0.024634;-0.010650;89.368250;0.024709;
1191;682;-0.120528;0.736193;0.999997;0.000474;-0.002312;0.005780;-0.000845;0.005868;-0.002400;-84.104590;0.005900;
1136;1372;-0.061485;82.045914;0.999946;0.002082;-0.018235;0.041437;0.000214;0.041438;-0.018236;89.794605;0.041537;
966;1722;0.111667;86.123700;1.000000;0.000187;-0.000636;0.001396;-0.000195;0.001415;-0.000655;-84.575109;0.001416;
1136;552;-0.001073;0.336973;0.999999;0.000237;-0.000937;0.002001;-0.000005;0.002001;-0.000937;-89.894572;0.002002;
1256;372;-0.021851;0.059245;1.000000;0.000069;-0.000226;0.001433;-0.000211;0.001459;-0.000253;-82.878090;0.001559;
1026;487;0.065073;0.231295;0.999999;0.000222;-0.000581;0.001581;0.000131;0.001589;-0.000589;86.538118;0.001606;
1026;342;0.005660;0.017171;1.000000;0.000056;-0.000064;0.001362;0.000214;0.001393;-0.000095;81.656638;0.001557;
1006;1772;0.069822;86.200994;1.000000;0.000191;-0.000529;0.001531;-0.000126;0.001539;-0.000536;-86.520561;0.001562;
1161;952;-0.937632;8.958770;0.999703;0.006243;-0.035637;0.082977;-0.002871;0.083046;-0.035706;-88.614178;0.083317;
1106;1277;1.072173;76.187686;0.999567;0.005906;-0.039914;0.094519;-0.003380;0.094604;-0.039999;-88.560459;0.094979;
951;1722;0.117519;86.125047;1.000000;0.000277;-0.000778;0.001329;-0.000194;0.001347;-0.000795;-84.771117;0.001354;
1131;812;0.036679;2.474210;0.999977;0.001952;-0.010632;0.024588;0.000139;0.024589;-0.010632;89.773422;0.024664;
1021;342;0.005997;0.017320;1.000000;0.000052;-0.000066;0.001371;0.000225;0.001405;-0.000100;81.305948;0.001568;
1141;1372;-0.157376;82.043084;0.999941;0.002352;-0.018263;0.041452;0.000528;0.041457;-0.018268;89.493053;0.041554;
1131;1812;0.000882;86.270654;1.000000;0.000123;-0.000399;0.001481;-0.000004;0.001481;-0.000399;-89.893217;0.001533;
1141;552;-0.005665;0.336652;0.999999;0.000229;-0.000935;0.002001;-0.000019;0.002001;-0.000935;-89.619474;0.002002;
1026;347;0.007756;0.023980;1.000000;0.000059;-0.000088;0.001371;0.000210;0.001400;-0.000117;81.979754;0.001554;
1291;532;-0.110927;0.304048;0.999997;0.000463;-0.000513;0.001451;-0.000256;0.001484;-0.000545;-82.682655;0.001501;
1026;492;0.067201;0.238678;0.999999;0.000222;-0.000592;0.001587;0.000134;0.001595;-0.000601;86.496617;0.001612;
1006;1777;0.068398;86.208580;1.000000;0.000214;-0.000520;0.001526;-0.000123;0.001533;-0.000527;-86.574503;0.001558;
1111;562;0.023925;0.357726;0.999999;0.000334;-0.000979;0.002097;0.000070;0.002099;-0.000980;88.702816;0.002100;
1131;937;0.109544;7.813358;0.999711;0.005216;-0.031068;0.071975;0.000190;0.071976;-0.031068;89.894450;0.072200;
1111;1277;0.871242;76.201045;0.999623;0.004400;-0.039785;0.094273;-0.002754;0.094330;-0.039841;-88.823448;0.094708;
1136;812;-0.015416;2.474654;0.999979;0.001705;-0.010623;0.024554;-0.000108;0.024554;-0.010623;-89.823769;0.024628;
1021;347;0.008289;0.024149;1.000000;0.000055;-0.000090;0.001380;0.000221;0.001412;-0.000122;81.645006;0.001565;
1036;1532;0.322089;85.462277;0.999990;0.000918;-0.003563;0.008562;-0.002060;0.008902;-0.003903;-80.616902;0.008925;
1261;717;-0.460464;1.005359;0.999979;0.001215;-0.003938;0.009250;-0.002849;0.009839;-0.004527;-78.315809;0.009850;
1146;1372;-0.255140;82.052141;0.999933;0.002643;-0.018280;0.041462;0.000850;0.041474;-0.018292;89.185126;0.041570;
1256;342;-0.006524;0.017380;1.000000;0.000051;-0.000071;0.001381;-0.000240;0.001420;-0.000109;-80.847601;0.001580;
1146;552;-0.010479;0.335732;0.999999;0.000269;-0.000933;0.001999;-0.000033;0.001999;-0.000933;-89.356958;0.002001;
1206;1762;-0.042786;86.190209;1.000000;0.000107;-0.000579;0.001595;0.000084;0.001599;-0.000582;87.786991;0.001618;
1291;537;-0.112652;0.309830;0.999997;0.000409;-0.000512;0.001453;-0.000267;0.001489;-0.000548;-82.387339;0.001506;
951;1727;0.115170;86.131310;1.000000;0.000208;-0.000777;0.001337;-0.000218;0.001359;-0.000799;-84.179147;0.001366;
1001;1767;0.074409;86.193239;1.000000;0.000158;-0.000529;0.001526;-0.000130;0.001535;-0.000537;-86.406486;0.001557;
1226;1297;-3.297066;77.623722;0.999693;0.004876;-0.037007;0.084884;0.010571;0.085794;-0.037917;85.079784;0.085986;
1106;552;0.027543;0.336016;0.999999;0.000272;-0.000923;0.001985;0.000077;0.001987;-0.000925;88.485997;0.001988;
1056;1517;0.308202;85.328717;0.999991;0.000754;-0.004208;0.010051;-0.001912;0.010303;-0.004460;-82.492449;0.010334;
1061;677;0.153733;0.710345;0.999997;0.000502;-0.002226;0.005566;0.001033;0.005700;-0.002361;82.572277;0.005728;
1131;1372;0.027619;82.048220;0.999936;0.002644;-0.018209;0.041439;-0.000121;0.041440;-0.018209;-89.883701;0.041541;
1111;797;0.212889;2.126391;0.999961;0.001381;-0.009271;0.021427;0.001039;0.021462;-0.009307;88.063553;0.021525;
1256;347;-0.009019;0.024560;1.000000;0.000051;-0.000097;0.001393;-0.000237;0.001429;-0.000134;-81.193073;0.001579;
1146;557;-0.010744;0.346853;0.999999;0.000300;-0.000960;0.002064;-0.000034;0.002064;-0.000960;-89.356567;0.002066;
951;1732;0.113445;86.137046;0.999999;0.000184;-0.000760;0.001349;-0.000219;0.001371;-0.000782;-84.144976;0.001376;
1211;1762;-0.045381;86.189635;1.000000;0.000141;-0.000579;0.001596;0.000090;0.001599;-0.000583;87.629423;0.001619;
1111;552;0.022797;0.336402;0.999999;0.000312;-0.000931;0.001990;0.000065;0.001992;-0.000932;88.726033;0.001993;
1001;1772;0.072381;86.200494;1.000000;0.000156;-0.000520;0.001522;-0.000126;0.001530;-0.000528;-86.484027;0.001554;
1081;1302;1.707162;78.166183;0.999560;0.006313;-0.033548;0.077104;-0.005510;0.077378;-0.033822;-87.156539;0.077581;
1041;567;0.088206;0.363991;0.999997;0.000571;-0.000757;0.001853;0.000247;0.001876;-0.000781;84.631437;0.001885;
1016;347;0.008720;0.024361;1.000000;0.000057;-0.000094;0.001390;0.000231;0.001425;-0.000130;81.350298;0.001576;
1151;1372;-0.343237;82.063280;0.999925;0.002361;-0.018252;0.041494;0.001188;0.041518;-0.018276;88.860937;0.041617;
1066;677;0.142913;0.710134;0.999998;0.000485;-0.002208;0.005518;0.000957;0.005634;-0.002325;83.045854;0.005663;
1161;1502;-0.137691;85.165256;0.999991;0.000657;-0.004965;0.012148;0.000765;0.012182;-0.004999;87.446209;0.012247;
1146;562;-0.010528;0.357475;0.999999;0.000339;-0.000987;0.002127;-0.000034;0.002127;-0.000987;-89.383165;0.002129;
1076;777;0.438827;1.748802;0.999971;0.001422;-0.007552;0.017513;0.002190;0.017703;-0.007742;85.044918;0.017749;
971;1722;0.109235;86.123102;1.000000;0.000228;-0.000618;0.001426;-0.000196;0.001444;-0.000637;-84.556646;0.001448;
1116;552;0.018297;0.337114;0.999999;0.000411;-0.000936;0.001994;0.000052;0.001995;-0.000937;88.990920;0.001996;
1001;1777;0.070630;86.207751;1.000000;0.000170;-0.000512;0.001518;-0.000123;0.001525;-0.000520;-86.541840;0.001551;
1086;1807;0.019647;86.261765;1.000000;0.000130;-0.000426;0.001498;-0.000063;0.001500;-0.000428;-88.121565;0.001546;
1081;1307;1.636773;78.499255;0.999626;0.005348;-0.032196;0.073824;-0.005347;0.074093;-0.032465;-87.120115;0.074281;
1041;572;0.090081;0.373503;0.999997;0.000634;-0.000774;0.001898;0.000263;0.001924;-0.000800;84.440547;0.001933;
1131;942;0.112411;8.162880;0.999702;0.006155;-0.032422;0.075290;0.000229;0.075291;-0.032423;89.877941;0.075532;
1126;1372;0.121508;82.050497;0.999921;0.002507;-0.018229;0.041449;-0.000466;0.041453;-0.018233;-89.552591;0.041553;
1001;1542;0.391080;85.542226;0.999991;0.000824;-0.003059;0.007709;-0.002495;0.008259;-0.003609;-77.565741;0.008281;
1131;552;0.003554;0.337183;0.999999;0.000302;-0.000938;0.002000;0.000009;0.002000;-0.000938;89.824544;0.002001;
951;1737;0.111167;86.142940;0.999999;0.000183;-0.000743;0.001353;-0.000242;0.001381;-0.000771;-83.494727;0.001384;
1086;617;0.061597;0.487619;0.999997;0.000450;-0.001199;0.002781;0.000264;0.002799;-0.001217;86.227806;0.002807;
1176;787;-0.341647;1.932664;0.999972;0.001434;-0.008223;0.019284;-0.001765;0.019397;-0.008336;-86.343501;0.019460;
1136;547;-0.001040;0.328004;0.999999;0.000200;-0.000911;0.001944;-0.000005;0.001944;-0.000911;-89.894189;0.001945;
1091;1807;0.017556;86.262214;1.000000;0.000121;-0.000423;0.001496;-0.000056;0.001497;-0.000425;-88.326708;0.001543;
1081;1297;1.769459;77.792785;0.999566;0.006174;-0.034943;0.080526;-0.005732;0.080810;-0.035226;-87.164897;0.081031;
1241;1837;-0.034222;86.301302;1.000000;0.000178;-0.000354;0.001486;0.000149;0.001498;-0.000366;85.392522;0.001562;
1006;1542;0.375961;85.541870;0.999991;0.000959;-0.003118;0.007741;-0.002436;0.008262;-0.003639;-77.919251;0.008282;
1041;577;0.092663;0.383658;0.999997;0.000510;-0.000792;0.001952;0.000280;0.001981;-0.000821;84.235386;0.001990;
1121;1372;0.208751;82.050723;0.999903;0.002680;-0.018252;0.041478;-0.000823;0.041490;-0.018264;-89.211038;0.041589;
1131;947;0.117945;8.532988;0.999620;0.005110;-0.033807;0.078742;0.000268;0.078743;-0.033808;89.863749;0.079004;
1121;552;0.013319;0.337076;0.999998;0.000396;-0.000939;0.001996;0.000037;0.001996;-0.000939;89.283090;0.001997;
1181;787;-0.383525;1.933039;0.999974;0.001540;-0.008240;0.019279;-0.001982;0.019421;-0.008382;-85.901112;0.019482;
1041;582;0.094457;0.393708;0.999997;0.000509;-0.000812;0.001994;0.000299;0.002026;-0.000843;83.986833;0.002035;
1096;1612;0.048368;85.878403;0.999999;0.000197;-0.001336;0.003132;-0.000247;0.003145;-0.001349;-86.845724;0.003156;
1141;547;-0.005466;0.328397;0.999999;0.000254;-0.000908;0.001943;-0.000019;0.001943;-0.000908;-89.625182;0.001944;
1156;1792;-0.010871;86.240034;1.000000;0.000142;-0.000473;0.001520;0.000028;0.001520;-0.000474;89.186566;0.001555;
1036;582;0.099256;0.393027;0.999997;0.000507;-0.000781;0.001955;0.000305;0.001988;-0.000815;83.711226;0.001999;
1156;1367;-0.447728;81.852995;0.999873;0.002381;-0.019019;0.043250;0.001606;0.043292;-0.019061;88.523510;0.043395;
1141;952;-0.246541;8.938275;0.999700;0.006972;-0.035343;0.082554;-0.000797;0.082559;-0.035349;-89.612721;0.082843;
1126;552;0.008231;0.337442;0.999999;0.000319;-0.000939;0.001998;0.000023;0.001998;-0.000939;89.557549;0.001999;
1201;1882;-0.008491;86.367563;1.000000;0.000176;-0.000138;0.001359;0.000123;0.001369;-0.000149;85.338747;0.001503;
1146;1287;-0.480596;77.068636;0.999523;0.004641;-0.036699;0.085818;0.001257;0.085830;-0.036712;89.412037;0.086129;
1246;1532;-0.387042;85.446104;0.999992;0.000859;-0.003706;0.008811;0.002431;0.009266;-0.004162;79.386607;0.009282;
1186;787;-0.424738;1.933430;0.999975;0.001436;-0.008282;0.019271;-0.002192;0.019445;-0.008456;-85.479736;0.019499;
1316;1712;-0.130632;86.112342;0.999982;0.001299;-0.000531;0.001288;0.000233;0.001317;-0.000560;82.822299;0.001322;
1146;547;-0.009638;0.328400;0.999999;0.000249;-0.000905;0.001939;-0.000031;0.001939;-0.000906;-89.371889;0.001941;
1216;627;-0.101473;0.501629;0.999998;0.000414;-0.001182;0.002976;-0.000527;0.003042;-0.001248;-82.883534;0.003058;
1156;1372;-0.432396;82.067369;0.999908;0.002249;-0.018250;0.041540;0.001533;0.041579;-0.018289;88.532535;0.041680;
1226;1292;-3.443114;77.195408;0.999624;0.005942;-0.038732;0.089017;0.010785;0.089921;-0.039636;85.207918;0.090131;
1146;952;-0.403276;8.937759;0.999704;0.006214;-0.035404;0.082606;-0.001317;0.082621;-0.035418;-89.360905;0.082901;
1201;1887;-0.007113;86.375315;1.000000;0.000209;-0.000117;0.001357;0.000123;0.001367;-0.000127;85.274154;0.001511;
1146;567;-0.011364;0.367705;0.999998;0.000373;-0.001014;0.002174;-0.000035;0.002175;-0.001014;-89.375943;0.002176;
1236;612;-0.112748;0.453737;0.999997;0.000410;-0.000935;0.002478;-0.000514;0.002554;-0.001011;-81.619099;0.002573;
1061;1722;0.053174;86.125933;1.000000;0.000093;-0.000688;0.001672;-0.000119;0.001678;-0.000694;-87.114038;0.001686;
1246;1537;-0.364817;85.489736;0.999992;0.000845;-0.003465;0.008333;0.002321;0.008773;-0.003905;79.258952;0.008791;
1101;782;0.262775;1.840422;0.999976;0.001145;-0.007981;0.018507;0.001308;0.018572;-0.008045;87.179790;0.018627;
1131;547;0.003550;0.327330;0.999999;0.000246;-0.000913;0.001945;0.000008;0.001945;-0.000913;89.833176;0.001946;
1216;632;-0.104219;0.516442;0.999997;0.000397;-0.001244;0.003151;-0.000573;0.003225;-0.001318;-82.688798;0.003243;
1006;1882;0.017944;86.365446;0.999999;0.000265;-0.000188;0.001439;-0.000231;0.001471;-0.000220;-82.066886;0.001587;
1116;1372;0.295246;82.054047;0.999886;0.002885;-0.018279;0.041527;-0.001182;0.041551;-0.018302;-88.868357;0.041649;
1041;942;3.172163;8.428453;0.999702;0.006272;-0.035044;0.080278;0.010520;0.081230;-0.035996;84.830275;0.081404;
1141;542;-0.005079;0.317872;0.999999;0.000236;-0.000882;0.001897;-0.000017;0.001897;-0.000882;-89.650386;0.001899;
1151;1287;-0.663705;77.081784;0.999508;0.004882;-0.036859;0.086020;0.001784;0.086046;-0.036884;89.168185;0.086338;
1231;1842;-0.028809;86.310080;1.000000;0.000189;-0.000324;0.001468;0.000149;0.001480;-0.000337;85.275536;0.001551;
1061;1727;0.051705;86.134408;1.000000;0.000101;-0.000675;0.001658;-0.000110;0.001663;-0.000680;-87.308418;0.001672;
1241;612;-0.117699;0.451375;0.999997;0.000466;-0.000909;0.002461;-0.000538;0.002545;-0.000993;-81.150498;0.002565;
1106;782;0.225248;1.839177;0.999976;0.001183;-0.007971;0.018507;0.001121;0.018554;-0.008018;87.580849;0.018611;
1126;547;0.008031;0.326881;0.999999;0.000365;-0.000914;0.001945;0.000021;0.001945;-0.000914;89.580061;0.001946;
1171;1497;-0.196519;85.098547;0.999992;0.001225;-0.005300;0.012863;0.001112;0.012931;-0.005368;86.509944;0.012993;
996;577;0.120789;0.379122;0.999998;0.000494;-0.000537;0.001671;0.000371;0.001731;-0.000598;80.708971;0.001759;
1046;942;2.983647;8.406418;0.999689;0.005317;-0.034924;0.079925;0.009857;0.080765;-0.035764;85.129900;0.080941;
1176;1342;-1.037046;80.650759;0.999860;0.003111;-0.023659;0.053642;0.003605;0.053810;-0.023826;87.335938;0.053927;
1096;1872;0.006321;86.355317;0.999999;0.000169;-0.000174;0.001346;-0.000067;0.001349;-0.000177;-87.467896;0.001467;
1146;542;-0.009827;0.317834;0.999999;0.000255;-0.000878;0.001892;-0.000030;0.001893;-0.000879;-89.389675;0.001894;
1156;1287;-0.842611;77.082163;0.999556;0.006582;-0.037050;0.086311;0.002317;0.086354;-0.037093;88.924345;0.086640;
1151;802;-0.161873;2.232829;0.999978;0.001381;-0.009608;0.022291;-0.000780;0.022310;-0.009627;-88.599934;0.022380;
1001;587;0.123907;0.396779;0.999997;0.000370;-0.000585;0.001753;0.000419;0.001826;-0.000658;80.137239;0.001850;
1051;1747;0.052211;86.166072;1.000000;0.000109;-0.000616;0.001616;-0.000100;0.001621;-0.000621;-87.436101;0.001635;
1151;547;-0.014238;0.327408;0.999999;0.000235;-0.000902;0.001934;-0.000044;0.001935;-0.000903;-89.115583;0.001936;
1116;1662;0.018235;86.008271;1.000000;0.000144;-0.001084;0.002339;-0.000066;0.002340;-0.001085;-88.892911;0.002342;
1171;1502;-0.185637;85.163042;0.999992;0.000803;-0.004996;0.012164;0.001063;0.012230;-0.005061;86.467893;0.012290;
951;1717;0.123047;86.118084;0.999997;0.000983;-0.000740;0.001330;-0.000150;0.001341;-0.000751;-85.875307;0.001344;
1221;612;-0.099260;0.459740;0.999998;0.000381;-0.001018;0.002543;-0.000436;0.002595;-0.001071;-83.121668;0.002608;
1176;1347;-0.986522;80.901064;0.999855;0.003440;-0.022699;0.051551;0.003557;0.051721;-0.022870;87.263545;0.051836;
1191;952;-2.026632;9.038928;0.999731;0.004114;-0.036479;0.084445;-0.006347;0.084777;-0.036811;-87.003519;0.085022;
1131;542;0.003043;0.317754;0.999999;0.000229;-0.000888;0.001900;0.000009;0.001900;-0.000888;89.820191;0.001902;
1151;552;-0.014679;0.335550;0.999999;0.000357;-0.000929;0.001995;-0.000046;0.001996;-0.000930;-89.092429;0.001997;
1151;807;-0.168422;2.353045;0.999978;0.001587;-0.010094;0.023371;-0.000831;0.023392;-0.010115;-88.578978;0.023463;
1051;1752;0.050794;86.174276;1.000000;0.000115;-0.000604;0.001606;-0.000099;0.001611;-0.000609;-87.450241;0.001627;
956;1717;0.117434;86.118254;1.000000;0.000212;-0.000678;0.001349;-0.000163;0.001362;-0.000691;-85.424292;0.001362;
1176;1497;-0.224072;85.097692;0.999991;0.001346;-0.005308;0.012862;0.001265;0.012950;-0.005395;86.037782;0.013010;
1051;1827;0.028380;86.289617;1.000000;0.000197;-0.000369;0.001476;-0.000117;0.001483;-0.000376;-86.389119;0.001542;
1141;1287;-0.299696;77.065513;0.999464;0.005060;-0.036560;0.085662;0.000743;0.085666;-0.036565;89.651707;0.085972;
1221;617;-0.100892;0.472689;0.999998;0.000396;-0.001063;0.002678;-0.000477;0.002738;-0.001123;-82.839801;0.002752;
1006;587;0.121802;0.396715;0.999998;0.000486;-0.000606;0.001782;0.000403;0.001849;-0.000672;80.674305;0.001871;
1196;952;-2.207300;9.055612;0.999683;0.005338;-0.036748;0.084886;-0.006993;0.085286;-0.037149;-86.720444;0.085522;
1151;557;-0.014965;0.346575;0.999999;0.000380;-0.000957;0.002059;-0.000048;0.002060;-0.000958;-89.084692;0.002062;
1151;542;-0.014263;0.317621;0.999999;0.000234;-0.000875;0.001887;-0.000042;0.001887;-0.000876;-89.130513;0.001889;
1051;1757;0.049088;86.182019;1.000000;0.000135;-0.000591;0.001597;-0.000096;0.001601;-0.000595;-87.490942;0.001619;
1131;1377;0.028645;82.254411;0.999942;0.002100;-0.017405;0.039666;-0.000144;0.039666;-0.017405;-89.855529;0.039765;
1236;787;-0.841340;1.938883;0.999975;0.001674;-0.008546;0.019061;-0.004267;0.019705;-0.009190;-81.411507;0.019720;
961;1717;0.115127;86.117387;1.000000;0.000181;-0.000639;0.001373;-0.000175;0.001388;-0.000654;-85.071736;0.001389;
1181;1497;-0.251150;85.095020;0.999990;0.000971;-0.005318;0.012864;0.001416;0.012973;-0.005427;85.572898;0.013031;
1221;622;-0.103886;0.486811;0.999998;0.000408;-0.001112;0.002820;-0.000521;0.002888;-0.001180;-82.573737;0.002904;
1206;1287;-2.777631;76.864844;0.999657;0.005941;-0.039692;0.091243;0.008129;0.091746;-0.040195;86.460957;0.091980;
1221;1822;-0.032386;86.281883;1.000000;0.000172;-0.000394;0.001492;0.000123;0.001500;-0.000402;86.294724;0.001553;
1226;622;-0.109292;0.483680;0.999997;0.000406;-0.001097;0.002811;-0.000555;0.002888;-0.001174;-82.069310;0.002905;
1201;952;-2.401114;9.073848;0.999618;0.006451;-0.037087;0.085363;-0.007630;0.085836;-0.037561;-86.448335;0.086059;
1106;547;0.026210;0.327760;0.999999;0.000273;-0.000898;0.001934;0.000073;0.001936;-0.000899;88.530617;0.001937;
1156;542;-0.018812;0.317106;0.999999;0.000257;-0.000874;0.001881;-0.000053;0.001882;-0.000875;-88.893302;0.001884;
966;1717;0.113267;86.116750;1.000000;0.000208;-0.000614;0.001400;-0.000185;0.001417;-0.000631;-84.794442;0.001420;
1136;1377;-0.065076;82.253395;0.999948;0.002573;-0.017439;0.039699;0.000193;0.039699;-0.017440;89.806949;0.039797;
1131;817;0.034728;2.596384;0.999969;0.001807;-0.011135;0.025752;0.000131;0.025752;-0.011135;89.796427;0.025830;
1161;1802;-0.012212;86.255634;1.000000;0.000175;-0.000437;0.001506;0.000036;0.001506;-0.000438;88.926761;0.001550;
1241;1532;-0.369357;85.447823;0.999992;0.000743;-0.003663;0.008807;0.002334;0.009230;-0.004086;79.738362;0.009250;
1171;1297;-1.310327;77.816635;0.999644;0.005122;-0.034570;0.079792;0.003793;0.079918;-0.034696;88.102727;0.080148;
1211;602;-0.085817;0.439893;0.999997;0.000404;-0.000992;0.002396;-0.000337;0.002429;-0.001026;-84.375698;0.002439;
1226;627;-0.111922;0.498632;0.999998;0.000502;-0.001158;0.002972;-0.000603;0.003059;-0.001245;-81.865944;0.003076;
946;1717;0.163435;86.101141;0.999785;0.004462;-0.000855;0.001335;-0.000133;0.001343;-0.000863;-86.527646;0.001361;
1136;952;-0.066024;8.930891;0.999667;0.005283;-0.035258;0.082525;-0.000269;0.082526;-0.035259;-89.869353;0.082816;
1171;1632;-0.047497;85.934379;1.000000;0.000185;-0.001200;0.002727;0.000195;0.002737;-0.001210;87.158375;0.002743;
1111;547;0.021691;0.327650;0.999999;0.000330;-0.000905;0.001939;0.000061;0.001941;-0.000906;88.769112;0.001942;
1156;547;-0.018632;0.327460;0.999999;0.000309;-0.000901;0.001929;-0.000056;0.001930;-0.000902;-88.867865;0.001932;
1141;1377;-0.156351;82.255528;0.999944;0.002816;-0.017481;0.039754;0.000509;0.039758;-0.017485;89.490384;0.039854;
1136;817;-0.016593;2.595288;0.999978;0.001566;-0.011129;0.025716;-0.000124;0.025716;-0.011129;-89.807128;0.025794;
1161;1807;-0.011758;86.262544;1.000000;0.000141;-0.000418;0.001498;0.000037;0.001498;-0.000419;88.898050;0.001546;
946;1722;0.146033;86.108048;0.999813;0.004043;-0.000897;0.001329;-0.000200;0.001347;-0.000915;-84.918880;0.001376;
1176;1287;-1.603792;77.028934;0.999569;0.005746;-0.037932;0.087837;0.004518;0.087999;-0.038094;87.945081;0.088263;
1221;627;-0.106857;0.499950;0.999998;0.000438;-0.001169;0.002973;-0.000565;0.003049;-0.001245;-82.367972;0.003066;
1241;1537;-0.346773;85.489631;0.999992;0.000775;-0.003429;0.008326;0.002225;0.008733;-0.003836;79.635152;0.008755;
1226;632;-0.115601;0.514236;0.999998;0.000614;-0.001228;0.003163;-0.000656;0.003259;-0.001324;-81.678465;0.003278;
1051;942;2.801006;8.381530;0.999669;0.004452;-0.034776;0.079518;0.009224;0.080257;-0.035515;85.415546;0.080434;
1116;547;0.017508;0.327420;0.999999;0.000316;-0.000910;0.001943;0.000049;0.001944;-0.000911;89.018476;0.001945;
1176;1632;-0.053199;85.935095;1.000000;0.000165;-0.001187;0.002715;0.000221;0.002728;-0.001199;86.773264;0.002735;
1156;552;-0.019667;0.335690;0.999999;0.000349;-0.000928;0.001990;-0.000060;0.001991;-0.000929;-88.830164;0.001993;
1146;1377;-0.249383;82.259844;0.999941;0.002819;-0.017514;0.039790;0.000831;0.039802;-0.017527;89.169431;0.039897;
946;1727;0.129809;86.132711;0.999927;0.002221;-0.000885;0.001336;-0.000233;0.001360;-0.000909;-84.077797;0.001386;
1141;817;-0.071236;2.593284;0.999977;0.001471;-0.011113;0.025698;-0.000391;0.025703;-0.011117;-89.391946;0.025780;
1241;1542;-0.324973;85.531711;0.999989;0.000887;-0.003218;0.007852;0.002114;0.008242;-0.003608;79.545559;0.008263;
1116;1287;0.621520;77.045570;0.999601;0.005412;-0.036690;0.085784;-0.001947;0.085815;-0.036721;-89.089231;0.086112;
1221;632;-0.109814;0.515751;0.999998;0.000454;-0.001235;0.003157;-0.000615;0.003241;-0.001320;-82.176701;0.003260;
1086;587;0.054170;0.411234;0.999999;0.000317;-0.001038;0.002304;0.000186;0.002315;-0.001048;86.827161;0.002318;
1016;352;0.011159;0.031043;1.000000;0.000056;-0.000120;0.001400;0.000228;0.001433;-0.000153;81.663130;0.001574;
1221;927;-2.556392;7.290247;0.999667;0.004672;-0.030696;0.069432;-0.009125;0.070257;-0.031520;-84.835135;0.070380;
946;1732;0.118352;86.129722;0.999928;0.002064;-0.000855;0.001345;-0.000235;0.001370;-0.000879;-83.967695;0.001388;
1026;497;0.069364;0.248480;0.999999;0.000242;-0.000602;0.001596;0.000137;0.001604;-0.000610;86.439085;0.001619;
1066;587;0.073934;0.408636;0.999997;0.000511;-0.000954;0.002211;0.000254;0.002231;-0.000974;85.445911;0.002237;
1116;807;0.183209;2.359211;0.999969;0.001786;-0.010203;0.023525;0.000875;0.023547;-0.010226;88.515206;0.023615;
1106;542;0.025717;0.318413;0.999999;0.000261;-0.000872;0.001890;0.000069;0.001891;-0.000874;88.575808;0.001893;
1121;547;0.012919;0.327073;0.999998;0.000367;-0.000913;0.001944;0.000035;0.001944;-0.000914;89.302456;0.001946;
1206;1282;-2.905437;76.443952;0.999588;0.005476;-0.041480;0.095864;0.008364;0.096371;-0.041988;86.528059;0.096637;
1241;1527;-0.392965;85.406249;0.999992;0.000781;-0.003903;0.009291;0.002445;0.009729;-0.004342;79.830700;0.009748;
991;577;0.123869;0.377496;0.999998;0.000456;-0.000516;0.001649;0.000382;0.001715;-0.000581;80.270773;0.001744;
1161;537;-0.022298;0.307277;0.999999;0.000277;-0.000844;0.001827;-0.000063;0.001829;-0.000846;-88.653051;0.001831;
971;1717;0.110773;86.115564;1.000000;0.000209;-0.000600;0.001430;-0.000193;0.001448;-0.000618;-84.615899;0.001453;
1171;947;-1.251589;8.576333;0.999711;0.003599;-0.034363;0.079624;-0.003900;0.079757;-0.034497;-88.042920;0.079999;
1016;357;0.013651;0.037756;1.000000;0.000061;-0.000144;0.001406;0.000223;0.001437;-0.000176;81.967095;0.001568;
1111;542;0.021277;0.318112;0.999999;0.000263;-0.000879;0.001896;0.000058;0.001897;-0.000880;88.801185;0.001899;
1136;542;-0.001019;0.317850;0.999999;0.000210;-0.000885;0.001899;-0.000004;0.001899;-0.000885;-89.913541;0.001901;
1246;1527;-0.413197;85.405350;0.999993;0.000927;-0.003951;0.009299;0.002544;0.009770;-0.004422;79.497854;0.009785;
1201;672;-0.125217;0.680643;0.999998;0.000427;-0.002046;0.005143;-0.000879;0.005249;-0.002152;-83.125618;0.005277;
1031;497;0.066290;0.247992;0.999999;0.000236;-0.000610;0.001602;0.000130;0.001610;-0.000618;86.645474;0.001624;
1171;1292;-1.357616;77.438632;0.999588;0.005202;-0.036092;0.083657;0.003858;0.083781;-0.036216;88.156769;0.084037;
1071;777;0.475439;1.750590;0.999970;0.001341;-0.007558;0.017517;0.002402;0.017745;-0.007786;84.577080;0.017789;
991;582;0.126257;0.384475;0.999997;0.000606;-0.000523;0.001668;0.000408;0.001742;-0.000597;79.785080;0.001771;
1161;542;-0.022880;0.316892;0.999999;0.000284;-0.000871;0.001874;-0.000067;0.001876;-0.000872;-88.606000;0.001877;
1021;357;0.012942;0.037359;1.000000;0.000063;-0.000139;0.001395;0.000214;0.001425;-0.000169;82.203505;0.001557;
1141;1897;-0.000255;86.388110;1.000000;0.000212;-0.000065;0.001297;0.000018;0.001297;-0.000066;89.223172;0.001461;
1011;342;0.006722;0.017588;1.000000;0.000067;-0.000074;0.001394;0.000247;0.001434;-0.000115;80.687965;0.001594;
1176;947;-1.419114;8.584304;0.999764;0.004340;-0.034469;0.079859;-0.004469;0.080033;-0.034643;-87.764705;0.080273;
1116;542;0.016850;0.317643;0.999999;0.000235;-0.000884;0.001900;0.000047;0.001901;-0.000884;89.043140;0.001902;
1251;1527;-0.436572;85.403597;0.999991;0.000926;-0.003966;0.009317;0.002656;0.009829;-0.004478;79.102055;0.009842;
1206;667;-0.127588;0.655830;0.999998;0.000600;-0.001929;0.004846;-0.000883;0.004959;-0.002042;-82.692802;0.004985;
1126;1292;0.245873;77.471830;0.999549;0.006539;-0.035107;0.081939;-0.000756;0.081944;-0.035112;-89.630045;0.082222;
1141;812;-0.069340;2.474195;0.999978;0.001242;-0.010607;0.024538;-0.000367;0.024541;-0.010611;-89.402037;0.024616;
1036;497;0.063228;0.247273;0.999999;0.000240;-0.000617;0.001605;0.000121;0.001612;-0.000623;86.879803;0.001625;
996;582;0.123375;0.387541;0.999997;0.000424;-0.000545;0.001688;0.000397;0.001757;-0.000613;80.222039;0.001783;
1026;352;0.010020;0.030491;1.000000;0.000078;-0.000112;0.001381;0.000207;0.001409;-0.000140;82.247453;0.001552;
1011;347;0.009308;0.024662;1.000000;0.000065;-0.000100;0.001402;0.000241;0.001440;-0.000138;81.086232;0.001589;
1161;547;-0.023500;0.327120;0.999998;0.000287;-0.000897;0.001922;-0.000070;0.001924;-0.000899;-88.574448;0.001925;
1181;947;-1.598901;8.599301;0.999746;0.004650;-0.034616;0.080114;-0.005052;0.080336;-0.034838;-87.483397;0.080571;
1101;542;0.030018;0.317982;0.999999;0.000252;-0.000861;0.001882;0.000081;0.001885;-0.000863;88.301605;0.001887;
1266;1797;-0.063075;86.237197;0.999999;0.000173;-0.000479;0.001530;0.000115;0.001537;-0.000486;86.723618;0.001571;
1206;672;-0.135922;0.678555;0.999997;0.000460;-0.002063;0.005184;-0.000951;0.005307;-0.002186;-82.648678;0.005334;
1196;1507;-0.292039;85.213980;0.999990;0.000795;-0.004764;0.011499;0.001709;0.011676;-0.004942;84.065580;0.011722;
956;537;0.123017;0.307006;0.999998;0.000390;-0.000539;0.001273;0.000280;0.001316;-0.000581;81.407161;0.001319;
1006;352;0.012287;0.031298;1.000000;0.000056;-0.000134;0.001425;0.000246;0.001463;-0.000172;81.241070;0.001599;
1176;1277;-1.745189;76.147172;0.999630;0.005698;-0.041361;0.096398;0.004790;0.096565;-0.041527;88.010827;0.096879;
1086;777;0.362091;1.751280;0.999977;0.001499;-0.007555;0.017528;0.001801;0.017657;-0.007684;85.915077;0.017706;
1186;947;-1.774021;8.620389;0.999735;0.004071;-0.034793;0.080418;-0.005625;0.080692;-0.035067;-87.211640;0.080922;
1001;367;0.021678;0.053063;1.000000;0.000065;-0.000226;0.001459;0.000232;0.001490;-0.000258;82.299655;0.001593;
1141;537;-0.005244;0.308038;0.999999;0.000217;-0.000855;0.001854;-0.000017;0.001854;-0.000855;-89.647022;0.001856;
976;1697;0.115243;86.086240;0.999999;0.000199;-0.000479;0.001472;-0.000258;0.001506;-0.000512;-82.587280;0.001531;
1166;1492;-0.182220;85.036510;0.999989;0.000805;-0.005590;0.013548;0.000996;0.013600;-0.005642;87.029890;0.013666;
961;537;0.121751;0.309119;0.999998;0.000424;-0.000531;0.001331;0.000276;0.001372;-0.000571;81.734572;0.001378;
1071;597;0.070906;0.431924;0.999997;0.000566;-0.001020;0.002391;0.000271;0.002412;-0.001041;85.490388;0.002419;
1006;357;0.015092;0.038569;1.000000;0.000067;-0.000161;0.001431;0.000239;0.001466;-0.000197;81.630015;0.001592;
1026;357;0.012114;0.037239;1.000000;0.000080;-0.000136;0.001387;0.000204;0.001414;-0.000163;82.501980;0.001547;
1211;1282;-3.118463;76.417548;0.999633;0.006033;-0.041704;0.096574;0.009115;0.097172;-0.042302;86.244854;0.097442;
1246;487;-0.066679;0.232074;0.999999;0.000232;-0.000577;0.001584;-0.000127;0.001592;-0.000584;-86.643324;0.001610;
1096;782;0.299806;1.840997;0.999974;0.001381;-0.007970;0.018507;0.001491;0.018591;-0.008054;86.787428;0.018646;
1186;952;-1.851728;9.017896;0.999757;0.003647;-0.036273;0.084074;-0.005761;0.084349;-0.036548;-87.265591;0.084599;
1006;372;0.023556;0.059725;1.000000;0.000052;-0.000242;0.001455;0.000218;0.001483;-0.000270;82.780854;0.001580;
1146;537;-0.009783;0.308018;0.999999;0.000236;-0.000852;0.001849;-0.000030;0.001849;-0.000852;-89.370510;0.001851;
951;1712;0.140518;86.112214;0.999957;0.002927;-0.000715;0.001311;-0.000144;0.001321;-0.000726;-85.963717;0.001323;
951;532;0.123239;0.299963;0.999995;0.000438;-0.000565;0.001196;0.000255;0.001233;-0.000601;81.914687;0.001233;
1006;362;0.017960;0.045642;1.000000;0.000075;-0.000189;0.001437;0.000233;0.001470;-0.000221;82.001016;0.001585;
1166;1497;-0.171394;85.098627;0.999992;0.000746;-0.005280;0.012860;0.000952;0.012910;-0.005330;87.002451;0.012975;
1231;612;-0.108600;0.455563;0.999998;0.000434;-0.000966;0.002499;-0.000489;0.002567;-0.001034;-82.116386;0.002583;
1266;342;-0.007224;0.017687;1.000000;0.000056;-0.000081;0.001409;-0.000264;0.001454;-0.000127;-80.231652;0.001611;
1211;1287;-2.983647;76.843332;0.999676;0.005017;-0.039908;0.091849;0.008852;0.092441;-0.040501;86.173476;0.092677;
1041;497;0.060286;0.247205;0.999999;0.000234;-0.000621;0.001609;0.000115;0.001615;-0.000627;87.043726;0.001629;
1186;957;-1.930381;9.442809;0.999730;0.003909;-0.037804;0.088043;-0.005886;0.088317;-0.038079;-87.328078;0.088596;
1011;372;0.022419;0.059492;1.000000;0.000075;-0.000230;0.001442;0.000214;0.001469;-0.000257;82.815449;0.001569;
956;1712;0.118616;86.111668;1.000000;0.000189;-0.000656;0.001337;-0.000163;0.001350;-0.000670;-85.367113;0.001350;
951;537;0.126130;0.301814;0.999974;0.001220;-0.000552;0.001199;0.000278;0.001242;-0.000595;81.185882;0.001243;
1221;782;-0.677461;1.844411;0.999975;0.001184;-0.008055;0.018327;-0.003488;0.018781;-0.008508;-82.594357;0.018808;
1151;537;-0.014137;0.307787;0.999999;0.000258;-0.000849;0.001843;-0.000041;0.001844;-0.000849;-89.122105;0.001846;
1006;367;0.020763;0.052698;1.000000;0.000062;-0.000215;0.001443;0.000226;0.001473;-0.000246;82.371824;0.001578;
1266;347;-0.010043;0.024776;1.000000;0.000065;-0.000112;0.001421;-0.000258;0.001463;-0.000154;-80.680709;0.001608;
1166;1502;-0.161201;85.162514;0.999992;0.000680;-0.004980;0.012159;0.000913;0.012207;-0.005028;86.959245;0.012270;
1231;622;-0.115050;0.481204;0.999998;0.000501;-0.001073;0.002802;-0.000590;0.002890;-0.001161;-81.533677;0.002908;
1176;1282;-1.673302;76.613913;0.999592;0.005739;-0.039619;0.091836;0.004665;0.092001;-0.039785;87.970027;0.092281;
956;542;0.124933;0.313568;0.999997;0.000441;-0.000463;0.001265;0.000263;0.001304;-0.000502;81.540656;0.001315;
961;1712;0.116988;86.111251;1.000000;0.000206;-0.000619;0.001368;-0.000177;0.001383;-0.000635;-84.940744;0.001385;
1191;957;-2.113608;9.465168;0.999703;0.005840;-0.038018;0.088413;-0.006488;0.088745;-0.038350;-87.070230;0.089017;
1046;497;0.057770;0.246843;0.999999;0.000272;-0.000623;0.001614;0.000113;0.001620;-0.000629;87.126913;0.001633;
1016;372;0.021335;0.059052;1.000000;0.000094;-0.000219;0.001431;0.000208;0.001457;-0.000245;82.915159;0.001560;
1136;537;-0.001200;0.307783;0.999999;0.000208;-0.000859;0.001857;-0.000004;0.001857;-0.000859;-89.926131;0.001859;
1191;787;-0.464307;1.931186;0.999969;0.001338;-0.008312;0.019265;-0.002398;0.019472;-0.008519;-85.067150;0.019522;
1011;352;0.011868;0.031275;1.000000;0.000063;-0.000126;0.001411;0.000237;0.001447;-0.000162;81.436404;0.001586;
1011;367;0.019900;0.052236;1.000000;0.000074;-0.000204;0.001429;0.000220;0.001458;-0.000233;82.445447;0.001567;
1171;1492;-0.210543;85.035420;0.999989;0.001135;-0.005611;0.013551;0.001160;0.013621;-0.005681;86.547021;0.013683;
1231;627;-0.118383;0.495810;0.999998;0.000559;-0.001140;0.002971;-0.000642;0.003069;-0.001238;-81.329555;0.003088;
1181;1277;-1.961626;76.123794;0.999603;0.005284;-0.041699;0.097067;0.005398;0.097277;-0.041908;87.775716;0.097587;
961;542;0.122661;0.316524;0.999998;0.000396;-0.000472;0.001326;0.000267;0.001365;-0.000511;81.718529;0.001379;
966;1712;0.115064;86.110149;1.000000;0.000192;-0.000598;0.001398;-0.000191;0.001416;-0.000616;-84.587087;0.001420;
1001;352;0.013035;0.031586;1.000000;0.000053;-0.000141;0.001441;0.000256;0.001481;-0.000182;81.035180;0.001616;
1196;957;-2.314611;9.489599;0.999647;0.006564;-0.038298;0.088861;-0.007146;0.089261;-0.038699;-86.793378;0.089524;
1156;537;-0.018305;0.307601;0.999999;0.000220;-0.000848;0.001837;-0.000051;0.001838;-0.000849;-88.911499;0.001839;
1196;512;-0.042654;0.267576;0.999999;0.000306;-0.000673;0.001639;-0.000094;0.001643;-0.000677;-87.666061;0.001652;
1151;812;-0.174787;2.474061;0.999980;0.001596;-0.010592;0.024487;-0.000877;0.024509;-0.010614;-88.568693;0.024582;
1011;357;0.014303;0.038306;1.000000;0.000070;-0.000152;0.001417;0.000232;0.001451;-0.000185;81.780619;0.001579;
1016;367;0.018832;0.051948;1.000000;0.000084;-0.000195;0.001418;0.000214;0.001445;-0.000223;82.577081;0.001556;
1176;1492;-0.239453;85.032278;0.999986;0.001356;-0.005618;0.013554;0.001319;0.013644;-0.005708;86.082680;0.013705;
1231;632;-0.122357;0.511969;0.999998;0.000600;-0.001215;0.003169;-0.000698;0.003278;-0.001324;-81.171682;0.003298;
1186;1277;-2.165721;76.101703;0.999601;0.005167;-0.042035;0.097746;0.005984;0.098002;-0.042290;87.553056;0.098308;
971;1712;0.112097;86.108096;1.000000;0.000192;-0.000586;0.001429;-0.000201;0.001449;-0.000605;-84.358343;0.001456;
1216;937;-2.623718;7.999899;0.999690;0.004415;-0.033297;0.075679;-0.008897;0.076401;-0.034019;-85.363265;0.076553;
1236;642;-0.141520;0.541732;0.999998;0.000525;-0.001389;0.003654;-0.000880;0.003803;-0.001538;-80.385617;0.003827;
1001;372;0.024642;0.060202;1.000000;0.000058;-0.000254;0.001471;0.000223;0.001499;-0.000282;82.751467;0.001593;
1021;377;0.022505;0.065834;1.000000;0.000107;-0.000236;0.001435;0.000196;0.001457;-0.000258;83.394916;0.001555;
1011;362;0.017143;0.045335;1.000000;0.000077;-0.000178;0.001423;0.000226;0.001455;-0.000209;82.112266;0.001573;
1156;802;-0.210527;2.237262;0.999980;0.001454;-0.009621;0.022279;-0.001013;0.022311;-0.009653;-88.182940;0.022379;
956;452;0.085925;0.193707;0.999999;0.000213;-0.000735;0.001513;0.000049;0.001514;-0.000736;88.754020;0.001514;
1021;367;0.017598;0.051544;1.000000;0.000059;-0.000189;0.001407;0.000206;0.001433;-0.000215;82.772541;0.001546;
1241;1522;-0.419347;85.360212;0.999993;0.000891;-0.004138;0.009759;0.002562;0.010217;-0.004596;79.879696;0.010234;
1221;637;-0.114668;0.531311;0.999998;0.000410;-0.001310;0.003375;-0.000673;0.003470;-0.001405;-81.985369;0.003491;
1216;942;-2.732029;8.374511;0.999716;0.004368;-0.034707;0.079166;-0.009036;0.079879;-0.035420;-85.491017;0.080049;
1161;1287;-1.040996;77.082912;0.999604;0.006502;-0.037232;0.086592;0.002857;0.086657;-0.037298;88.678737;0.086937;
1221;642;-0.120345;0.548355;0.999998;0.000440;-0.001396;0.003592;-0.000734;0.003697;-0.001502;-81.798644;0.003719;
1021;372;0.019932;0.058597;1.000000;0.000077;-0.000213;0.001421;0.000201;0.001445;-0.000237;83.085897;0.001550;
1071;1892;0.005800;86.381581;1.000000;0.000179;-0.000092;0.001326;-0.000112;0.001334;-0.000101;-85.494077;0.001486;
1271;342;-0.007645;0.018183;1.000000;0.000063;-0.000086;0.001424;-0.000278;0.001474;-0.000135;-79.877012;0.001629;
1276;352;-0.014204;0.032294;1.000000;0.000060;-0.000156;0.001464;-0.000274;0.001509;-0.000201;-80.664834;0.001639;
1016;362;0.016358;0.044761;1.000000;0.000067;-0.000170;0.001412;0.000219;0.001441;-0.000199;82.267997;0.001562;
961;452;0.084148;0.192017;0.999999;0.000238;-0.000680;0.001500;0.000056;0.001502;-0.000682;88.526616;0.001504;
1156;807;-0.221752;2.351986;0.999980;0.001487;-0.010106;0.023349;-0.001074;0.023384;-0.010140;-88.163954;0.023452;
1246;1522;-0.439383;85.359094;0.999993;0.000871;-0.004178;0.009766;0.002666;0.010258;-0.004670;79.535946;0.010272;
1226;637;-0.120069;0.528260;0.999998;0.000553;-0.001307;0.003392;-0.000718;0.003499;-0.001414;-81.501624;0.003520;
1166;1287;-1.223087;77.062972;0.999479;0.005527;-0.037455;0.086926;0.003367;0.087017;-0.037546;88.450562;0.087289;
1171;952;-1.302633;8.970446;0.999650;0.004383;-0.035812;0.083337;-0.003999;0.083471;-0.035946;-88.079843;0.083739;
1236;627;-0.123588;0.493009;0.999997;0.000564;-0.001121;0.002968;-0.000678;0.003078;-0.001231;-80.827139;0.003098;
1271;347;-0.010597;0.025055;1.000000;0.000057;-0.000118;0.001436;-0.000271;0.001482;-0.000164;-80.381266;0.001625;
1026;372;0.018752;0.058257;1.000000;0.000072;-0.000208;0.001412;0.000192;0.001435;-0.000230;83.341579;0.001541;
1021;362;0.015362;0.044309;1.000000;0.000060;-0.000164;0.001401;0.000210;0.001429;-0.000191;82.484445;0.001551;
971;1887;0.022569;86.369469;1.000000;0.000208;-0.000316;0.001582;-0.000254;0.001615;-0.000350;-82.503198;0.001700;
996;372;0.025675;0.060991;1.000000;0.000073;-0.000264;0.001488;0.000229;0.001517;-0.000293;82.682614;0.001609;
1251;1522;-0.462922;85.357249;0.999989;0.000926;-0.004190;0.009777;0.002781;0.010310;-0.004723;79.143931;0.010322;
1021;482;0.066934;0.225057;0.999999;0.000253;-0.000564;0.001569;0.000133;0.001577;-0.000572;86.455271;0.001597;
1276;342;-0.008182;0.018307;1.000000;0.000061;-0.000090;0.001441;-0.000291;0.001494;-0.000143;-79.593774;0.001649;
1176;952;-1.483671;8.987418;0.999769;0.004293;-0.035922;0.083539;-0.004589;0.083715;-0.036098;-87.803308;0.083979;
1231;637;-0.127407;0.525951;0.999998;0.000563;-0.001300;0.003404;-0.000763;0.003525;-0.001420;-81.016450;0.003547;
1026;367;0.016651;0.051172;1.000000;0.000054;-0.000185;0.001399;0.000196;0.001423;-0.000208;83.048151;0.001537;
1116;1277;0.670120;76.211266;0.999572;0.004920;-0.039696;0.094030;-0.002141;0.094064;-0.039730;-89.083027;0.094441;
1201;677;-0.133702;0.708358;0.999998;0.000377;-0.002190;0.005510;-0.000944;0.005624;-0.002304;-83.109343;0.005654;
1266;352;-0.012780;0.031645;1.000000;0.000060;-0.000140;0.001432;-0.000252;0.001472;-0.000180;-81.116508;0.001606;
1006;377;0.026215;0.067501;1.000000;0.000053;-0.000266;0.001468;0.000210;0.001493;-0.000291;83.196018;0.001583;
1311;1832;-0.066509;86.276035;0.999999;0.000232;-0.000502;0.001496;0.000084;0.001500;-0.000505;87.594651;0.001526;
1121;812;0.142980;2.477238;0.999972;0.001595;-0.010681;0.024675;0.000655;0.024687;-0.010693;88.939636;0.024760;
1276;347;-0.011101;0.025361;1.000000;0.000049;-0.000124;0.001453;-0.000283;0.001502;-0.000173;-80.136287;0.001644;
1236;1522;-0.399453;85.360674;0.999993;0.000793;-0.004127;0.009758;0.002447;0.010176;-0.004546;80.292743;0.010196;
1021;487;0.068995;0.232064;0.999999;0.000240;-0.000575;0.001572;0.000136;0.001580;-0.000584;86.401752;0.001598;
1271;352;-0.013379;0.031923;1.000000;0.000059;-0.000148;0.001448;-0.000263;0.001490;-0.000190;-80.869949;0.001622;
1271;547;-0.105289;0.328209;0.999997;0.000494;-0.000550;0.001561;-0.000256;0.001591;-0.000581;-83.171025;0.001610;
1116;1282;0.641261;76.636635;0.999589;0.005252;-0.038155;0.089827;-0.002074;0.089860;-0.038189;-89.071661;0.090197;
1026;362;0.014481;0.044053;1.000000;0.000068;-0.000160;0.001393;0.000200;0.001418;-0.000186;82.771181;0.001541;
1181;952;-1.673540;8.995183;0.999767;0.003907;-0.036089;0.083781;-0.005183;0.084004;-0.036313;-87.528896;0.084261;
1056;1722;0.056450;86.125485;1.000000;0.000091;-0.000678;0.001665;-0.000123;0.001671;-0.000684;-86.991501;0.001680;
1156;812;-0.229397;2.474373;0.999980;0.001373;-0.010609;0.024453;-0.001121;0.024489;-0.010645;-88.170120;0.024559;
1111;527;0.019818;0.291039;0.999999;0.000359;-0.000802;0.001767;0.000053;0.001768;-0.000803;88.817272;0.001770;
1016;342;0.006319;0.017399;1.000000;0.000058;-0.000070;0.001382;0.000236;0.001419;-0.000107;80.990247;0.001580;
1021;352;0.010592;0.030711;1.000000;0.000059;-0.000115;0.001389;0.000218;0.001420;-0.000146;81.931052;0.001563;
1081;777;0.401370;1.749703;0.999974;0.001563;-0.007556;0.017519;0.001991;0.017676;-0.007713;85.488438;0.017724;
1236;1527;-0.375104;85.406773;0.999991;0.000726;-0.003899;0.009280;0.002329;0.009680;-0.004298;80.266439;0.009700;
1126;1377;0.114826;82.253842;0.999921;0.002261;-0.017421;0.039648;-0.000478;0.039652;-0.017425;-89.520097;0.039749;
1216;1287;-3.188142;76.813278;0.999627;0.005139;-0.040158;0.092472;0.009561;0.093158;-0.040843;85.897917;0.093393;
1266;357;-0.015523;0.038455;1.000000;0.000056;-0.000168;0.001441;-0.000244;0.001477;-0.000204;-81.564353;0.001601;
1181;957;-1.741299;9.430553;0.999751;0.004122;-0.037615;0.087747;-0.005306;0.087971;-0.037839;-87.580524;0.088257;
1151;817;-0.184441;2.591950;0.999983;0.001373;-0.011113;0.025647;-0.000909;0.025669;-0.011135;-88.584860;0.025744;
1001;592;0.126370;0.403212;0.999996;0.000450;-0.000607;0.001835;0.000459;0.001919;-0.000690;79.703897;0.001944;
1056;1727;0.054840;86.133900;1.000000;0.000108;-0.000666;0.001653;-0.000115;0.001659;-0.000672;-87.177662;0.001669;
1261;342;-0.006928;0.017447;1.000000;0.000051;-0.000075;0.001395;-0.000251;0.001436;-0.000117;-80.553896;0.001595;
1186;502;-0.034321;0.250491;0.999999;0.000236;-0.000650;0.001623;-0.000072;0.001625;-0.000652;-88.184307;0.001636;
1001;357;0.015787;0.038806;1.000000;0.000064;-0.000170;0.001447;0.000248;0.001484;-0.000207;81.470862;0.001608;
1146;812;-0.121350;2.472826;0.999977;0.001312;-0.010596;0.024517;-0.000621;0.024528;-0.010607;-88.986873;0.024602;
1236;1532;-0.352829;85.450226;0.999990;0.000745;-0.003668;0.008802;0.002219;0.009185;-0.004051;80.204314;0.009206;
1281;342;-0.008570;0.018443;1.000000;0.000054;-0.000096;0.001462;-0.000303;0.001519;-0.000153;-79.384256;0.001673;
1216;947;-2.841335;8.733450;0.999726;0.004065;-0.036157;0.082668;-0.009206;0.083377;-0.036867;-85.595881;0.083563;
1191;1277;-2.370216;76.081151;0.999555;0.005738;-0.042373;0.098468;0.006624;0.098779;-0.042684;87.313228;0.099082;
1151;1377;-0.334913;82.264383;0.999937;0.002610;-0.017511;0.039827;0.001162;0.039850;-0.017535;88.839431;0.039946;
1156;817;-0.238341;2.593976;0.999981;0.001289;-0.011134;0.025610;-0.001153;0.025647;-0.011170;-88.204991;0.025717;
1261;347;-0.009502;0.024533;1.000000;0.000050;-0.000104;0.001406;-0.000247;0.001445;-0.000143;-80.949259;0.001593;
1006;592;0.123856;0.403745;0.999997;0.000485;-0.000626;0.001862;0.000440;0.001937;-0.000701;80.252820;0.001962;
1056;1732;0.053448;86.142520;1.000000;0.000126;-0.000655;0.001642;-0.000107;0.001647;-0.000660;-87.325656;0.001657;
1001;362;0.018833;0.045969;1.000000;0.000075;-0.000199;0.001453;0.000240;0.001487;-0.000233;81.884524;0.001600;
1031;362;0.013736;0.043856;1.000000;0.000065;-0.000157;0.001385;0.000190;0.001408;-0.000180;83.078050;0.001533;
1141;822;-0.073560;2.717246;0.999972;0.001770;-0.011654;0.026854;-0.000416;0.026859;-0.011658;-89.380947;0.026937;
1071;512;0.045503;0.268068;0.999999;0.000273;-0.000684;0.001648;0.000098;0.001652;-0.000689;87.606138;0.001660;
1161;1497;-0.146673;85.099753;0.999990;0.000594;-0.005267;0.012849;0.000796;0.012884;-0.005302;87.488307;0.012952;
1181;962;-1.817074;9.853832;0.999749;0.004941;-0.039212;0.091869;-0.005416;0.092092;-0.039436;-87.637999;0.092408;
1261;352;-0.012153;0.031393;1.000000;0.000057;-0.000131;0.001417;-0.000242;0.001454;-0.000168;-81.327835;0.001590;
1156;1377;-0.414880;82.266932;0.999928;0.002375;-0.017520;0.039872;0.001498;0.039911;-0.017559;88.505680;0.040007;
1121;1287;0.434543;77.045233;0.999546;0.006035;-0.036591;0.085636;-0.001384;0.085652;-0.036606;-89.351533;0.085953;
1161;807;-0.268876;2.350155;0.999975;0.001528;-0.010113;0.023322;-0.001309;0.023373;-0.010164;-87.760913;0.023439;
986;352;0.015462;0.033203;1.000000;0.000079;-0.000172;0.001497;0.000282;0.001543;-0.000218;80.669861;0.001670;
1286;347;-0.012445;0.026155;1.000000;0.000069;-0.000151;0.001497;-0.000296;0.001549;-0.000203;-80.121591;0.001684;
1246;572;-0.102867;0.370844;0.999997;0.000469;-0.000663;0.001739;-0.000295;0.001775;-0.000698;-83.108833;0.001788;
1206;1757;-0.043897;86.182121;1.000000;0.000110;-0.000593;0.001606;0.000086;0.001609;-0.000597;87.755991;0.001627;
1186;962;-2.018159;9.864955;0.999735;0.004535;-0.039407;0.092180;-0.005988;0.092452;-0.039679;-87.400053;0.092760;
1196;782;-0.475204;1.836293;0.999974;0.001553;-0.007909;0.018358;-0.002504;0.018595;-0.008145;-84.602260;0.018643;
1261;357;-0.014888;0.038254;1.000000;0.000069;-0.000158;0.001425;-0.000235;0.001459;-0.000192;-81.721669;0.001585;
1141;517;-0.004334;0.272749;0.999999;0.000253;-0.000753;0.001699;-0.000014;0.001699;-0.000753;-89.682962;0.001703;
1211;1512;-0.340286;85.261388;0.999986;0.000828;-0.004549;0.010880;0.002023;0.011140;-0.004810;82.652081;0.011175;
1216;1282;-3.328091;76.372136;0.999626;0.006014;-0.041970;0.097294;0.009836;0.097986;-0.042662;85.980043;0.098258;
1291;347;-0.013368;0.026522;1.000000;0.000061;-0.000173;0.001526;-0.000298;0.001577;-0.000223;-80.327424;0.001706;
1161;812;-0.279937;2.473449;0.999972;0.001388;-0.010618;0.024411;-0.001364;0.024464;-0.010671;-87.772978;0.024530;
1121;1377;0.198887;82.251883;0.999911;0.002422;-0.017443;0.039649;-0.000815;0.039661;-0.017454;-89.182069;0.039756;
1286;352;-0.015921;0.033461;1.000000;0.000086;-0.000188;0.001506;-0.000282;0.001552;-0.000233;-80.794109;0.001674;
1211;1757;-0.047137;86.181642;1.000000;0.000142;-0.000593;0.001606;0.000092;0.001610;-0.000597;87.601115;0.001628;
1191;962;-2.214231;9.897247;0.999692;0.005974;-0.039632;0.092575;-0.006587;0.092903;-0.039959;-87.154534;0.093205;
1066;592;0.076016;0.419054;0.999996;0.000570;-0.000975;0.002284;0.000272;0.002307;-0.000998;85.263222;0.002314;
1261;362;-0.017403;0.045300;1.000000;0.000088;-0.000185;0.001430;-0.000229;0.001462;-0.000217;-82.092281;0.001577;
1291;352;-0.017108;0.033761;1.000000;0.000076;-0.000211;0.001532;-0.000280;0.001576;-0.000255;-81.106100;0.001692;
1206;1277;-3.019769;75.996912;0.999611;0.005915;-0.043296;0.100913;0.008790;0.101447;-0.043830;86.524669;0.101759;
1201;772;-0.464070;1.674549;0.999976;0.001532;-0.007135;0.016565;-0.002483;0.016822;-0.007393;-84.083786;0.016863;
1031;482;0.060818;0.224160;0.999999;0.000168;-0.000576;0.001580;0.000122;0.001587;-0.000583;86.767814;0.001606;
1161;817;-0.290329;2.591517;0.999974;0.001766;-0.011143;0.025573;-0.001397;0.025626;-0.011196;-87.824547;0.025694;
1161;1367;-0.547558;81.846373;0.999860;0.002679;-0.019020;0.043298;0.001954;0.043359;-0.019081;88.205970;0.043462;
1031;1532;0.337646;85.461809;0.999990;0.001107;-0.003588;0.008601;-0.002178;0.008978;-0.003966;-80.166452;0.008999;
1286;357;-0.019548;0.040867;1.000000;0.000080;-0.000220;0.001515;-0.000268;0.001555;-0.000261;-81.418716;0.001666;
1216;927;-2.402282;7.275977;0.999678;0.004725;-0.030567;0.069179;-0.008520;0.069901;-0.031289;-85.152529;0.070029;
1291;357;-0.020644;0.041139;1.000000;0.000089;-0.000244;0.001538;-0.000263;0.001576;-0.000282;-81.785773;0.001681;
1261;367;-0.020116;0.052559;1.000000;0.000074;-0.000212;0.001434;-0.000222;0.001463;-0.000241;-82.453430;0.001569;
1161;1812;-0.011070;86.270082;1.000000;0.000126;-0.000399;0.001488;0.000038;0.001489;-0.000399;88.842516;0.001541;
1316;1832;-0.068504;86.273105;0.999999;0.000233;-0.000525;0.001484;0.000082;0.001487;-0.000528;87.672170;0.001508;
1211;667;-0.137322;0.653888;0.999998;0.000637;-0.001936;0.004887;-0.000950;0.005017;-0.002066;-82.220938;0.005043;
1146;822;-0.135531;2.717698;0.999971;0.001500;-0.011660;0.026841;-0.000682;0.026853;-0.011672;-88.985100;0.026929;
1286;342;-0.009054;0.018714;1.000000;0.000064;-0.000110;0.001489;-0.000311;0.001548;-0.000169;-79.360469;0.001698;
1031;487;0.062486;0.232291;0.999999;0.000154;-0.000588;0.001586;0.000125;0.001594;-0.000595;86.716964;0.001611;
1146;817;-0.127659;2.590837;0.999976;0.001421;-0.011110;0.025676;-0.000650;0.025687;-0.011121;-88.988476;0.025764;
1161;1372;-0.524554;82.061029;0.999897;0.002729;-0.018259;0.041594;0.001881;0.041653;-0.018318;88.202213;0.041754;
1226;1537;-0.295991;85.491114;0.999989;0.000742;-0.003441;0.008274;0.001891;0.008572;-0.003739;81.055662;0.008595;
1291;342;-0.009553;0.019004;1.000000;0.000074;-0.000128;0.001522;-0.000320;0.001582;-0.000188;-79.392537;0.001728;
1216;932;-2.506590;7.625291;0.999677;0.004757;-0.031922;0.072300;-0.008712;0.073023;-0.032646;-85.254752;0.073159;
991;342;0.008258;0.018301;1.000000;0.000052;-0.000092;0.001454;0.000295;0.001508;-0.000146;79.549084;0.001664;
1321;1832;-0.075796;86.269426;0.999987;0.000977;-0.000553;0.001465;0.000081;0.001468;-0.000556;87.701799;0.001482;
1296;357;-0.021527;0.041738;1.000000;0.000087;-0.000278;0.001567;-0.000258;0.001603;-0.000313;-82.179846;0.001699;
1151;822;-0.191204;2.717975;0.999980;0.001221;-0.011668;0.026824;-0.000947;0.026847;-0.011692;-88.590962;0.026922;
1226;642;-0.126725;0.545365;0.999998;0.000428;-0.001396;0.003616;-0.000783;0.003736;-0.001515;-81.326788;0.003758;
1031;492;0.064085;0.239533;0.999999;0.000204;-0.000600;0.001593;0.000127;0.001600;-0.000607;86.690033;0.001616;
1161;1377;-0.500143;82.257639;0.999920;0.002546;-0.017534;0.039922;0.001837;0.039981;-0.017593;88.170784;0.040077;
1161;802;-0.256161;2.234387;0.999977;0.001703;-0.009627;0.022266;-0.001240;0.022315;-0.009675;-87.776516;0.022380;
1126;1802;0.003079;86.255911;1.000000;0.000122;-0.000434;0.001501;-0.000010;0.001501;-0.000434;-89.716139;0.001545;
1161;1492;-0.156717;85.038770;0.999986;0.000856;-0.005580;0.013541;0.000834;0.013577;-0.005616;87.505748;0.013645;
986;357;0.018785;0.040354;1.000000;0.000080;-0.000203;0.001504;0.000270;0.001545;-0.000245;81.229295;0.001661;
991;347;0.011396;0.025397;1.000000;0.000053;-0.000124;0.001465;0.000287;0.001515;-0.000174;80.076519;0.001658;
1166;947;-1.079818;8.563899;0.999675;0.005244;-0.034264;0.079388;-0.003351;0.079486;-0.034362;-88.312394;0.079729;
1286;362;-0.023088;0.048199;1.000000;0.000067;-0.000250;0.001520;-0.000255;0.001556;-0.000286;-81.956997;0.001657;
1156;822;-0.246410;2.716322;0.999977;0.001809;-0.011690;0.026799;-0.001194;0.026836;-0.011727;-88.224427;0.026907;
1231;642;-0.133946;0.543426;0.999998;0.000556;-0.001394;0.003636;-0.000832;0.003770;-0.001528;-80.848518;0.003793;
1131;822;0.039781;2.718808;0.999952;0.001878;-0.011666;0.026879;0.000116;0.026879;-0.011666;89.827821;0.026957;
1116;1377;0.285474;82.254650;0.999890;0.002586;-0.017473;0.039669;-0.001156;0.039693;-0.017496;-88.841300;0.039785;
1276;1722;-0.099530;86.120481;0.999999;0.000166;-0.000565;0.001540;0.000205;0.001559;-0.000585;84.496690;0.001575;
991;357;0.017713;0.039670;1.000000;0.000081;-0.000186;0.001483;0.000267;0.001525;-0.000228;81.136530;0.001645;
1076;532;0.047496;0.301422;0.999999;0.000241;-0.000764;0.001747;0.000121;0.001753;-0.000769;87.239549;0.001757;
1201;1742;-0.045083;86.158356;1.000000;0.000094;-0.000637;0.001628;0.000091;0.001632;-0.000641;87.700104;0.001644;
1191;1502;-0.286655;85.158985;0.999988;0.000814;-0.005047;0.012161;0.001649;0.012317;-0.005204;84.576060;0.012366;
991;352;0.014384;0.032448;1.000000;0.000075;-0.000156;0.001476;0.000277;0.001522;-0.000202;80.619415;0.001653;
1206;952;-2.592110;9.095822;0.999607;0.005803;-0.037296;0.085591;-0.008175;0.086132;-0.037838;-86.210502;0.086344;
1291;362;-0.024320;0.048881;1.000000;0.000092;-0.000273;0.001542;-0.000248;0.001575;-0.000307;-82.346143;0.001670;
1161;822;-0.303213;2.715774;0.999969;0.002446;-0.011697;0.026777;-0.001445;0.026832;-0.011751;-87.852479;0.026900;
1236;632;-0.128606;0.508581;0.999998;0.000429;-0.001201;0.003171;-0.000737;0.003292;-0.001322;-80.682251;0.003313;
1136;822;-0.014605;2.718427;0.999968;0.001555;-0.011666;0.026862;-0.000144;0.026863;-0.011666;-89.786413;0.026940;
996;342;0.007792;0.018002;1.000000;0.000051;-0.000087;0.001435;0.000282;0.001486;-0.000137;79.827741;0.001642;
1131;1382;0.025357;82.456532;0.999945;0.001894;-0.016666;0.038006;-0.000136;0.038006;-0.016666;-89.857446;0.038102;
946;437;0.095286;0.182330;0.999928;0.002369;-0.000846;0.001573;0.000122;0.001579;-0.000852;87.119865;0.001581;
1266;372;-0.024054;0.060230;1.000000;0.000067;-0.000250;0.001460;-0.000220;0.001488;-0.000278;-82.785473;0.001582;
1201;1747;-0.043540;86.166169;1.000000;0.000089;-0.000624;0.001622;0.000087;0.001625;-0.000627;87.774802;0.001639;
1241;1517;-0.449449;85.309023;0.999991;0.001007;-0.004392;0.010306;0.002684;0.010781;-0.004867;79.967681;0.010798;
1231;1847;-0.026936;86.317491;1.000000;0.000192;-0.000304;0.001459;0.000154;0.001472;-0.000317;85.056089;0.001549;
1171;957;-1.354728;9.399692;0.999611;0.006069;-0.037327;0.087324;-0.004103;0.087459;-0.037461;-88.116848;0.087757;
1031;367;0.015770;0.050878;1.000000;0.000077;-0.000180;0.001391;0.000186;0.001413;-0.000202;83.347950;0.001528;
1001;342;0.007472;0.017841;1.000000;0.000062;-0.000083;0.001420;0.000270;0.001467;-0.000130;80.123306;0.001624;
1201;777;-0.488024;1.756030;0.999970;0.001900;-0.007528;0.017456;-0.002585;0.017721;-0.007793;-84.154762;0.017763;
1236;637;-0.135025;0.524752;0.999999;0.000502;-0.001291;0.003414;-0.000806;0.003548;-0.001425;-80.547387;0.003571;
1136;1382;-0.064887;82.455796;0.999951;0.002756;-0.016702;0.038054;0.000203;0.038055;-0.016702;89.787827;0.038149;
1151;827;-0.199334;2.855184;0.999974;0.001414;-0.012244;0.028008;-0.000993;0.028032;-0.012268;-88.587305;0.028105;
991;362;0.020651;0.046830;1.000000;0.000065;-0.000217;0.001489;0.000257;0.001527;-0.000255;81.621454;0.001636;
1246;1517;-0.470535;85.306703;0.999991;0.000836;-0.004406;0.010307;0.002812;0.010826;-0.004925;79.542130;0.010841;
1201;1752;-0.042132;86.174617;1.000000;0.000107;-0.000609;0.001615;0.000084;0.001618;-0.000613;87.832081;0.001634;
1121;532;0.011403;0.300136;0.999999;0.000355;-0.000834;0.001815;0.000033;0.001815;-0.000834;89.276158;0.001817;
956;1707;0.120332;86.105390;1.000000;0.000170;-0.000653;0.001271;-0.000179;0.001287;-0.000669;-84.726433;0.001288;
1176;957;-1.546101;9.417054;0.999717;0.005248;-0.037440;0.087506;-0.004703;0.087682;-0.037617;-87.847330;0.087976;
1006;342;0.007180;0.017800;1.000000;0.000072;-0.000078;0.001407;0.000258;0.001450;-0.000122;80.407233;0.001609;
991;367;0.023998;0.054631;1.000000;0.000060;-0.000246;0.001494;0.000246;0.001528;-0.000281;82.104039;0.001627;
1211;772;-0.536611;1.674698;0.999971;0.001311;-0.007174;0.016543;-0.002848;0.016880;-0.007511;-83.247183;0.016914;
1226;647;-0.132493;0.563838;0.999997;0.000508;-0.001493;0.003843;-0.000851;0.003976;-0.001625;-81.151317;0.003998;
1141;1382;-0.154284;82.454911;0.999942;0.003049;-0.016745;0.038120;0.000518;0.038125;-0.016749;89.458652;0.038218;
1281;362;-0.021684;0.047328;1.000000;0.000063;-0.000231;0.001499;-0.000258;0.001537;-0.000268;-81.711765;0.001642;
1156;827;-0.260990;2.856214;0.999969;0.001954;-0.012265;0.027995;-0.001253;0.028034;-0.012304;-88.219182;0.028104;
1251;1517;-0.492615;85.304483;0.999986;0.001063;-0.004414;0.010303;0.002937;0.010868;-0.004978;79.121423;0.010880;
961;1707;0.118355;86.104890;1.000000;0.000194;-0.000618;0.001323;-0.000196;0.001342;-0.000637;-84.295096;0.001343;
1201;1737;-0.046596;86.150373;1.000000;0.000106;-0.000652;0.001635;0.000097;0.001640;-0.000656;87.580513;0.001650;
1051;497;0.054008;0.245918;0.999999;0.000253;-0.000624;0.001617;0.000106;0.001622;-0.000629;87.303169;0.001636;
1176;962;-1.614401;9.834644;0.999712;0.005045;-0.039015;0.091605;-0.004818;0.091782;-0.039193;-87.890483;0.092107;
996;377;0.028893;0.068337;1.000000;0.000074;-0.000289;0.001499;0.000217;0.001525;-0.000315;83.180414;0.001610;
991;372;0.027095;0.061890;1.000000;0.000082;-0.000275;0.001505;0.000234;0.001535;-0.000305;82.637666;0.001625;
981;342;0.009091;0.018981;1.000000;0.000066;-0.000117;0.001506;0.000313;0.001564;-0.000175;79.458520;0.001714;
1211;777;-0.565451;1.755723;0.999951;0.001633;-0.007579;0.017440;-0.002962;0.017785;-0.007925;-83.339731;0.017821;
1146;1382;-0.242412;82.453932;0.999951;0.002461;-0.016787;0.038162;0.000834;0.038175;-0.016800;89.130717;0.038266;
1236;1517;-0.427131;85.308156;0.999991;0.000872;-0.004378;0.010317;0.002567;0.010753;-0.004813;80.369732;0.010773;
966;1707;0.116482;86.103202;1.000000;0.000154;-0.000598;0.001368;-0.000210;0.001390;-0.000620;-83.961629;0.001393;
1206;772;-0.499874;1.674271;0.999973;0.001581;-0.007158;0.016555;-0.002669;0.016852;-0.007455;-83.657669;0.016889;
1091;612;0.054702;0.474036;0.999997;0.000420;-0.001177;0.002692;0.000224;0.002705;-0.001190;86.703490;0.002711;
976;342;0.009740;0.019350;1.000000;0.000081;-0.000134;0.001542;0.000320;0.001601;-0.000193;79.546191;0.001747;
1056;497;0.050596;0.245018;0.999999;0.000229;-0.000627;0.001618;0.000098;0.001622;-0.000631;87.497833;0.001635;
1176;967;-1.683966;10.249323;0.999620;0.004809;-0.040642;0.095768;-0.004909;0.095945;-0.040819;-87.941583;0.096300;
1046;1747;0.055248;86.165546;1.000000;0.000138;-0.000614;0.001613;-0.000106;0.001618;-0.000619;-87.271245;0.001633;
1261;372;-0.023125;0.059824;1.000000;0.000077;-0.000238;0.001445;-0.000215;0.001472;-0.000265;-82.820003;0.001569;
981;347;0.012857;0.026326;1.000000;0.000080;-0.000158;0.001513;0.000296;0.001565;-0.000209;80.232918;0.001699;
1226;792;-0.797423;2.036165;0.999969;0.001460;-0.008973;0.020159;-0.004020;0.020704;-0.009517;-82.284871;0.020726;
1206;677;-0.144887;0.706256;0.999997;0.000461;-0.002208;0.005552;-0.001021;0.005684;-0.002340;-82.629503;0.005714;
976;347;0.013551;0.026878;1.000000;0.000093;-0.000180;0.001545;0.000297;0.001595;-0.000230;80.490842;0.001725;
1126;1382;0.108872;82.453769;0.999931;0.001910;-0.016671;0.037972;-0.000475;0.037976;-0.016675;-89.502417;0.038070;
1096;612;0.049019;0.474706;0.999997;0.000436;-0.001192;0.002708;0.000199;0.002718;-0.001202;87.091375;0.002724;
986;342;0.008697;0.018581;1.000000;0.000052;-0.000101;0.001476;0.000305;0.001533;-0.000158;79.417578;0.001687;
1001;377;0.027526;0.067514;1.000000;0.000059;-0.000279;0.001483;0.000213;0.001508;-0.000304;83.210860;0.001595;
1211;1277;-3.254911;75.945465;0.999651;0.006608;-0.043521;0.101788;0.009607;0.102421;-0.044153;86.233814;0.102745;
1061;497;0.047400;0.244308;0.999999;0.000217;-0.000630;0.001619;0.000093;0.001623;-0.000634;87.645060;0.001636;
996;352;0.013516;0.031983;1.000000;0.000065;-0.000147;0.001458;0.000267;0.001501;-0.000191;80.794617;0.001634;
981;352;0.016430;0.033996;1.000000;0.000074;-0.000194;0.001521;0.000281;0.001566;-0.000238;80.934562;0.001688;
1181;967;-1.885689;10.276905;0.999675;0.005999;-0.040877;0.096081;-0.005495;0.096301;-0.041097;-87.705931;0.096645;
1231;792;-0.842464;2.036113;0.999977;0.001531;-0.008977;0.020127;-0.004235;0.020731;-0.009581;-81.887739;0.020751;
1061;587;0.078956;0.407582;0.999997;0.000500;-0.000937;0.002183;0.000268;0.002206;-0.000960;85.132891;0.002212;
976;352;0.017426;0.034329;1.000000;0.000067;-0.000218;0.001549;0.000277;0.001592;-0.000261;81.285935;0.001707;
986;347;0.012207;0.025831;1.000000;0.000058;-0.000138;0.001486;0.000294;0.001538;-0.000189;80.049705;0.001677;
1151;1382;-0.322783;82.449341;0.999946;0.002060;-0.016792;0.038193;0.001153;0.038217;-0.016816;88.799183;0.038309;
1216;1277;-3.473689;75.909573;0.999618;0.005535;-0.043779;0.102736;0.010399;0.103470;-0.044514;85.960563;0.103805;
1296;342;-0.009980;0.019337;1.000000;0.000066;-0.000152;0.001561;-0.000332;0.001623;-0.000214;-79.406922;0.001763;
1101;612;0.042408;0.474943;0.999997;0.000481;-0.001206;0.002721;0.000173;0.002729;-0.001214;87.475958;0.002734;
1266;362;-0.018372;0.045680;1.000000;0.000063;-0.000196;0.001446;-0.000236;0.001479;-0.000230;-81.976821;0.001592;
996;357;0.016589;0.039154;1.000000;0.000069;-0.000177;0.001465;0.000258;0.001504;-0.000217;81.271962;0.001626;
1186;967;-2.093871;10.288697;0.999566;0.006188;-0.041082;0.096429;-0.006066;0.096696;-0.041349;-87.479218;0.097033;
1011;472;0.068861;0.210501;0.999999;0.000238;-0.000536;0.001539;0.000129;0.001547;-0.000544;86.443745;0.001570;
1236;792;-0.886800;2.038410;0.999975;0.001495;-0.008979;0.020089;-0.004455;0.020756;-0.009646;-81.479866;0.020773;
1301;342;-0.010530;0.019999;1.000000;0.000073;-0.000162;0.001598;-0.000348;0.001664;-0.000228;-79.219662;0.001805;
1306;547;-0.122463;0.321177;0.999997;0.000427;-0.000443;0.001438;-0.000255;0.001472;-0.000477;-82.421498;0.001503;
1296;347;-0.013998;0.026927;1.000000;0.000055;-0.000201;0.001562;-0.000304;0.001613;-0.000252;-80.475900;0.001736;
1246;377;-0.022060;0.065591;1.000000;0.000066;-0.000233;0.001428;-0.000192;0.001450;-0.000255;-83.507067;0.001548;
1156;1382;-0.399247;82.439388;0.999940;0.002121;-0.016797;0.038237;0.001471;0.038276;-0.016836;88.469904;0.038369;
1266;367;-0.021148;0.052996;1.000000;0.000066;-0.000224;0.001449;-0.000228;0.001480;-0.000254;-82.377928;0.001583;
996;362;0.019657;0.046318;1.000000;0.000067;-0.000207;0.001471;0.000249;0.001507;-0.000243;81.726509;0.001618;
1131;1287;0.077861;77.068755;0.999545;0.006251;-0.036432;0.085509;-0.000305;0.085509;-0.036433;-89.856497;0.085820;
1246;632;-0.139260;0.502355;0.999997;0.000520;-0.001188;0.003186;-0.000820;0.003335;-0.001336;-79.727110;0.003357;
1301;347;-0.014702;0.027681;1.000000;0.000062;-0.000212;0.001596;-0.000317;0.001650;-0.000266;-80.349012;0.001772;
1191;967;-2.315507;10.322326;0.999642;0.006242;-0.041334;0.096868;-0.006678;0.097189;-0.041656;-87.239932;0.097519;
1126;817;0.093942;2.596617;0.999972;0.001670;-0.011150;0.025797;0.000391;0.025801;-0.011154;89.393213;0.025880;
1311;547;-0.126657;0.318125;0.999991;0.000887;-0.000434;0.001429;-0.000242;0.001460;-0.000464;-82.727420;0.001491;
1191;502;-0.037161;0.250436;0.999999;0.000313;-0.000644;0.001622;-0.000078;0.001625;-0.000647;-88.038760;0.001636;
1296;352;-0.017844;0.034282;1.000000;0.000072;-0.000243;0.001563;-0.000279;0.001606;-0.000286;-81.410176;0.001713;
1251;377;-0.023237;0.065977;1.000000;0.000070;-0.000241;0.001437;-0.000199;0.001460;-0.000264;-83.327089;0.001556;
1161;1382;-0.480667;82.434844;0.999937;0.002458;-0.016812;0.038278;0.001786;0.038336;-0.016870;88.144708;0.038428;
1271;357;-0.016336;0.038772;1.000000;0.000055;-0.000177;0.001457;-0.000254;0.001496;-0.000216;-81.372528;0.001617;
1301;352;-0.018733;0.034947;1.000000;0.000079;-0.000256;0.001594;-0.000288;0.001638;-0.000300;-81.347819;0.001744;
1136;1287;-0.117940;77.065111;0.999486;0.006694;-0.036468;0.085568;0.000218;0.085568;-0.036469;89.897861;0.085878;
996;367;0.022663;0.053716;1.000000;0.000066;-0.000236;0.001476;0.000240;0.001509;-0.000268;82.181800;0.001610;
1211;952;-2.776654;9.122364;0.999633;0.004635;-0.037470;0.085978;-0.008826;0.086605;-0.038098;-85.931314;0.086814;
1246;637;-0.145257;0.519564;0.999998;0.000416;-0.001282;0.003441;-0.000898;0.003606;-0.001447;-79.585850;0.003629;
1241;632;-0.134283;0.505729;0.999998;0.000484;-0.001191;0.003175;-0.000777;0.003309;-0.001325;-80.203135;0.003331;
1306;342;-0.011223;0.020767;1.000000;0.000101;-0.000174;0.001640;-0.000363;0.001711;-0.000244;-79.082726;0.001851;
1086;782;0.381409;1.844197;0.999970;0.001494;-0.007979;0.018486;0.001886;0.018620;-0.008113;85.943935;0.018671;
966;452;0.082033;0.190446;0.999999;0.000256;-0.000642;0.001495;0.000062;0.001497;-0.000644;88.328820;0.001502;
1261;377;-0.025814;0.067150;1.000000;0.000085;-0.000263;0.001458;-0.000208;0.001483;-0.000287;-83.207433;0.001573;
1276;357;-0.017359;0.039322;1.000000;0.000064;-0.000187;0.001474;-0.000263;0.001515;-0.000228;-81.203244;0.001634;
976;357;0.020934;0.041562;1.000000;0.000070;-0.000251;0.001552;0.000260;0.001589;-0.000288;81.944428;0.001693;
1121;1382;0.189545;82.450293;0.999930;0.002280;-0.016673;0.037945;-0.000812;0.037957;-0.016685;-89.148544;0.038049;
1216;952;-2.956926;9.142844;0.999665;0.005759;-0.037692;0.086379;-0.009462;0.087097;-0.038410;-85.663727;0.087299;
1171;1272;-1.600912;75.680367;0.999535;0.006341;-0.042884;0.100955;0.004218;0.101079;-0.043007;88.321599;0.101452;
1011;377;0.024998;0.066947;1.000000;0.000067;-0.000253;0.001455;0.000207;0.001480;-0.000278;83.192524;0.001573;
1246;642;-0.153385;0.538131;0.999997;0.000356;-0.001389;0.003697;-0.000984;0.003881;-0.001572;-79.422852;0.003904;
1306;347;-0.015756;0.028893;1.000000;0.000081;-0.000226;0.001634;-0.000329;0.001691;-0.000283;-80.274344;0.001811;
1241;637;-0.139575;0.521793;0.999998;0.000401;-0.001285;0.003424;-0.000850;0.003573;-0.001433;-80.069233;0.003596;
1281;347;-0.011749;0.025680;1.000000;0.000055;-0.000134;0.001473;-0.000292;0.001524;-0.000185;-80.021035;0.001663;
1161;827;-0.321948;2.853654;0.999961;0.002859;-0.012268;0.027988;-0.001520;0.028045;-0.012325;-87.841051;0.028113;
1261;382;-0.028257;0.074449;1.000000;0.000084;-0.000286;0.001470;-0.000199;0.001492;-0.000308;-83.619732;0.001575;
1066;502;0.045770;0.251948;0.999999;0.000205;-0.000648;0.001629;0.000090;0.001633;-0.000652;87.741129;0.001644;
981;357;0.019851;0.040943;1.000000;0.000063;-0.000226;0.001527;0.000266;0.001566;-0.000265;81.542256;0.001677;
1221;942;-2.908815;8.387535;0.999713;0.004346;-0.034887;0.079485;-0.009636;0.080291;-0.035693;-85.217708;0.080455;
1166;1372;-0.616611;82.054626;0.999893;0.002556;-0.018299;0.041643;0.002238;0.041726;-0.018383;87.865206;0.041825;
1306;352;-0.020403;0.036702;1.000000;0.000084;-0.000271;0.001627;-0.000296;0.001672;-0.000316;-81.336802;0.001776;
1171;1277;-1.533348;76.159600;0.999634;0.005189;-0.041086;0.095768;0.004134;0.095892;-0.041210;88.271493;0.096207;
1016;377;0.024134;0.066383;1.000000;0.000100;-0.000243;0.001444;0.000202;0.001468;-0.000267;83.258766;0.001564;
1231;652;-0.146782;0.582306;0.999997;0.000490;-0.001604;0.004140;-0.000983;0.004303;-0.001768;-80.553400;0.004326;
1241;642;-0.146831;0.540559;0.999998;0.000396;-0.001388;0.003674;-0.000930;0.003840;-0.001553;-79.907288;0.003863;
1281;352;-0.015052;0.032881;1.000000;0.000068;-0.000169;0.001483;-0.000281;0.001530;-0.000215;-80.610763;0.001656;
1221;947;-3.032156;8.743634;0.999712;0.005226;-0.036380;0.083027;-0.009799;0.083826;-0.037179;-85.339469;0.084004;
1261;387;-0.031031;0.081539;1.000000;0.000075;-0.000308;0.001479;-0.000189;0.001499;-0.000327;-84.019816;0.001576;
1166;802;-0.298928;2.233151;0.999974;0.001705;-0.009596;0.022256;-0.001467;0.022323;-0.009664;-87.368382;0.022390;
1271;362;-0.019345;0.046021;1.000000;0.000055;-0.000206;0.001463;-0.000244;0.001498;-0.000242;-81.837089;0.001609;
1051;502;0.055487;0.254057;0.999999;0.000246;-0.000637;0.001627;0.000110;0.001632;-0.000642;87.230094;0.001644;
1166;1377;-0.588408;82.248376;0.999909;0.002417;-0.017567;0.039956;0.002172;0.040038;-0.017649;87.840294;0.040131;
1246;382;-0.024224;0.072651;1.000000;0.000063;-0.000256;0.001441;-0.000186;0.001461;-0.000277;-83.817524;0.001552;
1171;1282;-1.468902;76.628756;0.999574;0.005014;-0.039373;0.091237;0.004050;0.091362;-0.039498;88.225681;0.091641;
1266;382;-0.029732;0.075076;1.000000;0.000085;-0.000298;0.001482;-0.000200;0.001505;-0.000320;-83.660332;0.001585;
1236;652;-0.154011;0.580405;0.999998;0.000366;-0.001609;0.004176;-0.001039;0.004357;-0.001790;-80.117416;0.004380;
1281;357;-0.018320;0.039912;1.000000;0.000070;-0.000201;0.001493;-0.000269;0.001535;-0.000242;-81.190983;0.001650;
1231;647;-0.139799;0.562393;0.999997;0.000571;-0.001494;0.003872;-0.000905;0.004020;-0.001643;-80.685398;0.004043;
1221;952;-3.153587;9.155154;0.999632;0.007350;-0.037924;0.086769;-0.010060;0.087575;-0.038731;-85.416984;0.087770;
971;1707;0.113801;86.101600;1.000000;0.000176;-0.000586;0.001408;-0.000220;0.001432;-0.000610;-83.770004;0.001437;
1246;387;-0.026363;0.079554;1.000000;0.000074;-0.000279;0.001452;-0.000180;0.001470;-0.000297;-84.130136;0.001555;
1166;807;-0.316732;2.346716;0.999974;0.001487;-0.010080;0.023302;-0.001544;0.023373;-0.010152;-87.357536;0.023440;
1056;502;0.051848;0.253186;0.999999;0.000289;-0.000640;0.001628;0.000103;0.001632;-0.000645;87.414356;0.001644;
1166;1382;-0.563474;82.431117;0.999918;0.002496;-0.016835;0.038297;0.002099;0.038376;-0.016915;87.822681;0.038466;
1251;382;-0.025492;0.073083;1.000000;0.000081;-0.000264;0.001450;-0.000193;0.001471;-0.000285;-83.663200;0.001560;
1176;1272;-1.821107;75.667916;0.999573;0.006524;-0.043189;0.101590;0.004895;0.101756;-0.043354;88.065615;0.102126;
1266;387;-0.032467;0.082215;1.000000;0.000079;-0.000319;0.001490;-0.000189;0.001509;-0.000339;-84.101592;0.001584;
1241;652;-0.161988;0.577595;0.999998;0.000377;-0.001616;0.004213;-0.001101;0.004414;-0.001817;-79.658122;0.004437;
1006;347;0.009764;0.024720;1.000000;0.000060;-0.000106;0.001416;0.000252;0.001456;-0.000147;80.843817;0.001603;
951;1707;0.123996;86.097270;0.999936;0.002774;-0.000709;0.001216;-0.000156;0.001229;-0.000722;-85.410533;0.001235;
1236;647;-0.147299;0.560728;0.999998;0.000476;-0.001495;0.003900;-0.000957;0.004064;-0.001660;-80.238143;0.004087;
1151;957;-0.598972;9.330641;0.999722;0.004925;-0.036962;0.086762;-0.001902;0.086791;-0.036991;-89.119296;0.087106;
1241;387;-0.025189;0.079155;1.000000;0.000060;-0.000273;0.001444;-0.000173;0.001461;-0.000290;-84.293606;0.001547;
1061;502;0.048724;0.252310;0.999999;0.000231;-0.000645;0.001630;0.000097;0.001634;-0.000649;87.569889;0.001645;
1081;782;0.422452;1.844663;0.999966;0.001689;-0.007969;0.018466;0.002082;0.018629;-0.008132;85.523638;0.018679;
1141;1387;-0.139384;82.638559;0.999939;0.003211;-0.016051;0.036556;0.000534;0.036561;-0.016057;89.418137;0.036651;
1256;377;-0.024488;0.066604;1.000000;0.000072;-0.000251;0.001446;-0.000205;0.001471;-0.000275;-83.220371;0.001564;
996;347;0.010592;0.025063;1.000000;0.000054;-0.000117;0.001447;0.000275;0.001494;-0.000164;80.305137;0.001638;
1181;1272;-2.042905;75.643178;0.999518;0.006498;-0.043578;0.102248;0.005521;0.102457;-0.043787;87.834910;0.102816;
1246;647;-0.161106;0.556033;0.999997;0.000462;-0.001503;0.003961;-0.001072;0.004164;-0.001705;-79.288115;0.004186;
1266;392;-0.035320;0.089508;1.000000;0.000093;-0.000339;0.001495;-0.000179;0.001512;-0.000357;-84.482387;0.001581;
976;1707;0.111487;86.100976;0.999999;0.000192;-0.000519;0.001458;-0.000252;0.001489;-0.000551;-82.838778;0.001506;
1241;647;-0.153785;0.558669;0.999998;0.000372;-0.001498;0.003930;-0.001013;0.004113;-0.001681;-79.767175;0.004135;
1156;957;-0.784733;9.361264;0.999710;0.005404;-0.037036;0.086875;-0.002415;0.086922;-0.037083;-88.883832;0.087233;
1236;377;-0.019721;0.064733;1.000000;0.000072;-0.000223;0.001412;-0.000176;0.001431;-0.000242;-83.920289;0.001532;
1001;347;0.010219;0.024832;1.000000;0.000057;-0.000112;0.001431;0.000263;0.001474;-0.000156;80.585697;0.001620;
1226;797;-0.840137;2.141456;0.999972;0.001634;-0.009432;0.021105;-0.004199;0.021672;-0.009999;-82.312464;0.021693;
1221;1282;-3.530908;76.331455;0.999636;0.005844;-0.042216;0.097962;0.010527;0.098749;-0.043002;85.729160;0.099022;
1146;1387;-0.222164;82.630954;0.999943;0.002140;-0.016087;0.036582;0.000834;0.036595;-0.016100;89.092760;0.036683;
1256;382;-0.027014;0.073735;1.000000;0.000096;-0.000274;0.001459;-0.000197;0.001481;-0.000296;-83.589148;0.001567;
1231;507;-0.063866;0.262248;0.999999;0.000284;-0.000631;0.001621;-0.000127;0.001628;-0.000638;-86.772792;0.001641;
1246;652;-0.170257;0.575771;0.999997;0.000491;-0.001622;0.004249;-0.001163;0.004471;-0.001844;-79.197832;0.004494;
981;362;0.023301;0.048329;1.000000;0.000076;-0.000256;0.001531;0.000254;0.001566;-0.000291;82.063255;0.001666;
1311;1892;-0.022616;86.371347;1.000000;0.000179;-0.000314;0.001681;0.000306;0.001726;-0.000360;81.477753;0.001822;
1241;627;-0.129278;0.490673;0.999997;0.000656;-0.001106;0.002968;-0.000714;0.003089;-0.001228;-80.342401;0.003111;
1161;957;-0.981957;9.381347;0.999665;0.006232;-0.037165;0.086997;-0.002963;0.087068;-0.037236;-88.633828;0.087371;
1236;382;-0.021823;0.071829;1.000000;0.000069;-0.000246;0.001426;-0.000172;0.001443;-0.000263;-84.188731;0.001538;
1231;797;-0.886664;2.143791;0.999979;0.001568;-0.009433;0.021042;-0.004420;0.021670;-0.010061;-81.911850;0.021689;
971;342;0.010082;0.019564;1.000000;0.000090;-0.000169;0.001578;0.000334;0.001639;-0.000231;79.545489;0.001775;
1206;1272;-3.162719;75.478260;0.999636;0.006414;-0.045310;0.106148;0.009044;0.106686;-0.045848;86.594647;0.107036;
1026;377;0.021152;0.065260;1.000000;0.000074;-0.000231;0.001427;0.000188;0.001448;-0.000252;83.619251;0.001547;
1151;1387;-0.300520;82.621855;0.999941;0.001991;-0.016085;0.036593;0.001138;0.036617;-0.016110;88.763236;0.036705;
951;442;0.083598;0.181793;0.999999;0.000258;-0.000772;0.001543;0.000098;0.001547;-0.000776;87.588317;0.001547;
1316;1892;-0.024647;86.369001;1.000000;0.000142;-0.000349;0.001717;0.000310;0.001762;-0.000394;81.652948;0.001850;
1246;627;-0.134534;0.488298;0.999997;0.000604;-0.001102;0.002975;-0.000752;0.003109;-0.001237;-79.872715;0.003131;
981;367;0.026961;0.056420;1.000000;0.000117;-0.000284;0.001534;0.000242;0.001565;-0.000316;82.557132;0.001655;
1221;647;-0.124623;0.565678;0.999997;0.000460;-0.001490;0.003812;-0.000799;0.003930;-0.001608;-81.615149;0.003952;
971;347;0.014145;0.027273;1.000000;0.000097;-0.000227;0.001580;0.000302;0.001629;-0.000276;80.767898;0.001744;
1236;797;-0.934024;2.145513;0.999976;0.001388;-0.009431;0.020961;-0.004649;0.021656;-0.010126;-81.494929;0.021671;
1236;387;-0.023801;0.078835;1.000000;0.000053;-0.000268;0.001437;-0.000167;0.001453;-0.000284;-84.456316;0.001541;
1211;1272;-3.401196;75.436211;0.999700;0.007067;-0.045550;0.107033;0.009886;0.107671;-0.046187;86.308407;0.108032;
1321;1882;-0.043364;86.347576;0.999991;0.000878;-0.000458;0.001716;0.000231;0.001741;-0.000482;83.994623;0.001797;
1116;937;0.585667;7.841934;0.999693;0.004550;-0.031246;0.072214;0.001650;0.072240;-0.031273;89.086438;0.072456;
1131;1387;0.022114;82.644393;0.999952;0.002005;-0.015985;0.036454;-0.000107;0.036454;-0.015986;-89.882561;0.036546;
1031;372;0.017934;0.057841;1.000000;0.000080;-0.000203;0.001405;0.000182;0.001425;-0.000224;83.624640;0.001533;
1021;497;0.072331;0.248301;0.999999;0.000225;-0.000594;0.001586;0.000142;0.001595;-0.000604;86.281808;0.001611;
986;367;0.025436;0.055559;1.000000;0.000070;-0.000264;0.001513;0.000247;0.001547;-0.000298;82.226951;0.001642;
1036;557;0.087377;0.345587;0.999997;0.000504;-0.000707;0.001765;0.000224;0.001785;-0.000727;84.865085;0.001795;
1321;1887;-0.035047;86.359228;0.999994;0.000680;-0.000436;0.001736;0.000272;0.001769;-0.000469;82.963877;0.001833;
1236;657;-0.162899;0.601692;0.999997;0.000382;-0.001734;0.004487;-0.001126;0.004684;-0.001931;-80.049562;0.004708;
1216;1272;-3.631764;75.396701;0.999702;0.005335;-0.045813;0.107996;0.010708;0.108738;-0.046555;86.036589;0.109112;
1241;372;-0.018602;0.057987;1.000000;0.000067;-0.000204;0.001405;-0.000187;0.001426;-0.000226;-83.444251;0.001533;
991;377;0.030417;0.069546;1.000000;0.000084;-0.000301;0.001515;0.000220;0.001541;-0.000327;83.185595;0.001624;
1106;787;0.237351;1.930067;0.999973;0.001331;-0.008403;0.019518;0.001170;0.019567;-0.008452;87.604470;0.019628;
1116;942;0.615250;8.185257;0.999664;0.005265;-0.032561;0.075485;0.001710;0.075512;-0.032588;89.093314;0.075748;
1136;1387;-0.056945;82.641229;0.999954;0.002742;-0.016020;0.036504;0.000225;0.036505;-0.016021;89.755007;0.036595;
976;362;0.024435;0.049027;1.000000;0.000084;-0.000280;0.001554;0.000246;0.001587;-0.000312;82.489394;0.001681;
1321;1892;-0.027463;86.368198;0.999997;0.000443;-0.000392;0.001758;0.000316;0.001803;-0.000438;81.803539;0.001881;
966;457;0.083966;0.196850;0.999999;0.000252;-0.000657;0.001485;0.000059;0.001487;-0.000659;88.430526;0.001490;
1251;397;-0.032729;0.094925;1.000000;0.000096;-0.000330;0.001476;-0.000171;0.001492;-0.000346;-84.633924;0.001562;
1036;562;0.089723;0.354733;0.999998;0.000469;-0.000719;0.001791;0.000239;0.001813;-0.000742;84.614666;0.001823;
1221;1277;-3.692924;75.862040;0.999587;0.005012;-0.043985;0.103697;0.011205;0.104542;-0.044830;85.685699;0.104894;
1241;657;-0.171259;0.600861;0.999997;0.000429;-0.001745;0.004527;-0.001191;0.004746;-0.001963;-79.605572;0.004769;
1241;377;-0.020915;0.065143;1.000000;0.000073;-0.000228;0.001420;-0.000184;0.001440;-0.000248;-83.716730;0.001539;
986;362;0.022087;0.047606;1.000000;0.000068;-0.000234;0.001509;0.000259;0.001547;-0.000272;81.733601;0.001652;
1226;787;-0.755324;1.936462;0.999974;0.001254;-0.008520;0.019188;-0.003869;0.019718;-0.009050;-82.198066;0.019740;
1101;787;0.276093;1.930770;0.999972;0.001078;-0.008415;0.019524;0.001372;0.019591;-0.008483;87.195058;0.019650;
1156;1387;-0.377500;82.614314;0.999931;0.002383;-0.016075;0.036616;0.001440;0.036656;-0.016115;88.435661;0.036745;
1276;362;-0.020432;0.046533;1.000000;0.000069;-0.000217;0.001480;-0.000253;0.001517;-0.000254;-81.698707;0.001626;
996;1767;0.077030;86.192714;1.000000;0.000121;-0.000521;0.001512;-0.000131;0.001520;-0.000530;-86.338984;0.001543;
1236;1847;-0.028540;86.317263;1.000000;0.000201;-0.000310;0.001465;0.000158;0.001478;-0.000324;84.955181;0.001554;
1016;482;0.069893;0.226249;0.999999;0.000285;-0.000560;0.001561;0.000136;0.001570;-0.000568;86.349117;0.001590;
1246;657;-0.180200;0.598360;0.999997;0.000451;-0.001752;0.004565;-0.001256;0.004806;-0.001992;-79.159089;0.004829;
1206;1752;-0.045187;86.173939;1.000000;0.000104;-0.000608;0.001616;0.000090;0.001619;-0.000612;87.688587;0.001635;
1021;492;0.070810;0.239732;0.999999;0.000239;-0.000586;0.001578;0.000139;0.001587;-0.000595;86.352223;0.001603;
1241;382;-0.022997;0.072263;1.000000;0.000067;-0.000251;0.001433;-0.000179;0.001452;-0.000270;-84.006482;0.001544;
1251;392;-0.030592;0.087359;1.000000;0.000106;-0.000309;0.001468;-0.000179;0.001486;-0.000326;-84.314952;0.001562;
1231;787;-0.799553;1.937269;0.999977;0.001278;-0.008538;0.019117;-0.004054;0.019699;-0.009120;-81.829836;0.019717;
1126;1387;0.101295;82.640287;0.999941;0.001752;-0.015976;0.036418;-0.000445;0.036422;-0.015980;-89.513952;0.036513;
1096;787;0.316911;1.931966;0.999969;0.001203;-0.008408;0.019527;0.001567;0.019615;-0.008495;86.799737;0.019673;
956;1702;0.120864;86.099679;0.999996;0.000633;-0.000547;0.001286;-0.000099;0.001292;-0.000552;-86.922420;0.001296;
1036;377;0.019245;0.064761;1.000000;0.000091;-0.000222;0.001412;0.000171;0.001430;-0.000239;84.101773;0.001531;
1016;487;0.071813;0.233938;0.999999;0.000229;-0.000570;0.001564;0.000139;0.001573;-0.000579;86.290027;0.001591;
961;462;0.088851;0.206859;0.999999;0.000261;-0.000706;0.001452;0.000044;0.001452;-0.000706;88.823355;0.001453;
1251;387;-0.027852;0.080083;1.000000;0.000095;-0.000286;0.001460;-0.000185;0.001480;-0.000306;-84.005185;0.001562;
1256;392;-0.031992;0.087668;1.000000;0.000100;-0.000318;0.001476;-0.000181;0.001494;-0.000336;-84.292068;0.001568;
1076;627;0.077072;0.509915;0.999997;0.000460;-0.001256;0.003014;0.000361;0.003045;-0.001286;85.196931;0.003057;
996;1772;0.074714;86.199541;1.000000;0.000135;-0.000514;0.001509;-0.000126;0.001517;-0.000521;-86.453612;0.001541;
1211;1752;-0.048388;86.173537;1.000000;0.000134;-0.000608;0.001617;0.000096;0.001621;-0.000612;87.537256;0.001638;
1091;782;0.341501;1.844014;0.999972;0.001379;-0.007976;0.018500;0.001687;0.018607;-0.008083;86.368183;0.018660;
1161;1387;-0.459122;82.607185;0.999935;0.002809;-0.016078;0.036642;0.001740;0.036699;-0.016135;88.112195;0.036788;
961;1702;0.120506;86.097549;1.000000;0.000187;-0.000540;0.001337;-0.000144;0.001348;-0.000551;-85.631082;0.001355;
1176;792;-0.359350;2.031816;0.999969;0.001663;-0.008662;0.020257;-0.001814;0.020371;-0.008775;-86.423865;0.020436;
1016;492;0.073340;0.241550;0.999999;0.000220;-0.000580;0.001571;0.000143;0.001580;-0.000590;86.221481;0.001597;
1226;362;-0.011938;0.043332;1.000000;0.000054;-0.000146;0.001366;-0.000167;0.001384;-0.000164;-83.761280;0.001513;
966;462;0.086870;0.204552;0.999999;0.000257;-0.000664;0.001458;0.000056;0.001460;-0.000666;88.486568;0.001462;
1256;387;-0.029579;0.080704;1.000000;0.000090;-0.000296;0.001469;-0.000189;0.001489;-0.000316;-83.960580;0.001569;
1261;392;-0.033740;0.088665;1.000000;0.000100;-0.000329;0.001485;-0.000180;0.001503;-0.000346;-84.378019;0.001574;
1076;632;0.078649;0.526696;0.999997;0.000512;-0.001309;0.003162;0.000392;0.003197;-0.001343;85.024921;0.003210;
996;1777;0.073118;86.207013;1.000000;0.000149;-0.000506;0.001506;-0.000122;0.001514;-0.000514;-86.545215;0.001540;
1216;1752;-0.051227;86.172965;1.000000;0.000181;-0.000606;0.001617;0.000102;0.001622;-0.000610;87.369917;0.001639;
1166;1387;-0.540045;82.602842;0.999917;0.002431;-0.016089;0.036638;0.002044;0.036717;-0.016168;87.783175;0.036804;
966;1702;0.118223;86.096087;1.000000;0.000171;-0.000538;0.001381;-0.000178;0.001397;-0.000555;-84.748795;0.001407;
1171;792;-0.315721;2.034067;0.999976;0.001705;-0.008664;0.020259;-0.001589;0.020346;-0.008751;-86.864990;0.020412;
1206;777;-0.526754;1.755680;0.999957;0.001752;-0.007553;0.017452;-0.002777;0.017757;-0.007858;-83.737556;0.017796;
1036;362;0.013015;0.043686;1.000000;0.000079;-0.000153;0.001377;0.000181;0.001398;-0.000174;83.358364;0.001524;
1321;467;-0.099068;0.218670;0.999983;0.001182;-0.000543;0.001382;-0.000088;0.001386;-0.000547;-87.376608;0.001396;
1241;392;-0.027238;0.086363;1.000000;0.000061;-0.000295;0.001452;-0.000168;0.001468;-0.000311;-84.566717;0.001547;
1246;407;-0.035472;0.108987;1.000000;0.000082;-0.000360;0.001487;-0.000154;0.001499;-0.000373;-85.258439;0.001561;
1141;512;-0.004526;0.264274;0.999999;0.000257;-0.000727;0.001672;-0.000013;0.001672;-0.000728;-89.681022;0.001676;
1216;1757;-0.050677;86.181276;1.000000;0.000225;-0.000592;0.001606;0.000099;0.001610;-0.000596;87.429630;0.001628;
1311;1897;-0.017865;86.379172;1.000000;0.000206;-0.000258;0.001693;0.000347;0.001753;-0.000317;80.205231;0.001868;
1121;1387;0.180758;82.638042;0.999940;0.001959;-0.015958;0.036380;-0.000789;0.036392;-0.015969;-89.136789;0.036483;
1171;797;-0.328761;2.133452;0.999972;0.001815;-0.009118;0.021235;-0.001631;0.021322;-0.009205;-86.932791;0.021389;
1256;577;-0.110635;0.377821;0.999997;0.000392;-0.000616;0.001708;-0.000332;0.001754;-0.000662;-82.035762;0.001772;
1216;782;-0.638348;1.841816;0.999976;0.001717;-0.008034;0.018344;-0.003282;0.018746;-0.008437;-83.012480;0.018777;
1181;1632;-0.059356;85.936050;1.000000;0.000232;-0.001170;0.002701;0.000245;0.002717;-0.001185;86.389733;0.002724;
1031;392;0.026567;0.086376;1.000000;0.000083;-0.000292;0.001452;0.000164;0.001467;-0.000307;84.683757;0.001548;
1246;392;-0.028712;0.086926;1.000000;0.000078;-0.000301;0.001460;-0.000174;0.001477;-0.000318;-84.422979;0.001555;
1316;1897;-0.019352;86.377814;1.000000;0.000173;-0.000287;0.001739;0.000360;0.001801;-0.000349;80.230987;0.001910;
1276;367;-0.023462;0.053807;1.000000;0.000073;-0.000245;0.001484;-0.000242;0.001517;-0.000278;-82.182973;0.001616;
1311;477;-0.096330;0.226029;0.999999;0.000223;-0.000525;0.001364;-0.000115;0.001371;-0.000532;-86.534552;0.001382;
1216;1762;-0.048756;86.189340;1.000000;0.000165;-0.000579;0.001596;0.000096;0.001600;-0.000583;87.467039;0.001620;
1071;532;0.050786;0.301561;0.999999;0.000373;-0.000751;0.001735;0.000129;0.001742;-0.000758;87.043127;0.001747;
1116;1382;0.277357;82.451773;0.999899;0.002437;-0.016691;0.037934;-0.001146;0.037958;-0.016715;-88.798786;0.038048;
1321;1897;-0.021079;86.375777;0.999997;0.000333;-0.000324;0.001794;0.000378;0.001860;-0.000389;80.167200;0.001962;
1146;827;-0.140168;2.856108;0.999968;0.001556;-0.012232;0.028011;-0.000719;0.028024;-0.012245;-88.976780;0.028098;
1236;622;-0.120415;0.478574;0.999997;0.000598;-0.001050;0.002794;-0.000622;0.002892;-0.001148;-81.028124;0.002912;
1176;797;-0.375669;2.131529;0.999962;0.001831;-0.009121;0.021236;-0.001861;0.021350;-0.009234;-86.504695;0.021415;
1031;397;0.028583;0.093649;1.000000;0.000084;-0.000313;0.001463;0.000159;0.001477;-0.000327;84.919825;0.001551;
1236;392;-0.025851;0.085938;1.000000;0.000054;-0.000290;0.001446;-0.000162;0.001461;-0.000305;-84.712974;0.001541;
1211;1657;-0.082891;86.003806;1.000000;0.000135;-0.000911;0.002174;0.000280;0.002199;-0.000937;84.849781;0.002207;
1316;477;-0.097889;0.228248;0.999999;0.000261;-0.000538;0.001340;-0.000112;0.001346;-0.000544;-86.602824;0.001355;
1281;367;-0.024808;0.054761;1.000000;0.000063;-0.000260;0.001503;-0.000245;0.001536;-0.000293;-82.219177;0.001631;
1116;1387;0.262541;82.637785;0.999920;0.002202;-0.015953;0.036346;-0.001127;0.036371;-0.015977;-88.765833;0.036460;
1206;1742;-0.048226;86.157857;1.000000;0.000116;-0.000635;0.001629;0.000097;0.001633;-0.000639;87.549787;0.001646;
1231;512;-0.066117;0.270967;0.999999;0.000236;-0.000639;0.001621;-0.000134;0.001628;-0.000647;-86.625897;0.001640;
971;1702;0.116460;86.094811;1.000000;0.000167;-0.000540;0.001419;-0.000201;0.001439;-0.000560;-84.198075;0.001451;
1221;787;-0.714426;1.934861;0.999970;0.001525;-0.008495;0.019249;-0.003643;0.019719;-0.008965;-82.643129;0.019746;
1121;817;0.148249;2.600585;0.999969;0.001569;-0.011194;0.025849;0.000669;0.025861;-0.011206;88.966269;0.025938;
1031;402;0.030758;0.101022;1.000000;0.000099;-0.000334;0.001474;0.000153;0.001487;-0.000346;85.197021;0.001556;
1196;682;-0.132634;0.736175;0.999997;0.000399;-0.002327;0.005827;-0.000925;0.005931;-0.002431;-83.605935;0.005963;
991;382;0.033553;0.077021;1.000000;0.000082;-0.000324;0.001523;0.000206;0.001545;-0.000346;83.703379;0.001622;
961;457;0.086257;0.198903;0.999999;0.000241;-0.000698;0.001487;0.000051;0.001489;-0.000699;88.674279;0.001490;
1131;1392;0.021557;82.807720;0.999953;0.002046;-0.015319;0.034918;-0.000076;0.034918;-0.015319;-89.912921;0.035006;
1226;367;-0.013723;0.050393;1.000000;0.000055;-0.000168;0.001372;-0.000165;0.001389;-0.000185;-83.956949;0.001509;
1116;1652;0.019013;85.984412;1.000000;0.000152;-0.001132;0.002458;-0.000072;0.002460;-0.001134;-88.856315;0.002462;
1206;1747;-0.046583;86.165653;1.000000;0.000113;-0.000622;0.001623;0.000093;0.001627;-0.000626;87.626021;0.001641;
1011;482;0.072446;0.226705;0.999999;0.000236;-0.000554;0.001553;0.000140;0.001563;-0.000563;86.228216;0.001583;
1116;812;0.196140;2.479381;0.999968;0.001631;-0.010713;0.024698;0.000907;0.024721;-0.010736;88.533639;0.024792;
1226;802;-0.883327;2.249775;0.999977;0.001267;-0.009920;0.022130;-0.004360;0.022712;-0.010502;-82.389090;0.022734;
1201;682;-0.143619;0.736814;0.999998;0.000445;-0.002347;0.005875;-0.001007;0.005996;-0.002469;-83.116505;0.006028;
996;382;0.031901;0.075719;1.000000;0.000086;-0.000312;0.001508;0.000205;0.001531;-0.000335;83.651695;0.001610;
1051;412;0.027787;0.113777;1.000000;0.000099;-0.000351;0.001474;0.000122;0.001483;-0.000359;86.181433;0.001547;
1136;1392;-0.055449;82.812378;0.999952;0.002189;-0.015345;0.034957;0.000238;0.034958;-0.015347;89.729034;0.035044;
1226;527;-0.068432;0.295409;0.999999;0.000276;-0.000675;0.001659;-0.000156;0.001670;-0.000686;-86.186638;0.001679;
1226;372;-0.015634;0.057226;1.000000;0.000070;-0.000190;0.001385;-0.000163;0.001401;-0.000206;-84.166806;0.001513;
996;1762;0.079076;86.185409;1.000000;0.000127;-0.000528;0.001516;-0.000136;0.001525;-0.000537;-86.197176;0.001547;
1246;792;-0.977210;2.039412;0.999973;0.001658;-0.009001;0.019963;-0.004913;0.020774;-0.009812;-80.629628;0.020785;
1011;487;0.074332;0.234359;0.999999;0.000214;-0.000563;0.001557;0.000143;0.001566;-0.000573;86.160387;0.001585;
1046;1752;0.053846;86.173691;1.000000;0.000124;-0.000602;0.001603;-0.000104;0.001608;-0.000607;-87.298383;0.001624;
1231;802;-0.934838;2.250571;0.999986;0.001313;-0.009919;0.022053;-0.004590;0.022699;-0.010565;-81.989064;0.022717;
1256;397;-0.034899;0.095500;1.000000;0.000099;-0.000339;0.001483;-0.000173;0.001500;-0.000355;-84.633232;0.001567;
1206;682;-0.155525;0.736540;0.999997;0.000509;-0.002367;0.005922;-0.001088;0.006062;-0.002507;-82.646433;0.006092;
1291;367;-0.027872;0.056618;1.000000;0.000073;-0.000300;0.001544;-0.000235;0.001573;-0.000329;-82.860624;0.001659;
986;372;0.028753;0.062949;1.000000;0.000072;-0.000293;0.001523;0.000233;0.001552;-0.000322;82.801198;0.001638;
1141;1392;-0.128663;82.811051;0.999947;0.002511;-0.015360;0.034991;0.000530;0.034996;-0.015366;89.396966;0.035083;
1226;377;-0.017494;0.064095;1.000000;0.000071;-0.000212;0.001399;-0.000160;0.001415;-0.000228;-84.385452;0.001520;
1226;807;-0.928687;2.356566;0.999979;0.001529;-0.010440;0.023202;-0.004520;0.023799;-0.011037;-82.479164;0.023820;
1001;1762;0.076689;86.185314;1.000000;0.000163;-0.000536;0.001531;-0.000135;0.001540;-0.000545;-86.286997;0.001561;
1236;802;-0.985626;2.251493;0.999984;0.001332;-0.009914;0.021949;-0.004824;0.022664;-0.010629;-81.577424;0.022678;
1256;482;-0.070799;0.225224;0.999999;0.000275;-0.000557;0.001555;-0.000131;0.001563;-0.000565;-86.467623;0.001583;
1011;492;0.075896;0.241496;0.999999;0.000223;-0.000573;0.001565;0.000147;0.001575;-0.000583;86.079019;0.001592;
1046;1757;0.052402;86.181367;1.000000;0.000133;-0.000590;0.001595;-0.000101;0.001600;-0.000594;-87.354557;0.001617;
1261;397;-0.036395;0.096276;1.000000;0.000109;-0.000349;0.001491;-0.000171;0.001507;-0.000365;-84.742091;0.001572;
971;352;0.018084;0.034890;1.000000;0.000086;-0.000268;0.001580;0.000275;0.001620;-0.000308;81.720788;0.001720;
1291;372;-0.031448;0.064605;1.000000;0.000058;-0.000328;0.001547;-0.000216;0.001572;-0.000352;-83.509975;0.001650;
1216;637;-0.108368;0.532903;0.999997;0.000456;-0.001316;0.003359;-0.000628;0.003442;-0.001399;-82.483701;0.003462;
1126;1392;0.098734;82.808138;0.999954;0.001816;-0.015307;0.034886;-0.000403;0.034889;-0.015310;-89.540298;0.034976;
1276;372;-0.026739;0.061312;1.000000;0.000084;-0.000273;0.001495;-0.000231;0.001524;-0.000303;-82.687195;0.001614;
1231;807;-0.982910;2.357175;0.999984;0.001483;-0.010448;0.023122;-0.004759;0.023783;-0.011110;-82.085332;0.023801;
1241;792;-0.932656;2.040235;0.999976;0.001299;-0.008989;0.020040;-0.004684;0.020777;-0.009727;-81.056740;0.020791;
1261;482;-0.073135;0.224953;0.999999;0.000225;-0.000551;0.001546;-0.000136;0.001555;-0.000560;-86.305005;0.001575;
1146;957;-0.434838;9.332406;0.999701;0.006103;-0.036921;0.086675;-0.001369;0.086690;-0.036936;-89.365677;0.087005;
1161;1817;-0.010491;86.277825;1.000000;0.000115;-0.000379;0.001475;0.000039;0.001476;-0.000380;88.790341;0.001533;
1241;397;-0.029432;0.093688;1.000000;0.000067;-0.000317;0.001461;-0.000162;0.001476;-0.000332;-84.846829;0.001549;
1236;372;-0.017567;0.057741;1.000000;0.000071;-0.000200;0.001397;-0.000179;0.001417;-0.000220;-83.666087;0.001525;
1001;382;0.030381;0.074799;1.000000;0.000073;-0.000302;0.001493;0.000203;0.001516;-0.000324;83.636737;0.001596;
1281;372;-0.028029;0.062349;1.000000;0.000079;-0.000288;0.001513;-0.000232;0.001542;-0.000317;-82.772868;0.001629;
976;552;0.119772;0.333560;0.999997;0.000439;-0.000474;0.001494;0.000310;0.001542;-0.000522;81.245940;0.001569;
1236;807;-1.036055;2.358417;0.999986;0.001235;-0.010444;0.023016;-0.004996;0.023746;-0.011174;-81.686467;0.023760;
1266;482;-0.075668;0.225569;0.999999;0.000238;-0.000542;0.001535;-0.000140;0.001545;-0.000552;-86.148262;0.001565;
1076;622;0.075103;0.499168;0.999997;0.000379;-0.001207;0.002879;0.000337;0.002906;-0.001235;85.319620;0.002917;
976;367;0.028408;0.057055;1.000000;0.000091;-0.000307;0.001555;0.000233;0.001584;-0.000335;82.986087;0.001669;
1216;1767;-0.046985;86.197491;1.000000;0.000145;-0.000567;0.001589;0.000095;0.001593;-0.000571;87.489426;0.001614;
1246;397;-0.030924;0.094398;1.000000;0.000088;-0.000323;0.001469;-0.000167;0.001484;-0.000338;-84.724774;0.001556;
1171;962;-1.421832;9.824155;0.999676;0.004873;-0.038900;0.091377;-0.004209;0.091513;-0.039036;-88.151494;0.091842;
1146;1392;-0.204878;82.799137;0.999937;0.001951;-0.015385;0.035001;0.000809;0.035014;-0.015398;89.080054;0.035098;
1231;367;-0.014511;0.050578;1.000000;0.000066;-0.000172;0.001377;-0.000174;0.001397;-0.000191;-83.683115;0.001514;
1226;617;-0.106636;0.470575;0.999998;0.000394;-0.001043;0.002661;-0.000507;0.002729;-0.001112;-82.340618;0.002745;
1006;1762;0.073415;86.185468;1.000000;0.000191;-0.000546;0.001543;-0.000134;0.001552;-0.000555;-86.336382;0.001573;
1171;507;-0.025192;0.256995;0.999999;0.000280;-0.000682;0.001640;-0.000059;0.001641;-0.000684;-88.554660;0.001649;
1141;712;-0.017615;0.940839;0.999997;0.000411;-0.003337;0.008326;-0.000130;0.008327;-0.003339;-89.363440;0.008382;
1221;937;-2.792227;8.009933;0.999669;0.004800;-0.033442;0.075969;-0.009509;0.076790;-0.034262;-85.069714;0.076938;
1236;397;-0.027909;0.093169;1.000000;0.000070;-0.000311;0.001455;-0.000157;0.001469;-0.000325;-84.969181;0.001543;
1211;427;-0.029467;0.135341;1.000000;0.000086;-0.000401;0.001489;-0.000102;0.001495;-0.000406;-86.912998;0.001546;
1151;1392;-0.284801;82.791134;0.999932;0.002227;-0.015379;0.034992;0.001095;0.035016;-0.015403;88.755232;0.035100;
1081;1797;0.023885;86.247228;1.000000;0.000118;-0.000464;0.001517;-0.000067;0.001519;-0.000466;-88.077218;0.001557;
1231;617;-0.111277;0.468287;0.999997;0.000498;-0.001015;0.002646;-0.000538;0.002723;-0.001093;-81.805977;0.002741;
1231;372;-0.016575;0.057549;1.000000;0.000073;-0.000195;0.001390;-0.000171;0.001408;-0.000213;-83.906314;0.001518;
1226;937;-2.962458;8.028750;0.999686;0.005489;-0.033592;0.076256;-0.010129;0.077182;-0.034518;-84.775479;0.077326;
961;467;0.090730;0.213681;0.999999;0.000255;-0.000702;0.001446;0.000032;0.001447;-0.000702;89.152372;0.001447;
1146;712;-0.034349;0.940784;0.999997;0.000453;-0.003343;0.008340;-0.000237;0.008344;-0.003348;-88.837190;0.008399;
1056;1652;0.081689;85.994859;1.000000;0.000195;-0.000922;0.002213;-0.000299;0.002241;-0.000950;-84.604769;0.002250;
1006;382;0.028910;0.074725;1.000000;0.000065;-0.000289;0.001479;0.000201;0.001502;-0.000312;83.585353;0.001585;
1156;1392;-0.362302;82.785833;0.999929;0.002318;-0.015362;0.034998;0.001384;0.035036;-0.015400;88.426529;0.035122;
1226;942;-3.087642;8.411069;0.999711;0.005565;-0.035078;0.079801;-0.010236;0.080705;-0.035983;-84.947951;0.080863;
1211;1747;-0.050084;86.165556;1.000000;0.000132;-0.000621;0.001624;0.000099;0.001629;-0.000625;87.470518;0.001643;
1241;807;-1.082958;2.360039;0.999987;0.001053;-0.010434;0.022874;-0.005228;0.023676;-0.011235;-81.286461;0.023686;
1271;367;-0.022194;0.053262;1.000000;0.000066;-0.000235;0.001466;-0.000235;0.001498;-0.000266;-82.281485;0.001599;
1231;1852;-0.025257;86.324327;0.999999;0.000232;-0.000283;0.001446;0.000160;0.001461;-0.000297;84.762316;0.001544;
1231;377;-0.018562;0.064543;1.000000;0.000078;-0.000218;0.001405;-0.000168;0.001423;-0.000235;-84.140451;0.001525;
1151;712;-0.052437;0.941302;0.999997;0.000493;-0.003352;0.008353;-0.000345;0.008364;-0.003362;-88.311651;0.008417;
966;467;0.088865;0.211814;0.999999;0.000290;-0.000662;0.001452;0.000048;0.001453;-0.000663;88.695809;0.001455;
1221;1287;-3.385870;76.775861;0.999656;0.006011;-0.040383;0.093065;0.010224;0.093844;-0.041162;85.644390;0.094079;
1246;797;-1.030060;2.144634;0.999973;0.001590;-0.009426;0.020699;-0.005113;0.021543;-0.010270;-80.625670;0.021551;
1226;947;-3.219631;8.770430;0.999682;0.006753;-0.036593;0.083376;-0.010373;0.084266;-0.037484;-85.094614;0.084437;
1121;1392;0.173937;82.809506;0.999950;0.001584;-0.015279;0.034854;-0.000746;0.034865;-0.015290;-89.148041;0.034952;
1181;432;-0.018485;0.141223;1.000000;0.000070;-0.000404;0.001488;-0.000062;0.001490;-0.000406;-88.119710;0.001540;
1061;1652;0.077353;85.993771;1.000000;0.000162;-0.000949;0.002242;-0.000283;0.002267;-0.000974;-84.971784;0.002275;
1216;1747;-0.052934;86.164965;1.000000;0.000127;-0.000618;0.001624;0.000106;0.001629;-0.000623;87.305866;0.001644;
1286;367;-0.026425;0.055642;1.000000;0.000060;-0.000278;0.001523;-0.000242;0.001555;-0.000310;-82.467159;0.001646;
1241;1847;-0.029820;86.316749;1.000000;0.000205;-0.000315;0.001471;0.000162;0.001486;-0.000330;84.867087;0.001560;
1246;802;-1.081901;2.254399;0.999980;0.001355;-0.009894;0.021604;-0.005296;0.022470;-0.010761;-80.706765;0.022477;
1226;1277;-3.936369;75.819699;0.999609;0.005184;-0.044066;0.104618;0.012148;0.105604;-0.045052;85.359818;0.105982;
1111;622;0.031690;0.507058;0.999997;0.000559;-0.001291;0.002922;0.000137;0.002926;-0.001296;88.136490;0.002932;
1191;507;-0.038309;0.258605;0.999999;0.000262;-0.000662;0.001632;-0.000082;0.001635;-0.000665;-87.960390;0.001645;
1116;1392;0.250125;82.802717;0.999942;0.001909;-0.015262;0.034821;-0.001088;0.034845;-0.015286;-88.755873;0.034932;
1236;407;-0.031919;0.107990;1.000000;0.000093;-0.000350;0.001475;-0.000147;0.001487;-0.000362;-85.420923;0.001551;
1066;1652;0.072602;85.992569;1.000000;0.000180;-0.000973;0.002272;-0.000267;0.002293;-0.000995;-85.321885;0.002300;
1171;967;-1.481907;10.222901;0.999616;0.004168;-0.040504;0.095465;-0.004300;0.095601;-0.040639;-88.190535;0.095958;
1221;1747;-0.055799;86.164712;1.000000;0.000113;-0.000617;0.001622;0.000112;0.001627;-0.000622;87.154035;0.001642;
1246;807;-1.137735;2.361246;0.999985;0.001370;-0.010414;0.022665;-0.005461;0.023543;-0.011292;-80.864672;0.023550;
1286;372;-0.029712;0.063572;1.000000;0.000062;-0.000307;0.001530;-0.000227;0.001558;-0.000334;-83.064814;0.001640;
1226;1282;-3.762986;76.284594;0.999610;0.005944;-0.042385;0.098485;0.011295;0.099385;-0.043285;85.444893;0.099660;
1256;1757;-0.074032;86.176883;0.999999;0.000162;-0.000567;0.001563;0.000135;0.001571;-0.000576;86.378220;0.001590;
1191;512;-0.039713;0.267062;0.999999;0.000209;-0.000680;0.001641;-0.000089;0.001645;-0.000684;-87.808019;0.001652;
1251;632;-0.144837;0.499957;0.999997;0.000448;-0.001186;0.003198;-0.000865;0.003363;-0.001350;-79.234668;0.003384;
1241;407;-0.033765;0.108285;1.000000;0.000069;-0.000355;0.001480;-0.000151;0.001493;-0.000367;-85.336736;0.001555;
1161;1392;-0.437657;82.783936;0.999930;0.002183;-0.015362;0.035006;0.001675;0.035062;-0.015417;88.097557;0.035146;
1221;1752;-0.054508;86.172786;1.000000;0.000151;-0.000605;0.001615;0.000108;0.001620;-0.000610;87.223342;0.001637;
1226;1287;-3.595704;76.737612;0.999626;0.006553;-0.040539;0.093539;0.010961;0.094429;-0.041429;85.357312;0.094666;
1221;797;-0.791050;2.140221;0.999967;0.001310;-0.009406;0.021182;-0.003972;0.021689;-0.009913;-82.720544;0.021716;
991;1767;0.079695;86.190819;1.000000;0.000157;-0.000514;0.001496;-0.000132;0.001505;-0.000523;-86.267122;0.001528;
1146;962;-0.445467;9.736093;0.999668;0.005542;-0.038465;0.090770;-0.001365;0.090785;-0.038479;-89.394914;0.091135;
1191;517;-0.040953;0.275188;0.999999;0.000216;-0.000698;0.001662;-0.000096;0.001665;-0.000702;-87.665193;0.001672;
981;1737;0.097550;86.144860;1.000000;0.000163;-0.000524;0.001473;-0.000181;0.001489;-0.000540;-84.873144;0.001508;
1251;637;-0.150894;0.516833;0.999997;0.000489;-0.001283;0.003458;-0.000947;0.003640;-0.001465;-79.106442;0.003663;
1166;1392;-0.516505;82.783721;0.999920;0.002305;-0.015369;0.034996;0.001976;0.035073;-0.015446;87.756217;0.035156;
1011;387;0.030175;0.081476;1.000000;0.000088;-0.000299;0.001477;0.000191;0.001498;-0.000319;83.935972;0.001578;
1221;1757;-0.053287;86.180861;1.000000;0.000148;-0.000592;0.001604;0.000104;0.001609;-0.000597;87.289148;0.001627;
1236;367;-0.015464;0.050759;1.000000;0.000061;-0.000177;0.001384;-0.000182;0.001405;-0.000198;-83.424120;0.001522;
1221;802;-0.834530;2.245788;0.999966;0.001290;-0.009891;0.022215;-0.004134;0.022739;-0.010414;-82.778662;0.022765;
991;1772;0.077356;86.198256;1.000000;0.000149;-0.000508;0.001494;-0.000126;0.001502;-0.000515;-86.418912;0.001526;
1151;962;-0.634519;9.733811;0.999699;0.004525;-0.038507;0.090848;-0.001930;0.090877;-0.038535;-89.145191;0.091226;
1166;1272;-1.382226;75.687034;0.999543;0.004496;-0.042648;0.100380;0.003516;0.100466;-0.042734;88.592514;0.100839;
1196;517;-0.044339;0.275620;0.999999;0.000263;-0.000691;0.001659;-0.000101;0.001663;-0.000695;-87.531299;0.001670;
1251;642;-0.159915;0.535803;0.999997;0.000528;-0.001393;0.003722;-0.001038;0.003924;-0.001596;-78.955649;0.003947;
1146;1882;-0.001448;86.368418;1.000000;0.000179;-0.000124;0.001327;0.000025;0.001327;-0.000124;89.013527;0.001466;
1221;1762;-0.051414;86.188743;1.000000;0.000125;-0.000579;0.001595;0.000101;0.001600;-0.000584;87.337752;0.001619;
1226;382;-0.019445;0.071366;1.000000;0.000066;-0.000234;0.001414;-0.000157;0.001428;-0.000249;-84.615431;0.001526;
1221;807;-0.876398;2.353591;0.999972;0.001449;-0.010402;0.023290;-0.004294;0.023829;-0.010941;-82.850622;0.023855;
1111;1382;0.358264;82.452093;0.999894;0.002501;-0.016694;0.037939;-0.001478;0.037979;-0.016734;-88.451371;0.038068;
991;1777;0.075666;86.205765;1.000000;0.000167;-0.000501;0.001493;-0.000121;0.001500;-0.000508;-86.540648;0.001526;
1206;432;-0.028515;0.142395;1.000000;0.000067;-0.000414;0.001499;-0.000093;0.001503;-0.000419;-87.212209;0.001551;
1166;1277;-1.333719;76.169190;0.999568;0.004623;-0.040850;0.095234;0.003465;0.095322;-0.040938;88.542272;0.095637;
1231;1517;-0.405091;85.309307;0.999991;0.000744;-0.004378;0.010323;0.002431;0.010715;-0.004770;80.850209;0.010736;
956;1697;0.120844;86.086149;0.999900;0.003056;-0.000471;0.001223;-0.000074;0.001226;-0.000474;-87.487660;0.001237;
1076;637;0.080969;0.543725;0.999997;0.000482;-0.001368;0.003333;0.000431;0.003372;-0.001407;84.809825;0.003387;
1116;527;0.015492;0.290724;0.999999;0.000330;-0.000805;0.001771;0.000043;0.001771;-0.000806;89.039726;0.001774;
1231;382;-0.020596;0.071674;1.000000;0.000065;-0.000240;0.001420;-0.000165;0.001436;-0.000256;-84.385160;0.001532;
1121;1397;0.164065;82.971134;0.999962;0.001358;-0.014637;0.033355;-0.000714;0.033365;-0.014648;-89.147946;0.033448;
991;1762;0.081583;86.183478;1.000000;0.000152;-0.000520;0.001500;-0.000138;0.001509;-0.000530;-86.095561;0.001531;
1266;397;-0.038035;0.097155;1.000000;0.000097;-0.000359;0.001499;-0.000169;0.001514;-0.000374;-84.856229;0.001577;
1061;782;0.583576;1.846932;0.999970;0.001431;-0.008003;0.018405;0.002929;0.018726;-0.008324;83.745709;0.018764;
961;1697;0.121584;86.091205;1.000000;0.000202;-0.000490;0.001298;-0.000136;0.001308;-0.000500;-85.689002;0.001320;
1311;347;-0.017460;0.030566;1.000000;0.000097;-0.000243;0.001677;-0.000340;0.001735;-0.000301;-80.259382;0.001854;
1231;387;-0.022546;0.078550;1.000000;0.000058;-0.000262;0.001431;-0.000160;0.001446;-0.000277;-84.632460;0.001535;
1231;1522;-0.378834;85.359664;0.999993;0.000764;-0.004126;0.009746;0.002317;0.010123;-0.004503;80.763450;0.010144;
1226;612;-0.103750;0.457865;0.999998;0.000388;-0.000997;0.002521;-0.000462;0.002581;-0.001057;-82.637753;0.002595;
1126;1397;0.092444;82.974421;0.999962;0.001669;-0.014660;0.033371;-0.000384;0.033374;-0.014663;-89.541969;0.033456;
1236;402;-0.029888;0.100762;1.000000;0.000089;-0.000331;0.001465;-0.000152;0.001478;-0.000344;-85.199958;0.001546;
991;477;0.080773;0.221174;0.999999;0.000184;-0.000519;0.001503;0.000138;0.001513;-0.000528;86.103589;0.001536;
1256;477;-0.068764;0.217255;0.999999;0.000232;-0.000546;0.001549;-0.000128;0.001557;-0.000554;-86.515724;0.001578;
966;1697;0.119899;86.089619;1.000000;0.000214;-0.000502;0.001357;-0.000177;0.001374;-0.000519;-84.597853;0.001388;
1196;787;-0.501988;1.929959;0.999972;0.001694;-0.008340;0.019267;-0.002611;0.019512;-0.008584;-84.644947;0.019559;
1116;1657;0.018665;85.996528;1.000000;0.000150;-0.001109;0.002400;-0.000069;0.002402;-0.001110;-88.873615;0.002404;
1311;352;-0.022372;0.039073;1.000000;0.000101;-0.000289;0.001662;-0.000302;0.001708;-0.000334;-81.402698;0.001810;
1131;1397;0.019522;82.972835;0.999961;0.001838;-0.014659;0.033389;-0.000072;0.033389;-0.014659;-89.913626;0.033471;
1186;507;-0.035343;0.258331;0.999999;0.000237;-0.000668;0.001633;-0.000076;0.001635;-0.000670;-88.119764;0.001644;
1241;402;-0.031584;0.100929;1.000000;0.000067;-0.000337;0.001470;-0.000156;0.001484;-0.000350;-85.101661;0.001551;
1231;1527;-0.356241;85.409406;0.999991;0.000838;-0.003891;0.009247;0.002206;0.009608;-0.004252;80.718312;0.009629;
1216;667;-0.147212;0.653122;0.999997;0.000526;-0.001945;0.004930;-0.001018;0.005078;-0.002093;-81.751914;0.005104;
1311;1902;-0.012815;86.388862;0.999999;0.000255;-0.000175;0.001717;0.000402;0.001799;-0.000257;78.487632;0.001946;
1236;812;-1.084204;2.471359;0.999985;0.001120;-0.010996;0.024137;-0.005185;0.024886;-0.011745;-81.777061;0.024899;
1096;437;0.016038;0.148195;1.000000;0.000081;-0.000422;0.001496;0.000050;0.001497;-0.000423;88.497013;0.001544;
1261;477;-0.071399;0.217661;0.999999;0.000227;-0.000541;0.001542;-0.000132;0.001550;-0.000550;-86.394712;0.001572;
1111;1662;0.023746;86.008341;1.000000;0.000154;-0.001076;0.002327;-0.000086;0.002330;-0.001078;-88.561366;0.002332;
1316;1902;-0.014181;86.387098;0.999999;0.000243;-0.000195;0.001770;0.000427;0.001858;-0.000283;78.263986;0.002002;
1181;437;-0.019375;0.148239;1.000000;0.000070;-0.000423;0.001499;-0.000061;0.001501;-0.000425;-88.185653;0.001547;
1136;1397;-0.051301;82.976825;0.999962;0.001499;-0.014665;0.033413;0.000226;0.033414;-0.014666;89.731222;0.033497;
1186;512;-0.036728;0.266911;0.999999;0.000227;-0.000687;0.001643;-0.000082;0.001646;-0.000690;-87.977922;0.001653;
1246;402;-0.033281;0.101427;1.000000;0.000088;-0.000342;0.001477;-0.000160;0.001491;-0.000356;-85.003980;0.001558;
1241;812;-1.137263;2.473960;0.999986;0.000967;-0.010986;0.024014;-0.005416;0.024832;-0.011805;-81.402119;0.024842;
1016;1532;0.395355;85.459675;0.999992;0.001100;-0.003570;0.008644;-0.002484;0.009130;-0.004055;-78.934245;0.009149;
1321;1902;-0.015868;86.386271;0.999998;0.000277;-0.000216;0.001837;0.000464;0.001937;-0.000316;77.839889;0.002078;
1191;437;-0.023497;0.148977;1.000000;0.000072;-0.000426;0.001503;-0.000074;0.001506;-0.000428;-87.815345;0.001552;
1266;477;-0.073936;0.218206;0.999999;0.000241;-0.000533;0.001532;-0.000135;0.001540;-0.000542;-86.277180;0.001563;
1016;602;0.123068;0.428131;0.999998;0.000387;-0.000756;0.002125;0.000489;0.002206;-0.000837;80.626572;0.002227;
1246;812;-1.196286;2.476083;0.999973;0.001834;-0.010965;0.023835;-0.005642;0.024727;-0.011857;-81.016987;0.024733;
1231;1647;-0.104132;85.987201;1.000000;0.000207;-0.000851;0.002190;0.000387;0.002239;-0.000899;82.860381;0.002253;
1141;1397;-0.120700;82.968026;0.999953;0.001853;-0.014663;0.033433;0.000501;0.033438;-0.014669;89.403611;0.033522;
1281;377;-0.031462;0.070069;1.000000;0.000095;-0.000313;0.001522;-0.000218;0.001547;-0.000339;-83.317307;0.001627;
1186;517;-0.037822;0.274910;0.999999;0.000225;-0.000706;0.001664;-0.000089;0.001667;-0.000710;-87.841338;0.001673;
1036;382;0.021402;0.071740;1.000000;0.000084;-0.000244;0.001425;0.000167;0.001442;-0.000260;84.343356;0.001536;
1021;1532;0.376578;85.460772;0.999992;0.001253;-0.003574;0.008623;-0.002381;0.009071;-0.004022;-79.338018;0.009091;
971;1697;0.117917;86.087211;1.000000;0.000186;-0.000512;0.001405;-0.000206;0.001427;-0.000534;-83.940939;0.001442;
1196;437;-0.025564;0.149303;1.000000;0.000081;-0.000427;0.001505;-0.000080;0.001508;-0.000430;-87.632993;0.001554;
1201;517;-0.048276;0.276209;0.999999;0.000259;-0.000681;0.001655;-0.000107;0.001660;-0.000686;-87.391094;0.001668;
1021;602;0.119839;0.429624;0.999998;0.000368;-0.000784;0.002156;0.000467;0.002229;-0.000856;81.190038;0.002248;
1231;812;-1.030964;2.471795;0.999985;0.001649;-0.010993;0.024228;-0.004944;0.024909;-0.011673;-82.159046;0.024926;
1236;1647;-0.108561;85.988557;1.000000;0.000236;-0.000825;0.002157;0.000402;0.002210;-0.000878;82.445949;0.002225;
1116;1397;0.238685;82.966835;0.999951;0.001684;-0.014618;0.033342;-0.001054;0.033365;-0.014641;-88.741199;0.033448;
1186;522;-0.039065;0.283425;0.999999;0.000221;-0.000726;0.001691;-0.000094;0.001694;-0.000730;-87.766592;0.001700;
1286;377;-0.033150;0.071337;1.000000;0.000070;-0.000331;0.001536;-0.000211;0.001560;-0.000355;-83.635009;0.001635;
1216;397;-0.021952;0.091935;1.000000;0.000068;-0.000286;0.001435;-0.000131;0.001445;-0.000296;-85.668329;0.001527;
1026;1532;0.358015;85.461590;0.999992;0.001045;-0.003555;0.008617;-0.002294;0.009035;-0.003973;-79.673082;0.009056;
1201;437;-0.027511;0.149512;1.000000;0.000079;-0.000428;0.001507;-0.000086;0.001510;-0.000432;-87.465912;0.001556;
1236;617;-0.116415;0.466525;0.999997;0.000482;-0.000988;0.002632;-0.000567;0.002719;-0.001075;-81.307095;0.002739;
1151;1882;-0.002150;86.369029;0.999999;0.000210;-0.000124;0.001328;0.000034;0.001329;-0.000125;88.649091;0.001468;
1026;602;0.117445;0.429981;0.999997;0.000554;-0.000818;0.002189;0.000452;0.002255;-0.000884;81.636240;0.002273;
1226;812;-0.978373;2.475034;0.999983;0.001806;-0.010972;0.024298;-0.004694;0.024912;-0.011586;-82.547465;0.024932;
1071;507;0.044162;0.260099;0.999999;0.000272;-0.000670;0.001635;0.000090;0.001639;-0.000673;87.773356;0.001647;
1241;1647;-0.112419;85.990402;1.000000;0.000177;-0.000795;0.002124;0.000419;0.002183;-0.000854;81.994739;0.002200;
1146;1397;-0.192021;82.968005;0.999940;0.002293;-0.014684;0.033437;0.000766;0.033449;-0.014696;89.088841;0.033531;
1191;522;-0.042469;0.283486;0.999999;0.000197;-0.000717;0.001686;-0.000102;0.001690;-0.000721;-87.581330;0.001696;
1291;377;-0.034842;0.072806;1.000000;0.000054;-0.000351;0.001549;-0.000198;0.001570;-0.000371;-84.110384;0.001641;
1216;402;-0.023597;0.099321;1.000000;0.000082;-0.000306;0.001446;-0.000128;0.001455;-0.000315;-85.852860;0.001531;
1186;437;-0.021245;0.148613;1.000000;0.000070;-0.000424;0.001500;-0.000067;0.001503;-0.000426;-88.001560;0.001549;
1316;1797;-0.085623;86.222150;0.999999;0.000220;-0.000579;0.001428;0.000056;0.001430;-0.000581;88.406411;0.001438;
1221;812;-0.921594;2.470854;0.999974;0.001316;-0.010931;0.024375;-0.004461;0.024930;-0.011486;-82.909431;0.024956;
1156;1497;-0.120807;85.101946;0.999990;0.000608;-0.005258;0.012832;0.000644;0.012855;-0.005281;87.964109;0.012923;
1216;642;-0.113953;0.550760;0.999997;0.000456;-0.001399;0.003566;-0.000685;0.003659;-0.001491;-82.291462;0.003680;
1096;607;0.047912;0.461293;0.999997;0.000479;-0.001163;0.002616;0.000187;0.002625;-0.001173;87.173269;0.002630;
1111;1387;0.343221;82.636864;0.999925;0.002244;-0.015942;0.036335;-0.001456;0.036376;-0.015983;-88.406196;0.036465;
1196;522;-0.045818;0.283873;0.999999;0.000222;-0.000708;0.001681;-0.000107;0.001685;-0.000713;-87.430664;0.001692;
1166;537;-0.026551;0.307486;0.999999;0.000381;-0.000838;0.001818;-0.000074;0.001820;-0.000840;-88.400464;0.001822;
1221;397;-0.023622;0.092152;1.000000;0.000075;-0.000290;0.001439;-0.000138;0.001450;-0.000301;-85.462317;0.001531;
1091;1617;0.053728;85.895704;0.999999;0.000201;-0.001282;0.002990;-0.000259;0.003006;-0.001298;-86.546550;0.003015;
1011;382;0.027691;0.074106;1.000000;0.000077;-0.000276;0.001467;0.000200;0.001490;-0.000299;83.553998;0.001576;
1321;1797;-0.092575;86.220105;0.999985;0.000927;-0.000621;0.001416;0.000046;0.001417;-0.000622;88.708692;0.001421;
1231;392;-0.024483;0.085670;1.000000;0.000066;-0.000284;0.001440;-0.000156;0.001454;-0.000298;-84.871905;0.001536;
1181;792;-0.403409;2.033962;0.999970;0.001907;-0.008680;0.020251;-0.002040;0.020394;-0.008823;-85.986280;0.020455;
1051;1517;0.329202;85.325753;0.999989;0.000774;-0.004210;0.010073;-0.002037;0.010358;-0.004495;-82.042030;0.010388;
1111;1392;0.330997;82.804531;0.999947;0.002052;-0.015246;0.034802;-0.001417;0.034842;-0.015286;-88.379805;0.034929;
1201;522;-0.049622;0.283614;0.999999;0.000210;-0.000698;0.001676;-0.000113;0.001681;-0.000703;-87.273176;0.001688;
1126;707;0.029106;0.899238;0.999996;0.000477;-0.003085;0.007774;0.000174;0.007777;-0.003088;89.084604;0.007831;
1276;377;-0.029770;0.068953;1.000000;0.000089;-0.000298;0.001506;-0.000218;0.001532;-0.000324;-83.191820;0.001614;
1216;527;-0.061651;0.294441;0.999999;0.000234;-0.000695;0.001673;-0.000142;0.001682;-0.000703;-86.578529;0.001689;
1156;712;-0.069081;0.940621;0.999996;0.000492;-0.003356;0.008369;-0.000455;0.008386;-0.003374;-87.781229;0.008440;
1016;382;0.026377;0.073483;1.000000;0.000083;-0.000266;0.001457;0.000196;0.001479;-0.000288;83.596201;0.001568;
1066;1897;0.004945;86.387704;1.000000;0.000148;-0.000072;0.001322;-0.000121;0.001333;-0.000082;-85.057457;0.001493;
1226;387;-0.021330;0.078120;1.000000;0.000078;-0.000255;0.001425;-0.000153;0.001439;-0.000269;-84.842450;0.001530;
1251;1812;-0.049216;86.262473;0.999999;0.000177;-0.000443;0.001524;0.000131;0.001532;-0.000451;86.202811;0.001575;
1056;417;0.027263;0.120836;1.000000;0.000110;-0.000368;0.001481;0.000113;0.001488;-0.000375;86.512147;0.001547;
1166;1282;-1.277485;76.639441;0.999499;0.005084;-0.039129;0.090737;0.003443;0.090828;-0.039220;88.482291;0.091109;
1221;527;-0.065183;0.295112;0.999999;0.000253;-0.000685;0.001667;-0.000149;0.001676;-0.000695;-86.385730;0.001684;
1186;792;-0.447908;2.036531;0.999972;0.001692;-0.008728;0.020243;-0.002260;0.020418;-0.008903;-85.566270;0.020473;
1271;377;-0.028292;0.068062;1.000000;0.000069;-0.000287;0.001488;-0.000215;0.001514;-0.000312;-83.204231;0.001599;
1226;1517;-0.383832;85.309549;0.999989;0.000827;-0.004364;0.010306;0.002308;0.010660;-0.004719;81.266127;0.010684;
1186;687;-0.117166;0.764396;0.999997;0.000522;-0.002453;0.006127;-0.000817;0.006204;-0.002530;-84.608173;0.006239;
1271;372;-0.025203;0.060704;1.000000;0.000071;-0.000262;0.001477;-0.000225;0.001506;-0.000291;-82.737641;0.001597;
1196;687;-0.141547;0.764165;0.999997;0.000497;-0.002492;0.006210;-0.000987;0.006321;-0.002603;-83.609641;0.006354;
1241;797;-0.981952;2.146703;0.999977;0.001285;-0.009431;0.020853;-0.004879;0.021620;-0.010197;-81.069389;0.021632;
1251;1817;-0.047339;86.270615;1.000000;0.000149;-0.000429;0.001516;0.000136;0.001526;-0.000438;86.012940;0.001571;
1021;382;0.024916;0.072847;1.000000;0.000085;-0.000258;0.001447;0.000191;0.001468;-0.000279;83.699835;0.001559;
1226;392;-0.023295;0.085364;1.000000;0.000085;-0.000276;0.001434;-0.000149;0.001447;-0.000289;-85.061684;0.001532;
1166;442;-0.013696;0.155223;1.000000;0.000091;-0.000439;0.001503;-0.000042;0.001504;-0.000440;-88.755274;0.001547;
1191;792;-0.489302;2.035946;0.999966;0.001395;-0.008762;0.020239;-0.002481;0.020449;-0.008972;-85.145831;0.020500;
1181;507;-0.032433;0.258068;0.999999;0.000296;-0.000675;0.001635;-0.000070;0.001637;-0.000678;-88.273694;0.001645;
1296;362;-0.025504;0.049497;1.000000;0.000104;-0.000308;0.001569;-0.000242;0.001599;-0.000339;-82.775325;0.001686;
1226;1522;-0.360286;85.362221;0.999989;0.000929;-0.004114;0.009722;0.002197;0.010063;-0.004454;81.191758;0.010085;
1241;802;-1.033211;2.256482;0.999984;0.001197;-0.009906;0.021810;-0.005057;0.022597;-0.010693;-81.155633;0.022608;
1201;687;-0.154401;0.764618;0.999997;0.000518;-0.002513;0.006259;-0.001071;0.006388;-0.002642;-83.137760;0.006419;
1256;557;-0.100552;0.345220;0.999997;0.000438;-0.000598;0.001624;-0.000259;0.001653;-0.000627;-83.443591;0.001669;
1101;442;0.014602;0.155274;1.000000;0.000076;-0.000439;0.001505;0.000043;0.001506;-0.000440;88.738653;0.001549;
1031;377;0.020205;0.064969;1.000000;0.000076;-0.000226;0.001420;0.000178;0.001439;-0.000245;83.882585;0.001539;
1226;397;-0.025110;0.092528;1.000000;0.000078;-0.000297;0.001444;-0.000145;0.001456;-0.000309;-85.275756;0.001535;
986;1767;0.082712;86.190074;1.000000;0.000216;-0.000503;0.001479;-0.000130;0.001487;-0.000512;-86.268408;0.001511;
1016;387;0.028877;0.080616;1.000000;0.000083;-0.000288;0.001467;0.000188;0.001487;-0.000308;83.953885;0.001570;
1216;407;-0.025100;0.106263;1.000000;0.000084;-0.000326;0.001456;-0.000124;0.001465;-0.000335;-86.044918;0.001535;
1006;477;0.073020;0.218894;0.999999;0.000217;-0.000541;0.001540;0.000136;0.001549;-0.000550;86.264593;0.001570;
1166;812;-0.332029;2.469686;0.999971;0.001400;-0.010592;0.024383;-0.001609;0.024457;-0.010666;-87.372234;0.024524;
1226;1527;-0.336106;85.410712;0.999986;0.000917;-0.003879;0.009221;0.002089;0.009546;-0.004204;81.156639;0.009569;
1206;687;-0.167824;0.764335;0.999997;0.000647;-0.002533;0.006305;-0.001155;0.006453;-0.002681;-82.677724;0.006484;
1211;782;-0.598100;1.838872;0.999965;0.001678;-0.007999;0.018351;-0.003091;0.018709;-0.008357;-83.399146;0.018744;
1261;557;-0.103916;0.345465;0.999997;0.000433;-0.000573;0.001604;-0.000268;0.001637;-0.000605;-83.087362;0.001655;
1106;442;0.012459;0.155240;1.000000;0.000076;-0.000438;0.001503;0.000037;0.001503;-0.000438;88.920184;0.001546;
1036;367;0.015192;0.050720;1.000000;0.000099;-0.000176;0.001384;0.000177;0.001403;-0.000196;83.609023;0.001520;
1231;397;-0.026411;0.092944;1.000000;0.000064;-0.000305;0.001450;-0.000151;0.001463;-0.000318;-85.105068;0.001539;
986;1772;0.080182;86.197209;1.000000;0.000169;-0.000497;0.001479;-0.000122;0.001486;-0.000505;-86.470957;0.001512;
1021;387;0.027290;0.079978;1.000000;0.000075;-0.000281;0.001458;0.000184;0.001477;-0.000300;84.030243;0.001561;
1216;412;-0.026742;0.113516;1.000000;0.000091;-0.000347;0.001467;-0.000120;0.001475;-0.000355;-86.228370;0.001540;
1011;477;0.070737;0.218730;0.999999;0.000247;-0.000545;0.001548;0.000134;0.001556;-0.000554;86.351830;0.001578;
1021;1527;0.401419;85.416625;0.999992;0.001180;-0.003779;0.009085;-0.002513;0.009558;-0.004252;-79.328525;0.009578;
1066;782;0.543472;1.845693;0.999971;0.001531;-0.007982;0.018419;0.002723;0.018697;-0.008260;84.172704;0.018739;
1211;787;-0.631168;1.930588;0.999964;0.001910;-0.008437;0.019266;-0.003227;0.019637;-0.008808;-83.443793;0.019671;
1071;1897;0.004473;86.388162;1.000000;0.000160;-0.000072;0.001320;-0.000113;0.001329;-0.000081;-85.401852;0.001490;
1266;557;-0.106734;0.344239;0.999996;0.000418;-0.000552;0.001583;-0.000278;0.001619;-0.000588;-82.714445;0.001639;
1016;607;0.125610;0.435937;0.999998;0.000371;-0.000802;0.002251;0.000543;0.002345;-0.000896;80.207088;0.002367;
1301;357;-0.022737;0.042711;1.000000;0.000086;-0.000291;0.001595;-0.000265;0.001632;-0.000327;-82.157478;0.001727;
1036;372;0.017136;0.057684;1.000000;0.000097;-0.000199;0.001397;0.000174;0.001416;-0.000218;83.863918;0.001525;
981;377;0.033944;0.071963;1.000000;0.000087;-0.000337;0.001545;0.000207;0.001568;-0.000360;83.786902;0.001642;
986;1777;0.078151;86.205102;1.000000;0.000186;-0.000491;0.001479;-0.000116;0.001486;-0.000498;-86.631198;0.001513;
1216;417;-0.028431;0.121022;1.000000;0.000087;-0.000367;0.001476;-0.000117;0.001483;-0.000374;-86.396609;0.001543;
1181;527;-0.036632;0.291014;0.999999;0.000273;-0.000759;0.001718;-0.000092;0.001721;-0.000763;-87.870165;0.001725;
1026;1527;0.382580;85.418241;0.999992;0.001140;-0.003767;0.009085;-0.002418;0.009525;-0.004207;-79.688687;0.009546;
1071;782;0.501164;1.842699;0.999966;0.001577;-0.007965;0.018429;0.002507;0.018665;-0.008201;84.621991;0.018711;
1311;342;-0.012571;0.021932;1.000000;0.000107;-0.000188;0.001689;-0.000380;0.001762;-0.000262;-78.990363;0.001902;
956;1692;0.115697;86.080057;0.999856;0.003633;-0.000417;0.001229;-0.000118;0.001237;-0.000425;-85.921897;0.001258;
1216;787;-0.671997;1.931930;0.999972;0.001729;-0.008473;0.019261;-0.003428;0.019678;-0.008890;-83.057602;0.019709;
1211;672;-0.144630;0.677643;0.999997;0.000634;-0.002072;0.005226;-0.001021;0.005366;-0.002212;-82.180443;0.005394;
1021;607;0.122517;0.439554;0.999998;0.000393;-0.000829;0.002276;0.000517;0.002360;-0.000913;80.788171;0.002380;
1026;382;0.023535;0.072228;1.000000;0.000078;-0.000253;0.001439;0.000183;0.001459;-0.000272;83.899990;0.001551;
986;1762;0.084346;86.182846;1.000000;0.000261;-0.000509;0.001481;-0.000137;0.001491;-0.000518;-86.076175;0.001514;
1286;382;-0.036667;0.079193;1.000000;0.000076;-0.000353;0.001539;-0.000195;0.001558;-0.000373;-84.180526;0.001628;
1211;432;-0.030762;0.142669;1.000000;0.000083;-0.000418;0.001501;-0.000099;0.001506;-0.000423;-87.060972;0.001554;
1236;817;-1.138728;2.596630;0.999984;0.001167;-0.011560;0.025346;-0.005378;0.026114;-0.012327;-81.875587;0.026127;
961;1692;0.123492;86.084378;0.999999;0.000200;-0.000456;0.001305;-0.000180;0.001323;-0.000475;-84.217529;0.001341;
1031;1527;0.360768;85.417977;0.999989;0.001273;-0.003796;0.009074;-0.002300;0.009473;-0.004195;-80.166813;0.009494;
1296;387;-0.043789;0.090048;1.000000;0.000086;-0.000419;0.001549;-0.000149;0.001561;-0.000431;-85.701289;0.001612;
1296;487;-0.093396;0.237180;0.999999;0.000229;-0.000515;0.001424;-0.000139;0.001434;-0.000525;-85.912190;0.001451;
1221;817;-0.972376;2.598080;0.999976;0.001479;-0.011482;0.025537;-0.004626;0.026106;-0.012051;-82.984208;0.026132;
1026;607;0.119402;0.440590;0.999997;0.000516;-0.000860;0.002304;0.000498;0.002381;-0.000936;81.258017;0.002399;
1031;382;0.022411;0.071941;1.000000;0.000077;-0.000248;0.001432;0.000174;0.001450;-0.000266;84.146357;0.001544;
1261;602;-0.125380;0.420083;0.999997;0.000449;-0.000733;0.002101;-0.000532;0.002198;-0.000829;-79.707976;0.002219;
986;1782;0.075607;86.212406;1.000000;0.000177;-0.000486;0.001479;-0.000113;0.001485;-0.000492;-86.716063;0.001513;
1241;817;-1.195628;2.598548;0.999982;0.001359;-0.011559;0.025237;-0.005614;0.026074;-0.012397;-81.516068;0.026085;
981;382;0.037407;0.079617;1.000000;0.000096;-0.000357;0.001548;0.000191;0.001567;-0.000376;84.345484;0.001636;
986;377;0.032329;0.070648;1.000000;0.000073;-0.000318;0.001531;0.000217;0.001556;-0.000343;83.389257;0.001635;
1011;1527;0.438437;85.415408;0.999992;0.000865;-0.003775;0.009092;-0.002735;0.009650;-0.004332;-78.484985;0.009666;
1111;1397;0.310528;82.965201;0.999952;0.001811;-0.014602;0.033340;-0.001379;0.033380;-0.014642;-88.354046;0.033464;
1316;1727;-0.117243;86.128726;0.999999;0.000294;-0.000582;0.001219;0.000252;0.001253;-0.000616;82.185037;0.001253;
1301;377;-0.038433;0.074380;1.000000;0.000088;-0.000397;0.001583;-0.000181;0.001600;-0.000413;-84.828456;0.001661;
1171;802;-0.344949;2.237646;0.999977;0.001856;-0.009584;0.022254;-0.001699;0.022345;-0.009675;-86.953937;0.022411;
1246;817;-1.249018;2.602173;0.999923;0.002629;-0.011552;0.025081;-0.005838;0.025989;-0.012460;-81.159965;0.025996;
1216;422;-0.029834;0.128248;1.000000;0.000086;-0.000386;0.001485;-0.000113;0.001492;-0.000393;-86.565287;0.001547;
1166;702;-0.086343;0.861987;0.999997;0.000453;-0.002935;0.007365;-0.000596;0.007399;-0.002969;-86.696786;0.007447;
991;1782;0.073173;86.213386;1.000000;0.000144;-0.000495;0.001491;-0.000118;0.001498;-0.000502;-86.614719;0.001525;
1011;1532;0.411352;85.459097;0.999992;0.000761;-0.003571;0.008653;-0.002590;0.009179;-0.004097;-78.516850;0.009197;
1291;382;-0.038252;0.080863;1.000000;0.000058;-0.000371;0.001548;-0.000181;0.001565;-0.000388;-84.659238;0.001630;
986;382;0.035483;0.078212;1.000000;0.000075;-0.000340;0.001537;0.000202;0.001558;-0.000362;83.934455;0.001631;
1106;622;0.038068;0.506301;0.999997;0.000440;-0.001282;0.002915;0.000166;0.002921;-0.001288;87.735492;0.002928;
1301;382;-0.042043;0.083012;1.000000;0.000078;-0.000418;0.001570;-0.000164;0.001583;-0.000432;-85.306004;0.001637;
1151;1397;-0.272046;82.962899;0.999929;0.002358;-0.014682;0.033427;0.001038;0.033449;-0.014704;88.765034;0.033531;
1286;1807;-0.067711;86.247527;0.999999;0.000206;-0.000453;0.001503;0.000094;0.001507;-0.000458;87.242756;0.001546;
1231;817;-1.080181;2.598021;0.999981;0.001580;-0.011552;0.025422;-0.005131;0.026121;-0.012251;-82.244387;0.026138;
1171;807;-0.363970;2.348223;0.999975;0.001686;-0.010070;0.023299;-0.001783;0.023395;-0.010165;-86.949576;0.023461;
1226;402;-0.026761;0.099892;1.000000;0.000076;-0.000317;0.001455;-0.000141;0.001466;-0.000328;-85.470782;0.001539;
1011;1537;0.385609;85.500030;0.999989;0.000787;-0.003345;0.008194;-0.002466;0.008699;-0.003850;-78.429280;0.008718;
996;1782;0.070932;86.215093;1.000000;0.000145;-0.000500;0.001503;-0.000120;0.001511;-0.000507;-86.592194;0.001538;
1246;612;-0.122559;0.448486;0.999997;0.000512;-0.000900;0.002442;-0.000565;0.002535;-0.000993;-80.653723;0.002555;
1296;372;-0.033133;0.065252;1.000000;0.000086;-0.000362;0.001567;-0.000204;0.001588;-0.000383;-84.033772;0.001657;
1301;387;-0.045680;0.091098;1.000000;0.000110;-0.000429;0.001556;-0.000146;0.001567;-0.000440;-85.816793;0.001617;
1036;412;0.032926;0.115349;1.000000;0.000119;-0.000367;0.001488;0.000138;0.001499;-0.000377;85.768413;0.001559;
1156;1397;-0.350483;82.959365;0.999918;0.002084;-0.014665;0.033431;0.001318;0.033468;-0.014701;88.431378;0.033550;
986;572;0.123713;0.367152;0.999998;0.000395;-0.000473;0.001597;0.000368;0.001660;-0.000536;80.219943;0.001694;
1226;817;-1.027094;2.599306;0.999980;0.001967;-0.011523;0.025476;-0.004871;0.026106;-0.012153;-82.624627;0.026127;
1171;812;-0.383432;2.469418;0.999969;0.001609;-0.010585;0.024379;-0.001855;0.024477;-0.010683;-86.970855;0.024543;
1016;1527;0.417834;85.416352;0.999992;0.001185;-0.003773;0.009097;-0.002621;0.009610;-0.004286;-78.918298;0.009629;
1246;1842;-0.033858;86.308285;0.999999;0.000197;-0.000342;0.001483;0.000159;0.001496;-0.000355;85.055386;0.001564;
1231;402;-0.028320;0.100500;1.000000;0.000081;-0.000325;0.001460;-0.000147;0.001472;-0.000337;-85.318433;0.001542;
986;1757;0.086361;86.175224;1.000000;0.000263;-0.000514;0.001486;-0.000145;0.001497;-0.000525;-85.874992;0.001519;
1251;612;-0.126468;0.445423;0.999997;0.000505;-0.000882;0.002421;-0.000595;0.002525;-0.000986;-80.088648;0.002545;
1296;377;-0.036721;0.073571;1.000000;0.000080;-0.000386;0.001567;-0.000182;0.001583;-0.000403;-84.722692;0.001646;
1016;397;0.033530;0.095505;1.000000;0.000106;-0.000331;0.001486;0.000174;0.001503;-0.000348;84.593717;0.001573;
1266;402;-0.040776;0.104868;1.000000;0.000089;-0.000377;0.001502;-0.000158;0.001515;-0.000390;-85.220749;0.001574;
1121;1402;0.156983;83.129571;0.999961;0.001637;-0.013999;0.031857;-0.000690;0.031868;-0.014009;-89.138237;0.031945;
986;577;0.126049;0.375768;0.999998;0.000439;-0.000486;0.001635;0.000395;0.001707;-0.000557;79.775372;0.001740;
1216;822;-0.959061;2.729555;0.999973;0.001399;-0.012065;0.026844;-0.004488;0.027355;-0.012576;-83.505334;0.027385;
1316;1717;-0.121259;86.116326;0.999999;0.000216;-0.000542;0.001234;0.000239;0.001265;-0.000574;82.460554;0.001267;
1106;792;0.247747;2.021110;0.999971;0.001329;-0.008852;0.020513;0.001215;0.020563;-0.008902;87.635491;0.020624;
1241;1547;-0.303848;85.570339;0.999988;0.000936;-0.003022;0.007437;0.002008;0.007810;-0.003394;79.498179;0.007832;
1091;432;0.017439;0.141030;1.000000;0.000103;-0.000405;0.001487;0.000059;0.001489;-0.000407;88.225169;0.001539;
991;1757;0.083894;86.176461;1.000000;0.000162;-0.000527;0.001505;-0.000146;0.001515;-0.000537;-85.922181;0.001536;
1296;382;-0.040133;0.082102;1.000000;0.000073;-0.000407;0.001558;-0.000166;0.001572;-0.000421;-85.204985;0.001628;
966;542;0.120992;0.317891;0.999997;0.000480;-0.000481;0.001375;0.000270;0.001414;-0.000520;81.902667;0.001430;
1021;397;0.031464;0.094818;1.000000;0.000109;-0.000324;0.001478;0.000171;0.001494;-0.000340;84.616400;0.001566;
1271;402;-0.042569;0.105735;1.000000;0.000123;-0.000385;0.001508;-0.000155;0.001521;-0.000398;-85.354710;0.001577;
1126;1402;0.088996;83.126486;0.999967;0.001554;-0.014014;0.031870;-0.000379;0.031873;-0.014017;-89.526168;0.031950;
1316;1722;-0.119375;86.122803;0.999999;0.000245;-0.000592;0.001204;0.000275;0.001245;-0.000633;81.473213;0.001245;
986;582;0.129698;0.383511;0.999997;0.000583;-0.000495;0.001658;0.000422;0.001738;-0.000575;79.286181;0.001771;
1176;812;-0.439592;2.471089;0.999968;0.001738;-0.010608;0.024388;-0.002101;0.024513;-0.010733;-86.576757;0.024576;
1221;792;-0.753376;2.035461;0.999964;0.001458;-0.008945;0.020219;-0.003799;0.020706;-0.009432;-82.698810;0.020733;
1281;382;-0.034683;0.077588;1.000000;0.000091;-0.000336;0.001527;-0.000203;0.001549;-0.000357;-83.862497;0.001622;
996;1757;0.081325;86.177258;1.000000;0.000148;-0.000536;0.001520;-0.000143;0.001530;-0.000546;-86.042960;0.001551;
1046;1522;0.328607;85.373458;0.999988;0.000649;-0.003984;0.009527;-0.002060;0.009835;-0.004291;-81.519977;0.009861;
1026;397;0.030134;0.094116;1.000000;0.000089;-0.000318;0.001470;0.000166;0.001486;-0.000333;84.740532;0.001559;
1041;412;0.031199;0.114803;1.000000;0.000098;-0.000361;0.001483;0.000134;0.001493;-0.000371;85.857821;0.001554;
1256;552;-0.098484;0.336690;0.999998;0.000367;-0.000599;0.001619;-0.000249;0.001646;-0.000626;-83.675520;0.001662;
976;372;0.032116;0.065456;1.000000;0.000103;-0.000334;0.001557;0.000213;0.001581;-0.000358;83.644776;0.001658;
1131;1402;0.019223;83.124642;0.999968;0.001664;-0.013999;0.031887;-0.000086;0.031888;-0.013999;-89.892045;0.031966;
1241;552;-0.089660;0.337130;0.999997;0.000499;-0.000659;0.001677;-0.000230;0.001699;-0.000681;-84.438642;0.001710;
961;1857;0.048532;86.317511;0.999999;0.000221;-0.000509;0.001568;-0.000114;0.001575;-0.000515;-86.855507;0.001606;
1146;832;-0.148836;2.996030;0.999966;0.002040;-0.012802;0.029229;-0.000747;0.029242;-0.012815;-88.981473;0.029317;
1076;782;0.462337;1.843330;0.999958;0.001842;-0.007958;0.018443;0.002288;0.018640;-0.008155;85.082661;0.018688;
1016;1522;0.446784;85.369530;0.999992;0.001110;-0.003995;0.009626;-0.002783;0.010173;-0.004541;-78.887985;0.010192;
1281;387;-0.038175;0.085314;1.000000;0.000099;-0.000355;0.001528;-0.000187;0.001547;-0.000373;-84.397689;0.001614;
1046;412;0.029599;0.114144;1.000000;0.000086;-0.000355;0.001478;0.000129;0.001487;-0.000364;85.984439;0.001550;
1251;1822;-0.044854;86.277755;1.000000;0.000158;-0.000415;0.001510;0.000140;0.001520;-0.000425;85.869682;0.001569;
1261;552;-0.101704;0.337355;0.999998;0.000446;-0.000575;0.001600;-0.000258;0.001630;-0.000605;-83.333232;0.001648;
1086;422;0.017521;0.126500;1.000000;0.000111;-0.000369;0.001470;0.000070;0.001473;-0.000371;87.834928;0.001532;
1136;1402;-0.045130;83.125803;0.999966;0.001867;-0.013990;0.031915;0.000198;0.031916;-0.013991;89.752282;0.031997;
1106;447;0.013127;0.162796;1.000000;0.000105;-0.000457;0.001513;0.000036;0.001514;-0.000457;88.960722;0.001553;
1231;827;-1.191366;2.859918;0.999965;0.001807;-0.012698;0.027917;-0.005539;0.028659;-0.013440;-82.371673;0.028677;
966;1857;0.046505;86.318905;1.000000;0.000186;-0.000487;0.001561;-0.000125;0.001568;-0.000494;-86.521811;0.001604;
1171;702;-0.100319;0.863143;0.999996;0.000465;-0.002949;0.007392;-0.000699;0.007439;-0.002996;-86.152710;0.007485;
1231;822;-1.136749;2.728422;0.999976;0.001602;-0.012114;0.026765;-0.005347;0.027487;-0.012836;-82.310299;0.027507;
1021;1522;0.429291;85.370158;0.999992;0.000817;-0.004000;0.009613;-0.002662;0.010115;-0.004502;-79.319403;0.010136;
1271;397;-0.039837;0.097966;1.000000;0.000098;-0.000368;0.001507;-0.000166;0.001522;-0.000383;-84.966771;0.001583;
1296;367;-0.029314;0.057477;1.000000;0.000103;-0.000335;0.001567;-0.000227;0.001594;-0.000362;-83.286968;0.001672;
1266;552;-0.104280;0.337059;0.999997;0.000403;-0.000557;0.001578;-0.000265;0.001611;-0.000589;-83.019091;0.001630;
1236;827;-1.256992;2.859249;0.999966;0.002528;-0.012700;0.027833;-0.005827;0.028654;-0.013521;-81.979746;0.028669;
1141;1402;-0.113784;83.127856;0.999961;0.002068;-0.013982;0.031937;0.000465;0.031942;-0.013987;89.420136;0.032024;
996;477;0.078162;0.220848;0.999999;0.000223;-0.000524;0.001517;0.000138;0.001526;-0.000533;86.154994;0.001549;
1006;1832;0.044240;86.291946;1.000000;0.000174;-0.000398;0.001505;-0.000148;0.001516;-0.000410;-85.581661;0.001569;
1261;1727;-0.088626;86.128748;1.000000;0.000176;-0.000600;0.001591;0.000181;0.001606;-0.000614;85.296566;0.001620;
1176;702;-0.115869;0.864594;0.999997;0.000582;-0.002967;0.007422;-0.000797;0.007483;-0.003028;-85.639438;0.007528;
1271;387;-0.034124;0.082851;1.000000;0.000091;-0.000331;0.001502;-0.000189;0.001522;-0.000350;-84.165070;0.001594;
1241;827;-1.321707;2.865142;0.999963;0.001687;-0.012686;0.027697;-0.006117;0.028603;-0.013592;-81.573372;0.028615;
1171;442;-0.016071;0.155441;1.000000;0.000111;-0.000440;0.001505;-0.000048;0.001507;-0.000441;-88.588398;0.001549;
1156;962;-0.836788;9.765274;0.999704;0.005245;-0.038585;0.090937;-0.002479;0.090985;-0.038632;-88.903807;0.091329;
1106;1272;1.122702;75.716369;0.999512;0.006224;-0.041537;0.098702;-0.003442;0.098786;-0.041622;-88.594894;0.099193;
1031;597;0.109283;0.421255;0.999997;0.000804;-0.000814;0.002138;0.000403;0.002192;-0.000868;82.366580;0.002208;
1116;1402;0.227917;83.126722;0.999957;0.001697;-0.013992;0.031858;-0.001017;0.031881;-0.014014;-88.730532;0.031958;
1191;532;-0.045211;0.299500;0.999999;0.000234;-0.000759;0.001733;-0.000119;0.001739;-0.000765;-87.271204;0.001743;
1001;477;0.075593;0.219845;0.999999;0.000250;-0.000535;0.001529;0.000136;0.001538;-0.000544;86.253370;0.001560;
1036;1897;0.007068;86.386692;1.000000;0.000183;-0.000084;0.001354;-0.000190;0.001379;-0.000108;-82.579688;0.001533;
981;1762;0.086835;86.182236;1.000000;0.000173;-0.000498;0.001463;-0.000133;0.001472;-0.000507;-86.139130;0.001495;
1271;392;-0.036965;0.090214;1.000000;0.000094;-0.000350;0.001505;-0.000178;0.001522;-0.000367;-84.572264;0.001589;
981;572;0.125450;0.365399;0.999997;0.000456;-0.000464;0.001577;0.000370;0.001642;-0.000529;80.040745;0.001676;
966;347;0.014800;0.027851;1.000000;0.000085;-0.000242;0.001613;0.000313;0.001665;-0.000293;80.661793;0.001778;
1181;797;-0.424877;2.134937;0.999966;0.002123;-0.009144;0.021230;-0.002094;0.021374;-0.009288;-86.074635;0.021435;
1226;952;-3.365093;9.175030;0.999631;0.008213;-0.038153;0.087129;-0.010630;0.088025;-0.039048;-85.184247;0.088211;
1036;1902;0.004888;86.393037;0.999999;0.000271;-0.000059;0.001343;-0.000192;0.001368;-0.000085;-82.352848;0.001533;
1146;1402;-0.187076;83.132076;0.999946;0.002447;-0.014000;0.031956;0.000721;0.031968;-0.014012;89.101869;0.032049;
1196;532;-0.048827;0.300143;0.999999;0.000252;-0.000746;0.001725;-0.000127;0.001732;-0.000753;-87.070351;0.001737;
1211;1267;-3.558481;74.905136;0.999669;0.006600;-0.047640;0.112911;0.010081;0.113542;-0.048271;86.421229;0.113965;
1206;527;-0.054738;0.293343;0.999999;0.000222;-0.000705;0.001685;-0.000130;0.001692;-0.000712;-86.905332;0.001699;
1106;612;0.036117;0.476057;0.999997;0.000521;-0.001219;0.002732;0.000147;0.002737;-0.001224;87.873945;0.002742;
981;577;0.128008;0.374171;0.999998;0.000414;-0.000479;0.001629;0.000394;0.001700;-0.000551;79.745404;0.001735;
981;1767;0.084853;86.189582;1.000000;0.000191;-0.000493;0.001463;-0.000125;0.001471;-0.000501;-86.369013;0.001495;
966;352;0.019096;0.035710;1.000000;0.000097;-0.000284;0.001610;0.000282;0.001651;-0.000325;81.705010;0.001749;
1086;427;0.018484;0.134031;1.000000;0.000118;-0.000388;0.001480;0.000068;0.001482;-0.000390;87.926110;0.001536;
1181;802;-0.450905;2.242026;0.999973;0.001860;-0.009617;0.022255;-0.002172;0.022403;-0.009764;-86.119373;0.022464;
1041;1897;0.006450;86.386257;1.000000;0.000178;-0.000079;0.001343;-0.000178;0.001365;-0.000101;-82.991885;0.001521;
1216;1267;-3.789798;74.871738;0.999644;0.005846;-0.047903;0.113921;0.010943;0.114658;-0.048639;86.148887;0.115096;
1166;952;-1.122816;8.964825;0.999665;0.005439;-0.035713;0.083136;-0.003436;0.083235;-0.035812;-88.345528;0.083504;
1201;532;-0.052591;0.301325;0.999999;0.000241;-0.000733;0.001717;-0.000133;0.001725;-0.000740;-86.897039;0.001730;
1211;527;-0.058300;0.293688;0.999999;0.000232;-0.000700;0.001678;-0.000136;0.001686;-0.000708;-86.740237;0.001693;
1106;1392;0.403984;82.808069;0.999954;0.001789;-0.015278;0.034792;-0.001753;0.034853;-0.015340;-87.997464;0.034936;
981;582;0.131109;0.382195;0.999997;0.000423;-0.000478;0.001649;0.000428;0.001732;-0.000560;79.039631;0.001768;
966;357;0.023287;0.043499;1.000000;0.000105;-0.000316;0.001607;0.000262;0.001642;-0.000351;82.383043;0.001729;
1076;617;0.073842;0.485324;0.999997;0.000412;-0.001166;0.002758;0.000316;0.002784;-0.001191;85.428025;0.002793;
981;1772;0.082397;86.196483;1.000000;0.000181;-0.000488;0.001464;-0.000116;0.001471;-0.000494;-86.615033;0.001497;
1041;1902;0.004754;86.393722;0.999999;0.000296;-0.000057;0.001333;-0.000177;0.001355;-0.000079;-82.870970;0.001521;
1011;392;0.032792;0.088739;1.000000;0.000092;-0.000321;0.001485;0.000182;0.001504;-0.000339;84.289605;0.001577;
1181;807;-0.472465;2.352787;0.999970;0.001711;-0.010109;0.023318;-0.002262;0.023471;-0.010261;-86.145577;0.023533;
1221;1267;-4.031545;74.827144;0.999576;0.005671;-0.048102;0.114975;0.011838;0.115830;-0.048957;85.869552;0.116291;
1106;1397;0.381435;82.967209;0.999951;0.001790;-0.014625;0.033337;-0.001712;0.033398;-0.014686;-87.958134;0.033479;
1176;512;-0.029564;0.266281;0.999999;0.000348;-0.000699;0.001651;-0.000069;0.001653;-0.000701;-88.315643;0.001659;
1126;937;0.277495;7.818791;0.999701;0.005714;-0.031131;0.071996;0.000643;0.072000;-0.031135;89.642940;0.072219;
1081;617;0.067846;0.487001;0.999997;0.000427;-0.001185;0.002770;0.000289;0.002791;-0.001206;85.838708;0.002800;
1221;402;-0.025053;0.099408;1.000000;0.000080;-0.000310;0.001450;-0.000135;0.001460;-0.000320;-85.650119;0.001535;
986;1752;0.087916;86.167086;1.000000;0.000182;-0.000521;0.001489;-0.000154;0.001501;-0.000533;-85.656763;0.001522;
1221;1272;-3.858884;75.341665;0.999633;0.004319;-0.045995;0.109000;0.011551;0.109856;-0.046851;85.761160;0.110251;
1086;537;0.041759;0.309353;0.999999;0.000285;-0.000806;0.001809;0.000110;0.001813;-0.000811;87.600988;0.001816;
1251;402;-0.035310;0.102421;1.000000;0.000096;-0.000349;0.001484;-0.000164;0.001499;-0.000364;-84.937070;0.001564;
1041;562;0.085764;0.355199;0.999997;0.000432;-0.000742;0.001818;0.000232;0.001839;-0.000763;84.858275;0.001848;
1221;827;-1.068401;2.857571;0.999962;0.001747;-0.012652;0.028002;-0.004941;0.028594;-0.013244;-83.168424;0.028620;
1226;1642;-0.102391;85.974084;0.999999;0.000191;-0.000911;0.002323;0.000402;0.002372;-0.000960;83.026689;0.002387;
1106;1402;0.361982;83.126794;0.999949;0.001839;-0.013995;0.031883;-0.001660;0.031943;-0.014055;-87.930308;0.032020;
1176;517;-0.030470;0.274116;0.999999;0.000260;-0.000721;0.001673;-0.000075;0.001675;-0.000723;-88.208519;0.001681;
1126;942;0.286155;8.168235;0.999684;0.005532;-0.032466;0.075299;0.000699;0.075303;-0.032470;89.628642;0.075541;
991;1752;0.085973;86.168588;1.000000;0.000166;-0.000535;0.001508;-0.000153;0.001519;-0.000546;-85.731969;0.001539;
1226;827;-1.130111;2.861673;0.999963;0.001578;-0.012661;0.027968;-0.005243;0.028634;-0.013327;-82.764048;0.028657;
1191;527;-0.043651;0.291971;0.999999;0.000188;-0.000737;0.001704;-0.000110;0.001709;-0.000742;-87.434668;0.001714;
1206;1267;-3.322924;74.936843;0.999611;0.006861;-0.047396;0.111975;0.009211;0.112506;-0.047926;86.703205;0.112916;
1256;402;-0.037346;0.103192;1.000000;0.000096;-0.000358;0.001491;-0.000164;0.001505;-0.000372;-84.957108;0.001568;
1056;647;0.117979;0.573719;0.999997;0.000404;-0.001509;0.003833;0.000726;0.003929;-0.001606;82.397395;0.003951;
1176;442;-0.018192;0.155701;1.000000;0.000097;-0.000441;0.001507;-0.000054;0.001509;-0.000443;-88.414454;0.001551;
1231;1897;-0.006854;86.386839;0.999999;0.000201;-0.000081;0.001372;0.000190;0.001396;-0.000105;82.672856;0.001555;
1116;707;0.059018;0.901258;0.999996;0.000564;-0.003079;0.007788;0.000364;0.007801;-0.003091;88.083885;0.007856;
1176;522;-0.031770;0.282516;0.999999;0.000270;-0.000744;0.001704;-0.000079;0.001706;-0.000746;-88.147453;0.001711;
1111;1402;0.293319;83.121880;0.999950;0.001758;-0.013978;0.031872;-0.001335;0.031911;-0.014017;-88.333854;0.031990;
996;1752;0.083291;86.169244;1.000000;0.000204;-0.000544;0.001523;-0.000150;0.001534;-0.000555;-85.883275;0.001553;
1196;527;-0.046868;0.291104;0.999999;0.000229;-0.000726;0.001697;-0.000117;0.001703;-0.000732;-87.247046;0.001709;
1161;962;-1.031189;9.775918;0.999661;0.005455;-0.038725;0.091045;-0.003050;0.091116;-0.038797;-88.654579;0.091450;
1216;827;-1.005208;2.857443;0.999964;0.001735;-0.012643;0.028064;-0.004662;0.028591;-0.013170;-83.549769;0.028621;
1201;1267;-3.066265;74.998491;0.999595;0.006194;-0.047186;0.111083;0.008326;0.111519;-0.047622;86.996998;0.111915;
1261;402;-0.038862;0.104066;1.000000;0.000083;-0.000367;0.001497;-0.000162;0.001511;-0.000381;-85.083749;0.001571;
1056;652;0.123392;0.591336;0.999997;0.000414;-0.001612;0.004099;0.000785;0.004205;-0.001718;82.311902;0.004228;
1006;392;0.034561;0.089498;1.000000;0.000096;-0.000332;0.001495;0.000182;0.001513;-0.000350;84.380027;0.001584;
1121;707;0.043886;0.900696;0.999996;0.000565;-0.003076;0.007778;0.000270;0.007784;-0.003083;88.574970;0.007840;
1271;1797;-0.065303;86.236411;0.999999;0.000164;-0.000477;0.001524;0.000112;0.001530;-0.000483;86.819387;0.001564;
1176;507;-0.028708;0.257661;0.999999;0.000340;-0.000679;0.001637;-0.000064;0.001639;-0.000681;-88.415815;0.001647;
1106;1387;0.421768;82.638235;0.999934;0.002076;-0.015983;0.036340;-0.001792;0.036401;-0.016044;-88.040844;0.036486;
1201;527;-0.051245;0.292406;0.999999;0.000203;-0.000714;0.001691;-0.000124;0.001698;-0.000721;-87.062852;0.001704;
981;1777;0.079982;86.203877;1.000000;0.000205;-0.000482;0.001465;-0.000109;0.001472;-0.000488;-86.803389;0.001499;
1201;1272;-2.921257;75.526838;0.999614;0.005702;-0.045120;0.105316;0.008189;0.105760;-0.045564;86.893360;0.106097;
1141;957;-0.252055;9.332090;0.999706;0.005991;-0.036861;0.086634;-0.000827;0.086639;-0.036867;-89.616326;0.086959;
1056;657;0.129292;0.610678;0.999997;0.000484;-0.001721;0.004350;0.000844;0.004465;-0.001836;82.231207;0.004488;
1151;832;-0.213106;2.992840;0.999968;0.002196;-0.012818;0.029237;-0.001034;0.029263;-0.012844;-88.592480;0.029335;
1026;402;0.032207;0.101466;1.000000;0.000107;-0.000338;0.001481;0.000159;0.001495;-0.000352;85.031948;0.001563;
1211;1742;-0.051505;86.157239;1.000000;0.000151;-0.000633;0.001630;0.000103;0.001635;-0.000638;87.398405;0.001648;
1261;1897;-0.009496;86.385732;0.999999;0.000207;-0.000110;0.001421;0.000246;0.001460;-0.000149;81.088817;0.001606;
1261;577;-0.113491;0.376535;0.999998;0.000426;-0.000587;0.001676;-0.000343;0.001727;-0.000638;-81.572810;0.001747;
1186;532;-0.041614;0.299785;0.999999;0.000251;-0.000772;0.001743;-0.000109;0.001747;-0.000777;-87.522345;0.001751;
1126;1407;0.086466;83.275543;0.999970;0.001440;-0.013377;0.030419;-0.000382;0.030422;-0.013380;-89.500042;0.030496;
1181;512;-0.033260;0.266496;0.999999;0.000286;-0.000695;0.001647;-0.000076;0.001649;-0.000697;-88.146424;0.001656;
986;1787;0.073549;86.219747;1.000000;0.000179;-0.000479;0.001480;-0.000108;0.001486;-0.000485;-86.857450;0.001515;
1201;1277;-2.806986;76.041037;0.999607;0.005661;-0.043131;0.100078;0.007961;0.100519;-0.043572;86.828089;0.100816;
1061;647;0.109822;0.574635;0.999998;0.000491;-0.001506;0.003812;0.000674;0.003896;-0.001590;82.892053;0.003918;
1156;832;-0.277334;2.996651;0.999960;0.002314;-0.012837;0.029243;-0.001311;0.029284;-0.012878;-88.217891;0.029355;
971;362;0.025599;0.049653;1.000000;0.000101;-0.000329;0.001584;0.000240;0.001614;-0.000358;82.964505;0.001695;
1196;962;-2.423212;9.929479;0.999647;0.006864;-0.039922;0.093056;-0.007243;0.093449;-0.040315;-86.891369;0.093742;
956;547;0.125350;0.324928;0.999837;0.003491;-0.000436;0.001277;0.000294;0.001326;-0.000485;80.530981;0.001341;
1181;532;-0.038093;0.299767;0.999999;0.000288;-0.000785;0.001751;-0.000099;0.001755;-0.000789;-87.762046;0.001758;
1131;1407;0.019421;83.273782;0.999971;0.001629;-0.013356;0.030451;-0.000100;0.030451;-0.013356;-89.868947;0.030528;
961;1832;0.063301;86.278842;0.999999;0.000193;-0.000535;0.001478;-0.000064;0.001480;-0.000537;-88.170844;0.001498;
1181;517;-0.034416;0.274380;0.999999;0.000234;-0.000715;0.001668;-0.000082;0.001671;-0.000718;-88.023191;0.001677;
1221;1767;-0.049583;86.196883;1.000000;0.000138;-0.000568;0.001588;0.000099;0.001592;-0.000572;87.371763;0.001613;
991;1787;0.070917;86.220555;1.000000;0.000156;-0.000487;0.001492;-0.000113;0.001498;-0.000494;-86.748876;0.001527;
971;367;0.029551;0.057770;1.000000;0.000089;-0.000357;0.001591;0.000222;0.001616;-0.000382;83.574857;0.001689;
1166;957;-1.168693;9.389304;0.999650;0.006247;-0.037236;0.087139;-0.003531;0.087239;-0.037336;-88.374980;0.087541;
961;547;0.124731;0.323403;0.999998;0.000422;-0.000448;0.001338;0.000293;0.001384;-0.000495;80.930487;0.001403;
1026;387;0.025865;0.079519;1.000000;0.000093;-0.000275;0.001450;0.000177;0.001468;-0.000293;84.204669;0.001553;
1111;1272;0.921153;75.738997;0.999592;0.005814;-0.041412;0.098473;-0.002820;0.098530;-0.041468;-88.845489;0.098941;
1091;787;0.362283;1.936654;0.999969;0.001514;-0.008418;0.019519;0.001772;0.019631;-0.008530;86.384668;0.019687;
1076;1897;0.004003;86.388397;0.999999;0.000211;-0.000071;0.001317;-0.000103;0.001324;-0.000079;-85.795905;0.001486;
1136;1407;-0.046518;83.278143;0.999971;0.002151;-0.013340;0.030491;0.000178;0.030492;-0.013341;89.767042;0.030571;
951;447;0.085808;0.188935;0.999999;0.000242;-0.000789;0.001538;0.000070;0.001540;-0.000792;88.286160;0.001540;
1181;522;-0.035603;0.283088;0.999999;0.000234;-0.000736;0.001697;-0.000087;0.001700;-0.000740;-87.949885;0.001705;
996;1787;0.068376;86.222269;1.000000;0.000173;-0.000491;0.001503;-0.000116;0.001510;-0.000498;-86.689324;0.001539;
1126;947;0.287122;8.538303;0.999599;0.005745;-0.033842;0.078732;0.000753;0.078737;-0.033847;89.616541;0.078995;
1081;1802;0.022879;86.254294;1.000000;0.000116;-0.000447;0.001508;-0.000068;0.001510;-0.000449;-88.011238;0.001551;
1191;342;-0.002784;0.016670;1.000000;0.000080;-0.000052;0.001307;-0.000105;0.001315;-0.000060;-85.627490;0.001485;
1051;417;0.029406;0.121162;1.000000;0.000089;-0.000370;0.001485;0.000120;0.001493;-0.000378;86.325864;0.001552;
1116;1272;0.707191;75.753738;0.999514;0.005705;-0.041324;0.098264;-0.002207;0.098299;-0.041359;-89.094417;0.098710;
1011;602;0.126010;0.426689;0.999998;0.000347;-0.000727;0.002097;0.000513;0.002187;-0.000817;80.020420;0.002210;
1111;802;0.223692;2.242336;0.999958;0.001593;-0.009738;0.022422;0.001078;0.022458;-0.009774;88.081673;0.022521;
1121;1407;0.153320;83.280184;0.999967;0.001455;-0.013369;0.030405;-0.000673;0.030415;-0.013379;-89.119886;0.030488;
1171;532;-0.029548;0.298972;0.999999;0.000321;-0.000801;0.001765;-0.000080;0.001768;-0.000804;-88.213478;0.001770;
1186;527;-0.040289;0.291663;0.999999;0.000205;-0.000748;0.001711;-0.000101;0.001715;-0.000752;-87.656487;0.001719;
1106;1872;0.004152;86.355213;0.999999;0.000238;-0.000168;0.001343;-0.000049;0.001345;-0.000170;-88.127627;0.001465;
981;1752;0.090535;86.166831;1.000000;0.000190;-0.000510;0.001469;-0.000151;0.001480;-0.000521;-85.667052;0.001502;
1226;1272;-4.100400;75.311615;0.999635;0.004956;-0.046050;0.110003;0.012528;0.111002;-0.047049;85.439344;0.111431;
1136;957;-0.060110;9.325193;0.999649;0.005567;-0.036775;0.086589;-0.000282;0.086589;-0.036775;-89.869081;0.086916;
971;357;0.021855;0.042202;1.000000;0.000098;-0.000300;0.001579;0.000256;0.001613;-0.000334;82.378429;0.001703;
1031;412;0.034888;0.115725;1.000000;0.000123;-0.000372;0.001494;0.000142;0.001505;-0.000383;85.676017;0.001564;
1011;607;0.128769;0.432849;0.999998;0.000373;-0.000775;0.002229;0.000571;0.002334;-0.000880;79.585752;0.002357;
1156;1787;-0.011348;86.232660;1.000000;0.000147;-0.000493;0.001529;0.000028;0.001530;-0.000493;89.206787;0.001562;
1166;817;-0.347014;2.590471;0.999972;0.001451;-0.011122;0.025547;-0.001650;0.025621;-0.011196;-87.429048;0.025689;
1141;1407;-0.115880;83.288624;0.999967;0.002133;-0.013334;0.030522;0.000438;0.030527;-0.013338;89.427281;0.030607;
981;1757;0.089550;86.174442;1.000000;0.000229;-0.000504;0.001466;-0.000142;0.001476;-0.000514;-85.904576;0.001498;
1266;487;-0.078076;0.234152;0.999999;0.000243;-0.000550;0.001539;-0.000148;0.001550;-0.000561;-85.977751;0.001569;
1171;1892;-0.003150;86.381553;0.999999;0.000259;-0.000089;0.001333;0.000073;0.001337;-0.000093;87.052132;0.001493;
1196;1277;-2.592337;76.065850;0.999562;0.006434;-0.042713;0.099251;0.007274;0.099623;-0.043085;87.074443;0.099926;
1291;497;-0.095276;0.251871;0.999999;0.000250;-0.000506;0.001448;-0.000167;0.001463;-0.000520;-85.137004;0.001483;
1136;962;-0.052074;9.729314;0.999571;0.005105;-0.038353;0.090700;-0.000241;0.090700;-0.038354;-89.893077;0.091059;
1031;387;0.024476;0.079167;1.000000;0.000093;-0.000271;0.001443;0.000169;0.001459;-0.000287;84.428408;0.001546;
1181;442;-0.020314;0.155918;1.000000;0.000097;-0.000442;0.001509;-0.000060;0.001511;-0.000444;-88.236082;0.001553;
1011;612;0.132839;0.445534;0.999997;0.000436;-0.000833;0.002395;0.000638;0.002517;-0.000955;79.210819;0.002541;
1166;822;-0.365899;2.715236;0.999968;0.001744;-0.011677;0.026766;-0.001705;0.026842;-0.011752;-87.465467;0.026911;
1176;527;-0.032538;0.290722;0.999999;0.000308;-0.000768;0.001724;-0.000083;0.001727;-0.000771;-88.089109;0.001730;
1171;1897;-0.002060;86.388091;1.000000;0.000224;-0.000070;0.001326;0.000078;0.001330;-0.000075;86.831759;0.001495;
1146;1407;-0.181949;83.292588;0.999956;0.001884;-0.013354;0.030561;0.000694;0.030572;-0.013365;89.094973;0.030652;
976;1747;0.095668;86.158699;1.000000;0.000181;-0.000500;0.001443;-0.000157;0.001455;-0.000512;-85.397384;0.001477;
1236;822;-1.198259;2.725352;0.999979;0.001642;-0.012121;0.026723;-0.005618;0.027520;-0.012917;-81.933109;0.027537;
1191;1787;-0.028834;86.230740;1.000000;0.000138;-0.000500;0.001546;0.000069;0.001548;-0.000502;88.065178;0.001579;
1006;387;0.031823;0.081944;1.000000;0.000079;-0.000311;0.001488;0.000191;0.001508;-0.000331;83.997979;0.001586;
1141;962;-0.251081;9.733637;0.999614;0.005553;-0.038422;0.090734;-0.000801;0.090739;-0.038427;-89.644524;0.091092;
1111;447;0.010676;0.162662;1.000000;0.000109;-0.000455;0.001511;0.000029;0.001512;-0.000455;89.151858;0.001551;
1206;1262;-3.455961;74.428910;0.999593;0.006033;-0.049637;0.118080;0.009377;0.118603;-0.050159;86.809828;0.119072;
1016;612;0.129173;0.447708;0.999997;0.000439;-0.000857;0.002412;0.000604;0.002520;-0.000965;79.859587;0.002543;
1026;502;0.071142;0.256311;0.999999;0.000277;-0.000609;0.001601;0.000142;0.001610;-0.000618;86.348584;0.001624;
1026;1522;0.409140;85.371752;0.999991;0.001039;-0.004004;0.009598;-0.002542;0.010057;-0.004463;-79.753248;0.010078;
1241;822;-1.259542;2.728772;0.999972;0.001575;-0.012119;0.026659;-0.005889;0.027533;-0.012993;-81.552339;0.027548;
1111;617;0.031095;0.491517;0.999997;0.000548;-0.001259;0.002834;0.000127;0.002838;-0.001263;88.219755;0.002844;
976;1752;0.093287;86.166199;1.000000;0.000233;-0.000494;0.001443;-0.000146;0.001454;-0.000505;-85.722061;0.001476;
1271;382;-0.031183;0.075448;1.000000;0.000082;-0.000310;0.001497;-0.000202;0.001519;-0.000332;-83.687941;0.001598;
1151;967;-0.677007;10.205722;0.999590;0.004341;-0.040070;0.094808;-0.001971;0.094837;-0.040099;-89.162942;0.095213;
1016;402;0.036171;0.103152;1.000000;0.000110;-0.000351;0.001495;0.000166;0.001510;-0.000366;84.914960;0.001575;
1021;402;0.034169;0.102348;1.000000;0.000109;-0.000344;0.001488;0.000164;0.001502;-0.000359;84.923331;0.001569;
1196;1787;-0.031382;86.230327;1.000000;0.000137;-0.000502;0.001547;0.000074;0.001550;-0.000505;87.931057;0.001581;
1211;1262;-3.716481;74.369310;0.999667;0.005440;-0.049892;0.119156;0.010286;0.119780;-0.050516;86.530802;0.120268;
1021;612;0.125976;0.450369;0.999997;0.000487;-0.000881;0.002432;0.000573;0.002528;-0.000977;80.454229;0.002550;
1226;822;-1.079656;2.727317;0.999976;0.001767;-0.012079;0.026790;-0.005061;0.027438;-0.012727;-82.701404;0.027462;
1031;502;0.068059;0.256404;0.999999;0.000288;-0.000617;0.001609;0.000134;0.001617;-0.000625;86.569615;0.001631;
976;1757;0.092028;86.173937;1.000000;0.000217;-0.000490;0.001443;-0.000136;0.001452;-0.000500;-85.997409;0.001475;
1031;1522;0.385852;85.369622;0.999989;0.001194;-0.004029;0.009592;-0.002420;0.010009;-0.004446;-80.219798;0.010030;
1016;392;0.031268;0.087982;1.000000;0.000087;-0.000311;0.001477;0.000181;0.001495;-0.000329;84.285555;0.001571;
1061;682;0.163722;0.736715;0.999997;0.000428;-0.002383;0.005921;0.001102;0.006065;-0.002527;82.568577;0.006093;
1156;967;-0.887402;10.206716;0.999622;0.005466;-0.040174;0.094942;-0.002540;0.094989;-0.040222;-88.923346;0.095360;
1216;1262;-3.965855;74.327873;0.999633;0.005909;-0.050169;0.120279;0.011204;0.121012;-0.050902;86.255344;0.121519;
1216;432;-0.033123;0.143225;1.000000;0.000106;-0.000422;0.001505;-0.000105;0.001510;-0.000428;-86.882853;0.001557;
1236;412;-0.034002;0.115652;1.000000;0.000101;-0.000368;0.001486;-0.000142;0.001497;-0.000379;-85.639450;0.001556;
1226;1747;-0.059046;86.164037;1.000000;0.000096;-0.000615;0.001619;0.000116;0.001625;-0.000621;87.028594;0.001640;
1221;822;-1.021141;2.729899;0.999975;0.001618;-0.012069;0.026803;-0.004768;0.027379;-0.012645;-83.107660;0.027406;
1011;1522;0.465895;85.367623;0.999992;0.000953;-0.003997;0.009625;-0.002913;0.010222;-0.004594;-78.421424;0.010239;
1036;502;0.064777;0.255321;0.999999;0.000298;-0.000625;0.001614;0.000125;0.001621;-0.000632;86.803385;0.001634;
981;1747;0.092765;86.158822;1.000000;0.000141;-0.000517;0.001470;-0.000161;0.001483;-0.000530;-85.393395;0.001503;
1136;712;-0.001451;0.940777;0.999997;0.000442;-0.003332;0.008315;-0.000022;0.008315;-0.003332;-89.890107;0.008369;
1021;392;0.029570;0.087403;1.000000;0.000082;-0.000303;0.001468;0.000178;0.001485;-0.000321;84.330578;0.001563;
966;547;0.123084;0.323964;0.999997;0.000514;-0.000461;0.001386;0.000293;0.001432;-0.000507;81.216224;0.001452;
1221;1262;-4.222548;74.268207;0.999576;0.006893;-0.050389;0.121392;0.012187;0.122252;-0.051249;85.962001;0.122783;
1161;967;-1.097026;10.203503;0.999637;0.005994;-0.040317;0.095078;-0.003122;0.095150;-0.040389;-88.679966;0.095511;
1236;417;-0.035814;0.122931;1.000000;0.000110;-0.000386;0.001492;-0.000137;0.001502;-0.000396;-85.836409;0.001557;
1241;412;-0.035813;0.115917;1.000000;0.000078;-0.000373;0.001491;-0.000145;0.001502;-0.000384;-85.570414;0.001561;
1006;1522;0.486805;85.370472;0.999991;0.000827;-0.004002;0.009599;-0.003043;0.010249;-0.004652;-77.947108;0.010263;
1226;1752;-0.057293;86.172037;1.000000;0.000127;-0.000603;0.001613;0.000113;0.001618;-0.000609;87.100935;0.001635;
1176;802;-0.396105;2.238010;0.999976;0.001831;-0.009590;0.022255;-0.001935;0.022372;-0.009708;-86.535722;0.022437;
1226;1267;-4.289740;74.782879;0.999568;0.005984;-0.048139;0.116066;0.012847;0.117065;-0.049138;85.553319;0.117566;
986;1747;0.090519;86.159609;1.000000;0.000154;-0.000529;0.001493;-0.000162;0.001506;-0.000542;-85.442713;0.001525;
956;457;0.088105;0.201101;0.999999;0.000231;-0.000755;0.001497;0.000042;0.001498;-0.000756;88.937516;0.001498;
1026;392;0.028017;0.086825;1.000000;0.000089;-0.000297;0.001460;0.000171;0.001476;-0.000314;84.479039;0.001555;
1041;947;3.295111;8.804737;0.999664;0.005487;-0.036705;0.084106;0.010726;0.085051;-0.037650;84.965729;0.085237;
1216;672;-0.155180;0.676223;0.999997;0.000496;-0.002084;0.005269;-0.001094;0.005428;-0.002243;-81.717892;0.005455;
1241;417;-0.037723;0.123222;1.000000;0.000078;-0.000390;0.001497;-0.000140;0.001507;-0.000400;-85.785405;0.001561;
1006;1527;0.457026;85.415239;0.999991;0.000694;-0.003786;0.009059;-0.002845;0.009661;-0.004388;-78.056374;0.009674;
1101;607;0.040905;0.462463;0.999997;0.000520;-0.001179;0.002630;0.000164;0.002637;-0.001186;87.540002;0.002641;
1246;412;-0.037515;0.116582;1.000000;0.000081;-0.000378;0.001496;-0.000148;0.001508;-0.000390;-85.508502;0.001565;
1226;1757;-0.056028;86.179979;1.000000;0.000108;-0.000591;0.001602;0.000109;0.001607;-0.000597;87.168961;0.001625;
1176;807;-0.418835;2.353785;0.999974;0.001848;-0.010083;0.023307;-0.002024;0.023430;-0.010205;-86.544226;0.023494;
956;462;0.090566;0.208532;0.999999;0.000244;-0.000764;0.001447;0.000030;0.001448;-0.000764;89.215095;0.001448;
976;1762;0.089316;86.181392;1.000000;0.000155;-0.000486;0.001443;-0.000127;0.001452;-0.000494;-86.264002;0.001476;
1196;1267;-2.823435;75.044432;0.999508;0.006413;-0.046718;0.110159;0.007612;0.110528;-0.047086;87.228682;0.110930;
1046;947;3.098919;8.777175;0.999652;0.005771;-0.036550;0.083691;0.010043;0.084524;-0.037383;85.258436;0.084712;
1286;387;-0.040222;0.086977;1.000000;0.000096;-0.000370;0.001538;-0.000178;0.001554;-0.000387;-84.716323;0.001619;
1006;1532;0.429414;85.460456;0.999991;0.000686;-0.003582;0.008642;-0.002691;0.009208;-0.004149;-78.118722;0.009223;
1246;417;-0.039726;0.123771;1.000000;0.000082;-0.000395;0.001501;-0.000142;0.001511;-0.000406;-85.733633;0.001564;
1241;567;-0.097170;0.361760;0.999997;0.000497;-0.000678;0.001740;-0.000270;0.001770;-0.000708;-83.697206;0.001782;
1206;437;-0.029755;0.149684;1.000000;0.000083;-0.000432;0.001509;-0.000091;0.001513;-0.000436;-87.309832;0.001557;
1216;1742;-0.054570;86.156631;1.000000;0.000120;-0.000630;0.001630;0.000110;0.001635;-0.000635;87.227536;0.001649;
1321;472;-0.102492;0.224005;0.999981;0.001272;-0.000557;0.001342;-0.000113;0.001349;-0.000564;-86.619912;0.001355;
976;1767;0.087297;86.188205;1.000000;0.000168;-0.000482;0.001445;-0.000118;0.001452;-0.000489;-86.505003;0.001478;
1196;1272;-2.696190;75.565137;0.999524;0.006352;-0.044665;0.104468;0.007478;0.104842;-0.045039;87.136518;0.105188;
1006;1537;0.401318;85.501076;0.999989;0.000814;-0.003346;0.008186;-0.002557;0.008727;-0.003888;-78.040962;0.008744;
1291;387;-0.041990;0.088408;1.000000;0.000073;-0.000386;0.001545;-0.000164;0.001559;-0.000400;-85.179333;0.001619;
1121;937;0.430884;7.835492;0.999670;0.005620;-0.031212;0.072094;0.001138;0.072106;-0.031224;89.368757;0.072321;
1256;407;-0.039276;0.110519;1.000000;0.000101;-0.000375;0.001498;-0.000157;0.001511;-0.000388;-85.242550;0.001570;
1011;597;0.123780;0.417678;0.999997;0.000394;-0.000687;0.001992;0.000463;0.002070;-0.000764;80.463040;0.002093;
971;552;0.121578;0.332709;0.999997;0.000541;-0.000460;0.001462;0.000319;0.001513;-0.000512;80.822077;0.001539;
1116;1407;0.217594;83.279147;0.999966;0.001513;-0.013374;0.030409;-0.000983;0.030431;-0.013396;-88.715057;0.030503;
1026;407;0.034802;0.109295;1.000000;0.000093;-0.000357;0.001491;0.000153;0.001504;-0.000370;85.294262;0.001567;
1221;1742;-0.058029;86.156010;1.000000;0.000093;-0.000628;0.001627;0.000116;0.001633;-0.000633;87.068421;0.001647;
1201;1262;-3.218177;74.475276;0.999540;0.007132;-0.049399;0.117044;0.008450;0.117472;-0.049827;87.101037;0.117922;
976;1772;0.084621;86.195166;1.000000;0.000211;-0.000478;0.001448;-0.000109;0.001455;-0.000484;-86.772481;0.001482;
1016;497;0.075404;0.249674;0.999999;0.000260;-0.000587;0.001578;0.000147;0.001588;-0.000597;86.128945;0.001604;
961;357;0.025475;0.045570;1.000000;0.000112;-0.000335;0.001635;0.000266;0.001671;-0.000370;82.453464;0.001755;
1231;412;-0.031921;0.115126;1.000000;0.000110;-0.000364;0.001481;-0.000138;0.001491;-0.000374;-85.737932;0.001552;
1121;942;0.450064;8.177974;0.999629;0.005132;-0.032530;0.075373;0.001196;0.075386;-0.032543;89.364857;0.075620;
1026;612;0.122590;0.452416;0.999996;0.000581;-0.000909;0.002454;0.000549;0.002541;-0.000997;80.958518;0.002561;
1216;427;-0.031328;0.135601;1.000000;0.000094;-0.000404;0.001493;-0.000109;0.001499;-0.000410;-86.725188;0.001550;
986;557;0.116819;0.343062;0.999997;0.000576;-0.000486;0.001553;0.000302;0.001597;-0.000530;81.747064;0.001627;
1111;1407;0.284815;83.281062;0.999960;0.001827;-0.013370;0.030427;-0.001292;0.030465;-0.013408;-88.311314;0.030538;
1081;422;0.019484;0.126897;1.000000;0.000085;-0.000371;0.001473;0.000077;0.001476;-0.000374;87.617231;0.001535;
1226;1742;-0.061106;86.155382;1.000000;0.000090;-0.000625;0.001624;0.000121;0.001631;-0.000631;86.933874;0.001645;
991;1747;0.088252;86.161389;1.000000;0.000193;-0.000543;0.001512;-0.000161;0.001524;-0.000555;-85.545599;0.001543;
1156;1282;-0.870128;76.648092;0.999467;0.005860;-0.038665;0.090074;0.002352;0.090117;-0.038708;88.953859;0.090414;
1121;537;0.012136;0.308558;0.999999;0.000332;-0.000860;0.001859;0.000035;0.001860;-0.000861;89.255730;0.001862;
1066;422;0.025164;0.127600;1.000000;0.000097;-0.000382;0.001483;0.000097;0.001488;-0.000387;87.043029;0.001544;
1231;417;-0.033986;0.122417;1.000000;0.000114;-0.000382;0.001488;-0.000134;0.001497;-0.000392;-85.925293;0.001553;
1146;967;-0.465268;10.186714;0.999588;0.005407;-0.040023;0.094693;-0.001383;0.094707;-0.040037;-89.411971;0.095083;
986;562;0.119413;0.352148;0.999997;0.000493;-0.000476;0.001552;0.000323;0.001603;-0.000526;81.164245;0.001634;
1251;407;-0.037323;0.109827;1.000000;0.000110;-0.000367;0.001493;-0.000157;0.001506;-0.000380;-85.206324;0.001566;
1226;1762;-0.054160;86.188206;1.000000;0.000116;-0.000579;0.001593;0.000106;0.001598;-0.000584;87.221211;0.001618;
1261;582;-0.115740;0.384550;0.999997;0.000442;-0.000604;0.001720;-0.000370;0.001778;-0.000661;-81.162204;0.001797;
1101;447;0.015426;0.163234;1.000000;0.000097;-0.000458;0.001515;0.000042;0.001516;-0.000459;88.777754;0.001555;
986;1792;0.071800;86.227160;1.000000;0.000167;-0.000473;0.001481;-0.000105;0.001487;-0.000479;-86.928666;0.001518;
1176;1897;-0.002750;86.388210;1.000000;0.000263;-0.000067;0.001332;0.000087;0.001338;-0.000073;86.441345;0.001504;
1161;1282;-1.082363;76.645900;0.999525;0.006434;-0.038881;0.090361;0.002895;0.090426;-0.038945;88.717480;0.090715;
1126;537;0.007700;0.308299;0.999999;0.000293;-0.000862;0.001859;0.000022;0.001860;-0.000862;89.526283;0.001861;
1071;422;0.023373;0.127320;1.000000;0.000081;-0.000378;0.001480;0.000090;0.001484;-0.000383;87.236512;0.001541;
1231;422;-0.035902;0.129779;1.000000;0.000146;-0.000401;0.001495;-0.000129;0.001504;-0.000410;-86.113418;0.001555;
1221;932;-2.670050;7.639278;0.999666;0.004906;-0.032055;0.072582;-0.009317;0.073405;-0.032878;-84.951114;0.073538;
1006;597;0.126014;0.414129;0.999997;0.000550;-0.000657;0.001960;0.000483;0.002046;-0.000743;79.869709;0.002071;
966;362;0.027404;0.051301;1.000000;0.000091;-0.000344;0.001612;0.000244;0.001642;-0.000374;82.985254;0.001722;
1226;1767;-0.052341;86.196419;1.000000;0.000144;-0.000568;0.001587;0.000103;0.001592;-0.000573;87.264340;0.001613;
1306;357;-0.024674;0.044772;1.000000;0.000100;-0.000306;0.001625;-0.000270;0.001662;-0.000343;-82.184551;0.001755;
1266;582;-0.117725;0.383233;0.999997;0.000489;-0.000582;0.001691;-0.000386;0.001754;-0.000646;-80.625822;0.001775;
1171;1902;-0.001767;86.394968;0.999999;0.000237;-0.000053;0.001332;0.000084;0.001337;-0.000058;86.545414;0.001512;
991;1792;0.069086;86.227951;1.000000;0.000194;-0.000480;0.001492;-0.000110;0.001498;-0.000486;-86.808796;0.001528;
1186;1272;-2.259200;75.611635;0.999490;0.005911;-0.043956;0.102920;0.006130;0.103175;-0.044212;87.614091;0.103526;
1041;502;0.061698;0.254699;0.999999;0.000252;-0.000631;0.001619;0.000119;0.001625;-0.000637;86.977620;0.001638;
1226;932;-2.837724;7.663368;0.999699;0.005008;-0.032152;0.072831;-0.009951;0.073765;-0.033087;-84.632779;0.073896;
1076;422;0.021400;0.127181;1.000000;0.000082;-0.000374;0.001476;0.000083;0.001480;-0.000378;87.425152;0.001538;
1236;422;-0.037693;0.130068;1.000000;0.000106;-0.000404;0.001498;-0.000133;0.001508;-0.000413;-86.030725;0.001558;
1006;602;0.128274;0.421876;0.999996;0.000576;-0.000699;0.002071;0.000535;0.002170;-0.000799;79.436641;0.002195;
1176;1902;-0.002206;86.395289;0.999999;0.000245;-0.000049;0.001338;0.000095;0.001345;-0.000055;86.101443;0.001522;
1021;412;0.038408;0.117037;1.000000;0.000126;-0.000381;0.001505;0.000150;0.001517;-0.000393;85.474026;0.001575;
1021;407;0.036490;0.109849;1.000000;0.000105;-0.000363;0.001497;0.000157;0.001511;-0.000376;85.205492;0.001573;
1266;587;-0.120438;0.392060;0.999998;0.000526;-0.000601;0.001751;-0.000419;0.001823;-0.000673;-80.194098;0.001844;
1231;932;-3.001278;7.689228;0.999460;0.006356;-0.032157;0.072968;-0.010614;0.074029;-0.033218;-84.291663;0.074159;
996;1792;0.066411;86.229368;0.999999;0.000218;-0.000483;0.001502;-0.000114;0.001509;-0.000490;-86.738106;0.001539;
1076;1797;0.026153;86.246913;1.000000;0.000137;-0.000465;0.001519;-0.000073;0.001522;-0.000467;-87.892425;0.001559;
1121;1282;0.450977;76.645205;0.999584;0.005876;-0.038058;0.089622;-0.001490;0.089640;-0.038075;-89.331409;0.089977;
1046;502;0.058896;0.254231;0.999999;0.000225;-0.000635;0.001624;0.000116;0.001630;-0.000641;87.059500;0.001642;
1241;422;-0.039805;0.130770;1.000000;0.000084;-0.000407;0.001502;-0.000135;0.001512;-0.000417;-85.990167;0.001561;
1096;442;0.016802;0.155745;1.000000;0.000084;-0.000440;0.001507;0.000049;0.001509;-0.000442;88.564160;0.001551;
1006;607;0.131807;0.430843;0.999996;0.000582;-0.000763;0.002209;0.000602;0.002327;-0.000880;78.977776;0.002349;
1316;1787;-0.090841;86.207734;0.999999;0.000272;-0.000574;0.001422;0.000071;0.001424;-0.000577;87.958027;0.001433;
1026;412;0.036675;0.116370;1.000000;0.000097;-0.000376;0.001500;0.000147;0.001511;-0.000388;85.543754;0.001570;
996;387;0.035073;0.083201;1.000000;0.000094;-0.000333;0.001514;0.000192;0.001533;-0.000353;84.132644;0.001606;
1266;592;-0.123495;0.400315;0.999997;0.000587;-0.000625;0.001842;-0.000457;0.001924;-0.000707;-79.827915;0.001946;
971;1762;0.091775;86.181045;1.000000;0.000197;-0.000509;0.001420;-0.000125;0.001428;-0.000518;-86.308984;0.001446;
1196;967;-2.516703;10.345470;0.999625;0.005100;-0.041643;0.097384;-0.007342;0.097771;-0.042030;-86.985449;0.098091;
1076;1802;0.024874;86.254890;1.000000;0.000115;-0.000447;0.001510;-0.000074;0.001513;-0.000449;-87.831107;0.001554;
956;552;0.137238;0.321970;0.999804;0.004215;-0.000420;0.001337;0.000336;0.001399;-0.000482;79.529281;0.001421;
1261;407;-0.041116;0.111588;1.000000;0.000094;-0.000384;0.001503;-0.000153;0.001515;-0.000396;-85.389140;0.001572;
961;342;0.011819;0.021216;1.000000;0.000073;-0.000195;0.001655;0.000370;0.001727;-0.000266;79.088998;0.001859;
966;367;0.031265;0.059246;1.000000;0.000088;-0.000373;0.001620;0.000226;0.001645;-0.000398;83.611839;0.001717;
1081;537;0.045607;0.309765;0.999999;0.000247;-0.000796;0.001796;0.000119;0.001801;-0.000801;87.372136;0.001805;
1081;1902;0.002669;86.394011;0.999999;0.000239;-0.000045;0.001322;-0.000093;0.001328;-0.000051;-86.127594;0.001505;
1316;342;-0.013582;0.023208;1.000000;0.000087;-0.000206;0.001746;-0.000395;0.001823;-0.000283;-78.980494;0.001962;
971;1767;0.089568;86.187673;1.000000;0.000202;-0.000501;0.001420;-0.000111;0.001426;-0.000508;-86.689353;0.001446;
1051;947;2.912018;8.748250;0.999645;0.004869;-0.036387;0.083229;0.009399;0.083963;-0.037121;85.534192;0.084150;
961;347;0.016377;0.029448;1.000000;0.000074;-0.000260;0.001650;0.000325;0.001704;-0.000314;80.606046;0.001814;
1276;537;-0.104352;0.313344;0.999997;0.000495;-0.000550;0.001535;-0.000235;0.001561;-0.000576;-83.637481;0.001579;
961;552;0.126647;0.329285;0.999997;0.000447;-0.000432;0.001388;0.000326;0.001444;-0.000489;80.132479;0.001469;
1246;422;-0.041866;0.131378;1.000000;0.000098;-0.000412;0.001505;-0.000136;0.001515;-0.000421;-85.954368;0.001564;
1076;1807;0.023968;86.261656;1.000000;0.000108;-0.000428;0.001502;-0.000077;0.001505;-0.000431;-87.728738;0.001550;
1186;442;-0.022350;0.156180;1.000000;0.000107;-0.000442;0.001510;-0.000066;0.001513;-0.000445;-88.061696;0.001555;
981;477;0.086285;0.222035;0.999999;0.000219;-0.000499;0.001473;0.000124;0.001481;-0.000507;86.413074;0.001505;
1316;347;-0.018929;0.032506;1.000000;0.000084;-0.000264;0.001727;-0.000348;0.001786;-0.000323;-80.354650;0.001903;
986;1647;0.133526;86.005062;0.999999;0.000204;-0.000580;0.001816;-0.000558;0.001940;-0.000703;-77.517063;0.001964;
1111;532;0.019924;0.299432;0.999999;0.000306;-0.000827;0.001810;0.000056;0.001811;-0.000828;88.793305;0.001813;
1286;532;-0.106939;0.303974;0.999997;0.000430;-0.000526;0.001478;-0.000247;0.001508;-0.000556;-83.088171;0.001526;
961;352;0.021052;0.037556;1.000000;0.000093;-0.000304;0.001642;0.000288;0.001683;-0.000346;81.753206;0.001778;
971;1772;0.087166;86.194330;0.999999;0.000191;-0.000497;0.001420;-0.000092;0.001425;-0.000501;-87.268706;0.001445;
1266;377;-0.027053;0.067602;1.000000;0.000073;-0.000275;0.001472;-0.000211;0.001497;-0.000300;-83.210566;0.001584;
1206;1257;-3.623627;73.882325;0.999483;0.006746;-0.052009;0.124244;0.009588;0.124764;-0.052529;86.895245;0.125281;
966;552;0.125766;0.331574;0.999997;0.000509;-0.000446;0.001426;0.000322;0.001480;-0.000500;80.516111;0.001506;
1316;352;-0.024168;0.041361;1.000000;0.000112;-0.000312;0.001702;-0.000304;0.001747;-0.000357;-81.604519;0.001846;
1101;1387;0.499938;82.634316;0.999945;0.002558;-0.016041;0.036368;-0.002131;0.036455;-0.016127;-87.675057;0.036535;
986;477;0.083633;0.221573;0.999999;0.000222;-0.000510;0.001488;0.000132;0.001496;-0.000518;86.242734;0.001520;
1216;812;-0.866029;2.470223;0.999969;0.001284;-0.010947;0.024421;-0.004174;0.024907;-0.011433;-83.359989;0.024935;
966;342;0.010835;0.020061;1.000000;0.000073;-0.000180;0.001614;0.000351;0.001680;-0.000247;79.305763;0.001815;
1111;537;0.020534;0.308978;0.999999;0.000264;-0.000853;0.001855;0.000058;0.001856;-0.000854;88.765384;0.001858;
1251;1882;-0.015745;86.365487;0.999999;0.000206;-0.000170;0.001414;0.000214;0.001443;-0.000199;82.446587;0.001564;
971;1757;0.094244;86.173797;1.000000;0.000203;-0.000513;0.001421;-0.000131;0.001430;-0.000522;-86.145836;0.001448;
1211;1257;-3.880563;73.835628;0.999563;0.005952;-0.052287;0.125407;0.010527;0.126028;-0.052909;86.621486;0.126567;
1031;407;0.033010;0.108423;1.000000;0.000103;-0.000353;0.001485;0.000147;0.001497;-0.000365;85.446329;0.001561;
1006;612;0.135760;0.443899;0.999996;0.000625;-0.000821;0.002379;0.000673;0.002515;-0.000957;78.590082;0.002538;
1066;642;0.097891;0.557513;0.999997;0.000513;-0.001425;0.003555;0.000568;0.003619;-0.001489;83.574250;0.003638;
1301;372;-0.034815;0.066569;1.000000;0.000113;-0.000374;0.001587;-0.000205;0.001608;-0.000395;-84.086271;0.001676;
1101;1392;0.477965;82.802109;0.999954;0.002095;-0.015325;0.034801;-0.002087;0.034888;-0.015412;-87.619821;0.034966;
1011;497;0.078294;0.249922;0.999999;0.000271;-0.000579;0.001571;0.000152;0.001582;-0.000590;85.969915;0.001599;
1216;817;-0.912508;2.597975;0.999970;0.001280;-0.011491;0.025580;-0.004339;0.026081;-0.011992;-83.412664;0.026109;
1231;407;-0.030244;0.107673;1.000000;0.000117;-0.000345;0.001470;-0.000143;0.001481;-0.000356;-85.530399;0.001547;
1216;1257;-4.135931;73.790378;0.999530;0.005769;-0.052598;0.126639;0.011483;0.127371;-0.053331;86.349278;0.127931;
1251;1887;-0.013273;86.371910;0.999999;0.000204;-0.000145;0.001406;0.000218;0.001436;-0.000175;82.150118;0.001567;
1066;517;0.049815;0.276289;0.999999;0.000297;-0.000690;0.001661;0.000110;0.001666;-0.000695;87.326230;0.001674;
981;372;0.030408;0.064326;1.000000;0.000108;-0.000313;0.001540;0.000225;0.001567;-0.000340;83.171142;0.001649;
1261;1732;-0.086436;86.136640;1.000000;0.000156;-0.000596;0.001586;0.000173;0.001600;-0.000609;85.504107;0.001615;
1076;607;0.069369;0.457220;0.999997;0.000427;-0.001100;0.002547;0.000276;0.002568;-0.001120;85.691621;0.002574;
1036;587;0.101192;0.402468;0.999998;0.000414;-0.000801;0.002007;0.000329;0.002045;-0.000839;83.400129;0.002056;
1221;407;-0.026842;0.106912;1.000000;0.000096;-0.000330;0.001461;-0.000131;0.001470;-0.000340;-85.845427;0.001540;
1101;1397;0.457028;82.962456;0.999953;0.002123;-0.014654;0.033348;-0.002040;0.033434;-0.014740;-87.570342;0.033512;
1221;1257;-4.414685;73.710213;0.999500;0.007325;-0.052869;0.127869;0.012527;0.128733;-0.053733;86.053862;0.129317;
1251;1892;-0.011005;86.379625;0.999999;0.000247;-0.000119;0.001400;0.000222;0.001431;-0.000150;81.855437;0.001573;
1191;797;-0.514635;2.138535;0.999964;0.001312;-0.009234;0.021235;-0.002558;0.021448;-0.009448;-85.233299;0.021498;
1276;382;-0.032763;0.076339;1.000000;0.000093;-0.000321;0.001513;-0.000205;0.001535;-0.000344;-83.712967;0.001611;
951;452;0.087801;0.195385;0.999999;0.000223;-0.000814;0.001538;0.000043;0.001539;-0.000815;88.949292;0.001540;
1251;487;-0.069353;0.232785;0.999999;0.000224;-0.000572;0.001575;-0.000131;0.001583;-0.000580;-86.517559;0.001601;
956;342;0.013023;0.022510;1.000000;0.000075;-0.000215;0.001704;0.000391;0.001780;-0.000291;78.920872;0.001910;
1261;1737;-0.084240;86.144680;1.000000;0.000177;-0.000591;0.001579;0.000164;0.001591;-0.000603;85.698569;0.001607;
1166;447;-0.014361;0.162820;1.000000;0.000094;-0.000457;0.001512;-0.000040;0.001512;-0.000458;-88.828514;0.001551;
1036;592;0.103191;0.411996;0.999996;0.000607;-0.000822;0.002085;0.000358;0.002129;-0.000866;83.078118;0.002141;
1101;1402;0.434930;83.125310;0.999953;0.002082;-0.014015;0.031906;-0.001975;0.031991;-0.014100;-87.541483;0.032066;
1251;572;-0.105725;0.370562;0.999997;0.000461;-0.000637;0.001709;-0.000303;0.001747;-0.000675;-82.757923;0.001762;
951;457;0.089995;0.202690;0.999999;0.000268;-0.000840;0.001516;0.000034;0.001516;-0.000840;89.182535;0.001519;
956;347;0.017899;0.031288;1.000000;0.000078;-0.000286;0.001692;0.000335;0.001747;-0.000341;80.642952;0.001852;
1171;1287;-1.410373;77.043063;0.999544;0.005053;-0.037696;0.087345;0.003932;0.087469;-0.037820;88.200442;0.087735;
1276;387;-0.036072;0.083645;1.000000;0.000093;-0.000342;0.001516;-0.000190;0.001535;-0.000361;-84.226637;0.001606;
1191;802;-0.540597;2.238107;0.999971;0.001314;-0.009717;0.022270;-0.002650;0.022488;-0.009935;-85.296112;0.022539;
1001;1887;0.016008;86.371939;0.999999;0.000207;-0.000171;0.001448;-0.000245;0.001484;-0.000208;-81.568377;0.001608;
1231;517;-0.067989;0.278720;0.999999;0.000217;-0.000649;0.001629;-0.000142;0.001638;-0.000658;-86.443502;0.001649;
976;572;0.127278;0.363560;0.999997;0.000479;-0.000446;0.001555;0.000377;0.001623;-0.000515;79.683715;0.001659;
1286;392;-0.043188;0.094458;1.000000;0.000101;-0.000385;0.001535;-0.000163;0.001549;-0.000399;-85.171341;0.001609;
1006;1742;0.081537;86.154153;1.000000;0.000203;-0.000579;0.001565;-0.000156;0.001576;-0.000590;-85.862469;0.001593;
946;347;0.022082;0.034474;0.999997;0.000449;-0.000362;0.001797;0.000351;0.001852;-0.000417;80.984222;0.001943;
951;462;0.092583;0.210213;0.999999;0.000299;-0.000849;0.001445;0.000015;0.001445;-0.000849;89.636251;0.001452;
1126;1412;0.082665;83.426174;0.999974;0.001473;-0.012757;0.029089;-0.000379;0.029093;-0.012760;-89.480570;0.029166;
1281;532;-0.104286;0.304424;0.999997;0.000423;-0.000539;0.001506;-0.000233;0.001532;-0.000565;-83.586292;0.001549;
1221;412;-0.028678;0.114073;1.000000;0.000107;-0.000351;0.001472;-0.000127;0.001481;-0.000359;-86.036629;0.001545;
1191;1272;-2.478509;75.589146;0.999499;0.006019;-0.044310;0.103656;0.006795;0.103967;-0.044621;87.376166;0.104314;
1191;807;-0.566680;2.350403;0.999968;0.001521;-0.010211;0.023337;-0.002751;0.023561;-0.010435;-85.343804;0.023613;
976;577;0.129741;0.372445;0.999997;0.000474;-0.000458;0.001621;0.000401;0.001695;-0.000533;79.453610;0.001734;
1281;497;-0.090439;0.251273;0.999999;0.000335;-0.000536;0.001497;-0.000167;0.001511;-0.000549;-85.348854;0.001530;
1286;1812;-0.065652;86.254814;0.999999;0.000192;-0.000450;0.001510;0.000096;0.001515;-0.000455;87.211200;0.001554;
1036;417;0.034952;0.122607;1.000000;0.000124;-0.000385;0.001498;0.000134;0.001507;-0.000394;85.941399;0.001563;
1006;1747;0.079650;86.161901;1.000000;0.000170;-0.000571;0.001560;-0.000149;0.001570;-0.000581;-86.005831;0.001588;
1131;1412;0.016289;83.424938;0.999977;0.001634;-0.012738;0.029121;-0.000106;0.029121;-0.012738;-89.855011;0.029197;
1066;522;0.050786;0.285856;0.999999;0.000315;-0.000706;0.001683;0.000117;0.001689;-0.000711;87.200899;0.001696;
1086;437;0.020273;0.148476;1.000000;0.000083;-0.000425;0.001501;0.000063;0.001503;-0.000427;88.115582;0.001549;
1211;437;-0.032323;0.150281;1.000000;0.000091;-0.000436;0.001511;-0.000096;0.001516;-0.000441;-87.171354;0.001560;
1101;707;0.101940;0.901415;0.999996;0.000616;-0.003113;0.007851;0.000653;0.007890;-0.003152;86.601103;0.007942;
976;582;0.132739;0.381675;0.999997;0.000405;-0.000448;0.001642;0.000439;0.001730;-0.000537;78.598148;0.001771;
1126;1287;0.257381;77.059428;0.999497;0.006336;-0.036533;0.085533;-0.000830;0.085539;-0.036539;-89.610607;0.085841;
1111;807;0.236608;2.362367;0.999958;0.001769;-0.010223;0.023528;0.001117;0.023565;-0.010260;88.106460;0.023631;
961;1687;0.123811;86.077092;0.999997;0.000443;-0.000380;0.001406;-0.000237;0.001436;-0.000410;-82.574025;0.001480;
1286;497;-0.093417;0.251620;0.999999;0.000283;-0.000522;0.001477;-0.000169;0.001491;-0.000536;-85.210991;0.001511;
1041;417;0.033018;0.122221;1.000000;0.000117;-0.000380;0.001492;0.000131;0.001502;-0.000389;86.010874;0.001559;
1006;1752;0.077392;86.169835;1.000000;0.000169;-0.000563;0.001553;-0.000145;0.001563;-0.000573;-86.107890;0.001581;
1136;1412;-0.051719;83.432676;0.999974;0.001612;-0.012714;0.029166;0.000170;0.029167;-0.012715;89.767840;0.029247;
1066;527;0.052963;0.293565;0.999999;0.000435;-0.000720;0.001700;0.000127;0.001707;-0.000727;86.995858;0.001713;
1086;442;0.021187;0.156108;1.000000;0.000103;-0.000444;0.001513;0.000061;0.001515;-0.000446;88.204218;0.001556;
1231;427;-0.037728;0.137389;1.000000;0.000140;-0.000418;0.001502;-0.000125;0.001510;-0.000427;-86.288957;0.001557;
1081;1807;0.021945;86.261799;1.000000;0.000111;-0.000428;0.001500;-0.000070;0.001502;-0.000431;-87.909702;0.001547;
1106;707;0.087788;0.901029;0.999996;0.000596;-0.003097;0.007825;0.000552;0.007853;-0.003125;87.112089;0.007907;
1041;587;0.096942;0.402928;0.999998;0.000410;-0.000832;0.002048;0.000321;0.002083;-0.000868;83.717654;0.002093;
1321;1727;-0.131251;86.123933;0.999969;0.001507;-0.000613;0.001141;0.000276;0.001183;-0.000656;81.256472;0.001186;
1196;1262;-2.946735;74.533590;0.999374;0.006217;-0.048887;0.115993;0.007729;0.116355;-0.049248;87.321918;0.116811;
1196;792;-0.529330;2.035495;0.999968;0.001632;-0.008793;0.020242;-0.002708;0.020492;-0.009044;-84.717405;0.020539;
1236;1537;-0.330930;85.489966;0.999991;0.000723;-0.003441;0.008322;0.002112;0.008690;-0.003809;80.121559;0.008712;
1196;537;-0.050872;0.308488;0.999999;0.000273;-0.000769;0.001757;-0.000135;0.001764;-0.000776;-86.943325;0.001768;
956;357;0.027848;0.048381;1.000000;0.000107;-0.000361;0.001665;0.000266;0.001699;-0.000395;82.638682;0.001779;
1141;1412;-0.117383;83.434711;0.999970;0.001499;-0.012708;0.029199;0.000427;0.029203;-0.012712;89.416673;0.029285;
1251;1827;-0.042689;86.285391;1.000000;0.000153;-0.000399;0.001509;0.000144;0.001520;-0.000410;85.695850;0.001572;
1016;472;0.066150;0.209909;0.999999;0.000242;-0.000540;0.001549;0.000127;0.001557;-0.000548;86.532876;0.001579;
1041;592;0.098907;0.413415;0.999996;0.000428;-0.000856;0.002124;0.000348;0.002164;-0.000896;83.435625;0.002175;
1111;707;0.073301;0.900668;0.999996;0.000506;-0.003088;0.007804;0.000456;0.007823;-0.003107;87.607726;0.007878;
1221;1737;-0.059668;86.148410;1.000000;0.000113;-0.000637;0.001631;0.000121;0.001637;-0.000643;86.953794;0.001650;
1201;1257;-3.333915;73.957817;0.999394;0.006086;-0.051732;0.123136;0.008631;0.123560;-0.052157;87.181096;0.124059;
1201;792;-0.572985;2.036910;0.999968;0.002255;-0.008816;0.020246;-0.002930;0.020539;-0.009108;-84.300016;0.020582;
991;1642;0.134382;85.995075;0.999999;0.000206;-0.000639;0.001958;-0.000596;0.002088;-0.000769;-77.678396;0.002112;
1201;537;-0.054645;0.308373;0.999999;0.000252;-0.000754;0.001745;-0.000142;0.001753;-0.000762;-86.760298;0.001758;
1301;367;-0.030886;0.058488;1.000000;0.000129;-0.000347;0.001592;-0.000232;0.001619;-0.000374;-83.279329;0.001695;
1091;437;0.018230;0.148270;1.000000;0.000087;-0.000423;0.001498;0.000057;0.001500;-0.000425;88.304979;0.001546;
1121;1412;0.145725;83.424001;0.999977;0.001131;-0.012754;0.029074;-0.000656;0.029085;-0.012764;-89.101668;0.029157;
1191;537;-0.047056;0.308888;0.999999;0.000293;-0.000783;0.001767;-0.000127;0.001774;-0.000789;-87.154417;0.001777;
1056;1832;0.025626;86.297522;1.000000;0.000199;-0.000346;0.001464;-0.000114;0.001471;-0.000353;-86.410079;0.001536;
1226;1737;-0.062862;86.147681;1.000000;0.000105;-0.000634;0.001628;0.000126;0.001635;-0.000641;86.812005;0.001648;
1066;637;0.094451;0.538236;0.999997;0.000523;-0.001353;0.003345;0.000518;0.003401;-0.001409;83.785865;0.003418;
1251;552;-0.095381;0.337221;0.999997;0.000375;-0.000620;0.001636;-0.000241;0.001662;-0.000646;-83.960548;0.001676;
1206;792;-0.621348;2.036621;0.999957;0.002081;-0.008849;0.020245;-0.003148;0.020582;-0.009186;-83.894899;0.020621;
966;472;0.091085;0.218708;0.999999;0.000280;-0.000655;0.001424;0.000046;0.001425;-0.000656;88.729830;0.001426;
1106;1267;1.190367;75.238288;0.999536;0.005669;-0.043283;0.103005;-0.003541;0.103091;-0.043369;-88.614196;0.103522;
976;1702;0.113837;86.093688;0.999999;0.000206;-0.000489;0.001468;-0.000247;0.001499;-0.000520;-82.931610;0.001522;
1066;427;0.026439;0.135121;1.000000;0.000103;-0.000401;0.001494;0.000093;0.001498;-0.000405;87.184319;0.001550;
1116;1412;0.208844;83.425124;0.999973;0.001333;-0.012772;0.029074;-0.000952;0.029096;-0.012793;-88.697287;0.029166;
1011;397;0.035286;0.096198;1.000000;0.000090;-0.000341;0.001494;0.000174;0.001511;-0.000358;84.619572;0.001579;
1016;477;0.067905;0.218585;0.999999;0.000294;-0.000550;0.001557;0.000131;0.001565;-0.000558;86.452869;0.001586;
1061;1832;0.023565;86.298050;1.000000;0.000228;-0.000342;0.001461;-0.000107;0.001467;-0.000348;-86.610576;0.001533;
1231;1737;-0.065819;86.147412;1.000000;0.000134;-0.000628;0.001626;0.000132;0.001633;-0.000636;86.650868;0.001647;
1071;637;0.088232;0.540896;0.999997;0.000532;-0.001361;0.003338;0.000473;0.003385;-0.001408;84.314151;0.003401;
1216;802;-0.784443;2.243232;0.999964;0.001407;-0.009910;0.022279;-0.003866;0.022737;-0.010368;-83.246306;0.022766;
1251;557;-0.097575;0.344904;0.999997;0.000374;-0.000621;0.001643;-0.000252;0.001671;-0.000648;-83.728028;0.001685;
1111;1267;0.974164;75.256152;0.999576;0.006415;-0.043154;0.102805;-0.002950;0.102865;-0.043214;-88.842649;0.103302;
1216;532;-0.063614;0.302130;0.999999;0.000271;-0.000707;0.001691;-0.000152;0.001700;-0.000717;-86.381214;0.001707;
1071;427;0.024411;0.134753;1.000000;0.000081;-0.000397;0.001490;0.000087;0.001494;-0.000401;87.360336;0.001547;
1146;1412;-0.178107;83.441543;0.999966;0.001317;-0.012730;0.029240;0.000681;0.029251;-0.012741;89.071138;0.029331;
1066;1852;0.016948;86.327459;0.999999;0.000245;-0.000261;0.001413;-0.000112;0.001421;-0.000268;-86.204490;0.001510;
1006;397;0.036992;0.097019;1.000000;0.000098;-0.000351;0.001503;0.000172;0.001519;-0.000367;84.735261;0.001585;
1211;542;-0.063834;0.318872;0.999999;0.000241;-0.000748;0.001747;-0.000167;0.001758;-0.000759;-86.192840;0.001763;
1056;1837;0.024215;86.304999;1.000000;0.000253;-0.000326;0.001450;-0.000118;0.001458;-0.000334;-86.230887;0.001528;
981;567;0.123518;0.357588;0.999997;0.000458;-0.000460;0.001546;0.000348;0.001605;-0.000518;80.437397;0.001638;
1231;1742;-0.064254;86.155952;1.000000;0.000139;-0.000621;0.001622;0.000126;0.001629;-0.000628;86.783065;0.001643;
1086;612;0.059853;0.473365;0.999997;0.000399;-0.001166;0.002676;0.000249;0.002692;-0.001182;86.305444;0.002698;
1116;1267;0.751725;75.270568;0.999467;0.007478;-0.043072;0.102669;-0.002348;0.102706;-0.043109;-89.077146;0.103147;
1221;532;-0.067073;0.302244;0.999999;0.000349;-0.000696;0.001681;-0.000159;0.001692;-0.000706;-86.188877;0.001700;
1121;822;0.159652;2.718600;0.999956;0.001397;-0.011718;0.026936;0.000665;0.026948;-0.011730;89.014538;0.027023;
1076;427;0.022425;0.134570;1.000000;0.000078;-0.000393;0.001486;0.000081;0.001490;-0.000396;87.539379;0.001543;
1111;1412;0.275756;83.426398;0.999970;0.001938;-0.012780;0.029085;-0.001253;0.029122;-0.012818;-88.287014;0.029192;
1301;362;-0.026797;0.050362;1.000000;0.000103;-0.000320;0.001595;-0.000247;0.001627;-0.000352;-82.767168;0.001712;
1011;1882;0.017046;86.365855;0.999999;0.000275;-0.000179;0.001425;-0.000223;0.001455;-0.000210;-82.215562;0.001573;
1216;542;-0.067278;0.319622;0.999999;0.000251;-0.000735;0.001731;-0.000175;0.001744;-0.000747;-85.966936;0.001750;
1061;1837;0.022905;86.305186;1.000000;0.000257;-0.000322;0.001446;-0.000110;0.001453;-0.000329;-86.444669;0.001523;
986;567;0.121563;0.359560;0.999997;0.000417;-0.000470;0.001565;0.000342;0.001621;-0.000526;80.706845;0.001654;
1231;1747;-0.062360;86.163365;1.000000;0.000120;-0.000612;0.001616;0.000121;0.001623;-0.000618;86.890681;0.001638;
946;452;0.103604;0.210406;0.999886;0.003332;-0.000936;0.001582;0.000034;0.001582;-0.000936;89.218666;0.001591;
1266;572;-0.113328;0.367909;0.999997;0.000384;-0.000551;0.001625;-0.000334;0.001675;-0.000601;-81.465392;0.001697;
1121;1277;0.473134;76.219854;0.999564;0.006277;-0.039606;0.093835;-0.001539;0.093852;-0.039623;-89.339395;0.094231;
1126;822;0.099158;2.719003;0.999957;0.001564;-0.011676;0.026904;0.000381;0.026908;-0.011680;89.434206;0.026986;
1106;1407;0.350773;83.285550;0.999959;0.001764;-0.013387;0.030448;-0.001606;0.030507;-0.013446;-87.904084;0.030578;
1276;407;-0.047220;0.114176;1.000000;0.000114;-0.000406;0.001515;-0.000139;0.001525;-0.000416;-85.881874;0.001576;
1266;407;-0.043112;0.112310;1.000000;0.000096;-0.000393;0.001506;-0.000149;0.001518;-0.000405;-85.545218;0.001572;
1011;1887;0.014386;86.372814;0.999999;0.000255;-0.000154;0.001418;-0.000229;0.001451;-0.000187;-81.870291;0.001579;
1221;542;-0.071039;0.320003;0.999999;0.000255;-0.000719;0.001716;-0.000182;0.001729;-0.000733;-85.744057;0.001736;
946;457;0.116080;0.214255;0.999885;0.003348;-0.000971;0.001548;0.000020;0.001548;-0.000971;89.533959;0.001564;
1066;1832;0.022003;86.298245;1.000000;0.000181;-0.000339;0.001458;-0.000099;0.001463;-0.000344;-86.852948;0.001530;
1256;572;-0.108610;0.368907;0.999997;0.000456;-0.000606;0.001678;-0.000310;0.001720;-0.000647;-82.402195;0.001737;
1216;1737;-0.056311;86.149059;1.000000;0.000146;-0.000640;0.001634;0.000115;0.001639;-0.000646;87.123897;0.001652;
946;472;0.116181;0.237168;0.999890;0.002976;-0.000936;0.001350;-0.000086;0.001353;-0.000939;-87.853883;0.001387;
1306;377;-0.040603;0.076659;1.000000;0.000081;-0.000410;0.001600;-0.000178;0.001615;-0.000425;-84.965685;0.001675;
1121;947;0.466522;8.539698;0.999583;0.005094;-0.033894;0.078766;0.001263;0.078780;-0.033908;89.357837;0.079034;
1271;407;-0.044952;0.113127;1.000000;0.000118;-0.000400;0.001510;-0.000144;0.001521;-0.000411;-85.700564;0.001573;
1106;1412;0.337076;83.424396;0.999964;0.001650;-0.012802;0.029100;-0.001557;0.029158;-0.012860;-87.874427;0.029226;
1011;1892;0.011984;86.380053;0.999999;0.000253;-0.000129;0.001410;-0.000235;0.001445;-0.000164;-81.515593;0.001582;
1231;1752;-0.060476;86.171471;1.000000;0.000147;-0.000601;0.001609;0.000117;0.001615;-0.000607;86.981434;0.001632;
951;472;0.097590;0.223761;0.999999;0.000265;-0.000817;0.001371;-0.000032;0.001371;-0.000818;-89.175056;0.001380;
1201;782;-0.509708;1.837842;0.999974;0.002357;-0.007931;0.018360;-0.002704;0.018636;-0.008206;-84.189180;0.018680;
1066;1837;0.020860;86.305588;1.000000;0.000173;-0.000319;0.001441;-0.000102;0.001447;-0.000325;-86.692811;0.001519;
1236;427;-0.039874;0.138119;1.000000;0.000116;-0.000421;0.001504;-0.000128;0.001513;-0.000429;-86.222968;0.001559;
1261;572;-0.110522;0.366710;0.999998;0.000355;-0.000575;0.001650;-0.000320;0.001695;-0.000620;-81.967051;0.001715;
1191;442;-0.024577;0.156499;1.000000;0.000090;-0.000444;0.001513;-0.000072;0.001515;-0.000446;-87.889702;0.001557;
1306;382;-0.044111;0.085092;1.000000;0.000095;-0.000431;0.001580;-0.000162;0.001593;-0.000444;-85.424396;0.001644;
1151;1402;-0.261189;83.130558;0.999934;0.001899;-0.014005;0.031968;0.000988;0.031989;-0.014026;88.769963;0.032070;
1111;1897;0.001405;86.387770;0.999999;0.000252;-0.000072;0.001301;-0.000041;0.001302;-0.000073;-88.272388;0.001463;
1201;957;-2.508079;9.497987;0.999563;0.005499;-0.038659;0.089370;-0.007804;0.089844;-0.039133;-86.524505;0.090093;
1161;457;-0.013074;0.177898;1.000000;0.000119;-0.000494;0.001530;-0.000031;0.001530;-0.000494;-89.120459;0.001562;
956;472;0.095564;0.223063;0.999999;0.000238;-0.000741;0.001391;0.000002;0.001391;-0.000741;89.938847;0.001392;
1231;1757;-0.059151;86.179525;1.000000;0.000156;-0.000589;0.001599;0.000113;0.001604;-0.000595;87.058452;0.001622;
1241;427;-0.041796;0.138318;1.000000;0.000096;-0.000424;0.001507;-0.000129;0.001515;-0.000432;-86.184145;0.001561;
1306;387;-0.047871;0.093174;1.000000;0.000124;-0.000440;0.001561;-0.000143;0.001571;-0.000450;-85.941170;0.001619;
1201;787;-0.541522;1.928708;0.999973;0.002205;-0.008361;0.019273;-0.002820;0.019558;-0.008646;-84.231699;0.019601;
1271;552;-0.107490;0.336407;0.999997;0.000402;-0.000544;0.001557;-0.000273;0.001592;-0.000578;-82.720505;0.001611;
1196;442;-0.026579;0.156801;1.000000;0.000084;-0.000445;0.001514;-0.000078;0.001517;-0.000448;-87.714794;0.001559;
1116;1842;0.004795;86.314187;1.000000;0.000195;-0.000284;0.001407;-0.000029;0.001408;-0.000285;-89.033834;0.001489;
1151;1407;-0.251746;83.297138;0.999946;0.001590;-0.013366;0.030599;0.000963;0.030620;-0.013387;88.746019;0.030701;
981;1732;0.099183;86.137830;1.000000;0.000162;-0.000525;0.001471;-0.000191;0.001489;-0.000543;-84.591468;0.001507;
1016;407;0.038486;0.110509;1.000000;0.000104;-0.000370;0.001503;0.000158;0.001517;-0.000383;85.208425;0.001577;
1056;947;2.735108;8.723778;0.999609;0.003921;-0.036157;0.082758;0.008747;0.083398;-0.036797;85.815598;0.083589;
961;472;0.093253;0.221247;0.999999;0.000271;-0.000691;0.001408;0.000027;0.001408;-0.000691;89.260635;0.001409;
1231;1762;-0.057331;86.187631;1.000000;0.000141;-0.000578;0.001590;0.000109;0.001596;-0.000583;87.116752;0.001615;
1291;392;-0.045220;0.095993;1.000000;0.000089;-0.000398;0.001540;-0.000150;0.001551;-0.000410;-85.604501;0.001608;
971;377;0.037242;0.074380;1.000000;0.000119;-0.000411;0.001580;0.000177;0.001595;-0.000426;84.969822;0.001652;
1181;812;-0.493126;2.471464;0.999967;0.001537;-0.010634;0.024407;-0.002349;0.024564;-0.010790;-86.182550;0.024624;
1276;552;-0.110657;0.335182;0.999998;0.000427;-0.000530;0.001534;-0.000282;0.001572;-0.000568;-82.361605;0.001592;
1226;407;-0.028430;0.107553;1.000000;0.000105;-0.000336;0.001465;-0.000137;0.001476;-0.000347;-85.671820;0.001543;
1126;1417;0.075784;83.569166;0.999976;0.001231;-0.012184;0.027878;-0.000362;0.027881;-0.012187;-89.482942;0.027955;
1206;1722;-0.054568;86.125101;1.000000;0.000159;-0.000691;0.001674;0.000123;0.001681;-0.000698;87.020689;0.001689;
1061;422;0.027068;0.128077;1.000000;0.000107;-0.000385;0.001487;0.000103;0.001492;-0.000391;86.860096;0.001548;
1096;1862;0.007756;86.341198;0.999999;0.000195;-0.000213;0.001366;-0.000066;0.001368;-0.000215;-87.623959;0.001471;
1226;537;-0.072463;0.311295;0.999999;0.000336;-0.000692;0.001684;-0.000174;0.001696;-0.000705;-85.830371;0.001704;
1061;947;2.547898;8.707095;0.999662;0.004512;-0.036003;0.082301;0.008094;0.082852;-0.036554;86.104140;0.083043;
1211;1737;-0.053070;86.149144;1.000000;0.000153;-0.000645;0.001635;0.000108;0.001640;-0.000650;87.292171;0.001651;
1296;392;-0.047226;0.097570;1.000000;0.000112;-0.000427;0.001543;-0.000131;0.001552;-0.000436;-86.201045;0.001601;
1216;807;-0.822510;2.351566;0.999970;0.001368;-0.010424;0.023348;-0.004013;0.023818;-0.010895;-83.315969;0.023847;
1061;427;0.028364;0.135586;1.000000;0.000101;-0.000403;0.001497;0.000099;0.001503;-0.000409;87.011892;0.001554;
1281;552;-0.112113;0.334093;0.999997;0.000425;-0.000493;0.001526;-0.000274;0.001563;-0.000530;-82.401758;0.001589;
1251;412;-0.039484;0.117205;1.000000;0.000105;-0.000384;0.001501;-0.000150;0.001513;-0.000396;-85.465164;0.001569;
1131;1417;0.012537;83.572325;0.999978;0.001650;-0.012158;0.027888;-0.000093;0.027888;-0.012159;-89.867366;0.027964;
1121;1837;0.003774;86.307141;1.000000;0.000163;-0.000301;0.001421;-0.000020;0.001421;-0.000302;-89.344590;0.001497;
1101;1862;0.006501;86.341232;1.000000;0.000222;-0.000210;0.001364;-0.000056;0.001366;-0.000212;-87.953849;0.001471;
1226;542;-0.074779;0.320433;0.999999;0.000314;-0.000701;0.001701;-0.000187;0.001715;-0.000716;-85.565862;0.001723;
1091;442;0.018992;0.155897;1.000000;0.000095;-0.000442;0.001510;0.000055;0.001511;-0.000444;88.383369;0.001554;
1251;792;-1.044845;2.034599;0.999775;0.004252;-0.009017;0.019827;-0.005146;0.020718;-0.009908;-80.180653;0.020724;
1236;1542;-0.309510;85.530076;0.999987;0.000825;-0.003226;0.007839;0.002007;0.008192;-0.003579;80.028644;0.008214;
1216;1772;-0.045560;86.205224;1.000000;0.000160;-0.000553;0.001581;0.000094;0.001585;-0.000557;87.495424;0.001609;
1166;962;-1.227196;9.795693;0.999692;0.005121;-0.038809;0.091180;-0.003626;0.091281;-0.038910;-88.403526;0.091611;
1091;447;0.019971;0.163745;1.000000;0.000101;-0.000461;0.001518;0.000054;0.001520;-0.000462;88.430301;0.001558;
1251;562;-0.099409;0.354067;0.999997;0.000416;-0.000624;0.001662;-0.000266;0.001692;-0.000654;-83.457399;0.001706;
1001;387;0.033374;0.082313;1.000000;0.000081;-0.000323;0.001501;0.000191;0.001520;-0.000343;84.081571;0.001595;
1136;1417;-0.050417;83.574619;0.999975;0.001283;-0.012125;0.027909;0.000176;0.027910;-0.012126;89.747682;0.027990;
1106;1862;0.005219;86.341096;0.999999;0.000221;-0.000207;0.001364;-0.000049;0.001366;-0.000208;-88.217235;0.001472;
1086;432;0.019454;0.141196;1.000000;0.000097;-0.000407;0.001490;0.000066;0.001492;-0.000409;88.019866;0.001542;
1016;1727;0.080888;86.130903;1.000000;0.000196;-0.000612;0.001606;-0.000166;0.001618;-0.000624;-85.755544;0.001632;
1056;507;0.053661;0.261237;0.999999;0.000311;-0.000652;0.001634;0.000108;0.001639;-0.000657;87.289820;0.001650;
1166;967;-1.290710;10.211255;0.999687;0.004682;-0.040401;0.095220;-0.003708;0.095321;-0.040502;-88.435168;0.095679;
1116;817;0.204469;2.600945;0.999968;0.001350;-0.011230;0.025878;0.000935;0.025902;-0.011254;88.556976;0.025976;
1096;447;0.017593;0.163447;1.000000;0.000103;-0.000459;0.001517;0.000048;0.001518;-0.000460;88.605646;0.001556;
1101;792;0.290309;2.019042;0.999967;0.001301;-0.008861;0.020526;0.001430;0.020596;-0.008931;87.221010;0.020656;
1251;567;-0.102244;0.362096;0.999997;0.000474;-0.000629;0.001684;-0.000283;0.001718;-0.000663;-83.113145;0.001733;
1116;1417;0.195911;83.564730;0.999976;0.001262;-0.012213;0.027888;-0.000920;0.027909;-0.012234;-88.687068;0.027979;
971;372;0.033493;0.066182;1.000000;0.000089;-0.000386;0.001589;0.000197;0.001609;-0.000405;84.353010;0.001674;
1201;1507;-0.315341;85.213064;0.999987;0.000844;-0.004770;0.011504;0.001852;0.011713;-0.004978;83.588070;0.011756;
1276;392;-0.039006;0.091338;1.000000;0.000094;-0.000360;0.001517;-0.000177;0.001534;-0.000376;-84.668749;0.001599;
1021;1727;0.077955;86.131571;1.000000;0.000178;-0.000619;0.001616;-0.000159;0.001627;-0.000630;-85.944424;0.001641;
1281;1802;-0.067254;86.241392;0.999999;0.000233;-0.000461;0.001508;0.000102;0.001513;-0.000466;87.055120;0.001550;
1061;507;0.050328;0.260151;0.999999;0.000261;-0.000657;0.001635;0.000103;0.001640;-0.000662;87.440941;0.001650;
1176;972;-1.756559;10.710192;0.999519;0.005476;-0.042321;0.100171;-0.005024;0.100347;-0.042498;-87.983323;0.100738;
976;382;0.039324;0.081179;1.000000;0.000102;-0.000376;0.001558;0.000175;0.001573;-0.000392;84.861566;0.001638;
1186;797;-0.473289;2.136859;0.999968;0.001596;-0.009197;0.021230;-0.002324;0.021406;-0.009374;-85.656868;0.021461;
1096;792;0.334499;2.022160;0.999967;0.001188;-0.008856;0.020534;0.001639;0.020625;-0.008947;86.817634;0.020685;
1256;562;-0.102677;0.353733;0.999998;0.000484;-0.000598;0.001640;-0.000272;0.001673;-0.000630;-83.161384;0.001689;
1121;1417;0.136092;83.570715;0.999978;0.000973;-0.012187;0.027880;-0.000631;0.027889;-0.012197;-89.098043;0.027962;
976;377;0.035559;0.073448;1.000000;0.000101;-0.000358;0.001558;0.000194;0.001578;-0.000377;84.288820;0.001648;
1016;1517;0.475713;85.318797;0.999992;0.001121;-0.004260;0.010178;-0.002905;0.010740;-0.004823;-79.038408;0.010759;
1276;397;-0.041618;0.098928;1.000000;0.000120;-0.000377;0.001517;-0.000164;0.001531;-0.000391;-85.089072;0.001591;
1026;1727;0.074965;86.131753;1.000000;0.000179;-0.000626;0.001621;-0.000152;0.001631;-0.000636;-86.155521;0.001645;
1066;507;0.047292;0.260310;0.999999;0.000214;-0.000662;0.001635;0.000096;0.001639;-0.000666;87.603981;0.001648;
981;1727;0.101060;86.130586;1.000000;0.000180;-0.000526;0.001469;-0.000203;0.001490;-0.000546;-84.259643;0.001507;
1181;972;-1.968871;10.738880;0.999557;0.006319;-0.042588;0.100529;-0.005591;0.100747;-0.042806;-87.766064;0.101126;
1086;447;0.022087;0.163835;1.000000;0.000109;-0.000463;0.001521;0.000060;0.001523;-0.000465;88.267251;0.001561;
1261;562;-0.105784;0.353480;0.999998;0.000401;-0.000571;0.001619;-0.000282;0.001655;-0.000606;-82.777721;0.001674;
1186;802;-0.494651;2.240261;0.999973;0.001357;-0.009673;0.022261;-0.002408;0.022442;-0.009854;-85.712028;0.022497;
1141;1417;-0.113480;83.576314;0.999971;0.001195;-0.012111;0.027918;0.000429;0.027923;-0.012116;89.386585;0.028004;
1211;792;-0.667568;2.035425;0.999959;0.001835;-0.008894;0.020236;-0.003362;0.020619;-0.009277;-83.501460;0.020654;
986;387;0.038851;0.085890;1.000000;0.000080;-0.000358;0.001539;0.000186;0.001557;-0.000376;84.463131;0.001624;
1021;1517;0.457376;85.319964;0.999992;0.000829;-0.004259;0.010167;-0.002780;0.010684;-0.004777;-79.459854;0.010704;
1126;1277;0.280764;76.231397;0.999600;0.006133;-0.039580;0.093721;-0.000953;0.093727;-0.039587;-89.590533;0.094103;
1276;402;-0.044441;0.106341;1.000000;0.000131;-0.000392;0.001516;-0.000151;0.001528;-0.000404;-85.504266;0.001583;
946;477;0.123667;0.251340;0.999854;0.003258;-0.000911;0.001305;-0.000100;0.001309;-0.000916;-87.433448;0.001343;
1236;1782;-0.053198;86.218127;1.000000;0.000181;-0.000525;0.001558;0.000109;0.001564;-0.000530;87.023711;0.001591;
1096;1867;0.007090;86.348288;0.999999;0.000171;-0.000193;0.001358;-0.000066;0.001360;-0.000196;-87.576408;0.001471;
1161;972;-1.133278;10.673277;0.999611;0.005398;-0.041953;0.099399;-0.003227;0.099473;-0.042026;-88.692869;0.099870;
1186;807;-0.518131;2.351318;0.999970;0.001392;-0.010165;0.023329;-0.002502;0.023515;-0.010351;-85.751685;0.023571;
1261;567;-0.108692;0.361620;0.999998;0.000360;-0.000571;0.001635;-0.000301;0.001675;-0.000611;-82.367461;0.001695;
1111;1417;0.260464;83.561985;0.999973;0.001805;-0.012225;0.027892;-0.001216;0.027929;-0.012262;-88.265620;0.027998;
1216;792;-0.710515;2.034069;0.999965;0.001662;-0.008929;0.020228;-0.003576;0.020661;-0.009361;-83.108585;0.020691;
951;357;0.030086;0.051383;1.000000;0.000098;-0.000395;0.001696;0.000262;0.001728;-0.000427;82.964183;0.001800;
1026;1517;0.434971;85.321919;0.999990;0.001088;-0.004259;0.010153;-0.002657;0.010627;-0.004734;-79.880636;0.010648;
991;387;0.036932;0.084552;1.000000;0.000087;-0.000344;0.001526;0.000191;0.001546;-0.000363;84.215709;0.001617;
951;477;0.099662;0.230277;0.999999;0.000253;-0.000798;0.001337;-0.000040;0.001338;-0.000798;-88.930814;0.001346;
1126;1282;0.267893;76.646645;0.999593;0.006040;-0.038013;0.089483;-0.000918;0.089490;-0.038019;-89.587579;0.089826;
1101;1867;0.006036;86.348209;0.999999;0.000219;-0.000190;0.001356;-0.000056;0.001358;-0.000192;-87.920943;0.001470;
1241;1782;-0.055675;86.217489;1.000000;0.000158;-0.000525;0.001553;0.000113;0.001559;-0.000531;86.896566;0.001586;
1166;972;-1.333225;10.667067;0.999625;0.005379;-0.042039;0.099552;-0.003819;0.099655;-0.042142;-88.456214;0.100050;
956;477;0.097846;0.229245;0.999999;0.000245;-0.000726;0.001365;-0.000001;0.001365;-0.000726;-89.967348;0.001366;
1011;1517;0.496781;85.316539;0.999990;0.001215;-0.004268;0.010169;-0.003044;0.010784;-0.004883;-78.566404;0.010800;
1286;552;-0.114044;0.332969;0.999997;0.000395;-0.000483;0.001510;-0.000282;0.001549;-0.000522;-82.090108;0.001576;
1146;1417;-0.170892;83.578874;0.999967;0.001412;-0.012127;0.027932;0.000677;0.027943;-0.012138;89.031818;0.028023;
1206;782;-0.554552;1.837315;0.999964;0.001849;-0.007962;0.018360;-0.002901;0.018676;-0.008278;-83.784562;0.018716;
1046;417;0.031426;0.121852;1.000000;0.000100;-0.000374;0.001488;0.000127;0.001497;-0.000383;86.126379;0.001555;
986;392;0.041997;0.093459;1.000000;0.000085;-0.000375;0.001537;0.000171;0.001552;-0.000390;84.938625;0.001615;
1086;787;0.402152;1.938511;0.999965;0.001712;-0.008419;0.019500;0.001977;0.019640;-0.008558;85.970496;0.019694;
1226;1257;-4.698227;73.643893;0.999377;0.008366;-0.052980;0.129171;0.013681;0.130193;-0.054002;85.728597;0.130821;
1106;1867;0.004787;86.348218;0.999999;0.000221;-0.000187;0.001355;-0.000048;0.001357;-0.000189;-88.204997;0.001470;
1246;1782;-0.058259;86.216804;1.000000;0.000147;-0.000524;0.001550;0.000116;0.001556;-0.000530;86.795313;0.001582;
1006;1517;0.520830;85.318483;0.999989;0.001031;-0.004273;0.010128;-0.003179;0.010799;-0.004943;-78.087776;0.010812;
1171;972;-1.547364;10.681233;0.999568;0.005501;-0.042154;0.099813;-0.004416;0.099950;-0.042291;-88.219876;0.100343;
1291;552;-0.116535;0.331986;0.999997;0.000467;-0.000471;0.001497;-0.000285;0.001537;-0.000511;-81.933298;0.001566;
1226;1262;-4.500885;74.200458;0.999501;0.008101;-0.050434;0.122537;0.013254;0.123547;-0.051443;85.643593;0.124121;
1106;1417;0.321647;83.561820;0.999968;0.001607;-0.012242;0.027901;-0.001515;0.027958;-0.012299;-87.842073;0.028025;
1206;787;-0.586695;1.930633;0.999963;0.002028;-0.008395;0.019273;-0.003027;0.019600;-0.008722;-83.829009;0.019640;
1251;417;-0.041909;0.124800;1.000000;0.000106;-0.000401;0.001504;-0.000145;0.001515;-0.000412;-85.686599;0.001567;
991;392;0.039843;0.092192;1.000000;0.000093;-0.000362;0.001527;0.000177;0.001543;-0.000379;84.685182;0.001609;
1271;492;-0.082655;0.241867;0.999999;0.000229;-0.000546;0.001526;-0.000157;0.001538;-0.000558;-85.685332;0.001557;
1136;827;-0.016759;2.855165;0.999963;0.001649;-0.012230;0.028001;-0.000162;0.028002;-0.012230;-89.769064;0.028076;
1001;1527;0.467946;85.405242;0.999412;0.007014;-0.003727;0.008984;-0.002929;0.009627;-0.004369;-77.628468;0.009640;
956;1742;0.107468;86.149798;1.000000;0.000191;-0.000647;0.001393;-0.000212;0.001415;-0.000668;-84.140140;0.001415;
1246;1752;-0.069382;86.169828;1.000000;0.000173;-0.000590;0.001593;0.000133;0.001601;-0.000598;86.516580;0.001618;
1186;972;-2.194294;10.763414;0.999448;0.006221;-0.042804;0.100936;-0.006159;0.101199;-0.043067;-87.551077;0.101572;
1296;552;-0.120033;0.331115;0.999996;0.000558;-0.000456;0.001477;-0.000282;0.001517;-0.000496;-81.859642;0.001547;
1211;817;-0.853155;2.598863;0.999966;0.001418;-0.011455;0.025570;-0.004058;0.026010;-0.011894;-83.818649;0.026041;
1106;1262;1.244805;74.759371;0.999482;0.006519;-0.045137;0.107778;-0.003669;0.107866;-0.045225;-88.626133;0.108334;
996;392;0.038130;0.090560;1.000000;0.000099;-0.000353;0.001516;0.000179;0.001533;-0.000370;84.581959;0.001600;
1226;412;-0.030247;0.114670;1.000000;0.000124;-0.000356;0.001476;-0.000133;0.001486;-0.000366;-85.872604;0.001548;
1001;1532;0.433125;85.476605;0.999857;0.003262;-0.003532;0.008601;-0.002766;0.009202;-0.004133;-77.745786;0.009218;
1041;507;0.063412;0.262122;0.999999;0.000243;-0.000640;0.001625;0.000125;0.001632;-0.000647;86.843228;0.001644;
1141;827;-0.077186;2.854737;0.999969;0.001709;-0.012222;0.028011;-0.000441;0.028016;-0.012227;-89.372143;0.028091;
966;1882;0.027225;86.359577;0.999999;0.000261;-0.000373;0.001604;-0.000244;0.001633;-0.000403;-83.076704;0.001702;
1251;1752;-0.072958;86.169644;1.000000;0.000173;-0.000583;0.001584;0.000138;0.001592;-0.000592;86.379669;0.001610;
1266;567;-0.110389;0.359052;0.999997;0.000392;-0.000547;0.001610;-0.000313;0.001655;-0.000591;-81.912755;0.001677;
1131;952;0.115545;8.924784;0.999620;0.004992;-0.035228;0.082512;0.000262;0.082512;-0.035229;89.872270;0.082805;
1301;392;-0.049248;0.099384;1.000000;0.000166;-0.000435;0.001547;-0.000127;0.001555;-0.000443;-86.360154;0.001603;
1211;822;-0.898676;2.731718;0.999970;0.001203;-0.012026;0.026830;-0.004198;0.027279;-0.012475;-83.903595;0.027312;
1111;1262;1.023452;74.765687;0.999483;0.006430;-0.045009;0.107613;-0.003103;0.107676;-0.045072;-88.835611;0.108150;
981;387;0.040830;0.087493;1.000000;0.000107;-0.000374;0.001547;0.000174;0.001563;-0.000389;84.866268;0.001627;
1046;507;0.060522;0.261792;0.999999;0.000233;-0.000645;0.001630;0.000122;0.001636;-0.000652;86.935459;0.001647;
1256;1527;-0.453269;85.401648;0.999990;0.000820;-0.003972;0.009332;0.002766;0.009884;-0.004525;78.710765;0.009896;
1026;417;0.038532;0.123777;1.000000;0.000133;-0.000393;0.001507;0.000142;0.001518;-0.000403;85.751327;0.001572;
1221;1772;-0.048649;86.204787;1.000000;0.000162;-0.000554;0.001581;0.000097;0.001585;-0.000558;87.391407;0.001608;
1256;1752;-0.075988;86.169024;1.000000;0.000212;-0.000575;0.001571;0.000141;0.001580;-0.000585;86.255092;0.001598;
966;1887;0.023291;86.368298;1.000000;0.000227;-0.000336;0.001611;-0.000262;0.001646;-0.000371;-82.479251;0.001727;
1266;577;-0.116021;0.375002;0.999998;0.000397;-0.000565;0.001649;-0.000358;0.001705;-0.000621;-81.044180;0.001726;
946;462;0.121347;0.215487;0.999933;0.002435;-0.000981;0.001445;-0.000011;0.001445;-0.000981;-89.729688;0.001475;
1266;562;-0.108268;0.351851;0.999997;0.000444;-0.000548;0.001597;-0.000293;0.001637;-0.000587;-82.355849;0.001658;
1141;967;-0.259303;10.176961;0.999506;0.005505;-0.040009;0.094635;-0.000799;0.094639;-0.040014;-89.659989;0.095015;
1201;442;-0.028816;0.157252;1.000000;0.000095;-0.000446;0.001515;-0.000084;0.001519;-0.000449;-87.547380;0.001561;
1031;417;0.036926;0.123168;1.000000;0.000130;-0.000389;0.001503;0.000137;0.001513;-0.000399;85.869665;0.001568;
1051;507;0.057234;0.262177;0.999999;0.000270;-0.000648;0.001633;0.000116;0.001638;-0.000654;87.106536;0.001649;
1116;1262;0.793978;74.774656;0.999405;0.007495;-0.044918;0.107550;-0.002524;0.107592;-0.044960;-89.052023;0.108074;
1306;372;-0.036741;0.068576;1.000000;0.000106;-0.000387;0.001607;-0.000205;0.001628;-0.000408;-84.179086;0.001694;
966;1892;0.019339;86.376024;0.999999;0.000191;-0.000293;0.001608;-0.000288;0.001650;-0.000336;-81.563586;0.001744;
946;467;0.119471;0.228039;0.999913;0.002644;-0.000965;0.001445;-0.000060;0.001447;-0.000967;-88.572071;0.001474;
1221;1732;-0.061171;86.140111;1.000000;0.000134;-0.000646;0.001638;0.000127;0.001645;-0.000653;86.836929;0.001656;
1276;542;-0.107779;0.320353;0.999998;0.000517;-0.000544;0.001540;-0.000248;0.001570;-0.000573;-83.304422;0.001588;
1231;1782;-0.050467;86.219047;1.000000;0.000169;-0.000526;0.001561;0.000104;0.001566;-0.000531;87.150808;0.001593;
951;342;0.013936;0.023938;1.000000;0.000073;-0.000238;0.001761;0.000412;0.001843;-0.000320;78.803216;0.001969;
1271;557;-0.109818;0.343928;0.999997;0.000376;-0.000538;0.001561;-0.000287;0.001600;-0.000576;-82.364275;0.001620;
1131;957;0.125109;9.333277;0.999608;0.004919;-0.036734;0.086553;0.000257;0.086554;-0.036734;89.880760;0.086883;
971;1892;0.018527;86.376996;1.000000;0.000210;-0.000274;0.001576;-0.000278;0.001616;-0.000315;-81.648645;0.001714;
951;347;0.019350;0.032992;1.000000;0.000095;-0.000318;0.001740;0.000343;0.001795;-0.000374;80.778702;0.001895;
951;467;0.095036;0.216909;0.999999;0.000276;-0.000838;0.001440;-0.000016;0.001441;-0.000839;-89.606407;0.001447;
1176;447;-0.018991;0.163318;1.000000;0.000086;-0.000459;0.001515;-0.000053;0.001517;-0.000460;-88.477165;0.001555;
1256;412;-0.041684;0.118250;1.000000;0.000119;-0.000391;0.001505;-0.000150;0.001517;-0.000403;-85.510901;0.001572;
1276;497;-0.087932;0.250479;0.999999;0.000333;-0.000546;0.001512;-0.000165;0.001526;-0.000560;-85.433327;0.001544;
1171;1267;-1.661264;75.198402;0.999509;0.005112;-0.044784;0.106461;0.004336;0.106585;-0.044909;88.359029;0.107024;
1291;542;-0.113879;0.318552;0.999998;0.000383;-0.000481;0.001480;-0.000256;0.001513;-0.000514;-82.671945;0.001539;
1226;1732;-0.064574;86.139643;1.000000;0.000125;-0.000642;0.001635;0.000132;0.001642;-0.000649;86.688260;0.001654;
1276;557;-0.112080;0.343167;0.999998;0.000370;-0.000522;0.001541;-0.000295;0.001582;-0.000564;-82.031924;0.001604;
1221;1712;-0.068818;86.107095;1.000000;0.000146;-0.000684;0.001689;0.000154;0.001699;-0.000694;86.308789;0.001709;
951;352;0.024726;0.042146;1.000000;0.000087;-0.000365;0.001713;0.000290;0.001753;-0.000405;82.214596;0.001836;
956;467;0.092910;0.215615;0.999999;0.000238;-0.000757;0.001442;0.000011;0.001442;-0.000757;89.714923;0.001443;
1116;947;0.640197;8.535298;0.999624;0.005047;-0.033931;0.078847;0.001787;0.078876;-0.033960;89.092191;0.079129;
1276;502;-0.089160;0.258271;0.999999;0.000306;-0.000551;0.001521;-0.000171;0.001535;-0.000565;-85.306322;0.001552;
1221;417;-0.030218;0.121439;1.000000;0.000103;-0.000371;0.001480;-0.000123;0.001488;-0.000379;-86.215422;0.001547;
1231;432;-0.039511;0.145027;1.000000;0.000114;-0.000435;0.001511;-0.000121;0.001518;-0.000442;-86.463161;0.001562;
1276;547;-0.108311;0.326542;0.999998;0.000459;-0.000537;0.001537;-0.000265;0.001570;-0.000570;-82.844712;0.001590;
956;352;0.022793;0.039993;1.000000;0.000087;-0.000331;0.001676;0.000291;0.001717;-0.000372;81.916646;0.001807;
1231;1732;-0.067791;86.139213;1.000000;0.000113;-0.000636;0.001632;0.000138;0.001640;-0.000644;86.520486;0.001653;
1281;557;-0.114171;0.342104;0.999998;0.000413;-0.000484;0.001533;-0.000288;0.001574;-0.000525;-82.026722;0.001602;
1176;1267;-1.888736;75.172617;0.999531;0.005917;-0.045110;0.107134;0.004991;0.107297;-0.045274;88.124511;0.107732;
1186;1612;-0.072391;85.880573;0.999999;0.000280;-0.001324;0.003176;0.000362;0.003205;-0.001353;85.433134;0.003218;
1226;1712;-0.071947;86.106722;1.000000;0.000169;-0.000674;0.001681;0.000160;0.001691;-0.000685;86.127130;0.001702;
1211;957;-2.899448;9.548329;0.999528;0.006254;-0.039062;0.090123;-0.009085;0.090759;-0.039698;-85.996800;0.090996;
1211;532;-0.059994;0.301698;0.999999;0.000229;-0.000715;0.001698;-0.000146;0.001707;-0.000724;-86.553659;0.001714;
1281;502;-0.092530;0.259339;0.999999;0.000337;-0.000540;0.001505;-0.000173;0.001520;-0.000555;-85.204606;0.001538;
1236;432;-0.041844;0.145742;1.000000;0.000113;-0.000437;0.001513;-0.000123;0.001521;-0.000445;-86.402503;0.001564;
1281;537;-0.107041;0.312157;0.999997;0.000447;-0.000535;0.001507;-0.000244;0.001535;-0.000564;-83.292158;0.001553;
1181;1267;-2.126902;75.137411;0.999448;0.006977;-0.045550;0.107815;0.005606;0.108019;-0.045755;87.909442;0.108439;
1216;1732;-0.058008;86.140701;1.000000;0.000145;-0.000651;0.001641;0.000120;0.001647;-0.000657;87.005531;0.001658;
1271;572;-0.116060;0.367658;0.999998;0.000509;-0.000533;0.001601;-0.000345;0.001656;-0.000587;-81.043402;0.001679;
1166;452;-0.014838;0.170366;1.000000;0.000111;-0.000475;0.001521;-0.000039;0.001522;-0.000476;-88.883760;0.001557;
1241;492;-0.065307;0.239588;0.999999;0.000261;-0.000594;0.001595;-0.000125;0.001602;-0.000601;-86.752151;0.001619;
1236;1802;-0.046217;86.249459;1.000000;0.000131;-0.000468;0.001535;0.000117;0.001541;-0.000475;86.681299;0.001579;
1211;1647;-0.086386;85.980842;0.999999;0.000170;-0.000958;0.002318;0.000321;0.002349;-0.000989;84.461620;0.002358;
1216;957;-3.091434;9.574619;0.999539;0.007417;-0.039300;0.090611;-0.009754;0.091339;-0.040029;-85.730051;0.091571;
1286;502;-0.095248;0.258716;0.999999;0.000307;-0.000526;0.001484;-0.000177;0.001500;-0.000541;-85.003366;0.001519;
1211;537;-0.062042;0.309122;0.999999;0.000208;-0.000731;0.001719;-0.000155;0.001729;-0.000741;-86.397735;0.001735;
1281;542;-0.108670;0.318646;0.999998;0.000412;-0.000506;0.001526;-0.000240;0.001554;-0.000533;-83.361506;0.001579;
1231;437;-0.041420;0.152599;1.000000;0.000126;-0.000451;0.001520;-0.000117;0.001527;-0.000457;-86.624220;0.001567;
1271;577;-0.118660;0.374344;0.999998;0.000395;-0.000550;0.001629;-0.000369;0.001690;-0.000611;-80.646549;0.001711;
1226;1772;-0.051479;86.204186;1.000000;0.000157;-0.000554;0.001581;0.000101;0.001586;-0.000559;87.285435;0.001608;
1171;452;-0.017355;0.170548;1.000000;0.000087;-0.000475;0.001522;-0.000045;0.001523;-0.000476;-88.712354;0.001559;
1121;1272;0.504061;75.773243;0.999514;0.005803;-0.041248;0.098146;-0.001597;0.098165;-0.041267;-89.343818;0.098579;
1246;492;-0.067967;0.239916;0.999999;0.000235;-0.000587;0.001589;-0.000132;0.001597;-0.000595;-86.544421;0.001614;
1236;1807;-0.044404;86.257442;1.000000;0.000126;-0.000453;0.001527;0.000121;0.001535;-0.000461;86.518705;0.001575;
1221;957;-3.299768;9.599948;0.999536;0.007113;-0.039546;0.091113;-0.010390;0.091934;-0.040367;-85.481788;0.092161;
1166;1892;-0.002760;86.381744;0.999999;0.000206;-0.000089;0.001328;0.000063;0.001331;-0.000092;87.439425;0.001486;
961;477;0.095436;0.228430;0.999999;0.000281;-0.000680;0.001390;0.000026;0.001390;-0.000681;89.272656;0.001391;
1216;537;-0.065503;0.310048;0.999999;0.000245;-0.000721;0.001708;-0.000162;0.001719;-0.000731;-86.198506;0.001725;
1281;547;-0.110321;0.326346;0.999998;0.000376;-0.000502;0.001530;-0.000257;0.001562;-0.000534;-82.909059;0.001588;
1236;437;-0.043586;0.153263;1.000000;0.000133;-0.000452;0.001521;-0.000119;0.001528;-0.000459;-86.570879;0.001568;
1226;417;-0.032024;0.121899;1.000000;0.000102;-0.000376;0.001484;-0.000129;0.001493;-0.000385;-86.056404;0.001550;
1271;582;-0.121097;0.383189;0.999998;0.000405;-0.000565;0.001667;-0.000398;0.001736;-0.000634;-80.182806;0.001756;
1126;1272;0.296668;75.788247;0.999557;0.006281;-0.041253;0.098124;-0.000999;0.098131;-0.041261;-89.589331;0.098544;
946;442;0.105322;0.177547;0.999877;0.003356;-0.000879;0.001584;0.000110;0.001588;-0.000884;87.450000;0.001592;
1166;1897;-0.002092;86.388018;1.000000;0.000166;-0.000071;0.001320;0.000067;0.001323;-0.000074;87.257031;0.001487;
1041;952;3.428873;9.212892;0.999628;0.005219;-0.038388;0.088091;0.010960;0.089033;-0.039331;85.083953;0.089235;
1076;1812;0.022893;86.269157;1.000000;0.000115;-0.000410;0.001496;-0.000079;0.001499;-0.000413;-87.637747;0.001548;
1186;1852;-0.012991;86.327396;1.000000;0.000125;-0.000253;0.001401;0.000086;0.001406;-0.000258;87.026437;0.001497;
1221;537;-0.068876;0.310497;0.999999;0.000296;-0.000707;0.001696;-0.000169;0.001708;-0.000719;-86.002967;0.001715;
1286;537;-0.109332;0.311363;0.999997;0.000425;-0.000524;0.001480;-0.000257;0.001512;-0.000556;-82.793579;0.001530;
1241;432;-0.043837;0.146004;1.000000;0.000098;-0.000439;0.001514;-0.000125;0.001522;-0.000447;-86.355491;0.001565;
1166;1902;-0.001557;86.394687;0.999999;0.000220;-0.000053;0.001326;0.000072;0.001330;-0.000057;87.009295;0.001504;
1226;422;-0.033707;0.129263;1.000000;0.000099;-0.000394;0.001493;-0.000125;0.001501;-0.000403;-86.238847;0.001554;
1301;542;-0.118174;0.315238;0.999997;0.000393;-0.000452;0.001435;-0.000254;0.001468;-0.000485;-82.464567;0.001496;
1131;1272;0.088333;75.783460;0.999535;0.006912;-0.041235;0.098209;-0.000436;0.098211;-0.041236;-89.820690;0.098630;
1291;397;-0.048285;0.103678;1.000000;0.000125;-0.000408;0.001534;-0.000137;0.001543;-0.000418;-85.977916;0.001597;
1046;952;3.234007;9.188721;0.999586;0.005088;-0.038217;0.087640;0.010277;0.088474;-0.039051;85.362238;0.088676;
1066;512;0.048454;0.267730;0.999999;0.000283;-0.000676;0.001646;0.000104;0.001651;-0.000680;87.435198;0.001659;
1081;1812;0.020888;86.269903;1.000000;0.000131;-0.000410;0.001493;-0.000072;0.001496;-0.000413;-87.825857;0.001545;
1226;532;-0.070170;0.302554;0.999999;0.000315;-0.000683;0.001671;-0.000165;0.001682;-0.000695;-86.004050;0.001691;
1286;542;-0.110612;0.317559;0.999998;0.000342;-0.000495;0.001501;-0.000251;0.001533;-0.000526;-82.937646;0.001557;
1241;437;-0.045833;0.153750;1.000000;0.000109;-0.000454;0.001522;-0.000121;0.001529;-0.000462;-86.518117;0.001569;
1006;1757;0.075341;86.177846;1.000000;0.000201;-0.000556;0.001549;-0.000140;0.001558;-0.000565;-86.218435;0.001578;
1131;1277;0.087964;76.226223;0.999549;0.006852;-0.039518;0.093706;-0.000397;0.093707;-0.039519;-89.829136;0.094089;
1056;952;2.856057;9.119732;0.999583;0.004237;-0.037790;0.086603;0.008956;0.087245;-0.038432;85.903037;0.087450;
1296;397;-0.050494;0.105467;1.000000;0.000143;-0.000436;0.001534;-0.000121;0.001541;-0.000443;-86.511107;0.001587;
1006;402;0.039575;0.104331;1.000000;0.000104;-0.000370;0.001509;0.000163;0.001523;-0.000384;85.071239;0.001584;
1221;1642;-0.097967;85.972637;0.999999;0.000190;-0.000935;0.002352;0.000381;0.002396;-0.000979;83.471318;0.002409;
1206;532;-0.056601;0.302159;0.999999;0.000223;-0.000722;0.001708;-0.000139;0.001716;-0.000730;-86.733926;0.001723;
1051;592;0.089629;0.415307;0.999997;0.000339;-0.000914;0.002196;0.000320;0.002229;-0.000947;84.187870;0.002237;
1086;1812;0.018882;86.270124;1.000000;0.000156;-0.000407;0.001491;-0.000065;0.001494;-0.000409;-88.040087;0.001544;
1216;547;-0.069447;0.327789;0.999999;0.000282;-0.000750;0.001753;-0.000184;0.001767;-0.000764;-85.820760;0.001772;
1286;547;-0.112132;0.325958;0.999998;0.000316;-0.000491;0.001510;-0.000266;0.001545;-0.000526;-82.544478;0.001571;
1246;427;-0.043961;0.139031;1.000000;0.000114;-0.000428;0.001509;-0.000131;0.001518;-0.000437;-86.148801;0.001563;
1131;1282;0.081082;76.658299;0.999557;0.006592;-0.037929;0.089426;-0.000367;0.089427;-0.037930;-89.834772;0.089770;
976;1742;0.097920;86.152001;0.999999;0.000166;-0.000506;0.001445;-0.000169;0.001459;-0.000520;-85.082980;0.001479;
1301;397;-0.052568;0.107376;1.000000;0.000166;-0.000443;0.001535;-0.000116;0.001542;-0.000450;-86.658894;0.001586;
1061;952;2.660351;9.103384;0.999628;0.004847;-0.037620;0.086093;0.008284;0.086645;-0.038173;86.185870;0.086849;
1011;402;0.037863;0.103820;1.000000;0.000092;-0.000360;0.001502;0.000166;0.001517;-0.000375;84.951171;0.001580;
1156;1882;-0.002884;86.369095;0.999999;0.000228;-0.000125;0.001331;0.000043;0.001332;-0.000127;88.313437;0.001470;
1266;502;-0.083501;0.257087;0.999999;0.000288;-0.000569;0.001553;-0.000165;0.001565;-0.000581;-85.589488;0.001583;
1056;592;0.085704;0.417766;0.999997;0.000384;-0.000937;0.002229;0.000303;0.002258;-0.000966;84.580577;0.002266;
1201;1787;-0.033674;86.229732;1.000000;0.000133;-0.000503;0.001549;0.000080;0.001552;-0.000507;87.768065;0.001583;
1266;507;-0.085428;0.265281;0.999999;0.000356;-0.000575;0.001558;-0.000171;0.001571;-0.000588;-85.456549;0.001588;
1291;547;-0.114680;0.325341;0.999998;0.000375;-0.000478;0.001494;-0.000271;0.001531;-0.000515;-82.319759;0.001558;
1161;462;-0.013379;0.185411;1.000000;0.000103;-0.000513;0.001543;-0.000030;0.001543;-0.000513;-89.159300;0.001572;
1161;1272;-1.167357;75.697110;0.999552;0.005586;-0.042408;0.099881;0.002878;0.099939;-0.042466;88.841799;0.100314;
1066;952;2.468756;9.085938;0.999611;0.006175;-0.037391;0.085773;0.007745;0.086258;-0.037876;86.415848;0.086471;
981;1742;0.095248;86.151879;1.000000;0.000135;-0.000521;0.001473;-0.000170;0.001488;-0.000535;-85.159506;0.001507;
1251;422;-0.044101;0.132156;1.000000;0.000113;-0.000417;0.001508;-0.000139;0.001518;-0.000427;-85.902491;0.001566;
1271;502;-0.086357;0.257454;0.999999;0.000242;-0.000559;0.001536;-0.000167;0.001549;-0.000573;-85.459190;0.001567;
1166;1867;-0.005894;86.347869;0.999999;0.000211;-0.000185;0.001362;0.000057;0.001364;-0.000187;87.895649;0.001479;
1271;587;-0.123996;0.391587;0.999997;0.000524;-0.000582;0.001723;-0.000433;0.001802;-0.000661;-79.700163;0.001823;
1321;342;-0.014982;0.023997;0.999998;0.000283;-0.000233;0.001818;-0.000413;0.001898;-0.000313;-79.026709;0.002035;
1271;507;-0.088906;0.265923;0.999999;0.000313;-0.000566;0.001542;-0.000174;0.001556;-0.000580;-85.305436;0.001573;
1206;1737;-0.049704;86.149720;1.000000;0.000118;-0.000648;0.001634;0.000103;0.001639;-0.000653;87.433185;0.001650;
946;352;0.030124;0.044800;0.999993;0.000697;-0.000411;0.001756;0.000285;0.001793;-0.000448;82.629045;0.001867;
1051;952;3.039673;9.154952;0.999602;0.004213;-0.038040;0.087127;0.009621;0.087862;-0.038775;85.630129;0.088064;
986;1742;0.092904;86.152652;0.999999;0.000161;-0.000535;0.001497;-0.000170;0.001511;-0.000549;-85.246996;0.001530;
1321;347;-0.020899;0.033679;0.999999;0.000374;-0.000295;0.001790;-0.000358;0.001849;-0.000355;-80.518237;0.001963;
1081;427;0.020454;0.134234;1.000000;0.000085;-0.000389;0.001482;0.000075;0.001485;-0.000392;87.721597;0.001540;
1241;497;-0.067091;0.247652;0.999999;0.000289;-0.000603;0.001597;-0.000130;0.001605;-0.000611;-86.624099;0.001620;
1271;592;-0.127604;0.399527;0.999997;0.000627;-0.000606;0.001813;-0.000473;0.001902;-0.000695;-79.316095;0.001925;
1276;507;-0.091858;0.266317;0.999999;0.000308;-0.000557;0.001526;-0.000178;0.001542;-0.000572;-85.146385;0.001559;
1041;1817;0.035930;86.274253;0.999999;0.000180;-0.000410;0.001504;-0.000120;0.001512;-0.000418;-86.417288;0.001561;
1266;492;-0.079911;0.241911;0.999999;0.000247;-0.000557;0.001542;-0.000154;0.001553;-0.000568;-85.837228;0.001572;
1211;827;-0.940293;2.858629;0.999960;0.001485;-0.012622;0.028091;-0.004351;0.028551;-0.013082;-83.967956;0.028584;
1321;352;-0.027557;0.043141;0.999998;0.000474;-0.000345;0.001753;-0.000304;0.001796;-0.000388;-81.918460;0.001890;
1196;1702;-0.054354;86.091494;1.000000;0.000136;-0.000789;0.001807;0.000143;0.001815;-0.000797;86.849681;0.001819;
1261;412;-0.043695;0.119060;1.000000;0.000115;-0.000400;0.001509;-0.000146;0.001520;-0.000411;-85.662220;0.001572;
1131;962;0.139423;9.743873;0.999548;0.006264;-0.038311;0.090661;0.000320;0.090662;-0.038312;89.857947;0.091024;
961;362;0.029845;0.053684;1.000000;0.000093;-0.000362;0.001641;0.000247;0.001671;-0.000392;83.075562;0.001748;
1246;497;-0.070317;0.248102;0.999999;0.000304;-0.000596;0.001591;-0.000138;0.001600;-0.000605;-86.409688;0.001616;
1276;572;-0.118975;0.366268;0.999998;0.000581;-0.000516;0.001581;-0.000354;0.001639;-0.000574;-80.684920;0.001664;
1151;1412;-0.240352;83.443104;0.999956;0.001782;-0.012748;0.029283;0.000948;0.029304;-0.012769;88.708448;0.029385;
1266;1692;-0.106021;86.072468;1.000000;0.000202;-0.000574;0.001609;0.000259;0.001639;-0.000604;83.336758;0.001658;
1131;1902;0.000253;86.394424;0.999999;0.000189;-0.000051;0.001298;0.000000;0.001298;-0.000051;89.992866;0.001471;
1241;502;-0.068932;0.255869;0.999999;0.000287;-0.000613;0.001607;-0.000136;0.001615;-0.000621;-86.505220;0.001630;
1266;497;-0.082051;0.248947;0.999999;0.000279;-0.000563;0.001543;-0.000159;0.001555;-0.000575;-85.707873;0.001573;
1231;1767;-0.055516;86.196078;1.000000;0.000139;-0.000566;0.001584;0.000107;0.001589;-0.000572;87.165757;0.001610;
1266;412;-0.045598;0.119847;1.000000;0.000119;-0.000408;0.001511;-0.000141;0.001521;-0.000418;-85.827419;0.001571;
1191;812;-0.592137;2.471034;0.999969;0.001656;-0.010730;0.024426;-0.002852;0.024656;-0.010959;-85.392542;0.024707;
1136;1902;-0.000133;86.394882;0.999999;0.000181;-0.000046;0.001299;0.000009;0.001299;-0.000047;89.610881;0.001474;
1276;577;-0.121380;0.373478;0.999998;0.000468;-0.000533;0.001608;-0.000379;0.001673;-0.000598;-80.262141;0.001696;
1161;1277;-1.128645;76.170100;0.999566;0.005289;-0.040601;0.094807;0.002861;0.094868;-0.040661;88.789939;0.095189;
1206;537;-0.058327;0.308392;0.999999;0.000257;-0.000741;0.001732;-0.000148;0.001741;-0.000750;-86.589781;0.001747;
1201;962;-2.616532;9.942934;0.999554;0.005842;-0.040288;0.093593;-0.007912;0.094059;-0.040754;-86.629394;0.094338;
1316;357;-0.029462;0.050282;1.000000;0.000100;-0.000348;0.001689;-0.000271;0.001724;-0.000383;-82.556518;0.001811;
1266;1697;-0.103784;86.080443;1.000000;0.000183;-0.000580;0.001603;0.000245;0.001630;-0.000608;83.680349;0.001647;
1246;502;-0.072001;0.255770;0.999999;0.000348;-0.000605;0.001601;-0.000144;0.001610;-0.000615;-86.279640;0.001625;
1021;812;1.236458;2.481630;0.999830;0.003811;-0.010947;0.023757;0.005698;0.024668;-0.011859;80.911086;0.024674;
1271;497;-0.084687;0.249011;0.999999;0.000215;-0.000554;0.001527;-0.000162;0.001539;-0.000566;-85.575029;0.001557;
1221;1727;-0.062887;86.131772;1.000000;0.000149;-0.000656;0.001647;0.000133;0.001654;-0.000663;86.702813;0.001665;
1261;1527;-0.471615;85.400463;0.999989;0.000886;-0.003967;0.009332;0.002873;0.009926;-0.004561;78.317684;0.009937;
1141;1902;-0.000245;86.394782;0.999999;0.000219;-0.000045;0.001301;0.000019;0.001301;-0.000046;89.196121;0.001477;
1276;582;-0.123586;0.382007;0.999998;0.000379;-0.000548;0.001644;-0.000409;0.001718;-0.000622;-79.773354;0.001740;
1201;967;-2.723372;10.371627;0.999547;0.005363;-0.041944;0.097772;-0.008090;0.098239;-0.042411;-86.697238;0.098544;
1101;1272;1.341755;75.676348;0.999429;0.007677;-0.041740;0.098929;-0.004070;0.099047;-0.041857;-88.344121;0.099442;
1006;482;0.075252;0.226579;0.999999;0.000217;-0.000550;0.001546;0.000143;0.001555;-0.000559;86.127245;0.001576;
1261;502;-0.080821;0.256970;0.999999;0.000316;-0.000578;0.001568;-0.000158;0.001580;-0.000590;-85.799591;0.001597;
1266;1527;-0.488534;85.400164;0.999897;0.003171;-0.003987;0.009311;0.002972;0.009945;-0.004621;77.958548;0.009953;
1001;482;0.077652;0.227184;0.999999;0.000250;-0.000544;0.001534;0.000143;0.001543;-0.000554;86.090322;0.001564;
1261;1662;-0.117801;86.022737;1.000000;0.000143;-0.000601;0.001768;0.000375;0.001826;-0.000659;81.209194;0.001849;
1226;1727;-0.066361;86.131169;1.000000;0.000149;-0.000650;0.001643;0.000139;0.001651;-0.000658;86.545043;0.001662;
1176;532;-0.033853;0.299332;0.999999;0.000321;-0.000795;0.001759;-0.000089;0.001762;-0.000798;-88.010021;0.001764;
1091;802;0.426145;2.242774;0.999966;0.001383;-0.009798;0.022412;0.001999;0.022535;-0.009921;86.462820;0.022589;
1306;1852;-0.052397;86.309243;0.999999;0.000210;-0.000461;0.001565;0.000117;0.001572;-0.000468;86.700784;0.001615;
1271;562;-0.110872;0.350600;0.999997;0.000430;-0.000532;0.001575;-0.000303;0.001617;-0.000574;-81.968465;0.001640;
1071;962;2.500918;9.928432;0.999611;0.005129;-0.040409;0.093766;0.007442;0.094177;-0.040821;86.834882;0.094455;
1006;487;0.076891;0.234194;0.999999;0.000239;-0.000559;0.001549;0.000145;0.001559;-0.000569;86.081548;0.001578;
1261;507;-0.082506;0.265117;0.999999;0.000350;-0.000583;0.001573;-0.000164;0.001586;-0.000596;-85.687023;0.001602;
1206;1252;-3.791904;73.293080;0.999417;0.007210;-0.054316;0.130146;0.009966;0.130682;-0.054853;86.916329;0.131242;
1001;1537;0.418873;85.499135;0.999972;0.001211;-0.003287;0.008152;-0.002623;0.008725;-0.003860;-77.681512;0.008745;
1001;487;0.079959;0.235587;0.999999;0.000244;-0.000552;0.001538;0.000146;0.001548;-0.000562;86.027631;0.001567;
1231;1727;-0.069462;86.130753;1.000000;0.000135;-0.000643;0.001639;0.000145;0.001648;-0.000652;86.373900;0.001660;
1311;1852;-0.054708;86.306674;0.999999;0.000237;-0.000475;0.001567;0.000109;0.001573;-0.000480;86.965308;0.001612;
1051;1832;0.027024;86.296954;1.000000;0.000177;-0.000350;0.001467;-0.000121;0.001475;-0.000358;-86.221027;0.001539;
1276;562;-0.113597;0.350798;0.999997;0.000386;-0.000517;0.001557;-0.000312;0.001603;-0.000563;-81.637657;0.001626;
1301;482;-0.093867;0.231813;0.999999;0.000250;-0.000511;0.001409;-0.000130;0.001418;-0.000520;-86.130833;0.001434;
1181;817;-0.516477;2.593719;0.999963;0.001767;-0.011174;0.025569;-0.002429;0.025729;-0.011334;-86.234182;0.025790;
1211;1252;-4.062129;73.237237;0.999499;0.006620;-0.054592;0.131190;0.010952;0.131833;-0.055235;86.638007;0.132409;
1191;972;-2.421502;10.774567;0.999503;0.006770;-0.043090;0.101422;-0.006792;0.101740;-0.043408;-87.314862;0.102104;
1006;492;0.078699;0.240498;0.999999;0.000283;-0.000568;0.001557;0.000150;0.001568;-0.000578;85.992732;0.001586;
1296;492;-0.095603;0.245395;0.999999;0.000251;-0.000520;0.001418;-0.000149;0.001429;-0.000531;-85.624932;0.001445;
1001;492;0.081496;0.241943;0.999999;0.000287;-0.000560;0.001546;0.000151;0.001557;-0.000571;85.916270;0.001575;
1316;1852;-0.056708;86.303229;0.999999;0.000194;-0.000498;0.001564;0.000093;0.001568;-0.000502;87.417822;0.001601;
1236;1512;-0.457478;85.252331;0.999989;0.000985;-0.004646;0.010924;0.002688;0.011376;-0.005097;80.474088;0.011396;
1196;1727;-0.046355;86.134663;1.000000;0.000140;-0.000692;0.001665;0.000106;0.001670;-0.000697;87.435960;0.001678;
1306;482;-0.096438;0.232163;0.999999;0.000282;-0.000514;0.001385;-0.000128;0.001394;-0.000523;-86.170571;0.001408;
1281;562;-0.116300;0.350294;0.999997;0.000414;-0.000479;0.001549;-0.000307;0.001594;-0.000525;-81.587413;0.001625;
1051;1837;0.025583;86.304906;1.000000;0.000179;-0.000329;0.001454;-0.000124;0.001462;-0.000338;-86.031536;0.001531;
1216;1252;-4.328806;73.180103;0.999487;0.005436;-0.054893;0.132242;0.011965;0.133004;-0.055655;86.356481;0.133593;
1186;817;-0.568990;2.593611;0.999967;0.001687;-0.011229;0.025582;-0.002686;0.025777;-0.011424;-85.848594;0.025832;
1196;972;-2.623795;10.805297;0.999559;0.005791;-0.043433;0.101992;-0.007480;0.102376;-0.043817;-87.063301;0.102729;
1166;542;-0.027529;0.317125;0.999999;0.000325;-0.000864;0.001867;-0.000079;0.001869;-0.000867;-88.339921;0.001871;
1041;512;0.064707;0.270556;0.999999;0.000261;-0.000648;0.001635;0.000132;0.001643;-0.000655;86.693014;0.001654;
1221;547;-0.073248;0.328609;0.999999;0.000297;-0.000733;0.001735;-0.000192;0.001750;-0.000748;-85.578577;0.001756;
1016;1512;0.506691;85.266984;0.999989;0.001301;-0.004512;0.010770;-0.003005;0.011339;-0.005081;-79.266882;0.011360;
1271;567;-0.112964;0.359328;0.999998;0.000452;-0.000529;0.001587;-0.000323;0.001635;-0.000577;-81.513515;0.001658;
971;1792;0.078592;86.222974;0.999999;0.000226;-0.000495;0.001452;-0.000059;0.001454;-0.000497;-88.254510;0.001478;
1191;817;-0.622570;2.594550;0.999969;0.001604;-0.011278;0.025587;-0.002952;0.025822;-0.011513;-85.450393;0.025872;
1056;1742;0.050583;86.158551;1.000000;0.000142;-0.000630;0.001623;-0.000097;0.001627;-0.000635;-87.527183;0.001640;
1086;542;0.042703;0.318109;0.999999;0.000280;-0.000829;0.001847;0.000116;0.001852;-0.000834;87.528403;0.001855;
1151;1282;-0.681888;76.641546;0.999468;0.005268;-0.038454;0.089798;0.001812;0.089824;-0.038479;89.190730;0.090130;
976;1687;0.118945;86.070674;1.000000;0.000150;-0.000459;0.001493;-0.000286;0.001534;-0.000500;-81.832001;0.001565;
1071;967;2.595439;10.371975;0.999514;0.006379;-0.042221;0.098326;0.007571;0.098733;-0.042628;86.925483;0.099039;
1236;507;-0.067582;0.262852;0.999999;0.000286;-0.000627;0.001617;-0.000134;0.001625;-0.000635;-86.606173;0.001638;
1021;1512;0.486943;85.269477;0.999989;0.001098;-0.004515;0.010758;-0.002884;0.011284;-0.005041;-79.656833;0.011306;
1231;522;-0.069845;0.287250;0.999999;0.000238;-0.000659;0.001640;-0.000153;0.001650;-0.000669;-86.217832;0.001660;
1046;512;0.062108;0.270311;0.999999;0.000242;-0.000655;0.001639;0.000130;0.001647;-0.000662;86.778680;0.001657;
1276;567;-0.116377;0.359455;0.999997;0.000462;-0.000513;0.001568;-0.000331;0.001620;-0.000564;-81.174011;0.001644;
956;1752;0.103110;86.163459;0.999999;0.000245;-0.000535;0.001334;-0.000156;0.001347;-0.000548;-85.271385;0.001355;
1261;492;-0.076820;0.241577;0.999999;0.000302;-0.000566;0.001556;-0.000148;0.001566;-0.000577;-86.042082;0.001584;
1081;787;0.445998;1.940732;0.999958;0.001971;-0.008404;0.019473;0.002179;0.019642;-0.008573;85.558027;0.019695;
1271;412;-0.047403;0.120981;1.000000;0.000124;-0.000413;0.001513;-0.000135;0.001522;-0.000423;-85.999396;0.001572;
1041;1747;0.058739;86.165372;1.000000;0.000141;-0.000611;0.001610;-0.000112;0.001615;-0.000617;-87.128217;0.001630;
1156;972;-0.916506;10.676977;0.999594;0.005608;-0.041813;0.099259;-0.002638;0.099308;-0.041863;-88.929106;0.099715;
1211;547;-0.065519;0.328073;0.999999;0.000254;-0.000765;0.001773;-0.000175;0.001785;-0.000777;-86.081439;0.001789;
1026;1512;0.463399;85.272744;0.999988;0.001213;-0.004515;0.010744;-0.002762;0.011229;-0.005000;-80.048642;0.011251;
1051;512;0.059142;0.270448;0.999999;0.000261;-0.000658;0.001642;0.000123;0.001648;-0.000665;86.948735;0.001659;
1216;1862;-0.017547;86.340876;1.000000;0.000187;-0.000229;0.001412;0.000147;0.001425;-0.000242;84.933311;0.001525;
1066;532;0.055085;0.301358;0.999999;0.000433;-0.000736;0.001724;0.000137;0.001732;-0.000744;86.825152;0.001738;
956;1757;0.100760;86.170425;0.999999;0.000188;-0.000522;0.001350;-0.000132;0.001359;-0.000532;-85.982759;0.001370;
1276;587;-0.125850;0.390121;0.999997;0.000406;-0.000567;0.001699;-0.000445;0.001783;-0.000651;-79.278058;0.001805;
1056;512;0.055892;0.269699;0.999999;0.000288;-0.000663;0.001644;0.000116;0.001649;-0.000668;87.123542;0.001659;
1011;1512;0.532656;85.262721;0.999988;0.001474;-0.004516;0.010764;-0.003137;0.011384;-0.005135;-78.838039;0.011402;
1041;1752;0.057206;86.173413;1.000000;0.000105;-0.000599;0.001601;-0.000110;0.001606;-0.000605;-87.156479;0.001622;
1276;412;-0.049564;0.122098;1.000000;0.000118;-0.000417;0.001515;-0.000129;0.001523;-0.000426;-86.192862;0.001572;
1206;957;-2.711643;9.518605;0.999487;0.005548;-0.038870;0.089678;-0.008408;0.090225;-0.039417;-86.273591;0.090465;
1161;832;-0.341934;2.998454;0.999952;0.002536;-0.012843;0.029252;-0.001591;0.029312;-0.012903;-87.838356;0.029382;
986;482;0.085399;0.228330;0.999999;0.000263;-0.000516;0.001488;0.000141;0.001498;-0.000526;85.997149;0.001519;
956;1762;0.098663;86.177002;0.999999;0.000166;-0.000519;0.001349;-0.000130;0.001358;-0.000528;-86.041909;0.001369;
1066;537;0.058339;0.310661;0.999999;0.000402;-0.000755;0.001753;0.000145;0.001761;-0.000763;86.707353;0.001766;
1171;512;-0.025866;0.265934;0.999999;0.000276;-0.000703;0.001655;-0.000063;0.001656;-0.000705;-88.470513;0.001663;
1021;1722;0.079447;86.123335;1.000000;0.000177;-0.000623;0.001621;-0.000167;0.001633;-0.000635;-85.764131;0.001647;
1286;557;-0.116335;0.340890;0.999998;0.000439;-0.000474;0.001522;-0.000294;0.001564;-0.000516;-81.784933;0.001594;
1226;957;-3.517159;9.637325;0.999544;0.006435;-0.039782;0.091586;-0.010994;0.092499;-0.040695;-85.249118;0.092721;
1056;517;0.056921;0.277301;0.999999;0.000281;-0.000674;0.001654;0.000122;0.001661;-0.000681;87.008739;0.001670;
1241;1512;-0.479563;85.252491;0.999989;0.000830;-0.004664;0.010904;0.002807;0.011395;-0.005155;80.086520;0.011412;
1041;1757;0.055239;86.180829;1.000000;0.000107;-0.000587;0.001594;-0.000107;0.001599;-0.000592;-87.206909;0.001617;
961;367;0.033885;0.061794;1.000000;0.000102;-0.000391;0.001651;0.000227;0.001676;-0.000416;83.721353;0.001745;
1081;797;0.493818;2.136402;0.999969;0.001593;-0.009313;0.021444;0.002370;0.021625;-0.009495;85.619236;0.021679;
1216;1902;-0.004279;86.394247;0.999999;0.000320;-0.000058;0.001364;0.000149;0.001379;-0.000073;84.081992;0.001552;
1251;492;-0.071232;0.241084;0.999999;0.000248;-0.000581;0.001580;-0.000136;0.001588;-0.000590;-86.420078;0.001606;
1321;477;-0.105684;0.228423;0.999979;0.001142;-0.000550;0.001316;-0.000110;0.001323;-0.000557;-86.638584;0.001328;
1071;537;0.053481;0.310111;0.999999;0.000305;-0.000770;0.001767;0.000136;0.001775;-0.000778;86.944836;0.001779;
1286;562;-0.118433;0.348395;0.999997;0.000463;-0.000471;0.001539;-0.000311;0.001586;-0.000518;-81.403348;0.001618;
1246;1647;-0.116203;85.991849;1.000000;0.000157;-0.000764;0.002093;0.000434;0.002158;-0.000829;81.540944;0.002177;
946;447;0.107439;0.192446;0.999874;0.003303;-0.000903;0.001578;0.000070;0.001580;-0.000905;88.380763;0.001586;
1056;957;2.986457;9.573508;0.999497;0.004492;-0.039544;0.090847;0.009215;0.091495;-0.040192;85.977418;0.091719;
1221;1902;-0.004584;86.394394;0.999999;0.000264;-0.000058;0.001363;0.000161;0.001381;-0.000076;83.598778;0.001553;
1246;1512;-0.501278;85.251926;0.999988;0.000860;-0.004681;0.010894;0.002937;0.011429;-0.005216;79.667022;0.011444;
961;372;0.037459;0.069849;1.000000;0.000115;-0.000418;0.001640;0.000195;0.001659;-0.000437;84.631048;0.001719;
1076;1792;0.027231;86.239343;1.000000;0.000150;-0.000482;0.001532;-0.000072;0.001534;-0.000485;-87.947614;0.001569;
1086;797;0.447220;2.133357;0.999970;0.001472;-0.009328;0.021456;0.002146;0.021605;-0.009477;86.030578;0.021659;
1061;512;0.052137;0.268324;0.999999;0.000271;-0.000669;0.001646;0.000110;0.001651;-0.000674;87.278917;0.001661;
1286;507;-0.097525;0.265801;0.999999;0.000316;-0.000529;0.001486;-0.000187;0.001503;-0.000547;-84.747877;0.001522;
1076;537;0.049193;0.309716;0.999999;0.000240;-0.000785;0.001782;0.000128;0.001789;-0.000791;87.162651;0.001792;
1226;1902;-0.004480;86.394394;0.999999;0.000237;-0.000059;0.001368;0.000178;0.001389;-0.000081;83.004802;0.001560;
1231;657;-0.155710;0.603121;0.999997;0.000474;-0.001725;0.004447;-0.001065;0.004626;-0.001903;-80.480615;0.004650;
1001;1782;0.068567;86.215426;1.000000;0.000168;-0.000504;0.001514;-0.000121;0.001521;-0.000512;-86.568181;0.001548;
1206;542;-0.060253;0.318060;0.999999;0.000285;-0.000760;0.001763;-0.000159;0.001773;-0.000770;-86.407292;0.001778;
1061;957;2.787513;9.549192;0.999568;0.004976;-0.039348;0.090277;0.008518;0.090835;-0.039906;86.256593;0.091057;
1176;817;-0.460646;2.592790;0.999963;0.001534;-0.011149;0.025548;-0.002165;0.025675;-0.011276;-86.635057;0.025738;
1041;517;0.066649;0.278859;0.999999;0.000302;-0.000656;0.001643;0.000139;0.001652;-0.000665;86.559143;0.001662;
1076;547;0.052554;0.327704;0.999999;0.000300;-0.000825;0.001854;0.000142;0.001862;-0.000833;86.983678;0.001865;
1156;1492;-0.129029;85.039844;0.999987;0.000796;-0.005574;0.013531;0.000677;0.013555;-0.005598;87.971937;0.013623;
991;487;0.085615;0.235899;0.999999;0.000250;-0.000533;0.001505;0.000151;0.001516;-0.000544;85.789452;0.001536;
1261;497;-0.079292;0.249168;0.999999;0.000321;-0.000573;0.001557;-0.000153;0.001568;-0.000584;-85.917597;0.001585;
1071;1702;0.052822;86.092801;1.000000;0.000101;-0.000782;0.001798;-0.000145;0.001806;-0.000790;-86.799715;0.001810;
946;1827;0.083684;86.259193;0.999982;0.001055;-0.000639;0.001397;-0.000040;0.001397;-0.000640;-88.876242;0.001399;
1291;557;-0.118468;0.339840;0.999997;0.000516;-0.000462;0.001511;-0.000294;0.001554;-0.000505;-81.708735;0.001585;
1081;542;0.046792;0.318045;0.999999;0.000306;-0.000817;0.001834;0.000125;0.001840;-0.000823;87.299049;0.001843;
1066;957;2.586534;9.522135;0.999578;0.005323;-0.039093;0.089934;0.007963;0.090424;-0.039583;86.481814;0.090657;
1261;1702;-0.098899;86.088524;1.000000;0.000153;-0.000598;0.001613;0.000227;0.001636;-0.000621;84.192421;0.001652;
1081;792;0.468195;2.036087;0.999969;0.001727;-0.008851;0.020488;0.002278;0.020663;-0.009027;85.586490;0.020718;
1046;517;0.063657;0.278790;0.999999;0.000224;-0.000664;0.001647;0.000136;0.001655;-0.000672;86.643936;0.001665;
996;487;0.082924;0.236381;0.999999;0.000229;-0.000541;0.001522;0.000149;0.001533;-0.000552;85.901196;0.001553;
976;477;0.088775;0.223560;0.999999;0.000226;-0.000485;0.001459;0.000119;0.001467;-0.000493;86.507386;0.001493;
1231;1532;-0.334916;85.451800;0.999991;0.000787;-0.003665;0.008772;0.002100;0.009117;-0.004010;80.670517;0.009139;
951;1827;0.071071;86.267327;0.999999;0.000222;-0.000590;0.001425;-0.000047;0.001426;-0.000591;-88.651801;0.001433;
1086;552;0.045431;0.337971;0.999999;0.000287;-0.000879;0.001940;0.000128;0.001945;-0.000885;87.408360;0.001948;
1291;562;-0.121176;0.347556;0.999996;0.000516;-0.000460;0.001533;-0.000309;0.001580;-0.000507;-81.380154;0.001613;
1091;1677;0.041989;86.043203;1.000000;0.000147;-0.000956;0.002100;-0.000135;0.002106;-0.000962;-87.477887;0.002109;
1041;957;3.586913;9.656426;0.999567;0.005957;-0.040288;0.092343;0.011337;0.093305;-0.041250;85.149489;0.093514;
991;482;0.083027;0.228732;0.999999;0.000247;-0.000527;0.001504;0.000147;0.001515;-0.000537;85.887891;0.001536;
1266;1702;-0.101724;86.088602;1.000000;0.000196;-0.000585;0.001599;0.000233;0.001624;-0.000609;83.980014;0.001641;
1086;792;0.425083;2.031802;0.999971;0.001725;-0.008869;0.020511;0.002066;0.020655;-0.009013;85.997792;0.020711;
1051;517;0.060484;0.278288;0.999999;0.000214;-0.000670;0.001651;0.000129;0.001658;-0.000677;86.827819;0.001667;
956;1827;0.068396;86.269403;0.999999;0.000250;-0.000561;0.001445;-0.000055;0.001447;-0.000563;-88.443693;0.001458;
1196;542;-0.052558;0.317729;0.999999;0.000274;-0.000791;0.001794;-0.000144;0.001802;-0.000799;-86.813275;0.001806;
1231;1537;-0.313995;85.491330;0.999992;0.000801;-0.003446;0.008296;0.002001;0.008627;-0.003777;80.589175;0.008649;
1231;527;-0.071651;0.295900;0.999999;0.000236;-0.000667;0.001649;-0.000164;0.001661;-0.000678;-85.972898;0.001670;
1046;957;3.377942;9.630316;0.999519;0.005003;-0.040041;0.091935;0.010604;0.092782;-0.040888;85.435399;0.092999;
1091;552;0.040999;0.337219;0.999999;0.000283;-0.000890;0.001953;0.000117;0.001957;-0.000895;87.640702;0.001960;
1281;572;-0.121958;0.365757;0.999997;0.000470;-0.000479;0.001568;-0.000351;0.001626;-0.000537;-80.546416;0.001657;
996;482;0.080452;0.228194;0.999999;0.000262;-0.000534;0.001520;0.000145;0.001530;-0.000544;85.971847;0.001551;
1146;1822;-0.004532;86.285767;1.000000;0.000184;-0.000361;0.001458;0.000019;0.001459;-0.000362;89.413569;0.001519;
1271;1692;-0.109165;86.072242;1.000000;0.000184;-0.000558;0.001590;0.000267;0.001622;-0.000591;83.029536;0.001642;
1201;1897;-0.004484;86.387306;0.999999;0.000201;-0.000074;0.001353;0.000122;0.001364;-0.000084;85.161066;0.001529;
1296;542;-0.116628;0.317817;0.999997;0.000363;-0.000466;0.001458;-0.000257;0.001492;-0.000500;-82.531454;0.001519;
1201;542;-0.056272;0.318283;0.999999;0.000328;-0.000774;0.001779;-0.000152;0.001788;-0.000783;-86.600941;0.001793;
1081;547;0.047983;0.328016;0.999999;0.000330;-0.000840;0.001872;0.000132;0.001878;-0.000847;87.226961;0.001881;
1161;977;-1.172235;11.167341;0.999504;0.006130;-0.043679;0.104122;-0.003278;0.104195;-0.043752;-88.729975;0.104640;
1036;507;0.066620;0.263148;0.999999;0.000267;-0.000632;0.001620;0.000132;0.001628;-0.000640;86.667959;0.001640;
1151;1417;-0.224727;83.575850;0.999962;0.001880;-0.012144;0.027956;0.000935;0.027977;-0.012166;88.665301;0.028056;
1201;1902;-0.003151;86.395844;0.999999;0.000257;-0.000051;0.001363;0.000121;0.001374;-0.000062;85.152738;0.001552;
1186;1497;-0.278245;85.094154;0.999989;0.000907;-0.005324;0.012861;0.001567;0.012995;-0.005458;85.111481;0.013051;
1281;577;-0.123895;0.372995;0.999997;0.000473;-0.000500;0.001591;-0.000379;0.001658;-0.000567;-80.034970;0.001685;
1186;537;-0.042944;0.308623;0.999999;0.000263;-0.000797;0.001780;-0.000117;0.001785;-0.000802;-87.406759;0.001788;
1136;1282;-0.116558;76.641797;0.999520;0.007036;-0.037986;0.089437;0.000183;0.089437;-0.037986;89.917672;0.089774;
1271;1697;-0.107488;86.080448;1.000000;0.000201;-0.000565;0.001586;0.000253;0.001615;-0.000594;83.391530;0.001633;
1296;547;-0.117751;0.324651;0.999997;0.000436;-0.000465;0.001472;-0.000269;0.001509;-0.000501;-82.241871;0.001537;
1011;507;0.082743;0.265740;0.999999;0.000290;-0.000593;0.001585;0.000163;0.001597;-0.000605;85.739584;0.001613;
1086;547;0.043561;0.327911;0.999999;0.000277;-0.000854;0.001888;0.000122;0.001893;-0.000859;87.455250;0.001896;
1126;1902;-0.000030;86.393861;0.999999;0.000276;-0.000051;0.001302;-0.000007;0.001302;-0.000052;-89.703250;0.001474;
1171;537;-0.030432;0.308656;0.999999;0.000357;-0.000828;0.001810;-0.000085;0.001812;-0.000831;-88.159027;0.001815;
1166;977;-1.382200;11.182950;0.999505;0.007027;-0.043759;0.104285;-0.003880;0.104386;-0.043860;-88.499542;0.104829;
1001;392;0.036140;0.089625;1.000000;0.000090;-0.000344;0.001505;0.000180;0.001522;-0.000362;84.496647;0.001591;
1181;1492;-0.267422;85.029158;0.999987;0.001068;-0.005627;0.013560;0.001477;0.013673;-0.005739;85.624877;0.013731;
1281;582;-0.125789;0.381105;0.999997;0.000456;-0.000519;0.001619;-0.000414;0.001697;-0.000596;-79.415412;0.001722;
1101;1407;0.416214;83.283221;0.999962;0.001684;-0.013398;0.030473;-0.001910;0.030556;-0.013481;-87.511446;0.030626;
1156;1272;-0.947488;75.716963;0.999534;0.006037;-0.042180;0.099462;0.002301;0.099499;-0.042217;89.069539;0.099879;
1256;487;-0.072406;0.232997;0.999999;0.000278;-0.000566;0.001564;-0.000136;0.001572;-0.000575;-86.361249;0.001591;
1271;1702;-0.105875;86.088642;1.000000;0.000233;-0.000570;0.001583;0.000240;0.001610;-0.000596;83.712111;0.001628;
1091;547;0.039647;0.327765;0.999999;0.000289;-0.000864;0.001901;0.000112;0.001906;-0.000869;87.694847;0.001908;
1046;592;0.093964;0.413611;0.999997;0.000333;-0.000887;0.002161;0.000334;0.002197;-0.000923;83.814636;0.002207;
1031;507;0.070010;0.264298;0.999999;0.000297;-0.000624;0.001616;0.000139;0.001625;-0.000633;86.461740;0.001638;
1171;977;-1.610048;11.195908;0.999453;0.008168;-0.043871;0.104550;-0.004484;0.104686;-0.044006;-88.271163;0.105127;
1306;1802;-0.078369;86.233075;1.000000;0.000191;-0.000534;0.001460;0.000067;0.001462;-0.000536;88.080237;0.001480;
1281;587;-0.128484;0.389057;0.999997;0.000384;-0.000542;0.001664;-0.000456;0.001754;-0.000632;-78.772344;0.001777;
1156;1277;-0.906801;76.179349;0.999472;0.005371;-0.040372;0.094478;0.002306;0.094517;-0.040412;89.020599;0.094848;
1261;487;-0.075179;0.233596;0.999999;0.000252;-0.000560;0.001552;-0.000142;0.001562;-0.000569;-86.164401;0.001581;
1291;1662;-0.132761;86.030577;1.000000;0.000165;-0.000437;0.001626;0.000446;0.001718;-0.000530;78.299626;0.001760;
1171;447;-0.016723;0.163046;1.000000;0.000090;-0.000458;0.001513;-0.000046;0.001515;-0.000459;-88.660160;0.001553;
1226;1532;-0.315525;85.452606;0.999988;0.000744;-0.003656;0.008748;0.001986;0.009058;-0.003966;81.121638;0.009082;
1116;1422;0.179181;83.702739;0.999976;0.001207;-0.011674;0.026739;-0.000891;0.026760;-0.011695;-88.671901;0.026831;
1256;567;-0.105561;0.363086;0.999998;0.000429;-0.000600;0.001659;-0.000291;0.001696;-0.000637;-82.787536;0.001713;
1126;542;0.007531;0.317497;0.999999;0.000287;-0.000889;0.001901;0.000021;0.001901;-0.000889;89.569665;0.001902;
1201;972;-2.841950;10.828058;0.999494;0.005770;-0.043696;0.102349;-0.008285;0.102817;-0.044165;-86.763423;0.103157;
1071;557;0.060060;0.347905;0.999999;0.000309;-0.000848;0.001932;0.000170;0.001943;-0.000859;86.507893;0.001947;
1291;1667;-0.130116;86.038020;1.000000;0.000160;-0.000415;0.001576;0.000406;0.001655;-0.000494;78.915232;0.001699;
1281;567;-0.118971;0.357970;0.999997;0.000466;-0.000475;0.001558;-0.000327;0.001609;-0.000526;-81.093696;0.001641;
1136;1277;-0.123805;76.216553;0.999516;0.006367;-0.039606;0.093744;0.000153;0.093744;-0.039606;89.934127;0.094119;
1281;507;-0.094829;0.266249;0.999999;0.000340;-0.000545;0.001509;-0.000181;0.001525;-0.000561;-85.010858;0.001542;
1066;1612;0.086051;85.888737;0.999999;0.000342;-0.001285;0.003140;-0.000473;0.003190;-0.001335;-83.971737;0.003204;
966;372;0.035220;0.067466;1.000000;0.000101;-0.000401;0.001615;0.000198;0.001634;-0.000420;84.452911;0.001697;
1121;1422;0.127680;83.706316;0.999977;0.001083;-0.011643;0.026720;-0.000609;0.026730;-0.011653;-89.090905;0.026803;
1051;1512;0.350103;85.278604;0.999988;0.000789;-0.004473;0.010675;-0.002144;0.010973;-0.004771;-82.095852;0.011004;
1251;497;-0.073356;0.248824;0.999999;0.000283;-0.000590;0.001582;-0.000142;0.001591;-0.000599;-86.284997;0.001608;
1056;637;0.107232;0.535819;0.999997;0.000430;-0.001341;0.003366;0.000605;0.003442;-0.001417;82.790226;0.003460;
1076;557;0.055592;0.347399;0.999999;0.000306;-0.000869;0.001954;0.000157;0.001962;-0.000877;86.833179;0.001966;
1151;972;-0.707710;10.678226;0.999588;0.005397;-0.041705;0.099125;-0.002057;0.099155;-0.041735;-89.163420;0.099568;
1291;1672;-0.128064;86.045792;1.000000;0.000191;-0.000396;0.001560;0.000356;0.001623;-0.000458;80.008699;0.001673;
956;1842;0.059945;86.291533;1.000000;0.000202;-0.000557;0.001515;-0.000066;0.001517;-0.000559;-88.164109;0.001535;
1011;502;0.080840;0.257869;0.999999;0.000332;-0.000585;0.001577;0.000158;0.001588;-0.000597;85.841134;0.001604;
1121;1267;0.533373;75.283091;0.999449;0.006528;-0.043019;0.102641;-0.001737;0.102661;-0.043040;-89.316970;0.103107;
1126;1422;0.070116;83.704894;0.999975;0.001418;-0.011629;0.026697;-0.000346;0.026700;-0.011632;-89.483068;0.026773;
1186;692;-0.125400;0.796564;0.999996;0.000524;-0.002622;0.006565;-0.000880;0.006648;-0.002706;-84.576619;0.006687;
1016;412;0.040446;0.117719;1.000000;0.000122;-0.000387;0.001509;0.000151;0.001521;-0.000398;85.486299;0.001578;
1251;502;-0.075091;0.256004;0.999999;0.000347;-0.000597;0.001593;-0.000148;0.001603;-0.000607;-86.160449;0.001618;
1081;557;0.051038;0.347539;0.999999;0.000269;-0.000888;0.001973;0.000145;0.001981;-0.000895;87.108091;0.001984;
1061;637;0.101206;0.536536;0.999998;0.000544;-0.001345;0.003352;0.000562;0.003419;-0.001412;83.274186;0.003436;
1091;1497;0.210745;85.113843;0.999986;0.001024;-0.005253;0.012628;-0.001244;0.012714;-0.005339;-86.038150;0.012768;
1126;952;0.300435;8.936791;0.999578;0.005434;-0.035263;0.082462;0.000764;0.082467;-0.035268;89.628161;0.082754;
956;1847;0.057631;86.298847;1.000000;0.000201;-0.000547;0.001537;-0.000074;0.001540;-0.000550;-87.955499;0.001561;
996;1747;0.085214;86.162002;1.000000;0.000216;-0.000553;0.001527;-0.000156;0.001539;-0.000564;-85.730728;0.001557;
1016;502;0.077632;0.257812;0.999999;0.000287;-0.000594;0.001583;0.000153;0.001593;-0.000605;86.005887;0.001609;
1126;1267;0.317649;75.289531;0.999550;0.006164;-0.043055;0.102730;-0.001121;0.102739;-0.043064;-89.559587;0.103186;
1131;1422;0.007754;83.706593;0.999976;0.001866;-0.011594;0.026675;-0.000082;0.026676;-0.011594;-89.876948;0.026751;
1056;642;0.112664;0.555140;0.999998;0.000409;-0.001419;0.003583;0.000663;0.003669;-0.001505;82.577401;0.003689;
1311;357;-0.027167;0.047444;1.000000;0.000106;-0.000324;0.001656;-0.000273;0.001693;-0.000361;-82.297784;0.001783;
1066;552;0.062693;0.336768;0.999999;0.000264;-0.000810;0.001863;0.000173;0.001874;-0.000821;86.313273;0.001879;
1066;557;0.064062;0.345910;0.999999;0.000281;-0.000829;0.001910;0.000183;0.001922;-0.000842;86.202493;0.001927;
1051;637;0.113650;0.534577;0.999997;0.000408;-0.001332;0.003381;0.000650;0.003469;-0.001420;82.293364;0.003488;
1226;1512;-0.407510;85.258002;0.999989;0.001028;-0.004626;0.010924;0.002426;0.011294;-0.004996;81.336194;0.011319;
956;1852;0.054483;86.306673;0.999999;0.000246;-0.000542;0.001562;-0.000092;0.001566;-0.000546;-87.486841;0.001589;
1126;957;0.316830;9.346058;0.999570;0.005093;-0.036763;0.086489;0.000780;0.086494;-0.036767;89.637503;0.086817;
1021;502;0.074663;0.256915;0.999999;0.000249;-0.000601;0.001591;0.000147;0.001601;-0.000611;86.173348;0.001616;
946;342;0.016226;0.024414;0.999998;0.000353;-0.000273;0.001828;0.000436;0.001915;-0.000360;78.723624;0.002036;
1131;1267;0.099038;75.289749;0.999518;0.006298;-0.043063;0.102916;-0.000526;0.102918;-0.043065;-89.793381;0.103374;
1136;1422;-0.049584;83.708870;0.999975;0.001406;-0.011552;0.026663;0.000180;0.026664;-0.011553;89.730834;0.026743;
1186;1632;-0.065611;85.937137;1.000000;0.000235;-0.001152;0.002686;0.000270;0.002705;-0.001171;86.000815;0.002713;
1061;642;0.105344;0.556171;0.999998;0.000528;-0.001420;0.003566;0.000615;0.003641;-0.001495;83.066105;0.003660;
1071;552;0.058705;0.337823;0.999999;0.000269;-0.000828;0.001884;0.000161;0.001894;-0.000838;86.612253;0.001898;
1086;557;0.046693;0.347878;0.999999;0.000306;-0.000904;0.001991;0.000134;0.001997;-0.000910;87.355668;0.002000;
1051;642;0.118802;0.552923;0.999997;0.000354;-0.001413;0.003603;0.000711;0.003702;-0.001512;82.089137;0.003722;
951;1742;0.108903;86.149357;0.999999;0.000185;-0.000685;0.001387;-0.000230;0.001412;-0.000711;-83.743382;0.001412;
1231;1512;-0.432946;85.255725;0.999990;0.000976;-0.004644;0.010939;0.002549;0.011345;-0.005051;80.942962;0.011368;
1136;967;-0.051879;10.175652;0.999476;0.005500;-0.039972;0.094621;-0.000205;0.094621;-0.039972;-89.912864;0.095000;
981;482;0.088276;0.229600;0.999999;0.000233;-0.000505;0.001470;0.000134;0.001479;-0.000514;86.144206;0.001502;
1156;1267;-0.985526;75.264489;0.999554;0.006470;-0.044052;0.104706;0.002372;0.104744;-0.044089;89.086761;0.105180;
1271;512;-0.091034;0.273528;0.999999;0.000382;-0.000571;0.001544;-0.000183;0.001560;-0.000587;-85.086489;0.001576;
1111;1422;0.242841;83.702577;0.999975;0.001595;-0.011686;0.026739;-0.001177;0.026775;-0.011722;-88.246898;0.026844;
1071;602;0.073823;0.443815;0.999997;0.000453;-0.001045;0.002444;0.000286;0.002467;-0.001069;85.345287;0.002475;
1076;552;0.054194;0.337211;0.999999;0.000279;-0.000847;0.001905;0.000149;0.001913;-0.000855;86.913260;0.001916;
1256;492;-0.074346;0.241033;0.999999;0.000321;-0.000574;0.001568;-0.000141;0.001577;-0.000584;-86.250598;0.001595;
951;1747;0.106833;86.155942;0.999999;0.000209;-0.000591;0.001347;-0.000190;0.001365;-0.000609;-84.447289;0.001368;
1051;1652;0.086574;85.996238;1.000000;0.000208;-0.000897;0.002180;-0.000315;0.002212;-0.000929;-84.223831;0.002221;
1051;647;0.124747;0.571837;0.999997;0.000397;-0.001506;0.003856;0.000778;0.003967;-0.001617;81.910206;0.003989;
1066;962;2.700737;9.956445;0.999621;0.005575;-0.040857;0.094472;0.008122;0.094958;-0.041343;86.577519;0.095222;
1031;1517;0.411802;85.320978;0.999989;0.000863;-0.004279;0.010151;-0.002536;0.010583;-0.004711;-80.317799;0.010605;
1241;517;-0.074802;0.279702;0.999999;0.000272;-0.000632;0.001617;-0.000157;0.001628;-0.000643;-86.020117;0.001640;
1161;1267;-1.214778;75.242857;0.999541;0.006410;-0.044296;0.105246;0.002976;0.105305;-0.044355;88.860310;0.105740;
1141;1422;-0.107246;83.705842;0.999970;0.001256;-0.011533;0.026646;0.000424;0.026651;-0.011538;89.364131;0.026731;
981;487;0.091037;0.237212;0.999999;0.000321;-0.000509;0.001467;0.000140;0.001477;-0.000519;85.959983;0.001499;
956;1747;0.104958;86.156644;0.999999;0.000224;-0.000571;0.001365;-0.000182;0.001382;-0.000588;-84.677370;0.001387;
1061;542;0.063108;0.319548;0.999999;0.000327;-0.000760;0.001764;0.000163;0.001774;-0.000771;86.329952;0.001780;
1241;622;-0.125116;0.476169;0.999997;0.000649;-0.001031;0.002789;-0.000653;0.002898;-0.001139;-80.558428;0.002920;
1241;617;-0.121844;0.464082;0.999997;0.000463;-0.000965;0.002622;-0.000594;0.002717;-0.001061;-80.840177;0.002739;
971;1747;0.098201;86.159164;0.999999;0.000221;-0.000546;0.001429;-0.000162;0.001442;-0.000559;-85.350680;0.001454;
1211;552;-0.067832;0.336528;0.999999;0.000296;-0.000781;0.001805;-0.000183;0.001818;-0.000794;-85.963432;0.001822;
1066;967;2.803884;10.413334;0.999515;0.007403;-0.042691;0.099102;0.008248;0.099580;-0.043169;86.682227;0.099873;
1031;512;0.071562;0.271671;0.999999;0.000328;-0.000631;0.001627;0.000144;0.001636;-0.000640;86.371408;0.001649;
1166;1267;-1.441566;75.220289;0.999525;0.005417;-0.044548;0.105830;0.003641;0.105918;-0.044636;88.613629;0.106353;
1086;1502;0.225588;85.168218;0.999988;0.001138;-0.004957;0.011901;-0.001330;0.012006;-0.005061;-85.515224;0.012055;
1091;792;0.380783;2.028364;0.999972;0.001322;-0.008869;0.020526;0.001854;0.020642;-0.008985;86.404664;0.020700;
1106;1422;0.305684;83.703391;0.999970;0.001664;-0.011699;0.026738;-0.001465;0.026794;-0.011755;-87.820091;0.026860;
986;487;0.088216;0.236315;0.999999;0.000279;-0.000521;0.001487;0.000146;0.001498;-0.000532;85.858227;0.001518;
1001;397;0.038740;0.097413;1.000000;0.000080;-0.000362;0.001511;0.000169;0.001526;-0.000377;84.881857;0.001589;
1066;542;0.059198;0.319363;0.999999;0.000349;-0.000774;0.001783;0.000153;0.001793;-0.000783;86.579973;0.001797;
1071;612;0.076575;0.469450;0.999997;0.000462;-0.001107;0.002626;0.000322;0.002654;-0.001135;85.103576;0.002663;
1216;552;-0.071394;0.335663;0.999999;0.000306;-0.000764;0.001781;-0.000193;0.001796;-0.000779;-85.691127;0.001801;
1076;612;0.071609;0.470862;0.999997;0.000491;-0.001129;0.002644;0.000296;0.002667;-0.001152;85.542219;0.002675;
1276;1692;-0.111985;86.073335;1.000000;0.000193;-0.000542;0.001566;0.000276;0.001602;-0.000577;82.658827;0.001623;
1156;977;-0.947085;11.174279;0.999551;0.006285;-0.043547;0.103974;-0.002685;0.104023;-0.043595;-88.957655;0.104476;
1031;517;0.073522;0.279965;0.999999;0.000338;-0.000637;0.001633;0.000150;0.001643;-0.000647;86.237166;0.001656;
1251;1512;-0.524480;85.248938;0.999985;0.001207;-0.004690;0.010874;0.003065;0.011455;-0.005272;79.251571;0.011467;
1136;1272;-0.128649;75.779901;0.999530;0.005718;-0.041353;0.098333;0.000114;0.098333;-0.041353;89.953312;0.098747;
1061;532;0.060036;0.301705;0.999999;0.000429;-0.000725;0.001712;0.000143;0.001720;-0.000733;86.647253;0.001726;
1306;362;-0.028898;0.052826;1.000000;0.000136;-0.000335;0.001623;-0.000251;0.001654;-0.000367;-82.802843;0.001738;
1091;797;0.404334;2.132848;0.999970;0.001235;-0.009326;0.021465;0.001926;0.021585;-0.009446;86.434556;0.021641;
1071;542;0.055551;0.318802;0.999999;0.000306;-0.000790;0.001801;0.000143;0.001809;-0.000798;86.839406;0.001813;
1061;602;0.084131;0.441443;0.999997;0.000414;-0.001009;0.002398;0.000325;0.002428;-0.001039;84.597782;0.002437;
1081;612;0.065941;0.472180;0.999997;0.000441;-0.001150;0.002660;0.000272;0.002680;-0.001169;85.935255;0.002687;
1276;1697;-0.110209;86.081715;1.000000;0.000187;-0.000548;0.001563;0.000260;0.001594;-0.000579;83.079068;0.001614;
1221;552;-0.075408;0.336693;0.999999;0.000339;-0.000746;0.001759;-0.000200;0.001775;-0.000762;-85.461426;0.001781;
1126;962;0.331674;9.752926;0.999476;0.005853;-0.038346;0.090604;0.000869;0.090610;-0.038352;89.614044;0.090965;
1101;547;0.030964;0.328690;0.999999;0.000227;-0.000886;0.001925;0.000086;0.001928;-0.000889;88.244439;0.001930;
1196;1502;-0.310871;85.156913;0.999989;0.000738;-0.005055;0.012156;0.001798;0.012342;-0.005241;84.098979;0.012388;
1061;537;0.061740;0.310695;0.999999;0.000380;-0.000742;0.001736;0.000152;0.001745;-0.000751;86.495878;0.001751;
1196;1257;-3.075718;74.012571;0.999333;0.006109;-0.051124;0.122004;0.007906;0.122364;-0.051484;87.390828;0.122875;
1256;507;-0.079808;0.264911;0.999999;0.000342;-0.000595;0.001588;-0.000158;0.001599;-0.000606;-85.885215;0.001615;
1076;542;0.050817;0.318089;0.999999;0.000294;-0.000805;0.001818;0.000134;0.001825;-0.000811;87.075558;0.001829;
1196;812;-0.651666;2.473991;0.999961;0.001780;-0.010780;0.024418;-0.003115;0.024691;-0.011054;-84.982102;0.024736;
1061;607;0.086285;0.453261;0.999997;0.000471;-0.001041;0.002484;0.000345;0.002518;-0.001075;84.459126;0.002527;
1066;597;0.077641;0.431988;0.999997;0.000569;-0.000998;0.002365;0.000290;0.002390;-0.001023;85.104690;0.002398;
1261;512;-0.084950;0.274530;0.999999;0.000307;-0.000589;0.001575;-0.000170;0.001588;-0.000602;-85.527888;0.001604;
1276;1702;-0.108150;86.089437;1.000000;0.000164;-0.000552;0.001559;0.000246;0.001587;-0.000581;83.443449;0.001606;
1051;957;3.178693;9.602353;0.999476;0.004642;-0.039819;0.091415;0.009909;0.092158;-0.040563;85.706316;0.092378;
1256;1522;-0.482573;85.355955;0.999985;0.000930;-0.004188;0.009779;0.002891;0.010354;-0.004763;78.754343;0.010365;
1181;537;-0.038913;0.308564;0.999999;0.000244;-0.000810;0.001791;-0.000106;0.001795;-0.000814;-87.671264;0.001798;
1226;547;-0.076852;0.329181;0.999999;0.000299;-0.000714;0.001718;-0.000198;0.001734;-0.000730;-85.373738;0.001741;
1101;1262;1.480377;74.743214;0.999483;0.007175;-0.045309;0.108002;-0.004264;0.108121;-0.045427;-88.408173;0.108579;
1196;817;-0.684314;2.600515;0.999961;0.001661;-0.011330;0.025582;-0.003227;0.025862;-0.011610;-85.040629;0.025907;
1116;537;0.016075;0.308701;0.999999;0.000306;-0.000857;0.001859;0.000048;0.001860;-0.000858;88.994920;0.001862;
1061;517;0.053355;0.276788;0.999999;0.000358;-0.000682;0.001658;0.000116;0.001664;-0.000688;87.176196;0.001672;
1171;817;-0.402528;2.591604;0.999960;0.001454;-0.011120;0.025540;-0.001907;0.025639;-0.011219;-87.030185;0.025706;
1151;977;-0.737846;11.160646;0.999551;0.006505;-0.043437;0.103836;-0.002107;0.103866;-0.043467;-89.180463;0.104325;
1266;512;-0.087857;0.274107;0.999999;0.000367;-0.000580;0.001559;-0.000179;0.001574;-0.000595;-85.261239;0.001590;
971;1752;0.096024;86.166363;1.000000;0.000230;-0.000523;0.001416;-0.000146;0.001427;-0.000534;-85.705760;0.001442;
1101;1872;0.005257;86.355482;0.999999;0.000222;-0.000171;0.001344;-0.000058;0.001346;-0.000173;-87.818534;0.001465;
956;482;0.099534;0.236186;0.999999;0.000277;-0.000714;0.001342;0.000001;0.001342;-0.000714;89.970665;0.001343;
1236;512;-0.069621;0.271512;0.999999;0.000276;-0.000634;0.001616;-0.000141;0.001625;-0.000643;-86.439443;0.001636;
1151;1262;-0.806362;74.825135;0.999498;0.005367;-0.045728;0.109395;0.001890;0.109418;-0.045751;89.301933;0.109906;
1206;552;-0.063732;0.337076;0.999999;0.000380;-0.000797;0.001828;-0.000175;0.001839;-0.000809;-86.197077;0.001844;
1036;1747;0.061548;86.164239;1.000000;0.000119;-0.000609;0.001607;-0.000116;0.001613;-0.000615;-87.004719;0.001628;
1111;812;0.251520;2.481161;0.999961;0.001866;-0.010735;0.024708;0.001157;0.024746;-0.010773;88.133007;0.024815;
1146;1422;-0.161917;83.704319;0.999969;0.001666;-0.011538;0.026640;0.000664;0.026652;-0.011550;89.004007;0.026730;
981;492;0.093116;0.244767;0.999998;0.000387;-0.000511;0.001471;0.000150;0.001482;-0.000523;85.694042;0.001503;
1146;972;-0.485038;10.665375;0.999593;0.005674;-0.041663;0.099028;-0.001436;0.099042;-0.041678;-89.415217;0.099455;
1171;822;-0.421218;2.717351;0.999953;0.001636;-0.011670;0.026765;-0.001972;0.026866;-0.011771;-87.070927;0.026934;
1061;612;0.088532;0.466140;0.999997;0.000571;-0.001077;0.002589;0.000373;0.002627;-0.001114;84.252528;0.002637;
986;1652;0.130059;86.014171;1.000000;0.000216;-0.000536;0.001725;-0.000517;0.001837;-0.000649;-77.704880;0.001863;
1026;507;0.073424;0.265192;0.999998;0.000302;-0.000616;0.001608;0.000147;0.001618;-0.000626;86.245402;0.001631;
1236;532;-0.077126;0.303949;0.999999;0.000321;-0.000660;0.001648;-0.000178;0.001662;-0.000674;-85.609475;0.001672;
1151;1267;-0.778852;75.280329;0.999631;0.005561;-0.043807;0.104214;0.001801;0.104235;-0.043829;89.303018;0.104674;
991;492;0.087287;0.243074;0.999999;0.000212;-0.000539;0.001512;0.000158;0.001525;-0.000551;85.625030;0.001544;
986;492;0.089881;0.243571;0.999999;0.000254;-0.000525;0.001493;0.000155;0.001505;-0.000537;85.642110;0.001525;
1141;972;-0.265941;10.655796;0.999522;0.005284;-0.041669;0.098989;-0.000815;0.098994;-0.041673;-89.668024;0.099406;
1036;1752;0.059813;86.172670;1.000000;0.000100;-0.000598;0.001598;-0.000114;0.001604;-0.000604;-87.028526;0.001620;
1281;1807;-0.065116;86.248828;0.999999;0.000201;-0.000456;0.001510;0.000103;0.001515;-0.000462;87.019847;0.001553;
1101;797;0.307870;2.125050;0.999961;0.001802;-0.009311;0.021456;0.001485;0.021527;-0.009382;87.242835;0.021586;
1061;547;0.065073;0.328241;0.999999;0.000299;-0.000777;0.001793;0.000173;0.001804;-0.000789;86.162334;0.001809;
1056;682;0.174411;0.736923;0.999998;0.000464;-0.002401;0.005971;0.001184;0.006135;-0.002565;82.102731;0.006163;
1176;1822;-0.015378;86.284232;1.000000;0.000193;-0.000363;0.001465;0.000061;0.001467;-0.000365;88.103623;0.001527;
1151;1272;-0.736710;75.747428;0.999561;0.006103;-0.041941;0.099076;0.001757;0.099097;-0.041963;89.286167;0.099484;
971;482;0.092615;0.232772;0.999999;0.000348;-0.000623;0.001423;0.000071;0.001425;-0.000625;88.027263;0.001429;
1241;532;-0.080479;0.303963;0.999999;0.000357;-0.000646;0.001638;-0.000185;0.001653;-0.000661;-85.401164;0.001664;
1061;962;2.916018;9.984659;0.999586;0.005583;-0.041123;0.094946;0.008757;0.095507;-0.041684;86.332786;0.095764;
1121;542;0.012937;0.317371;0.999999;0.000312;-0.000887;0.001900;0.000034;0.001901;-0.000888;89.307359;0.001902;
1036;1757;0.058061;86.180187;1.000000;0.000122;-0.000587;0.001592;-0.000112;0.001598;-0.000593;-87.068391;0.001615;
1106;797;0.259643;2.125241;0.999964;0.001458;-0.009303;0.021442;0.001259;0.021494;-0.009354;87.658980;0.021554;
1281;1812;-0.063011;86.256755;0.999999;0.000175;-0.000452;0.001516;0.000104;0.001521;-0.000457;86.977067;0.001561;
1096;1492;0.199315;85.055306;0.999987;0.000888;-0.005561;0.013407;-0.001133;0.013475;-0.005628;-86.593554;0.013536;
1066;602;0.079623;0.442967;0.999997;0.000510;-0.001026;0.002420;0.000307;0.002447;-0.001053;84.951697;0.002455;
1061;552;0.066566;0.336483;0.999999;0.000333;-0.000795;0.001839;0.000183;0.001851;-0.000808;86.040184;0.001856;
1056;687;0.187141;0.767897;0.999998;0.000422;-0.002560;0.006359;0.001265;0.006535;-0.002736;82.080061;0.006564;
1156;1262;-1.036045;74.803087;0.999497;0.005045;-0.045976;0.109906;0.002491;0.109945;-0.046016;89.084591;0.110431;
1061;967;3.039139;10.440502;0.999514;0.007011;-0.042904;0.099906;0.009073;0.100480;-0.043478;86.379162;0.100783;
1236;527;-0.075100;0.295967;0.999999;0.000267;-0.000655;0.001640;-0.000171;0.001653;-0.000668;-85.769172;0.001663;
1281;512;-0.096573;0.272006;0.999999;0.000315;-0.000547;0.001507;-0.000191;0.001525;-0.000565;-84.727473;0.001542;
951;1842;0.062345;86.289069;0.999999;0.000180;-0.000591;0.001509;-0.000051;0.001510;-0.000593;-88.605580;0.001522;
1196;797;-0.559571;2.139836;0.999969;0.001520;-0.009273;0.021244;-0.002796;0.021498;-0.009527;-84.808762;0.021544;
1066;607;0.080742;0.454854;0.999997;0.000427;-0.001058;0.002504;0.000325;0.002534;-0.001087;84.834492;0.002542;
1191;1497;-0.303990;85.093773;0.999988;0.000871;-0.005348;0.012856;0.001723;0.013018;-0.005510;84.638974;0.013069;
1036;512;0.068438;0.271513;0.999999;0.000265;-0.000640;0.001630;0.000137;0.001639;-0.000648;86.546809;0.001651;
1056;522;0.058445;0.286149;0.999999;0.000338;-0.000687;0.001673;0.000129;0.001680;-0.000694;86.884564;0.001688;
1081;552;0.049610;0.337665;0.999999;0.000283;-0.000864;0.001924;0.000138;0.001930;-0.000871;87.173624;0.001934;
1056;692;0.200817;0.802097;0.999997;0.000471;-0.002735;0.006771;0.001345;0.006958;-0.002922;82.098519;0.006988;
1161;1262;-1.266942;74.775094;0.999455;0.007422;-0.046242;0.110467;0.003123;0.110529;-0.046304;88.858921;0.111012;
951;1847;0.059696;86.296463;0.999999;0.000204;-0.000582;0.001532;-0.000056;0.001534;-0.000584;-88.494186;0.001548;
1131;967;0.142320;10.174243;0.999460;0.007120;-0.039932;0.094626;0.000371;0.094627;-0.039933;89.841893;0.095010;
1241;527;-0.078204;0.296403;0.999999;0.000254;-0.000642;0.001632;-0.000177;0.001646;-0.000656;-85.576051;0.001657;
1286;512;-0.098956;0.272356;0.999999;0.000326;-0.000531;0.001482;-0.000199;0.001502;-0.000550;-84.409337;0.001519;
1196;802;-0.590141;2.238812;0.999966;0.001541;-0.009763;0.022276;-0.002895;0.022536;-0.010022;-84.878108;0.022581;
1071;607;0.075489;0.456093;0.999998;0.000384;-0.001076;0.002526;0.000301;0.002551;-0.001101;85.253326;0.002559;
1036;517;0.070322;0.279860;0.999999;0.000310;-0.000647;0.001638;0.000144;0.001647;-0.000656;86.417048;0.001659;
1061;1502;0.347210;85.164996;0.999992;0.000920;-0.005046;0.011934;-0.002095;0.012189;-0.005301;-83.069032;0.012223;
1276;512;-0.093599;0.272771;0.999998;0.000336;-0.000561;0.001527;-0.000188;0.001544;-0.000577;-84.903756;0.001560;
1051;527;0.064256;0.294804;0.999998;0.000352;-0.000691;0.001676;0.000145;0.001684;-0.000700;86.499803;0.001692;
951;1852;0.056601;86.304247;0.999999;0.000215;-0.000578;0.001564;-0.000074;0.001567;-0.000580;-88.032068;0.001584;
1241;562;-0.094230;0.353435;0.999997;0.000492;-0.000669;0.001714;-0.000255;0.001741;-0.000696;-83.962785;0.001753;
1056;962;3.127899;10.012547;0.999468;0.005978;-0.041335;0.095614;0.009505;0.096271;-0.041992;86.048422;0.096532;
1121;1262;0.561913;74.779619;0.999413;0.006994;-0.044871;0.107587;-0.001909;0.107611;-0.044894;-89.282556;0.108102;
1201;552;-0.060414;0.337905;0.999999;0.000456;-0.000815;0.001850;-0.000168;0.001861;-0.000826;-86.403101;0.001865;
1056;542;0.066722;0.320657;0.999999;0.000315;-0.000745;0.001747;0.000170;0.001759;-0.000756;86.105720;0.001765;
1196;807;-0.621155;2.349320;0.999961;0.001574;-0.010260;0.023336;-0.003003;0.023603;-0.010526;-84.932388;0.023648;
1311;482;-0.098363;0.232540;0.999999;0.000256;-0.000521;0.001362;-0.000122;0.001369;-0.000529;-86.317693;0.001381;
1256;497;-0.076278;0.248971;0.999999;0.000269;-0.000582;0.001571;-0.000147;0.001581;-0.000592;-86.121240;0.001597;
1056;1497;0.394776;85.103695;0.999993;0.001034;-0.005369;0.012627;-0.002359;0.012931;-0.005673;-82.655758;0.012964;
1231;537;-0.075838;0.312109;0.999999;0.000323;-0.000679;0.001671;-0.000180;0.001684;-0.000692;-85.642154;0.001693;
1051;677;0.175440;0.710154;0.999998;0.000533;-0.002254;0.005661;0.001194;0.005837;-0.002430;81.605879;0.005864;
1126;1262;0.339710;74.783108;0.999491;0.006768;-0.044910;0.107720;-0.001285;0.107731;-0.044921;-89.517486;0.108225;
1176;977;-1.838968;11.220654;0.999410;0.006469;-0.044046;0.104915;-0.005095;0.105089;-0.044220;-88.043298;0.105527;
1046;1622;0.103557;85.926849;0.999999;0.000298;-0.001098;0.002797;-0.000524;0.002866;-0.001167;-82.468751;0.002883;
1056;547;0.068213;0.328925;0.999999;0.000299;-0.000760;0.001772;0.000181;0.001785;-0.000773;85.936452;0.001791;
1016;507;0.079562;0.265098;0.999999;0.000297;-0.000603;0.001591;0.000158;0.001602;-0.000614;85.901389;0.001617;
1026;812;1.170037;2.478719;0.999967;0.001900;-0.010981;0.023928;0.005467;0.024764;-0.011817;81.304273;0.024773;
1116;822;0.216716;2.718841;0.999952;0.001509;-0.011756;0.026953;0.000945;0.026976;-0.011779;88.602251;0.027048;
1301;487;-0.095804;0.238211;0.999999;0.000282;-0.000513;0.001400;-0.000139;0.001410;-0.000523;-85.858196;0.001425;
1256;502;-0.078245;0.256187;0.999999;0.000288;-0.000589;0.001582;-0.000153;0.001593;-0.000599;-85.989928;0.001609;
1056;1502;0.372180;85.163536;0.999991;0.000937;-0.005049;0.011940;-0.002244;0.012232;-0.005340;-82.602486;0.012264;
1231;542;-0.077888;0.320860;0.999999;0.000351;-0.000685;0.001688;-0.000193;0.001703;-0.000701;-85.386556;0.001712;
1041;962;3.753863;10.128448;0.999506;0.006630;-0.042136;0.097400;0.011741;0.098381;-0.043117;85.223580;0.098631;
1051;682;0.185551;0.737320;0.999998;0.000495;-0.002415;0.006021;0.001271;0.006208;-0.002602;81.614271;0.006235;
1131;1262;0.107872;74.779592;0.999529;0.005673;-0.044926;0.107956;-0.000660;0.107959;-0.044929;-89.752661;0.108463;
1051;1622;0.098643;85.924325;0.999999;0.000337;-0.001119;0.002802;-0.000491;0.002863;-0.001180;-82.968175;0.002877;
1056;552;0.070222;0.336152;0.999998;0.000368;-0.000777;0.001815;0.000190;0.001829;-0.000791;85.820947;0.001834;
1021;507;0.076924;0.264661;0.999999;0.000313;-0.000609;0.001599;0.000153;0.001610;-0.000620;86.066656;0.001624;
1186;812;-0.543648;2.470684;0.999970;0.001448;-0.010686;0.024420;-0.002595;0.024611;-0.010876;-85.795801;0.024666;
1046;962;3.535474;10.081828;0.999423;0.005326;-0.041868;0.096891;0.010975;0.097753;-0.042731;85.505319;0.098011;
1236;522;-0.073261;0.287281;0.999999;0.000256;-0.000650;0.001632;-0.000161;0.001644;-0.000661;-85.996006;0.001654;
1166;827;-0.385118;2.855139;0.999962;0.002119;-0.012246;0.027991;-0.001792;0.028071;-0.012326;-87.454951;0.028140;
1061;1497;0.368486;85.104561;0.999992;0.000939;-0.005364;0.012629;-0.002203;0.012895;-0.005630;-83.119218;0.012930;
1116;532;0.015888;0.299871;0.999999;0.000350;-0.000831;0.001814;0.000045;0.001814;-0.000832;89.015488;0.001816;
1166;1262;-1.511908;74.757968;0.999458;0.007672;-0.046527;0.111081;0.003805;0.111173;-0.046618;88.617688;0.111654;
1051;687;0.197712;0.768494;0.999997;0.000478;-0.002576;0.006406;0.001357;0.006607;-0.002776;81.596950;0.006635;
1041;522;0.068742;0.287933;0.999999;0.000309;-0.000665;0.001657;0.000145;0.001666;-0.000674;86.434756;0.001676;
996;1637;0.135336;85.984304;0.999999;0.000230;-0.000699;0.002133;-0.000635;0.002269;-0.000835;-77.916224;0.002295;
1211;802;-0.734296;2.243750;0.999963;0.001481;-0.009874;0.022282;-0.003625;0.022686;-0.010278;-83.647803;0.022719;
1036;522;0.072408;0.288467;0.999999;0.000316;-0.000654;0.001649;0.000151;0.001659;-0.000664;86.276535;0.001670;
1241;522;-0.076657;0.287684;0.999999;0.000247;-0.000638;0.001625;-0.000168;0.001638;-0.000651;-85.776536;0.001649;
1151;982;-0.765346;11.658948;0.999494;0.006436;-0.045264;0.108995;-0.002143;0.109024;-0.045293;-89.204275;0.109543;
1186;822;-0.596531;2.717095;0.999964;0.001553;-0.011775;0.026807;-0.002784;0.027007;-0.011975;-85.894615;0.027065;
1251;1767;-0.066963;86.192803;1.000000;0.000147;-0.000554;0.001563;0.000123;0.001570;-0.000561;86.692062;0.001591;
1236;517;-0.071603;0.278972;0.999999;0.000254;-0.000642;0.001623;-0.000150;0.001633;-0.000651;-86.239140;0.001644;
1066;1497;0.343860;85.107677;0.999989;0.001132;-0.005350;0.012626;-0.002044;0.012856;-0.005580;-83.593328;0.012893;
1101;1267;1.415348;75.211547;0.999477;0.006522;-0.043463;0.103259;-0.004154;0.103376;-0.043581;-88.379631;0.103799;
951;1837;0.065471;86.281878;1.000000;0.000203;-0.000585;0.001477;-0.000049;0.001479;-0.000587;-88.651302;0.001489;
1056;677;0.163917;0.710149;0.999998;0.000470;-0.002242;0.005612;0.001112;0.005766;-0.002396;82.095664;0.005794;
1046;522;0.065517;0.287653;0.999999;0.000242;-0.000674;0.001662;0.000142;0.001670;-0.000683;86.528906;0.001680;
1211;807;-0.772511;2.349443;0.999965;0.001597;-0.010383;0.023342;-0.003760;0.023756;-0.010797;-83.714368;0.023789;
1091;557;0.042289;0.348272;0.999998;0.000299;-0.000916;0.002004;0.000123;0.002010;-0.000921;87.599450;0.002012;
1191;822;-0.654123;2.720530;0.999967;0.001867;-0.011826;0.026816;-0.003056;0.027056;-0.012066;-85.505271;0.027109;
1206;962;-2.819999;9.963830;0.999419;0.005608;-0.040443;0.094122;-0.008656;0.094676;-0.040998;-86.334495;0.094959;
1071;562;0.061715;0.356426;0.999999;0.000402;-0.000869;0.001974;0.000180;0.001985;-0.000880;86.390200;0.001990;
1251;1772;-0.064638;86.200271;1.000000;0.000142;-0.000544;0.001561;0.000119;0.001568;-0.000550;86.775638;0.001591;
1241;507;-0.070679;0.263488;0.999999;0.000262;-0.000620;0.001612;-0.000141;0.001621;-0.000629;-86.404411;0.001635;
1066;1502;0.323104;85.164524;0.999991;0.000954;-0.005034;0.011924;-0.001944;0.012144;-0.005254;-83.544233;0.012181;
956;1837;0.063009;86.284372;1.000000;0.000225;-0.000554;0.001490;-0.000061;0.001492;-0.000556;-88.303709;0.001508;
1136;1267;-0.129558;75.298955;0.999600;0.006388;-0.043194;0.103146;0.000049;0.103146;-0.043194;89.980984;0.103599;
1051;692;0.213382;0.801858;0.999997;0.000500;-0.002749;0.006817;0.001442;0.007029;-0.002962;81.609458;0.007058;
1051;522;0.062241;0.287088;0.999999;0.000280;-0.000681;0.001666;0.000135;0.001674;-0.000689;86.714181;0.001683;
1246;522;-0.079228;0.286922;0.999999;0.000235;-0.000627;0.001618;-0.000174;0.001631;-0.000640;-85.583294;0.001644;
1211;812;-0.810511;2.467889;0.999965;0.001521;-0.010905;0.024411;-0.003907;0.024838;-0.011332;-83.761847;0.024869;
1196;822;-0.716357;2.723481;0.999964;0.001963;-0.011883;0.026817;-0.003340;0.027103;-0.012169;-85.102961;0.027150;
996;492;0.084485;0.242627;0.999999;0.000226;-0.000549;0.001530;0.000154;0.001542;-0.000560;85.777018;0.001561;
1076;562;0.056400;0.356796;0.999999;0.000399;-0.000891;0.001995;0.000165;0.002005;-0.000900;86.731265;0.002008;
1191;977;-2.508784;11.299346;0.999462;0.006159;-0.044904;0.106278;-0.006866;0.106590;-0.045215;-87.404912;0.106997;
1251;1777;-0.062594;86.208212;1.000000;0.000142;-0.000532;0.001553;0.000118;0.001560;-0.000539;86.762094;0.001584;
1071;1502;0.298832;85.165189;0.999990;0.000908;-0.005007;0.011922;-0.001782;0.012107;-0.005193;-84.054190;0.012148;
1151;1277;-0.704411;76.193221;0.999473;0.005882;-0.040143;0.094185;0.001772;0.094208;-0.040166;89.244306;0.094548;
1206;1892;-0.006456;86.382182;0.999999;0.000166;-0.000097;0.001358;0.000131;0.001370;-0.000109;84.894899;0.001523;
1241;557;-0.091368;0.345490;0.999997;0.000445;-0.000662;0.001691;-0.000241;0.001716;-0.000687;-84.205915;0.001727;
1291;502;-0.097398;0.258451;0.999999;0.000313;-0.000508;0.001454;-0.000177;0.001470;-0.000524;-84.873976;0.001490;
1246;527;-0.081054;0.296195;0.999999;0.000263;-0.000630;0.001624;-0.000183;0.001639;-0.000644;-85.387678;0.001651;
1206;817;-0.796935;2.598332;0.999966;0.001541;-0.011394;0.025573;-0.003775;0.025954;-0.011776;-84.228091;0.025991;
1231;532;-0.073849;0.303478;0.999999;0.000262;-0.000673;0.001659;-0.000172;0.001671;-0.000685;-85.804256;0.001680;
1096;797;0.357041;2.125773;0.999966;0.001484;-0.009308;0.021467;0.001704;0.021561;-0.009403;86.840053;0.021619;
1081;562;0.052173;0.357419;0.999998;0.000365;-0.000910;0.002016;0.000152;0.002024;-0.000918;87.025451;0.002027;
1196;977;-2.737583;11.314586;0.999463;0.007033;-0.045287;0.106904;-0.007572;0.107279;-0.045663;-87.158760;0.107674;
1066;1902;0.003434;86.394273;0.999999;0.000218;-0.000053;0.001330;-0.000118;0.001340;-0.000063;-85.148775;0.001512;
1146;1262;-0.566930;74.826224;0.999557;0.005758;-0.045483;0.108929;0.001242;0.108939;-0.045493;89.539239;0.109431;
1041;1522;0.346578;85.372740;0.999988;0.000926;-0.004004;0.009551;-0.002172;0.009891;-0.004344;-81.113628;0.009915;
1141;1857;-0.001872;86.333908;1.000000;0.000203;-0.000225;0.001377;0.000014;0.001377;-0.000225;89.503223;0.001477;
1066;547;0.060897;0.328400;0.999999;0.000308;-0.000792;0.001815;0.000163;0.001825;-0.000802;86.431567;0.001829;
1246;552;-0.092828;0.336878;0.999998;0.000424;-0.000637;0.001656;-0.000236;0.001680;-0.000661;-84.180956;0.001693;
1056;632;0.103295;0.519969;0.999997;0.000449;-0.001270;0.003177;0.000554;0.003245;-0.001338;83.009201;0.003261;
1206;822;-0.839649;2.726242;0.999966;0.001333;-0.011959;0.026823;-0.003904;0.027212;-0.012348;-84.308369;0.027250;
1101;1412;0.400280;83.426591;0.999967;0.001405;-0.012810;0.029114;-0.001852;0.029196;-0.012891;-87.475765;0.029262;
1096;802;0.377724;2.239313;0.999960;0.001752;-0.009775;0.022421;0.001770;0.022518;-0.009872;86.863066;0.022575;
1201;547;-0.057765;0.327619;0.999999;0.000420;-0.000795;0.001811;-0.000160;0.001820;-0.000804;-86.509792;0.001825;
1071;1902;0.003092;86.394878;0.999999;0.000210;-0.000053;0.001328;-0.000112;0.001337;-0.000062;-85.412337;0.001509;
1246;517;-0.077598;0.279718;0.999999;0.000285;-0.000622;0.001610;-0.000164;0.001622;-0.000634;-85.820990;0.001635;
1146;1267;-0.561875;75.302959;0.999652;0.005455;-0.043586;0.103781;0.001205;0.103791;-0.043596;89.531388;0.104232;
1241;512;-0.073143;0.271992;0.999999;0.000289;-0.000626;0.001611;-0.000148;0.001621;-0.000636;-86.234565;0.001633;
1071;547;0.057089;0.327872;0.999999;0.000278;-0.000809;0.001834;0.000152;0.001843;-0.000817;86.720123;0.001847;
1036;1522;0.368267;85.371749;0.999987;0.001049;-0.004025;0.009586;-0.002286;0.009959;-0.004399;-80.715813;0.009982;
1001;1757;0.078361;86.177552;1.000000;0.000157;-0.000545;0.001535;-0.000140;0.001545;-0.000555;-86.155130;0.001565;
1246;557;-0.094615;0.345078;0.999997;0.000380;-0.000638;0.001666;-0.000247;0.001692;-0.000665;-83.943389;0.001705;
1061;632;0.097268;0.520839;0.999997;0.000527;-0.001278;0.003170;0.000514;0.003228;-0.001337;83.493220;0.003244;
1076;1902;0.002868;86.393686;0.999999;0.000194;-0.000051;0.001325;-0.000103;0.001333;-0.000058;-85.761573;0.001507;
1206;547;-0.061665;0.327514;0.999999;0.000300;-0.000779;0.001791;-0.000166;0.001802;-0.000789;-86.310010;0.001807;
1101;1417;0.382085;83.561569;0.999967;0.001264;-0.012242;0.027903;-0.001796;0.027984;-0.012323;-87.443398;0.028050;
1136;832;-0.019043;3.005034;0.999956;0.001513;-0.012801;0.029205;-0.000180;0.029206;-0.012801;-89.754606;0.029280;
1256;522;-0.085360;0.287352;0.999999;0.000348;-0.000606;0.001596;-0.000185;0.001612;-0.000621;-85.222454;0.001626;
961;482;0.097355;0.235431;0.999999;0.000314;-0.000673;0.001373;0.000032;0.001373;-0.000673;89.103519;0.001374;
1146;1272;-0.531056;75.763513;0.999597;0.005474;-0.041731;0.098746;0.001200;0.098756;-0.041741;89.510794;0.099149;
1046;1517;0.350245;85.325955;0.999987;0.000764;-0.004241;0.010095;-0.002161;0.010413;-0.004559;-81.611302;0.010440;
1296;497;-0.097596;0.252650;0.999999;0.000296;-0.000522;0.001418;-0.000161;0.001431;-0.000536;-85.283565;0.001446;
1056;672;0.155418;0.683975;0.999998;0.000453;-0.002093;0.005267;0.001044;0.005412;-0.002239;82.083554;0.005439;
1066;632;0.091075;0.522910;0.999997;0.000541;-0.001288;0.003168;0.000473;0.003217;-0.001338;84.006897;0.003233;
951;1832;0.068544;86.274053;1.000000;0.000214;-0.000587;0.001450;-0.000046;0.001451;-0.000588;-88.700991;0.001460;
1261;1707;-0.096584;86.096769;1.000000;0.000181;-0.000601;0.001611;0.000218;0.001632;-0.000622;84.434973;0.001647;
1006;512;0.087452;0.273637;0.999999;0.000308;-0.000592;0.001583;0.000171;0.001596;-0.000605;85.543709;0.001612;
1141;832;-0.082585;2.998515;0.999966;0.001743;-0.012791;0.029219;-0.000462;0.029225;-0.012796;-89.370326;0.029300;
1101;1422;0.362262;83.701566;0.999967;0.001432;-0.011698;0.026731;-0.001735;0.026810;-0.011776;-87.420302;0.026875;
1256;527;-0.087660;0.296102;0.999998;0.000331;-0.000605;0.001599;-0.000195;0.001617;-0.000623;-84.989387;0.001631;
1136;1262;-0.126769;74.800161;0.999555;0.005710;-0.045055;0.108221;-0.000042;0.108221;-0.045055;-89.984409;0.108725;
1196;547;-0.053851;0.327442;0.999999;0.000350;-0.000813;0.001830;-0.000152;0.001839;-0.000822;-86.726455;0.001842;
1296;502;-0.100211;0.258803;0.999999;0.000304;-0.000522;0.001424;-0.000171;0.001439;-0.000537;-85.021981;0.001454;
956;1832;0.066137;86.276555;1.000000;0.000223;-0.000558;0.001466;-0.000056;0.001467;-0.000559;-88.415903;0.001481;
1081;1502;0.248439;85.167231;0.999988;0.001089;-0.004966;0.011912;-0.001478;0.012040;-0.005094;-85.033027;0.012088;
1286;567;-0.121185;0.356332;0.999997;0.000451;-0.000467;0.001550;-0.000329;0.001603;-0.000519;-80.958390;0.001635;
1066;612;0.082687;0.467969;0.999997;0.000487;-0.001092;0.002607;0.000348;0.002640;-0.001124;84.665761;0.002649;
1011;512;0.084555;0.273239;0.999999;0.000265;-0.000600;0.001596;0.000168;0.001609;-0.000612;85.655753;0.001624;
1251;1782;-0.060920;86.216149;1.000000;0.000142;-0.000520;0.001547;0.000117;0.001553;-0.000527;86.775219;0.001580;
1256;532;-0.089684;0.304845;0.999998;0.000307;-0.000606;0.001602;-0.000204;0.001620;-0.000625;-84.775899;0.001634;
1116;1427;0.175253;83.833467;0.999973;0.001290;-0.011152;0.025580;-0.000868;0.025600;-0.011173;-88.647642;0.025669;
1201;797;-0.605565;2.141072;0.999970;0.001909;-0.009298;0.021251;-0.003029;0.021548;-0.009596;-84.391264;0.021591;
946;1832;0.077339;86.266808;0.999972;0.001178;-0.000638;0.001428;-0.000034;0.001428;-0.000639;-89.057958;0.001431;
1141;1262;-0.347055;74.816514;0.999616;0.005635;-0.045236;0.108534;0.000595;0.108536;-0.045238;89.778339;0.109035;
1251;512;-0.079160;0.272626;0.999999;0.000360;-0.000610;0.001599;-0.000159;0.001610;-0.000622;-85.911670;0.001624;
1296;507;-0.102483;0.266350;0.999999;0.000326;-0.000520;0.001423;-0.000183;0.001440;-0.000537;-84.679532;0.001456;
1286;572;-0.123750;0.363249;0.999998;0.000405;-0.000471;0.001562;-0.000352;0.001621;-0.000530;-80.460760;0.001653;
1046;662;0.154081;0.630100;0.999997;0.000572;-0.001843;0.004711;0.001039;0.004871;-0.002004;81.205494;0.004897;
1016;512;0.081392;0.272835;0.999999;0.000272;-0.000610;0.001603;0.000163;0.001615;-0.000622;85.818542;0.001629;
1216;1532;-0.282048;85.456110;0.999989;0.000810;-0.003610;0.008702;0.001770;0.008951;-0.003860;81.978755;0.008979;
1256;1772;-0.067583;86.199552;1.000000;0.000222;-0.000536;0.001554;0.000120;0.001561;-0.000543;86.723265;0.001585;
1251;517;-0.080739;0.280174;0.999999;0.000310;-0.000615;0.001603;-0.000169;0.001616;-0.000627;-85.674745;0.001629;
946;1837;0.072739;86.276755;0.999969;0.001232;-0.000637;0.001457;-0.000033;0.001458;-0.000638;-89.105713;0.001461;
1121;1427;0.118425;83.832418;0.999974;0.001413;-0.011119;0.025552;-0.000594;0.025562;-0.011129;-89.071740;0.025633;
1201;802;-0.640298;2.241656;0.999964;0.001627;-0.009794;0.022284;-0.003134;0.022588;-0.010097;-84.471566;0.022630;
1141;1267;-0.341047;75.303502;0.999683;0.005770;-0.043361;0.103419;0.000618;0.103422;-0.043363;89.758933;0.103870;
1256;512;-0.082175;0.273593;0.999999;0.000288;-0.000601;0.001589;-0.000164;0.001601;-0.000613;-85.729758;0.001616;
1151;1822;-0.006599;86.285508;1.000000;0.000154;-0.000361;0.001459;0.000026;0.001459;-0.000362;89.172535;0.001520;
1286;577;-0.125840;0.370613;0.999997;0.000427;-0.000492;0.001586;-0.000381;0.001653;-0.000560;-79.925408;0.001682;
1046;667;0.162755;0.655052;0.999997;0.000515;-0.001972;0.005022;0.001123;0.005197;-0.002148;81.097705;0.005224;
1036;527;0.074260;0.296487;0.999999;0.000273;-0.000661;0.001653;0.000158;0.001664;-0.000672;86.102888;0.001674;
1221;1532;-0.297732;85.455073;0.999987;0.000770;-0.003629;0.008725;0.001877;0.009004;-0.003908;81.548784;0.009030;
946;1842;0.073038;86.280408;0.999972;0.001344;-0.000646;0.001496;-0.000030;0.001497;-0.000646;-89.208964;0.001502;
1256;1777;-0.065871;86.207546;1.000000;0.000194;-0.000525;0.001547;0.000119;0.001554;-0.000532;86.725394;0.001580;
1256;517;-0.084106;0.280307;0.999998;0.000312;-0.000604;0.001591;-0.000174;0.001605;-0.000618;-85.484519;0.001619;
1126;1427;0.063997;83.835094;0.999971;0.001597;-0.011096;0.025512;-0.000344;0.025515;-0.011099;-89.461170;0.025587;
1111;817;0.259778;2.600018;0.999965;0.001873;-0.011258;0.025894;0.001193;0.025932;-0.011296;88.163322;0.026004;
1141;1272;-0.335606;75.780772;0.999566;0.005293;-0.041516;0.098499;0.000645;0.098502;-0.041519;89.735927;0.098905;
1051;672;0.165316;0.682978;0.999997;0.000503;-0.002103;0.005312;0.001121;0.005478;-0.002269;81.591595;0.005504;
1176;537;-0.034996;0.308710;0.999999;0.000314;-0.000821;0.001801;-0.000094;0.001805;-0.000824;-87.939535;0.001807;
1156;1822;-0.008349;86.285176;1.000000;0.000138;-0.000361;0.001459;0.000033;0.001460;-0.000361;88.948071;0.001521;
1051;662;0.145013;0.632184;0.999997;0.000648;-0.001841;0.004666;0.000972;0.004808;-0.001983;81.684234;0.004832;
1241;537;-0.082906;0.312170;0.999998;0.000427;-0.000648;0.001647;-0.000193;0.001663;-0.000664;-85.219317;0.001674;
1051;1492;0.452685;85.042505;0.999991;0.001164;-0.005696;0.013364;-0.002630;0.013720;-0.006052;-82.286679;0.013752;
1256;1782;-0.064047;86.215489;1.000000;0.000156;-0.000514;0.001543;0.000117;0.001549;-0.000520;86.753891;0.001577;
1041;527;0.070884;0.295760;0.999998;0.000283;-0.000672;0.001662;0.000153;0.001672;-0.000682;86.254989;0.001681;
1131;1427;0.009007;83.834896;0.999975;0.001570;-0.011055;0.025467;-0.000088;0.025467;-0.011055;-89.862285;0.025541;
1111;822;0.273031;2.721115;0.999954;0.002076;-0.011786;0.026966;0.001216;0.027004;-0.011824;88.204405;0.027073;
1206;1637;-0.085103;85.956136;0.999999;0.000187;-0.001043;0.002519;0.000344;0.002552;-0.001076;84.534592;0.002562;
1146;1277;-0.509994;76.195688;0.999497;0.006440;-0.039953;0.093972;0.001227;0.093983;-0.039964;89.475195;0.094333;
1051;667;0.154676;0.656498;0.999998;0.000547;-0.001965;0.004974;0.001049;0.005129;-0.002121;81.588250;0.005154;
1051;532;0.066356;0.302983;0.999999;0.000356;-0.000703;0.001689;0.000155;0.001699;-0.000713;86.314939;0.001707;
1306;502;-0.105193;0.259609;0.999999;0.000255;-0.000520;0.001362;-0.000167;0.001377;-0.000534;-84.962765;0.001388;
1041;672;0.185363;0.681503;0.999997;0.000441;-0.002122;0.005411;0.001276;0.005621;-0.002332;80.642329;0.005648;
1051;1497;0.424707;85.104512;0.999992;0.001420;-0.005365;0.012631;-0.002506;0.012974;-0.005708;-82.218253;0.013005;
1056;1737;0.051914;86.150753;1.000000;0.000138;-0.000643;0.001631;-0.000102;0.001635;-0.000647;-87.431011;0.001647;
1046;527;0.067719;0.295333;0.999999;0.000298;-0.000683;0.001669;0.000151;0.001678;-0.000693;86.337371;0.001687;
1136;1427;-0.047371;83.833774;0.999976;0.001293;-0.011003;0.025439;0.000162;0.025439;-0.011004;89.744524;0.025516;
1281;1692;-0.114939;86.075047;1.000000;0.000160;-0.000482;0.001544;0.000273;0.001580;-0.000518;82.471036;0.001611;
1171;827;-0.446146;2.852138;0.999953;0.001742;-0.012235;0.028003;-0.002067;0.028109;-0.012341;-87.066792;0.028178;
1216;1642;-0.093135;85.970935;0.999999;0.000164;-0.000964;0.002379;0.000362;0.002417;-0.001003;83.894289;0.002429;
1171;1262;-1.738429;74.725937;0.999356;0.006367;-0.046787;0.111766;0.004476;0.111893;-0.046913;88.384203;0.112378;
1056;667;0.145736;0.657582;0.999997;0.000416;-0.001957;0.004933;0.000978;0.005069;-0.002094;82.073475;0.005095;
1051;537;0.068004;0.311717;0.999999;0.000305;-0.000716;0.001711;0.000165;0.001722;-0.000727;86.123658;0.001729;
1306;507;-0.106706;0.266766;0.999999;0.000240;-0.000514;0.001356;-0.000180;0.001373;-0.000531;-84.559017;0.001385;
1051;1502;0.398844;85.164976;0.999989;0.001230;-0.005048;0.011952;-0.002386;0.012281;-0.005376;-82.160024;0.012312;
1041;677;0.198401;0.709551;0.999997;0.000471;-0.002274;0.005766;0.001358;0.005989;-0.002497;80.667757;0.006016;
1111;1427;0.230204;83.837951;0.999972;0.001438;-0.011161;0.025583;-0.001143;0.025618;-0.011196;-88.219887;0.025686;
1236;537;-0.079114;0.311856;0.999999;0.000341;-0.000664;0.001659;-0.000186;0.001674;-0.000679;-85.439157;0.001684;
1281;1697;-0.112768;86.082606;1.000000;0.000140;-0.000491;0.001538;0.000253;0.001569;-0.000522;83.005416;0.001597;
1051;612;0.098114;0.463082;0.999998;0.000518;-0.001042;0.002552;0.000423;0.002601;-0.001091;83.381803;0.002612;
1206;797;-0.653161;2.143141;0.999963;0.001604;-0.009329;0.021253;-0.003263;0.021597;-0.009673;-83.977095;0.021636;
1086;1677;0.046607;86.043749;1.000000;0.000148;-0.000940;0.002081;-0.000149;0.002088;-0.000948;-87.176322;0.002091;
1161;1892;-0.002345;86.381982;0.999999;0.000189;-0.000088;0.001323;0.000053;0.001325;-0.000090;87.832091;0.001481;
1291;567;-0.123182;0.354719;0.999996;0.000446;-0.000455;0.001543;-0.000326;0.001595;-0.000507;-80.963458;0.001629;
1176;1262;-1.972646;74.695907;0.999328;0.005867;-0.047148;0.112515;0.005102;0.112678;-0.047311;88.171624;0.113159;
1211;557;-0.069690;0.344627;0.999998;0.000383;-0.000799;0.001846;-0.000197;0.001861;-0.000814;-85.769390;0.001866;
1056;1492;0.421220;85.042670;0.999991;0.000995;-0.005702;0.013371;-0.002476;0.013687;-0.006018;-82.723225;0.013720;
1041;682;0.210573;0.738288;0.999997;0.000571;-0.002441;0.006124;0.001439;0.006359;-0.002676;80.711082;0.006385;
1106;1427;0.286718;83.834717;0.999968;0.001723;-0.011167;0.025572;-0.001418;0.025627;-0.011222;-87.792333;0.025693;
1281;1702;-0.110345;86.090053;1.000000;0.000130;-0.000508;0.001528;0.000243;0.001556;-0.000537;83.282622;0.001581;
1161;1897;-0.001739;86.387689;0.999999;0.000204;-0.000070;0.001315;0.000056;0.001317;-0.000072;87.683021;0.001481;
1096;552;0.036564;0.337206;0.999999;0.000246;-0.000900;0.001965;0.000104;0.001969;-0.000904;87.917308;0.001971;
1291;572;-0.125419;0.360512;0.999997;0.000463;-0.000455;0.001555;-0.000351;0.001614;-0.000515;-80.380977;0.001649;
1131;827;0.042680;2.856652;0.999951;0.002140;-0.012225;0.027999;0.000101;0.027999;-0.012225;89.856458;0.028074;
1251;647;-0.169008;0.553571;0.999997;0.000603;-0.001513;0.003995;-0.001131;0.004218;-0.001736;-78.840210;0.004240;
1181;1262;-2.215630;74.650229;0.999176;0.007319;-0.047627;0.113308;0.005700;0.113509;-0.047829;87.974149;0.113976;
1216;557;-0.073615;0.344934;0.999998;0.000318;-0.000780;0.001819;-0.000206;0.001835;-0.000796;-85.486794;0.001840;
1196;1692;-0.057953;86.073595;1.000000;0.000160;-0.000831;0.001893;0.000159;0.001902;-0.000840;86.669806;0.001906;
1061;1492;0.393559;85.043428;0.999991;0.000950;-0.005694;0.013381;-0.002313;0.013657;-0.005971;-83.183047;0.013693;
1161;1902;-0.001553;86.394976;0.999999;0.000279;-0.000053;0.001319;0.000061;0.001322;-0.000056;87.476861;0.001495;
1056;597;0.086805;0.428797;0.999998;0.000369;-0.000961;0.002312;0.000324;0.002344;-0.000993;84.393551;0.002353;
1141;1427;-0.097844;83.831872;0.999969;0.001281;-0.010974;0.025414;0.000395;0.025418;-0.010978;89.378122;0.025496;
1291;577;-0.127289;0.368962;0.999997;0.000471;-0.000476;0.001582;-0.000383;0.001651;-0.000545;-79.795790;0.001682;
1256;1767;-0.069630;86.192121;1.000000;0.000200;-0.000547;0.001554;0.000124;0.001561;-0.000554;86.635760;0.001583;
1246;507;-0.073721;0.263845;0.999999;0.000320;-0.000612;0.001606;-0.000148;0.001616;-0.000622;-86.188500;0.001630;
1146;837;-0.153161;3.142577;0.999958;0.002279;-0.013383;0.030556;-0.000775;0.030570;-0.013397;-88.989374;0.030648;
1251;652;-0.178466;0.573613;0.999997;0.000568;-0.001637;0.004292;-0.001223;0.004534;-0.001880;-78.791564;0.004556;
1221;557;-0.077566;0.346224;0.999998;0.000349;-0.000761;0.001792;-0.000213;0.001810;-0.000778;-85.265771;0.001816;
1096;1272;1.556620;75.682189;0.999384;0.008188;-0.041943;0.099249;-0.004703;0.099406;-0.042099;-88.094156;0.099793;
1196;1697;-0.056195;86.082465;1.000000;0.000142;-0.000810;0.001849;0.000151;0.001858;-0.000818;86.759183;0.001862;
1066;1492;0.365808;85.046452;0.999987;0.001119;-0.005678;0.013385;-0.002147;0.013623;-0.005917;-83.653017;0.013662;
1056;602;0.088559;0.440205;0.999998;0.000356;-0.000990;0.002373;0.000344;0.002408;-0.001025;84.214550;0.002417;
1146;1427;-0.152035;83.828975;0.999973;0.001513;-0.010969;0.025403;0.000624;0.025413;-0.010980;89.017060;0.025491;
1276;1647;-0.133944;86.001324;0.999999;0.000180;-0.000636;0.001927;0.000563;0.002045;-0.000755;78.141805;0.002068;
1046;677;0.186325;0.708612;0.999998;0.000431;-0.002262;0.005714;0.001279;0.005914;-0.002462;81.109667;0.005942;
1271;1707;-0.103126;86.096280;1.000000;0.000198;-0.000573;0.001580;0.000229;0.001604;-0.000597;83.999892;0.001622;
1246;512;-0.076251;0.272274;0.999999;0.000298;-0.000619;0.001605;-0.000155;0.001616;-0.000629;-86.036540;0.001629;
1206;802;-0.688181;2.243300;0.999966;0.001233;-0.009826;0.022290;-0.003379;0.022641;-0.010177;-84.057921;0.022680;
1251;657;-0.189038;0.596212;0.999997;0.000430;-0.001759;0.004598;-0.001319;0.004861;-0.002022;-78.728089;0.004884;
1101;552;0.032131;0.337058;0.999999;0.000282;-0.000912;0.001976;0.000091;0.001979;-0.000914;88.193014;0.001981;
1136;1257;-0.110658;74.297146;0.999623;0.005390;-0.046963;0.113750;-0.000043;0.113750;-0.046963;-89.984638;0.114325;
1071;1497;0.318873;85.109137;0.999987;0.001197;-0.005321;0.012628;-0.001876;0.012822;-0.005515;-84.095992;0.012863;
1091;1812;0.016889;86.270171;1.000000;0.000155;-0.000404;0.001489;-0.000058;0.001491;-0.000406;-88.243337;0.001541;
1056;607;0.090393;0.451781;0.999998;0.000453;-0.001023;0.002462;0.000367;0.002501;-0.001061;84.050996;0.002510;
1261;1902;-0.006884;86.393348;0.999999;0.000236;-0.000082;0.001418;0.000250;0.001458;-0.000123;80.800227;0.001618;
1101;1427;0.343548;83.832178;0.999964;0.001465;-0.011164;0.025553;-0.001673;0.025629;-0.011240;-87.395985;0.025693;
1046;682;0.197955;0.737242;0.999997;0.000453;-0.002426;0.006072;0.001358;0.006284;-0.002637;81.134529;0.006311;
1276;1707;-0.105772;86.096970;1.000000;0.000166;-0.000557;0.001556;0.000234;0.001582;-0.000582;83.756853;0.001600;
1151;837;-0.219901;3.133811;0.999959;0.002483;-0.013399;0.030574;-0.001071;0.030600;-0.013425;-88.605796;0.030676;
1171;542;-0.031968;0.317337;0.999999;0.000337;-0.000855;0.001858;-0.000090;0.001861;-0.000858;-88.092844;0.001863;
1141;1257;-0.336708;74.306549;0.999670;0.005338;-0.047161;0.114092;0.000589;0.114094;-0.047164;89.790684;0.114663;
1051;1507;0.373546;85.224240;0.999986;0.000866;-0.004751;0.011306;-0.002265;0.011620;-0.005065;-82.123313;0.011651;
991;587;0.128495;0.390188;0.999997;0.000541;-0.000543;0.001713;0.000442;0.001796;-0.000627;79.294695;0.001823;
1001;497;0.083723;0.250394;0.999999;0.000283;-0.000565;0.001551;0.000158;0.001563;-0.000577;85.761428;0.001581;
1281;1707;-0.108234;86.097283;1.000000;0.000159;-0.000539;0.001530;0.000241;0.001557;-0.000567;83.442498;0.001576;
1046;687;0.211791;0.767748;0.999997;0.000548;-0.002589;0.006453;0.001446;0.006679;-0.002815;81.132231;0.006706;
1056;1767;0.043600;86.198221;1.000000;0.000114;-0.000562;0.001581;-0.000088;0.001585;-0.000566;-87.656666;0.001607;
1151;1422;-0.214150;83.702373;0.999970;0.001745;-0.011547;0.026644;0.000906;0.026666;-0.011569;88.641618;0.026744;
961;1827;0.066174;86.271574;0.999999;0.000217;-0.000539;0.001460;-0.000062;0.001462;-0.000540;-88.233062;0.001478;
1156;837;-0.291670;3.141826;0.999948;0.002718;-0.013416;0.030591;-0.001357;0.030633;-0.013457;-88.235257;0.030708;
1006;1512;0.563362;85.258324;0.999957;0.002159;-0.004505;0.010727;-0.003261;0.011396;-0.005173;-78.408987;0.011412;
1146;1257;-0.595314;74.308854;0.999583;0.005791;-0.047440;0.114523;0.001247;0.114532;-0.047449;89.558961;0.115092;
1051;542;0.069655;0.320276;0.999999;0.000308;-0.000729;0.001734;0.000176;0.001746;-0.000742;85.926099;0.001753;
1031;522;0.075662;0.287841;0.999999;0.000324;-0.000645;0.001642;0.000157;0.001652;-0.000656;86.085233;0.001664;
996;587;0.126514;0.394441;0.999997;0.000384;-0.000563;0.001732;0.000429;0.001810;-0.000640;79.751338;0.001836;
1206;827;-0.877884;2.859867;0.999962;0.001617;-0.012548;0.028072;-0.004050;0.028472;-0.012947;-84.361864;0.028511;
1266;1902;-0.007261;86.392982;0.999999;0.000228;-0.000089;0.001434;0.000267;0.001480;-0.000135;80.341661;0.001636;
1046;672;0.174840;0.681244;0.999997;0.000504;-0.002111;0.005362;0.001201;0.005550;-0.002299;81.089458;0.005578;
1151;1427;-0.205666;83.828000;0.999972;0.001573;-0.010966;0.025405;0.000854;0.025425;-0.010986;88.655889;0.025503;
1056;1772;0.042487;86.206635;1.000000;0.000151;-0.000548;0.001571;-0.000088;0.001574;-0.000552;-87.631467;0.001597;
1251;1762;-0.069108;86.185037;1.000000;0.000166;-0.000565;0.001568;0.000128;0.001575;-0.000573;86.571994;0.001595;
1026;817;1.231549;2.602938;0.999968;0.001641;-0.011524;0.025167;0.005684;0.026028;-0.012384;81.392033;0.026038;
1031;1512;0.439543;85.273064;0.999988;0.000831;-0.004530;0.010746;-0.002645;0.011191;-0.004975;-80.449834;0.011214;
1141;1277;-0.327507;76.199612;0.999512;0.005581;-0.039754;0.093826;0.000684;0.093829;-0.039757;89.706703;0.094193;
1021;822;1.341174;2.753938;0.997735;0.011918;-0.012070;0.026578;0.006223;0.027555;-0.013047;81.074826;0.027568;
1271;1902;-0.007731;86.392479;0.999999;0.000208;-0.000091;0.001454;0.000283;0.001505;-0.000141;79.933538;0.001662;
1051;547;0.072092;0.329666;0.999999;0.000284;-0.000742;0.001754;0.000186;0.001768;-0.000756;85.757624;0.001774;
1251;507;-0.076951;0.264423;0.999999;0.000343;-0.000604;0.001598;-0.000152;0.001609;-0.000615;-86.066996;0.001624;
1046;692;0.227241;0.800934;0.999996;0.000591;-0.002763;0.006861;0.001536;0.007100;-0.003002;81.146166;0.007128;
1221;657;-0.137688;0.605774;0.999997;0.000531;-0.001705;0.004366;-0.000940;0.004508;-0.001848;-81.394484;0.004533;
1131;1432;0.008822;83.951252;0.999978;0.001564;-0.010536;0.024275;-0.000099;0.024275;-0.010536;-89.836887;0.024345;
1246;1787;-0.056732;86.224556;1.000000;0.000165;-0.000511;0.001545;0.000116;0.001551;-0.000517;86.789257;0.001580;
1051;1762;0.047715;86.189696;1.000000;0.000124;-0.000577;0.001592;-0.000094;0.001596;-0.000581;-87.535462;0.001616;
1031;817;1.167494;2.604721;0.999963;0.002031;-0.011546;0.025292;0.005437;0.026078;-0.012331;81.777150;0.026090;
1026;822;1.286979;2.740229;0.999959;0.001845;-0.012085;0.026665;0.005947;0.027557;-0.012977;81.468159;0.027573;
1151;1257;-0.846088;74.276424;0.999475;0.005491;-0.047699;0.115000;0.001902;0.115022;-0.047722;89.330447;0.115576;
1186;1492;-0.295012;85.029443;0.999987;0.000879;-0.005631;0.013561;0.001634;0.013699;-0.005769;85.167216;0.013756;
1051;552;0.073915;0.336492;0.999998;0.000316;-0.000756;0.001793;0.000196;0.001808;-0.000771;85.638970;0.001814;
1061;557;0.068034;0.345344;0.999998;0.000380;-0.000814;0.001885;0.000193;0.001899;-0.000828;85.927868;0.001904;
1056;1847;0.021106;86.319274;0.999999;0.000189;-0.000286;0.001433;-0.000123;0.001441;-0.000295;-85.935972;0.001523;
1056;662;0.137108;0.633254;0.999997;0.000501;-0.001835;0.004627;0.000907;0.004751;-0.001960;82.161968;0.004776;
1036;817;1.110379;2.606129;0.999960;0.002005;-0.011540;0.025377;0.005175;0.026088;-0.012252;82.168626;0.026105;
1136;1432;-0.041724;83.950777;0.999976;0.001368;-0.010476;0.024242;0.000139;0.024242;-0.010476;89.770597;0.024316;
1251;1787;-0.059352;86.224202;1.000000;0.000143;-0.000508;0.001543;0.000116;0.001550;-0.000514;86.779502;0.001579;
1051;1767;0.046473;86.198123;1.000000;0.000118;-0.000563;0.001582;-0.000093;0.001586;-0.000567;-87.533259;0.001607;
1221;662;-0.147122;0.629985;0.999997;0.000529;-0.001829;0.004672;-0.001014;0.004826;-0.001983;-81.333037;0.004852;
1031;822;1.221918;2.741622;0.999959;0.002137;-0.012100;0.026726;0.005670;0.027537;-0.012911;81.859732;0.027555;
1131;1257;0.115884;74.271949;0.999620;0.005763;-0.046841;0.113448;-0.000667;0.113450;-0.046844;-89.761569;0.114023;
1311;487;-0.099999;0.239903;0.999999;0.000297;-0.000523;0.001349;-0.000131;0.001358;-0.000532;-86.016461;0.001369;
1196;552;-0.055735;0.336884;0.999999;0.000424;-0.000835;0.001873;-0.000160;0.001883;-0.000845;-86.625768;0.001886;
1021;817;1.268270;2.616928;0.999172;0.006941;-0.011504;0.024983;0.005929;0.025922;-0.012443;80.998443;0.025929;
1226;1507;-0.433610;85.206890;0.999987;0.001217;-0.004898;0.011552;0.002548;0.011938;-0.005283;81.393005;0.011964;
1061;1847;0.019620;86.319605;1.000000;0.000217;-0.000283;0.001431;-0.000116;0.001438;-0.000291;-86.150385;0.001521;
1141;1432;-0.091768;83.950979;0.999974;0.001146;-0.010438;0.024222;0.000365;0.024226;-0.010442;89.396996;0.024302;
1256;1787;-0.062041;86.223359;1.000000;0.000145;-0.000503;0.001541;0.000116;0.001547;-0.000510;86.759281;0.001577;
1051;1772;0.045402;86.206120;1.000000;0.000119;-0.000550;0.001571;-0.000093;0.001575;-0.000554;-87.497180;0.001598;
1046;597;0.095772;0.424849;0.999997;0.000376;-0.000914;0.002245;0.000360;0.002286;-0.000954;83.580461;0.002296;
1266;597;-0.125832;0.408906;0.999996;0.000576;-0.000658;0.001948;-0.000504;0.002043;-0.000752;-79.423565;0.002066;
1096;807;0.393974;2.359375;0.999963;0.001723;-0.010264;0.023474;0.001832;0.023574;-0.010363;86.901010;0.023631;
1221;1252;-4.610270;73.123593;0.999444;0.006698;-0.055169;0.133224;0.013070;0.134126;-0.056071;86.050283;0.134725;
1061;597;0.082726;0.430385;0.999997;0.000425;-0.000980;0.002340;0.000307;0.002368;-0.001008;84.762678;0.002377;
1061;622;0.093824;0.493876;0.999996;0.000601;-0.001162;0.002856;0.000439;0.002903;-0.001209;83.840474;0.002917;
1186;542;-0.044519;0.317796;0.999999;0.000275;-0.000821;0.001824;-0.000124;0.001830;-0.000827;-87.314212;0.001833;
1046;1492;0.480950;85.041262;0.999989;0.001000;-0.005715;0.013359;-0.002775;0.013755;-0.006110;-81.886971;0.013783;
1186;827;-0.627452;2.848345;0.999958;0.001756;-0.012340;0.028039;-0.002905;0.028247;-0.012548;-85.906540;0.028306;
1126;1432;0.061638;83.951218;0.999976;0.001479;-0.010581;0.024327;-0.000343;0.024330;-0.010585;-89.437853;0.024399;
961;1882;0.029755;86.356788;0.999999;0.000282;-0.000398;0.001631;-0.000247;0.001661;-0.000428;-83.155660;0.001725;
1286;1692;-0.117362;86.075369;1.000000;0.000141;-0.000446;0.001525;0.000271;0.001562;-0.000482;82.308904;0.001600;
1066;1777;0.035699;86.214833;1.000000;0.000137;-0.000532;0.001563;-0.000079;0.001566;-0.000535;-87.840550;0.001591;
1251;627;-0.138889;0.486526;0.999997;0.000479;-0.001097;0.002982;-0.000793;0.003131;-0.001245;-79.378776;0.003153;
1096;812;0.410697;2.481601;0.999968;0.001912;-0.010782;0.024635;0.001896;0.024736;-0.010883;86.944564;0.024795;
1126;1257;0.353838;74.264466;0.999540;0.006101;-0.046821;0.113182;-0.001301;0.113193;-0.046831;-89.534109;0.113753;
1056;612;0.092631;0.465084;0.999997;0.000624;-0.001060;0.002571;0.000397;0.002614;-0.001103;83.828742;0.002625;
1066;622;0.086482;0.495958;0.999997;0.000496;-0.001175;0.002865;0.000404;0.002905;-0.001215;84.342444;0.002918;
1176;542;-0.035972;0.317505;0.999999;0.000275;-0.000847;0.001849;-0.000101;0.001853;-0.000851;-87.854512;0.001855;
1046;1497;0.451910;85.102188;0.999991;0.000918;-0.005385;0.012636;-0.002648;0.013017;-0.005767;-81.811277;0.013045;
1191;827;-0.682777;2.849466;0.999964;0.002101;-0.012393;0.028045;-0.003181;0.028294;-0.012641;-85.530009;0.028347;
961;1887;0.025378;86.366110;0.999999;0.000251;-0.000361;0.001643;-0.000267;0.001678;-0.000396;-82.543408;0.001754;
1116;1432;0.169219;83.951315;0.999974;0.001664;-0.010647;0.024408;-0.000836;0.024428;-0.010667;-88.634950;0.024493;
1286;1697;-0.115250;86.082543;1.000000;0.000132;-0.000456;0.001519;0.000251;0.001550;-0.000487;82.864586;0.001586;
1066;1782;0.034473;86.222765;1.000000;0.000141;-0.000516;0.001553;-0.000080;0.001556;-0.000519;-87.788123;0.001585;
1246;617;-0.126651;0.461051;0.999997;0.000529;-0.000958;0.002611;-0.000624;0.002717;-0.001063;-80.367694;0.002738;
1201;817;-0.742706;2.598710;0.999960;0.001607;-0.011357;0.025577;-0.003494;0.025905;-0.011684;-84.642536;0.025946;
1191;1267;-2.590416;75.072943;0.999398;0.006533;-0.046347;0.109303;0.006908;0.109609;-0.046653;87.463798;0.110012;
976;567;0.125432;0.355990;0.999996;0.000529;-0.000443;0.001519;0.000355;0.001581;-0.000505;80.064378;0.001616;
1071;622;0.080662;0.497389;0.999996;0.000416;-0.001190;0.002873;0.000369;0.002906;-0.001223;84.848413;0.002918;
961;1892;0.020580;86.373947;0.999999;0.000200;-0.000316;0.001642;-0.000297;0.001686;-0.000360;-81.552208;0.001776;
1196;827;-0.748953;2.850880;0.999962;0.002307;-0.012455;0.028048;-0.003470;0.028343;-0.012750;-85.138348;0.028390;
1046;1502;0.423967;85.164294;0.999988;0.000996;-0.005070;0.011963;-0.002523;0.012329;-0.005436;-81.749921;0.012357;
1301;497;-0.100982;0.253125;0.999999;0.000291;-0.000521;0.001389;-0.000160;0.001402;-0.000534;-85.232002;0.001416;
1121;1432;0.113973;83.951574;0.999976;0.001397;-0.010611;0.024374;-0.000578;0.024384;-0.010621;-89.054241;0.024451;
1286;1702;-0.112896;86.090138;1.000000;0.000143;-0.000475;0.001508;0.000242;0.001537;-0.000504;83.131002;0.001567;
1066;1787;0.033506;86.230841;1.000000;0.000107;-0.000500;0.001545;-0.000082;0.001549;-0.000503;-87.712154;0.001580;
1246;622;-0.130395;0.474147;0.999997;0.000557;-0.001026;0.002790;-0.000686;0.002909;-0.001145;-80.105029;0.002931;
1201;822;-0.779290;2.727285;0.999962;0.001613;-0.011914;0.026817;-0.003615;0.027152;-0.012249;-84.712741;0.027195;
1051;597;0.091208;0.427187;0.999997;0.000321;-0.000939;0.002280;0.000343;0.002316;-0.000975;83.980811;0.002326;
1141;1282;-0.311702;76.635280;0.999494;0.006600;-0.038106;0.089494;0.000733;0.089498;-0.038111;89.670662;0.089825;
1051;622;0.102903;0.490801;0.999996;0.000620;-0.001135;0.002840;0.000504;0.002902;-0.001198;82.889027;0.002917;
1181;822;-0.539950;2.714767;0.999957;0.001790;-0.011719;0.026794;-0.002518;0.026958;-0.011883;-86.275669;0.027021;
1301;502;-0.103296;0.259269;0.999999;0.000249;-0.000520;0.001394;-0.000170;0.001409;-0.000535;-84.956895;0.001423;
1051;1487;0.478757;84.973566;0.999991;0.000988;-0.006039;0.014118;-0.002756;0.014488;-0.006409;-82.353389;0.014520;
1146;1432;-0.143242;83.949824;0.999976;0.001405;-0.010427;0.024213;0.000585;0.024223;-0.010437;89.032989;0.024300;
1191;1617;-0.076350;85.897380;0.999999;0.000242;-0.001260;0.003032;0.000366;0.003063;-0.001291;85.154646;0.003076;
1256;1762;-0.071705;86.184832;0.999999;0.000153;-0.000558;0.001557;0.000130;0.001565;-0.000566;86.496925;0.001585;
1301;547;-0.119530;0.322251;0.999997;0.000403;-0.000450;0.001454;-0.000264;0.001490;-0.000486;-82.238195;0.001520;
1201;827;-0.814582;2.856425;0.999959;0.001955;-0.012493;0.028054;-0.003753;0.028399;-0.012838;-84.755587;0.028442;
1056;1717;0.058486;86.117365;1.000000;0.000095;-0.000691;0.001681;-0.000134;0.001688;-0.000698;-86.785892;0.001697;
1051;602;0.093172;0.438488;0.999998;0.000412;-0.000970;0.002345;0.000365;0.002385;-0.001010;83.789145;0.002394;
1146;1282;-0.496315;76.637586;0.999483;0.006226;-0.038279;0.089613;0.001269;0.089626;-0.038291;89.431357;0.089942;
1056;622;0.098117;0.492005;0.999995;0.000644;-0.001148;0.002848;0.000471;0.002902;-0.001203;83.368432;0.002916;
1301;507;-0.105299;0.266842;0.999999;0.000277;-0.000517;0.001391;-0.000183;0.001408;-0.000534;-84.580004;0.001422;
1056;1487;0.448265;84.974000;0.999990;0.000965;-0.006043;0.014136;-0.002591;0.014463;-0.006371;-82.798737;0.014497;
1216;797;-0.745946;2.139190;0.999968;0.001249;-0.009409;0.021233;-0.003725;0.021680;-0.009856;-83.167289;0.021709;
1151;1432;-0.198238;83.949939;0.999976;0.001633;-0.010413;0.024216;0.000807;0.024235;-0.010432;88.665317;0.024313;
1191;1622;-0.074227;85.911743;0.999999;0.000209;-0.001212;0.002896;0.000340;0.002924;-0.001240;85.302937;0.002936;
1266;1707;-0.099857;86.096410;1.000000;0.000187;-0.000588;0.001596;0.000222;0.001619;-0.000611;84.249621;0.001635;
1201;807;-0.672154;2.351887;0.999960;0.001479;-0.010291;0.023338;-0.003249;0.023649;-0.010602;-84.531657;0.023691;
1061;1717;0.054976;86.117847;1.000000;0.000108;-0.000703;0.001691;-0.000130;0.001698;-0.000710;-86.909311;0.001705;
1106;617;0.037672;0.490629;0.999997;0.000490;-0.001248;0.002826;0.000155;0.002832;-0.001254;87.826829;0.002838;
1051;607;0.095528;0.449998;0.999997;0.000520;-0.001004;0.002438;0.000391;0.002482;-0.001048;83.599746;0.002492;
1186;1267;-2.360244;75.107910;0.999398;0.006966;-0.045968;0.108537;0.006228;0.108787;-0.046219;87.695397;0.109196;
1291;512;-0.102277;0.273162;0.999998;0.000310;-0.000511;0.001450;-0.000203;0.001471;-0.000532;-84.166675;0.001490;
1061;1487;0.421575;84.974898;0.999991;0.000958;-0.006033;0.014152;-0.002420;0.014438;-0.006319;-83.258958;0.014476;
1211;797;-0.701234;2.142429;0.999968;0.001517;-0.009375;0.021244;-0.003495;0.021637;-0.009769;-83.569825;0.021671;
1131;712;0.013975;0.940312;0.999996;0.000512;-0.003324;0.008309;0.000082;0.008309;-0.003324;89.596299;0.008365;
1111;1432;0.222571;83.951655;0.999969;0.001619;-0.010652;0.024423;-0.001099;0.024457;-0.010687;-88.207689;0.024522;
1191;1627;-0.072274;85.924837;0.999999;0.000172;-0.001170;0.002777;0.000316;0.002802;-0.001195;85.454062;0.002812;
1266;1727;-0.091459;86.128390;1.000000;0.000162;-0.000588;0.001574;0.000186;0.001590;-0.000604;85.122125;0.001605;
1206;807;-0.721075;2.351032;0.999964;0.001444;-0.010325;0.023344;-0.003505;0.023705;-0.010686;-84.119717;0.023744;
1056;627;0.100379;0.504313;0.999995;0.000583;-0.001204;0.003006;0.000509;0.003066;-0.001264;83.207002;0.003082;
1061;592;0.081269;0.418882;0.999997;0.000479;-0.000958;0.002258;0.000287;0.002283;-0.000983;84.939083;0.002290;
1136;1252;-0.110897;73.776311;0.999631;0.004666;-0.048971;0.119398;0.000031;0.119398;-0.048971;89.989539;0.120039;
1196;1722;-0.047753;86.125976;1.000000;0.000140;-0.000711;0.001686;0.000112;0.001691;-0.000716;87.336319;0.001698;
1296;512;-0.105201;0.273775;0.999999;0.000363;-0.000519;0.001416;-0.000197;0.001436;-0.000539;-84.236588;0.001451;
1066;1487;0.388373;84.977618;0.999988;0.001166;-0.006016;0.014159;-0.002244;0.014406;-0.006263;-83.729616;0.014446;
1101;802;0.327588;2.240958;0.999956;0.001938;-0.009773;0.022422;0.001543;0.022495;-0.009846;87.262239;0.022553;
1041;687;0.224894;0.767479;0.999996;0.000655;-0.002610;0.006501;0.001529;0.006751;-0.002860;80.721658;0.006777;
1156;1422;-0.265289;83.701849;0.999970;0.002010;-0.011548;0.026653;0.001145;0.026687;-0.011582;88.284202;0.026765;
1266;1732;-0.089503;86.136864;1.000000;0.000172;-0.000585;0.001569;0.000177;0.001584;-0.000600;85.344173;0.001599;
1201;812;-0.707218;2.472782;0.999961;0.001652;-0.010809;0.024412;-0.003372;0.024732;-0.011128;-84.580643;0.024773;
1061;627;0.094949;0.505390;0.999996;0.000594;-0.001215;0.003007;0.000472;0.003059;-0.001267;83.692957;0.003074;
971;1787;0.080931;86.215677;0.999999;0.000232;-0.000491;0.001444;-0.000065;0.001446;-0.000493;-88.064497;0.001470;
1286;587;-0.130808;0.386907;0.999997;0.000360;-0.000524;0.001639;-0.000469;0.001736;-0.000621;-78.273104;0.001759;
1141;1252;-0.351424;73.756320;0.999593;0.006444;-0.049183;0.119783;0.000634;0.119786;-0.049186;89.784984;0.120422;
1301;512;-0.107711;0.274554;0.999999;0.000329;-0.000515;0.001381;-0.000198;0.001401;-0.000535;-84.102232;0.001414;
1231;832;-1.249468;2.998204;0.999952;0.002091;-0.013312;0.029186;-0.005751;0.029951;-0.014076;-82.428237;0.029969;
1046;1487;0.507267;84.973337;0.999990;0.001003;-0.006060;0.014106;-0.002909;0.014517;-0.006471;-81.952137;0.014546;
1071;1697;0.054590;86.083785;1.000000;0.000105;-0.000802;0.001836;-0.000153;0.001845;-0.000811;-86.688492;0.001850;
1041;607;0.105049;0.446526;0.999997;0.000451;-0.000949;0.002384;0.000436;0.002440;-0.001005;82.664621;0.002453;
1156;1427;-0.255304;83.829036;0.999974;0.001345;-0.010963;0.025405;0.001083;0.025437;-0.010995;88.295422;0.025515;
1266;1737;-0.087660;86.144534;0.999999;0.000192;-0.000582;0.001562;0.000168;0.001576;-0.000595;85.550866;0.001591;
1096;817;0.434619;2.604477;0.999966;0.001890;-0.011310;0.025838;0.001968;0.025942;-0.011414;86.975865;0.026004;
1066;627;0.087669;0.506929;0.999997;0.000510;-0.001227;0.003012;0.000434;0.003056;-0.001271;84.211447;0.003070;
1071;627;0.082641;0.509118;0.999997;0.000434;-0.001241;0.003014;0.000396;0.003051;-0.001278;84.722659;0.003064;
1146;1252;-0.625427;73.735153;0.999455;0.006785;-0.049481;0.120248;0.001250;0.120258;-0.049491;89.578233;0.120883;
1236;832;-1.317061;2.998689;0.999950;0.002959;-0.013313;0.029075;-0.006060;0.029924;-0.014162;-82.021625;0.029938;
1056;1852;0.019687;86.326476;0.999999;0.000213;-0.000265;0.001418;-0.000127;0.001427;-0.000275;-85.698373;0.001515;
1301;492;-0.098209;0.245552;0.999999;0.000321;-0.000518;0.001391;-0.000149;0.001402;-0.000530;-85.575974;0.001416;
1156;1432;-0.246660;83.951939;0.999975;0.001314;-0.010404;0.024215;0.001034;0.024246;-0.010435;88.290725;0.024324;
1171;1662;-0.042081;86.009457;1.000000;0.000122;-0.001047;0.002297;0.000138;0.002303;-0.001053;87.640939;0.002306;
1041;612;0.107625;0.458177;0.999997;0.000354;-0.000990;0.002511;0.000472;0.002574;-0.001053;82.448996;0.002588;
1231;1507;-0.455880;85.203970;0.999989;0.001295;-0.004918;0.011568;0.002674;0.011991;-0.005341;81.013931;0.012015;
1101;807;0.343581;2.361439;0.999956;0.001592;-0.010256;0.023497;0.001596;0.023572;-0.010331;87.299074;0.023632;
1306;487;-0.098147;0.238776;0.999999;0.000302;-0.000516;0.001375;-0.000137;0.001385;-0.000526;-85.890694;0.001399;
1201;977;-2.967010;11.334217;0.999427;0.005385;-0.045531;0.107255;-0.008408;0.107717;-0.045993;-86.859626;0.108099;
1241;832;-1.385502;3.002750;0.999944;0.002387;-0.013299;0.028889;-0.006368;0.029830;-0.014240;-81.600854;0.029840;
1071;632;0.084045;0.525003;0.999997;0.000546;-0.001299;0.003165;0.000431;0.003207;-0.001341;84.534944;0.003221;
1286;592;-0.133936;0.394535;0.999997;0.000375;-0.000555;0.001702;-0.000525;0.001818;-0.000671;-77.529296;0.001839;
1306;512;-0.109684;0.275348;0.999999;0.000296;-0.000511;0.001341;-0.000194;0.001362;-0.000531;-84.077937;0.001372;
1101;812;0.359046;2.481636;0.999959;0.001603;-0.010772;0.024669;0.001650;0.024746;-0.010849;87.340223;0.024808;
1246;532;-0.083373;0.304532;0.999999;0.000385;-0.000632;0.001629;-0.000191;0.001645;-0.000648;-85.204891;0.001657;
1041;617;0.110335;0.472207;0.999997;0.000392;-0.001038;0.002656;0.000515;0.002727;-0.001108;82.212709;0.002742;
1061;522;0.055049;0.285592;0.999998;0.000434;-0.000696;0.001678;0.000122;0.001685;-0.000703;87.055495;0.001692;
1291;592;-0.137441;0.393494;0.999996;0.000503;-0.000529;0.001662;-0.000539;0.001788;-0.000654;-76.891579;0.001809;
1306;497;-0.103377;0.253105;0.999999;0.000323;-0.000522;0.001359;-0.000157;0.001372;-0.000535;-85.260000;0.001383;
1141;837;-0.082661;3.147207;0.999962;0.002023;-0.013374;0.030545;-0.000485;0.030550;-0.013380;-89.367877;0.030628;
1131;1252;0.129662;73.748800;0.999601;0.005710;-0.048863;0.119056;-0.000560;0.119058;-0.048865;-89.809040;0.119693;
1056;967;3.253178;10.466918;0.999459;0.006791;-0.043119;0.100768;0.009907;0.101447;-0.043798;86.079878;0.101762;
1236;662;-0.173836;0.625290;0.999996;0.000425;-0.001867;0.004811;-0.001211;0.005024;-0.002080;-80.031034;0.005048;
1101;817;0.376978;2.602108;0.999958;0.002341;-0.011300;0.025866;0.001710;0.025945;-0.011378;87.371639;0.026010;
1126;1437;0.057957;84.066956;0.999973;0.001232;-0.010068;0.023200;-0.000333;0.023204;-0.010071;-89.427112;0.023271;
1291;507;-0.099665;0.265600;0.999999;0.000314;-0.000510;0.001456;-0.000188;0.001473;-0.000528;-84.587907;0.001493;
1136;837;-0.018413;3.154295;0.999956;0.001630;-0.013391;0.030539;-0.000199;0.030540;-0.013392;-89.740563;0.030617;
981;562;0.121712;0.351090;0.999996;0.000519;-0.000464;0.001532;0.000331;0.001585;-0.000518;80.836462;0.001617;
1126;1252;0.371594;73.726101;0.999492;0.006641;-0.048833;0.118752;-0.001172;0.118761;-0.048841;-89.599351;0.119382;
1241;662;-0.183477;0.624164;0.999997;0.000451;-0.001883;0.004855;-0.001280;0.005090;-0.002117;-79.601024;0.005114;
1211;677;-0.155307;0.705161;0.999997;0.000608;-0.002218;0.005596;-0.001097;0.005747;-0.002369;-82.159804;0.005776;
1006;517;0.089442;0.281806;0.999999;0.000276;-0.000594;0.001592;0.000177;0.001606;-0.000608;85.409041;0.001622;
1131;1437;0.009809;84.068460;0.999975;0.001476;-0.010024;0.023153;-0.000104;0.023154;-0.010024;-89.819882;0.023223;
1206;812;-0.756456;2.470371;0.999964;0.001633;-0.010845;0.024413;-0.003639;0.024784;-0.011217;-84.168074;0.024822;
1181;977;-2.059030;11.260740;0.999479;0.006025;-0.044338;0.105301;-0.005656;0.105515;-0.044552;-87.838326;0.105939;
971;477;0.090691;0.224925;0.999999;0.000294;-0.000624;0.001433;0.000062;0.001435;-0.000626;88.278730;0.001439;
1151;1252;-0.893957;73.707976;0.999388;0.005950;-0.049750;0.120773;0.001862;0.120793;-0.049771;89.374529;0.121415;
1041;822;1.105879;2.736401;0.999956;0.001884;-0.012088;0.026792;0.005098;0.027449;-0.012745;82.653246;0.027472;
1246;662;-0.193061;0.625122;0.999997;0.000458;-0.001891;0.004895;-0.001349;0.005154;-0.002149;-79.155712;0.005177;
1221;652;-0.130406;0.584812;0.999997;0.000448;-0.001593;0.004068;-0.000868;0.004198;-0.001723;-81.471479;0.004221;
1136;1437;-0.039924;84.070762;0.999974;0.001380;-0.009968;0.023120;0.000121;0.023120;-0.009968;89.789979;0.023193;
1191;542;-0.048385;0.317809;0.999999;0.000305;-0.000807;0.001809;-0.000135;0.001816;-0.000814;-87.056120;0.001819;
1011;517;0.086456;0.281475;0.999999;0.000289;-0.000603;0.001605;0.000174;0.001619;-0.000617;85.513607;0.001634;
1221;832;-1.118312;2.993451;0.999958;0.001762;-0.013264;0.029282;-0.005131;0.029892;-0.013874;-83.219975;0.029917;
1186;977;-2.286341;11.278846;0.999375;0.005318;-0.044579;0.105745;-0.006221;0.106002;-0.044836;-87.634137;0.106421;
1056;527;0.060856;0.294671;0.999998;0.000426;-0.000699;0.001683;0.000140;0.001691;-0.000707;86.653433;0.001699;
1121;1252;0.619392;73.717534;0.999343;0.005746;-0.048808;0.118559;-0.001791;0.118578;-0.048827;-89.387015;0.119192;
1036;607;0.110000;0.444962;0.999997;0.000512;-0.000916;0.002357;0.000458;0.002420;-0.000979;82.181154;0.002435;
1226;652;-0.138718;0.583300;0.999997;0.000611;-0.001598;0.004105;-0.000926;0.004252;-0.001745;-81.007974;0.004274;
1096;822;0.456132;2.723142;0.999966;0.002048;-0.011844;0.026928;0.002037;0.027035;-0.011951;87.000211;0.027095;
1121;1437;0.108124;84.066262;0.999973;0.001263;-0.010108;0.023244;-0.000552;0.023253;-0.010117;-89.052834;0.023318;
966;482;0.095526;0.234370;0.999998;0.000363;-0.000644;0.001400;0.000055;0.001401;-0.000645;88.470107;0.001402;
1206;967;-2.934456;10.397112;0.999463;0.006341;-0.042091;0.098258;-0.008868;0.098816;-0.042649;-86.398896;0.099123;
1181;827;-0.566871;2.849948;0.999959;0.001722;-0.012285;0.028027;-0.002629;0.028198;-0.012455;-86.284151;0.028261;
1056;532;0.062970;0.302597;0.999999;0.000339;-0.000713;0.001700;0.000150;0.001709;-0.000722;86.465118;0.001716;
1216;677;-0.166795;0.705335;0.999997;0.000545;-0.002233;0.005641;-0.001173;0.005812;-0.002404;-81.705357;0.005841;
976;482;0.090652;0.231248;0.999999;0.000270;-0.000490;0.001453;0.000129;0.001461;-0.000498;86.225352;0.001485;
1121;1257;0.592452;74.257438;0.999391;0.006087;-0.046787;0.113032;-0.001930;0.113055;-0.046811;-89.308123;0.113611;
1036;612;0.112192;0.456437;0.999997;0.000392;-0.000960;0.002491;0.000498;0.002562;-0.001030;81.953419;0.002578;
1141;1437;-0.087568;84.071224;0.999975;0.001253;-0.009929;0.023103;0.000338;0.023107;-0.009933;89.413087;0.023183;
1101;822;0.395086;2.723597;0.999962;0.002648;-0.011829;0.026946;0.001762;0.027026;-0.011909;87.403220;0.027089;
1046;657;0.147689;0.607958;0.999997;0.000612;-0.001722;0.004425;0.000967;0.004573;-0.001871;81.266394;0.004599;
1056;537;0.064770;0.311463;0.999999;0.000312;-0.000728;0.001722;0.000160;0.001733;-0.000739;86.282101;0.001739;
1186;832;-0.660611;2.989555;0.999955;0.002054;-0.012940;0.029314;-0.003019;0.029528;-0.013154;-85.933089;0.029587;
1236;542;-0.081820;0.320549;0.999998;0.000375;-0.000668;0.001676;-0.000200;0.001692;-0.000685;-85.166851;0.001703;
1156;982;-0.989025;11.678016;0.999415;0.006730;-0.045368;0.109131;-0.002715;0.109179;-0.045415;-88.993526;0.109691;
1216;682;-0.178600;0.735780;0.999997;0.000443;-0.002395;0.006017;-0.001251;0.006200;-0.002577;-81.717598;0.006229;
1031;602;0.112698;0.431315;0.999997;0.000765;-0.000847;0.002221;0.000438;0.002282;-0.000908;82.024436;0.002298;
1106;812;0.303806;2.482211;0.999961;0.001822;-0.010763;0.024697;0.001400;0.024752;-0.010818;87.743380;0.024818;
1146;1437;-0.138679;84.069634;0.999980;0.001296;-0.009914;0.023094;0.000552;0.023103;-0.009923;89.041352;0.023180;
1191;1262;-2.702915;74.577071;0.999168;0.006973;-0.048479;0.115029;0.007010;0.115329;-0.048779;87.549442;0.115784;
1291;582;-0.130517;0.377612;0.999997;0.000407;-0.000486;0.001594;-0.000421;0.001676;-0.000567;-78.985634;0.001705;
1061;527;0.057550;0.294165;0.999998;0.000482;-0.000710;0.001692;0.000133;0.001700;-0.000717;86.828998;0.001707;
1161;982;-1.216486;11.690089;0.999348;0.006728;-0.045484;0.109286;-0.003319;0.109357;-0.045555;-88.772098;0.109863;
1091;827;0.535207;2.858866;0.999950;0.001664;-0.012414;0.027996;0.002386;0.028136;-0.012554;86.632643;0.028191;
1166;547;-0.028014;0.326526;0.999999;0.000305;-0.000891;0.001914;-0.000083;0.001917;-0.000893;-88.303951;0.001918;
1226;1252;-4.911843;73.050008;0.999160;0.008668;-0.055261;0.134185;0.014280;0.135255;-0.056331;85.713593;0.135882;
1291;587;-0.132891;0.385230;0.999997;0.000439;-0.000500;0.001613;-0.000478;0.001715;-0.000603;-77.836854;0.001740;
1151;1437;-0.193705;84.070331;0.999981;0.001649;-0.009899;0.023097;0.000771;0.023115;-0.009917;88.661346;0.023193;
1106;817;0.317620;2.600897;0.999962;0.002286;-0.011288;0.025886;0.001449;0.025943;-0.011344;87.771439;0.026011;
1216;687;-0.190967;0.764908;0.999997;0.000365;-0.002561;0.006404;-0.001327;0.006596;-0.002754;-81.757427;0.006626;
1186;697;-0.134801;0.830758;0.999996;0.000603;-0.002806;0.007024;-0.000937;0.007112;-0.002895;-84.602717;0.007153;
966;477;0.093504;0.226700;0.999999;0.000292;-0.000648;0.001412;0.000047;0.001413;-0.000649;88.695627;0.001415;
1126;967;0.343310;10.170256;0.999387;0.007925;-0.039983;0.094628;0.000920;0.094634;-0.039989;89.608437;0.095012;
1276;592;-0.129208;0.398204;0.999996;0.000499;-0.000592;0.001788;-0.000486;0.001883;-0.000688;-78.884102;0.001906;
1096;827;0.477865;2.858378;0.999958;0.002242;-0.012394;0.027989;0.002104;0.028099;-0.012504;87.025501;0.028155;
1206;1247;-3.968574;72.654483;0.999361;0.007150;-0.056679;0.137071;0.010386;0.137627;-0.057235;86.940207;0.138274;
1156;1437;-0.241571;84.072197;0.999978;0.001407;-0.009890;0.023100;0.000997;0.023131;-0.009920;88.271005;0.023208;
1106;822;0.328447;2.724006;0.999962;0.002250;-0.011813;0.026958;0.001487;0.027015;-0.011870;87.806126;0.027081;
1031;607;0.115341;0.443229;0.999997;0.000667;-0.000886;0.002332;0.000480;0.002402;-0.000956;81.691594;0.002419;
981;557;0.119118;0.342797;0.999997;0.000569;-0.000475;0.001532;0.000310;0.001579;-0.000522;81.416228;0.001609;
1251;667;-0.215289;0.647102;0.999997;0.000407;-0.002044;0.005251;-0.001518;0.005555;-0.002348;-78.705739;0.005577;
1251;522;-0.082360;0.287160;0.999999;0.000289;-0.000618;0.001609;-0.000180;0.001623;-0.000633;-85.419345;0.001636;
1211;1247;-4.251810;72.596953;0.999481;0.005408;-0.056937;0.138028;0.011434;0.138696;-0.057605;86.655042;0.139357;
1206;972;-3.067682;10.864196;0.999453;0.006180;-0.043847;0.102876;-0.009104;0.103439;-0.044410;-86.462827;0.103783;
1116;1437;0.159743;84.065753;0.999972;0.001565;-0.010148;0.023280;-0.000793;0.023299;-0.010167;-88.642383;0.023361;
1191;687;-0.129575;0.764121;0.999997;0.000580;-0.002476;0.006166;-0.000902;0.006259;-0.002569;-84.103249;0.006293;
1226;832;-1.181322;2.996377;0.999953;0.001566;-0.013277;0.029246;-0.005442;0.029931;-0.013962;-82.821066;0.029954;
1101;827;0.411463;2.860263;0.999953;0.002658;-0.012368;0.027997;0.001814;0.028078;-0.012449;87.431823;0.028138;
1031;612;0.117474;0.455366;0.999997;0.000543;-0.000932;0.002474;0.000525;0.002553;-0.001011;81.434240;0.002572;
1211;682;-0.166999;0.735969;0.999997;0.000475;-0.002378;0.005970;-0.001169;0.006131;-0.002539;-82.176733;0.006161;
1251;527;-0.084793;0.296118;0.999999;0.000307;-0.000620;0.001613;-0.000189;0.001629;-0.000636;-85.204205;0.001642;
1256;667;-0.226063;0.644773;0.999997;0.000481;-0.002036;0.005273;-0.001584;0.005602;-0.002365;-78.283870;0.005624;
1221;962;-3.443821;10.058680;0.999373;0.007553;-0.041126;0.096083;-0.010869;0.096939;-0.041981;-85.498824;0.097228;
1131;1247;0.143866;73.177117;0.999553;0.004632;-0.050991;0.124818;-0.000421;0.124819;-0.050992;-89.862760;0.125513;
1191;832;-0.720786;2.989749;0.999960;0.001906;-0.012988;0.029324;-0.003303;0.029580;-0.013245;-85.562968;0.029634;
1161;1427;-0.308039;83.827675;0.999968;0.001921;-0.010986;0.025408;0.001316;0.025455;-0.011034;87.932244;0.025530;
1256;647;-0.177245;0.551533;0.999996;0.000674;-0.001478;0.004011;-0.001183;0.004255;-0.001722;-78.344005;0.004281;
1106;802;0.274987;2.241996;0.999958;0.001630;-0.009767;0.022423;0.001309;0.022476;-0.009820;87.675843;0.022535;
1211;687;-0.179198;0.764898;0.999997;0.000506;-0.002544;0.006355;-0.001240;0.006524;-0.002714;-82.212291;0.006555;
1226;962;-3.668347;10.085949;0.999442;0.006245;-0.041337;0.096860;-0.011617;0.097829;-0.042307;-85.228257;0.098127;
1251;532;-0.086794;0.304938;0.999999;0.000373;-0.000622;0.001616;-0.000197;0.001633;-0.000639;-85.018364;0.001646;
1006;497;0.080918;0.249964;0.999999;0.000324;-0.000573;0.001563;0.000156;0.001574;-0.000585;85.858080;0.001591;
1136;1247;-0.110970;73.160774;0.999462;0.005695;-0.051102;0.125241;0.000121;0.125242;-0.051102;89.960544;0.125946;
1261;657;-0.205618;0.592616;0.999997;0.000627;-0.001724;0.004626;-0.001434;0.004934;-0.002033;-77.845293;0.004960;
1196;832;-0.786276;2.993328;0.999961;0.002066;-0.013053;0.029332;-0.003603;0.029636;-0.013357;-85.175363;0.029684;
1161;1432;-0.297780;83.954915;0.999970;0.001474;-0.010428;0.024225;0.001260;0.024271;-0.010474;87.920712;0.024347;
1211;832;-0.981695;2.998310;0.999957;0.001907;-0.013233;0.029391;-0.004521;0.029866;-0.013707;-84.011101;0.029899;
1251;662;-0.201742;0.623763;0.999997;0.000350;-0.001892;0.004922;-0.001418;0.005205;-0.002176;-78.703253;0.005229;
1061;1852;0.018462;86.327120;1.000000;0.000249;-0.000263;0.001416;-0.000120;0.001424;-0.000271;-85.938575;0.001512;
1211;962;-3.025648;9.989918;0.999442;0.006394;-0.040644;0.094704;-0.009390;0.095353;-0.041292;-86.050191;0.095637;
1051;652;0.130798;0.590460;0.999998;0.000438;-0.001611;0.004126;0.000842;0.004247;-0.001732;81.821226;0.004271;
1141;1247;-0.373594;73.145054;0.999331;0.007111;-0.051322;0.125726;0.000676;0.125729;-0.051325;89.781310;0.126433;
1006;502;0.083474;0.257971;0.999999;0.000340;-0.000580;0.001567;0.000161;0.001579;-0.000592;85.727867;0.001596;
1036;822;1.164943;2.737229;0.999955;0.001867;-0.012102;0.026764;0.005388;0.027497;-0.012835;82.251405;0.027517;
1161;1437;-0.284413;84.074447;0.999976;0.001210;-0.009914;0.023120;0.001218;0.023165;-0.009959;87.891097;0.023241;
1216;832;-1.049134;2.997080;0.999959;0.001911;-0.013245;0.029350;-0.004851;0.029895;-0.013791;-83.584036;0.029925;
1261;662;-0.220878;0.619904;0.999997;0.000539;-0.001864;0.004939;-0.001548;0.005274;-0.002199;-77.761984;0.005299;
1256;652;-0.186365;0.571103;0.999997;0.000685;-0.001610;0.004317;-0.001279;0.004581;-0.001874;-78.328010;0.004606;
1216;962;-3.233263;10.022836;0.999469;0.008010;-0.040882;0.095360;-0.010132;0.096109;-0.041631;-85.769898;0.096395;
1266;657;-0.215224;0.591529;0.999997;0.000518;-0.001713;0.004640;-0.001499;0.004976;-0.002049;-77.367275;0.005002;
1126;1247;0.391993;73.174174;0.999461;0.005755;-0.050936;0.124448;-0.000989;0.124454;-0.050942;-89.677081;0.125134;
1211;1642;-0.088316;85.969480;0.999999;0.000171;-0.000988;0.002405;0.000342;0.002439;-0.001022;84.298582;0.002450;
1006;507;0.085863;0.266181;0.999999;0.000341;-0.000586;0.001575;0.000166;0.001588;-0.000599;85.632351;0.001603;
1146;1442;-0.134246;84.183980;0.999981;0.001405;-0.009425;0.022024;0.000522;0.022033;-0.009433;89.050075;0.022109;
1131;832;0.043511;3.007508;0.999943;0.002260;-0.012799;0.029196;0.000088;0.029197;-0.012799;89.879566;0.029270;
1171;832;-0.466799;2.998021;0.999946;0.001839;-0.012825;0.029278;-0.002157;0.029388;-0.012936;-87.074730;0.029458;
1256;657;-0.196654;0.593770;0.999997;0.000572;-0.001735;0.004621;-0.001378;0.004907;-0.002021;-78.280459;0.004933;
1261;667;-0.236036;0.643885;0.999997;0.000564;-0.002039;0.005303;-0.001658;0.005660;-0.002396;-77.844585;0.005682;
1136;972;-0.057922;10.651779;0.999499;0.005433;-0.041659;0.099010;-0.000185;0.099010;-0.041660;-89.924476;0.099424;
1266;662;-0.231015;0.617945;0.999997;0.000498;-0.001850;0.004944;-0.001620;0.005311;-0.002216;-77.250450;0.005335;
946;482;0.126872;0.247185;0.999804;0.003969;-0.000895;0.001270;-0.000111;0.001276;-0.000900;-87.063894;0.001311;
1061;1902;0.003354;86.394216;0.999999;0.000237;-0.000053;0.001328;-0.000127;0.001340;-0.000065;-84.809253;0.001511;
1146;1247;-0.655998;73.111952;0.999267;0.006608;-0.051635;0.126299;0.001244;0.126307;-0.051644;89.599399;0.127005;
1151;1442;-0.184211;84.181253;0.999977;0.001385;-0.009413;0.022028;0.000737;0.022045;-0.009430;88.658558;0.022122;
1256;662;-0.210951;0.620806;0.999997;0.000454;-0.001875;0.004942;-0.001480;0.005250;-0.002183;-78.265635;0.005274;
1176;822;-0.478130;2.711571;0.999956;0.001840;-0.011698;0.026772;-0.002243;0.026902;-0.011828;-86.673807;0.026968;
1136;842;-0.016497;3.301877;0.999952;0.001891;-0.014004;0.031943;-0.000219;0.031944;-0.014005;-89.727001;0.032025;
1266;667;-0.248111;0.643348;0.999997;0.000533;-0.002026;0.005322;-0.001732;0.005710;-0.002414;-77.379180;0.005732;
951;482;0.101827;0.237582;0.999999;0.000250;-0.000783;0.001309;-0.000044;0.001310;-0.000784;-88.802616;0.001319;
1216;1247;-4.525719;72.532668;0.999431;0.005834;-0.057225;0.138920;0.012512;0.139715;-0.058020;86.364677;0.140382;
1081;972;2.276898;10.765232;0.999369;0.006661;-0.043334;0.101920;0.006388;0.102200;-0.043615;87.486755;0.102565;
1246;567;-0.100592;0.361498;0.999997;0.000545;-0.000652;0.001710;-0.000278;0.001742;-0.000684;-83.380256;0.001755;
1156;1442;-0.230125;84.180281;0.999973;0.001277;-0.009406;0.022032;0.000955;0.022061;-0.009435;88.261102;0.022138;
1271;657;-0.223060;0.589864;0.999996;0.000499;-0.001694;0.004638;-0.001559;0.005001;-0.002057;-76.888004;0.005027;
1161;1867;-0.005010;86.348422;0.999999;0.000214;-0.000184;0.001361;0.000048;0.001362;-0.000186;88.209880;0.001477;
1041;662;0.163854;0.628774;0.999997;0.000523;-0.001850;0.004755;0.001107;0.004935;-0.002030;80.736289;0.004961;
1141;842;-0.081108;3.298554;0.999954;0.002004;-0.013983;0.031937;-0.000508;0.031943;-0.013988;-89.366616;0.032025;
1251;622;-0.135513;0.472576;0.999997;0.000520;-0.001017;0.002790;-0.000724;0.002923;-0.001150;-79.584423;0.002945;
1006;1722;0.088647;86.122460;1.000000;0.000171;-0.000595;0.001581;-0.000187;0.001597;-0.000611;-85.116666;0.001612;
1156;1257;-1.085784;74.258054;0.999428;0.005590;-0.047956;0.115536;0.002507;0.115575;-0.047994;89.121563;0.116127;
1031;617;0.120980;0.468059;0.999997;0.000521;-0.000984;0.002634;0.000577;0.002724;-0.001074;81.160471;0.002744;
1051;962;3.325323;10.047511;0.999427;0.005318;-0.041621;0.096272;0.010240;0.097028;-0.042377;85.776230;0.097286;
1141;1442;-0.086334;84.187032;0.999978;0.001433;-0.009441;0.022036;0.000314;0.022039;-0.009444;89.428402;0.022114;
1036;617;0.115504;0.470675;0.999997;0.000393;-0.001010;0.002643;0.000544;0.002723;-0.001089;81.702865;0.002741;
1271;662;-0.239371;0.616180;0.999996;0.000593;-0.001827;0.004928;-0.001688;0.005326;-0.002226;-76.721052;0.005350;
1146;842;-0.154518;3.288660;0.999951;0.001845;-0.013993;0.031940;-0.000802;0.031954;-0.014007;-88.999628;0.032035;
1046;602;0.097737;0.436029;0.999997;0.000459;-0.000946;0.002314;0.000384;0.002358;-0.000991;83.365280;0.002368;
1161;1257;-1.329640;74.246899;0.999335;0.007274;-0.048250;0.116114;0.003154;0.116174;-0.048311;88.901034;0.116721;
1051;657;0.137909;0.610414;0.999997;0.000552;-0.001723;0.004385;0.000905;0.004517;-0.001854;81.746579;0.004541;
1041;667;0.173472;0.652822;0.999997;0.000482;-0.001981;0.005069;0.001193;0.005266;-0.002177;80.651655;0.005292;
1061;972;3.172545;10.897884;0.999423;0.007615;-0.044860;0.104860;0.009328;0.105439;-0.045439;86.448504;0.105773;
1061;617;0.091435;0.480202;0.999997;0.000597;-0.001116;0.002715;0.000405;0.002757;-0.001158;84.032805;0.002769;
1271;667;-0.257876;0.642591;0.999996;0.000593;-0.002009;0.005325;-0.001801;0.005743;-0.002427;-76.919731;0.005766;
1261;1712;-0.094284;86.104826;1.000000;0.000217;-0.000604;0.001606;0.000208;0.001625;-0.000623;84.679074;0.001640;
1161;1442;-0.273554;84.179088;0.999976;0.001193;-0.009434;0.022054;0.001171;0.022098;-0.009477;87.873213;0.022172;
1111;827;0.289032;2.856322;0.999949;0.002031;-0.012325;0.028009;0.001244;0.028048;-0.012363;88.234612;0.028113;
1046;607;0.100157;0.448188;0.999997;0.000533;-0.000981;0.002411;0.000413;0.002460;-0.001031;83.150056;0.002471;
1286;582;-0.128169;0.379653;0.999997;0.000416;-0.000507;0.001606;-0.000418;0.001686;-0.000587;-79.203027;0.001712;
1121;1247;0.643010;73.173762;0.999218;0.006392;-0.050912;0.124190;-0.001585;0.124204;-0.050926;-89.481568;0.124873;
1271;597;-0.131989;0.406413;0.999995;0.000615;-0.000639;0.001920;-0.000521;0.002022;-0.000741;-78.911862;0.002046;
1066;972;2.931470;10.857727;0.999352;0.008622;-0.044632;0.104027;0.008460;0.104507;-0.045112;86.753366;0.104831;
1041;647;0.138399;0.566481;0.999995;0.000486;-0.001494;0.003909;0.000885;0.004050;-0.001635;80.930904;0.004075;
1066;617;0.085449;0.481530;0.999997;0.000524;-0.001130;0.002729;0.000375;0.002766;-0.001166;84.499178;0.002777;
1166;1432;-0.350314;83.951887;0.999962;0.001556;-0.010455;0.024254;0.001497;0.024319;-0.010520;87.535487;0.024392;
1266;1712;-0.097330;86.104553;1.000000;0.000210;-0.000592;0.001591;0.000212;0.001611;-0.000612;84.507405;0.001626;
976;557;0.121591;0.341930;0.999996;0.000617;-0.000455;0.001512;0.000320;0.001563;-0.000506;80.989588;0.001595;
1046;612;0.103722;0.461162;0.999997;0.000497;-0.001021;0.002531;0.000447;0.002586;-0.001077;82.938943;0.002598;
1191;837;-0.761846;3.140672;0.999954;0.002048;-0.013620;0.030696;-0.003420;0.030958;-0.013882;-85.612545;0.031013;
1221;1247;-4.825128;72.462562;0.999305;0.007324;-0.057525;0.139705;0.013680;0.140650;-0.058469;86.051209;0.141314;
1281;592;-0.131884;0.396608;0.999997;0.000380;-0.000571;0.001738;-0.000506;0.001844;-0.000677;-78.176969;0.001865;
1256;632;-0.149914;0.498352;0.999997;0.000454;-0.001160;0.003215;-0.000898;0.003392;-0.001337;-78.846649;0.003418;
1071;972;2.711545;10.817588;0.999339;0.007956;-0.044137;0.103252;0.007736;0.103657;-0.044542;87.003828;0.103998;
1041;652;0.146229;0.587093;0.999996;0.000438;-0.001604;0.004190;0.000958;0.004344;-0.001758;80.851964;0.004370;
1071;617;0.079000;0.482922;0.999997;0.000475;-0.001145;0.002745;0.000345;0.002775;-0.001175;84.973017;0.002786;
1166;1437;-0.334760;84.071543;0.999966;0.001390;-0.009939;0.023155;0.001448;0.023218;-0.010002;87.499172;0.023293;
1271;1712;-0.100916;86.104600;1.000000;0.000178;-0.000577;0.001574;0.000218;0.001596;-0.000599;84.272369;0.001612;
1046;617;0.106068;0.473649;0.999997;0.000537;-0.001066;0.002670;0.000487;0.002733;-0.001128;82.689744;0.002747;
1196;837;-0.825150;3.144403;0.999955;0.001835;-0.013682;0.030710;-0.003732;0.031021;-0.013993;-85.227865;0.031071;
1256;637;-0.158045;0.514950;0.999997;0.000518;-0.001250;0.003467;-0.000986;0.003664;-0.001448;-78.657126;0.003691;
1256;622;-0.138937;0.471006;0.999997;0.000584;-0.001003;0.002792;-0.000761;0.002939;-0.001150;-79.065577;0.002962;
1096;1262;1.686733;74.719522;0.999441;0.008040;-0.045508;0.108341;-0.004861;0.108495;-0.045661;-88.192123;0.108947;
1056;972;3.394320;10.933653;0.999362;0.007773;-0.045089;0.105754;0.010221;0.106444;-0.045778;86.141343;0.106790;
1246;562;-0.097064;0.353995;0.999997;0.000443;-0.000644;0.001686;-0.000261;0.001715;-0.000673;-83.682546;0.001729;
961;557;0.128620;0.336087;0.999997;0.000445;-0.000392;0.001411;0.000321;0.001466;-0.000448;80.206631;0.001503;
1006;617;0.141133;0.457331;0.999996;0.000656;-0.000887;0.002563;0.000745;0.002717;-0.001041;78.314307;0.002741;
1051;617;0.101295;0.476593;0.999997;0.000557;-0.001084;0.002686;0.000461;0.002742;-0.001140;83.127106;0.002754;
1201;837;-0.895916;3.146069;0.999954;0.002374;-0.013729;0.030728;-0.004038;0.031091;-0.014093;-84.851988;0.031137;
1011;1722;0.085541;86.122562;1.000000;0.000139;-0.000606;0.001597;-0.000180;0.001611;-0.000621;-85.347461;0.001625;
1256;642;-0.168221;0.534528;0.999997;0.000529;-0.001357;0.003730;-0.001084;0.003951;-0.001578;-78.462767;0.003978;
976;562;0.124538;0.350273;0.999996;0.000549;-0.000446;0.001512;0.000339;0.001569;-0.000503;80.460581;0.001602;
1076;972;2.485253;10.795109;0.999319;0.006767;-0.043716;0.102559;0.007055;0.102898;-0.044055;87.245089;0.103252;
1096;1267;1.618850;75.192605;0.999420;0.008361;-0.043659;0.103603;-0.004772;0.103757;-0.043814;-88.145964;0.104174;
1321;1782;-0.099709;86.199557;0.999990;0.000843;-0.000605;0.001376;0.000071;0.001378;-0.000608;87.945740;0.001381;
966;557;0.127743;0.337968;0.999997;0.000545;-0.000416;0.001449;0.000323;0.001504;-0.000470;80.459868;0.001538;
1011;617;0.137669;0.458954;0.999997;0.000455;-0.000903;0.002582;0.000705;0.002720;-0.001040;78.982368;0.002745;
1261;612;-0.134205;0.443255;0.999997;0.000488;-0.000823;0.002400;-0.000633;0.002520;-0.000943;-79.269780;0.002547;
1056;617;0.096608;0.478424;0.999997;0.000617;-0.001100;0.002700;0.000433;0.002748;-0.001148;83.579162;0.002761;
1106;807;0.289117;2.363160;0.999957;0.001547;-0.010249;0.023517;0.001353;0.023571;-0.010304;87.708247;0.023633;
1296;567;-0.125831;0.352940;0.999996;0.000438;-0.000433;0.001535;-0.000323;0.001587;-0.000485;-80.915117;0.001627;
1016;1722;0.082734;86.122892;1.000000;0.000185;-0.000615;0.001611;-0.000173;0.001625;-0.000628;-85.579548;0.001638;
1266;602;-0.129327;0.417828;0.999996;0.000588;-0.000701;0.002067;-0.000556;0.002174;-0.000809;-79.055880;0.002198;
971;1642;0.144299;86.007596;0.999549;0.005862;-0.000576;0.001779;-0.000686;0.001964;-0.000761;-74.894153;0.001981;
1261;607;-0.128842;0.432419;0.999996;0.000438;-0.000781;0.002230;-0.000586;0.002340;-0.000891;-79.367867;0.002362;
1126;1242;0.405387;72.582321;0.999325;0.006032;-0.053215;0.130587;-0.000829;0.130591;-0.053219;-89.741684;0.131333;
1016;617;0.134116;0.461612;0.999997;0.000449;-0.000923;0.002591;0.000666;0.002713;-0.001045;79.620219;0.002737;
1151;987;-0.792072;12.181587;0.999226;0.006914;-0.047165;0.114018;-0.002196;0.114048;-0.047195;-89.219473;0.114611;
1296;572;-0.127667;0.359178;0.999997;0.000481;-0.000429;0.001552;-0.000347;0.001611;-0.000488;-80.334663;0.001652;
1221;667;-0.156156;0.652034;0.999997;0.000569;-0.001961;0.004978;-0.001088;0.005144;-0.002128;-81.293067;0.005170;
1161;837;-0.358012;3.145107;0.999943;0.002211;-0.013427;0.030613;-0.001645;0.030675;-0.013488;-87.863865;0.030749;
1261;617;-0.138456;0.456521;0.999996;0.000596;-0.000884;0.002588;-0.000706;0.002726;-0.001022;-78.932424;0.002754;
976;1642;0.142872;86.000121;1.000000;0.000203;-0.000593;0.001847;-0.000662;0.002015;-0.000761;-75.759556;0.002035;
1041;967;3.926548;10.596050;0.999495;0.007187;-0.043881;0.103492;0.012529;0.104549;-0.044938;85.175190;0.104892;
1131;1242;0.130298;72.580869;0.999302;0.005982;-0.053275;0.130948;-0.000267;0.130949;-0.053275;-89.917095;0.131704;
1046;622;0.108574;0.488840;0.999996;0.000585;-0.001118;0.002828;0.000534;0.002899;-0.001189;82.425152;0.002915;
1041;692;0.242332;0.800125;0.999996;0.000574;-0.002787;0.006906;0.001624;0.007171;-0.003051;80.736855;0.007197;
1261;1777;-0.068630;86.207277;1.000000;0.000181;-0.000519;0.001540;0.000120;0.001547;-0.000526;86.669205;0.001573;
1301;552;-0.122147;0.329837;0.999996;0.000583;-0.000438;0.001462;-0.000277;0.001502;-0.000478;-81.882711;0.001534;
1296;577;-0.130001;0.367930;0.999997;0.000508;-0.000449;0.001583;-0.000382;0.001652;-0.000518;-79.701802;0.001690;
1241;667;-0.195777;0.649157;0.999997;0.000515;-0.002031;0.005177;-0.001371;0.005429;-0.002283;-79.588759;0.005452;
981;1642;0.139675;85.998032;0.999999;0.000212;-0.000610;0.001891;-0.000640;0.002045;-0.000764;-76.454954;0.002067;
1206;837;-0.962265;3.147933;0.999954;0.002603;-0.013790;0.030741;-0.004361;0.031164;-0.014214;-84.459137;0.031204;
1046;967;3.687475;10.543395;0.999425;0.006770;-0.043637;0.102562;0.011621;0.103480;-0.044555;85.483560;0.103812;
1306;552;-0.123862;0.328131;0.999997;0.000508;-0.000429;0.001451;-0.000266;0.001488;-0.000466;-82.110810;0.001522;
1036;662;0.172784;0.627732;0.999997;0.000481;-0.001857;0.004798;0.001172;0.004998;-0.002057;80.297759;0.005024;
1261;622;-0.143606;0.469967;0.999996;0.000592;-0.000960;0.002786;-0.000785;0.002944;-0.001117;-78.632714;0.002972;
1136;1242;-0.128220;72.544978;0.999259;0.008194;-0.053377;0.131407;0.000254;0.131407;-0.053378;89.921122;0.132175;
1221;692;-0.217411;0.795924;0.999995;0.000618;-0.002762;0.006865;-0.001507;0.007095;-0.002993;-81.306660;0.007124;
1261;1782;-0.066604;86.215089;1.000000;0.000155;-0.000509;0.001536;0.000118;0.001543;-0.000516;86.702061;0.001571;
1251;672;-0.229519;0.671381;0.999996;0.000495;-0.002191;0.005581;-0.001625;0.005907;-0.002517;-78.653059;0.005929;
1211;837;-1.029992;3.146505;0.999955;0.002374;-0.013866;0.030759;-0.004692;0.031247;-0.014354;-84.061968;0.031281;
1311;552;-0.126687;0.325117;0.999988;0.001082;-0.000417;0.001451;-0.000247;0.001484;-0.000450;-82.588804;0.001521;
1031;627;0.128873;0.494687;0.999994;0.000561;-0.001113;0.003005;0.000706;0.003123;-0.001231;80.540526;0.003146;
1306;567;-0.102021;0.365409;0.999366;0.005716;-0.000391;0.001543;-0.000287;0.001585;-0.000433;-81.735664;0.001638;
1146;1887;-0.001223;86.375174;0.999999;0.000215;-0.000104;0.001320;0.000023;0.001320;-0.000104;89.066182;0.001468;
1166;982;-1.446920;11.706254;0.999212;0.007028;-0.045550;0.109448;-0.003915;0.109547;-0.045649;-88.554003;0.110053;
1106;1257;1.300574;74.237017;0.999355;0.006734;-0.047111;0.113126;-0.003730;0.113213;-0.047198;-88.667175;0.113733;
1226;662;-0.156792;0.628227;0.999997;0.000509;-0.001840;0.004719;-0.001082;0.004892;-0.002014;-80.874319;0.004918;
1261;1787;-0.064436;86.222261;1.000000;0.000142;-0.000500;0.001536;0.000117;0.001543;-0.000507;86.726492;0.001573;
1256;672;-0.241139;0.671806;0.999996;0.000573;-0.002186;0.005598;-0.001696;0.005951;-0.002539;-78.228988;0.005973;
1306;572;-0.136627;0.366418;0.999113;0.007368;-0.000389;0.001570;-0.000315;0.001620;-0.000438;-81.084891;0.001676;
1186;837;-0.689451;3.140153;0.999955;0.002398;-0.013574;0.030682;-0.003123;0.030901;-0.013794;-85.983727;0.030960;
1251;617;-0.130995;0.458545;0.999997;0.000528;-0.000945;0.002600;-0.000657;0.002718;-0.001062;-79.829249;0.002740;
1151;1887;-0.001701;86.375309;0.999999;0.000254;-0.000104;0.001324;0.000032;0.001325;-0.000105;88.703559;0.001473;
1036;627;0.123338;0.495859;0.999993;0.000560;-0.001131;0.003002;0.000662;0.003105;-0.001235;81.113463;0.003127;
1171;982;-1.689874;11.713815;0.999317;0.008799;-0.045655;0.109715;-0.004517;0.109846;-0.045786;-88.336259;0.110351;
1281;597;-0.134444;0.403764;0.999995;0.000491;-0.000625;0.001850;-0.000546;0.001965;-0.000740;-78.098126;0.001985;
1301;567;-0.127723;0.351203;0.999997;0.000439;-0.000413;0.001534;-0.000312;0.001582;-0.000462;-81.114135;0.001628;
1201;1252;-3.496845;73.365637;0.999262;0.007208;-0.054021;0.129125;0.008961;0.129562;-0.054459;87.205573;0.130109;
1226;667;-0.165882;0.651035;0.999996;0.000497;-0.001975;0.005028;-0.001159;0.005215;-0.002162;-80.845016;0.005240;
1241;1802;-0.048707;86.248510;1.000000;0.000169;-0.000471;0.001535;0.000119;0.001542;-0.000478;86.614609;0.001579;
1006;622;0.147512;0.471242;0.999997;0.000563;-0.000957;0.002766;0.000823;0.002940;-0.001131;78.075058;0.002965;
1176;827;-0.505280;2.849259;0.999954;0.001810;-0.012263;0.028013;-0.002345;0.028149;-0.012399;-86.678984;0.028216;
1016;642;0.165470;0.539696;0.999996;0.000392;-0.001394;0.003764;0.001069;0.003977;-0.001607;78.739114;0.004001;
1286;597;-0.137251;0.403163;0.999996;0.000508;-0.000607;0.001810;-0.000562;0.001934;-0.000731;-77.536348;0.001953;
1301;572;-0.130559;0.358358;0.999997;0.000497;-0.000415;0.001555;-0.000339;0.001611;-0.000472;-80.514321;0.001657;
1041;627;0.118168;0.497463;0.999992;0.000626;-0.001155;0.003000;0.000621;0.003091;-0.001246;81.675237;0.003110;
1081;982;2.488434;11.803474;0.999317;0.007089;-0.047427;0.112680;0.006673;0.112957;-0.047704;87.617432;0.113411;
1111;1257;1.065898;74.245439;0.999361;0.006341;-0.046976;0.112997;-0.003140;0.113059;-0.047038;-88.876036;0.113589;
1236;1637;-0.113605;85.965691;1.000000;0.000204;-0.000904;0.002387;0.000481;0.002456;-0.000972;81.852840;0.002473;
1011;622;0.143127;0.472036;0.999997;0.000503;-0.000975;0.002783;0.000778;0.002937;-0.001129;78.756914;0.002963;
1176;832;-0.530090;2.992207;0.999950;0.002047;-0.012859;0.029290;-0.002443;0.029431;-0.013000;-86.694395;0.029497;
1291;597;-0.141496;0.401890;0.999996;0.000550;-0.000576;0.001768;-0.000566;0.001897;-0.000706;-77.113352;0.001918;
1106;827;0.345025;2.859071;0.999952;0.002388;-0.012349;0.028003;0.001528;0.028061;-0.012406;87.834169;0.028123;
1301;577;-0.133585;0.365906;0.999997;0.000527;-0.000444;0.001595;-0.000377;0.001662;-0.000511;-79.862355;0.001703;
1221;677;-0.177455;0.704324;0.999996;0.000472;-0.002253;0.005685;-0.001252;0.005878;-0.002446;-81.244997;0.005905;
1021;642;0.159279;0.540879;0.999997;0.000461;-0.001388;0.003734;0.001014;0.003927;-0.001581;79.202369;0.003952;
1041;972;4.107022;11.077446;0.999459;0.007104;-0.045931;0.108404;0.013113;0.109510;-0.047038;85.177961;0.109872;
1116;1257;0.820300;74.247650;0.999343;0.006284;-0.046856;0.112975;-0.002551;0.113016;-0.046897;-89.085801;0.113560;
1146;722;-0.039357;1.027754;0.999996;0.000555;-0.003843;0.009508;-0.000268;0.009514;-0.003848;-88.849154;0.009571;
1241;1637;-0.117904;85.967650;1.000000;0.000283;-0.000876;0.002364;0.000505;0.002441;-0.000953;81.344556;0.002460;
1016;622;0.138691;0.472345;0.999997;0.000504;-0.000998;0.002786;0.000737;0.002924;-0.001136;79.356844;0.002948;
1181;832;-0.596371;2.993148;0.999954;0.002276;-0.012882;0.029299;-0.002736;0.029475;-0.013059;-86.304415;0.029539;
1046;972;3.857548;11.019817;0.999434;0.007835;-0.045656;0.107552;0.012103;0.108502;-0.046606;85.511016;0.108860;
1016;637;0.157654;0.521423;0.999997;0.000422;-0.001275;0.003496;0.000985;0.003691;-0.001470;78.785514;0.003717;
1256;627;-0.143423;0.484783;0.999998;0.000432;-0.001080;0.002992;-0.000829;0.003154;-0.001242;-78.919808;0.003178;
1026;642;0.151985;0.542013;0.999996;0.000521;-0.001392;0.003710;0.000964;0.003886;-0.001568;79.644584;0.003910;
1041;827;1.159874;2.864423;0.999945;0.002269;-0.012705;0.028099;0.005272;0.028769;-0.013375;82.755805;0.028792;
1041;597;0.100328;0.422947;0.999996;0.000513;-0.000882;0.002209;0.000376;0.002254;-0.000927;83.158624;0.002266;
1206;1242;-4.159027;71.968049;0.999351;0.007469;-0.059183;0.144855;0.010639;0.145408;-0.059737;87.023124;0.146177;
1151;722;-0.059404;1.029205;0.999996;0.000684;-0.003847;0.009524;-0.000388;0.009535;-0.003858;-88.339993;0.009593;
1246;1637;-0.122146;85.969557;0.999999;0.000224;-0.000847;0.002340;0.000529;0.002426;-0.000933;80.824243;0.002447;
1256;612;-0.129675;0.443416;0.999997;0.000485;-0.000859;0.002404;-0.000622;0.002519;-0.000973;-79.563525;0.002541;
1261;627;-0.148628;0.482713;0.999996;0.000568;-0.001038;0.002988;-0.000857;0.003163;-0.001213;-78.465407;0.003191;
1021;637;0.151985;0.523875;0.999998;0.000450;-0.001277;0.003477;0.000934;0.003654;-0.001454;79.272327;0.003679;
1151;842;-0.225925;3.285725;0.999942;0.002090;-0.014008;0.031955;-0.001102;0.031981;-0.014034;-88.627125;0.032061;
1156;987;-1.030341;12.187858;0.999214;0.008210;-0.047264;0.114150;-0.002776;0.114198;-0.047312;-89.015165;0.114755;
1011;642;0.171827;0.537100;0.999996;0.000430;-0.001342;0.003778;0.001118;0.004011;-0.001576;78.203979;0.004042;
1201;832;-0.853300;2.999599;0.999960;0.002325;-0.013096;0.029349;-0.003898;0.029704;-0.013451;-84.796247;0.029748;
1211;1242;-4.464965;71.903103;0.999443;0.006214;-0.059438;0.145922;0.011714;0.146588;-0.060104;86.745728;0.147377;
1041;602;0.102499;0.435640;0.999996;0.000552;-0.000913;0.002282;0.000404;0.002332;-0.000964;82.911910;0.002344;
1256;617;-0.135305;0.457762;0.999997;0.000619;-0.000926;0.002594;-0.000689;0.002724;-0.001056;-79.308864;0.002747;
1156;722;-0.078476;1.029359;0.999996;0.000578;-0.003847;0.009538;-0.000511;0.009558;-0.003866;-87.818888;0.009616;
1261;632;-0.155672;0.496023;0.999997;0.000548;-0.001121;0.003216;-0.000929;0.003407;-0.001312;-78.400080;0.003436;
1026;637;0.145698;0.525149;0.999997;0.000540;-0.001284;0.003461;0.000889;0.003622;-0.001446;79.727992;0.003647;
1156;842;-0.306600;3.293346;0.999942;0.002355;-0.014024;0.031971;-0.001391;0.032013;-0.014066;-88.269674;0.032092;
1006;632;0.161103;0.497532;0.999996;0.000474;-0.001119;0.003258;0.000981;0.003467;-0.001328;77.929058;0.003499;
1216;1242;-4.756758;71.839524;0.999316;0.007106;-0.059741;0.146896;0.012834;0.147690;-0.060536;86.459503;0.148488;
1206;832;-0.914064;3.001081;0.999960;0.002229;-0.013157;0.029370;-0.004207;0.029782;-0.013569;-84.404182;0.029821;
1206;977;-3.204888;11.381230;0.999466;0.005520;-0.045696;0.107817;-0.009248;0.108372;-0.046251;-86.564811;0.108759;
1241;1807;-0.046473;86.256066;1.000000;0.000128;-0.000456;0.001528;0.000123;0.001536;-0.000464;86.462699;0.001575;
1051;1742;0.053625;86.157641;1.000000;0.000122;-0.000628;0.001622;-0.000104;0.001627;-0.000632;-87.367677;0.001641;
961;562;0.133115;0.342483;0.999993;0.000736;-0.000367;0.001429;0.000323;0.001486;-0.000423;80.105398;0.001531;
1001;597;0.129787;0.412261;0.999995;0.000686;-0.000640;0.001935;0.000504;0.002030;-0.000735;79.319650;0.002056;
1236;1507;-0.483636;85.202784;0.999988;0.001163;-0.004922;0.011553;0.002814;0.012020;-0.005390;80.569158;0.012042;
1041;622;0.113654;0.485592;0.999996;0.000501;-0.001093;0.002821;0.000566;0.002901;-0.001174;81.933850;0.002918;
1261;647;-0.184377;0.550224;0.999996;0.000564;-0.001459;0.004016;-0.001227;0.004278;-0.001722;-77.927948;0.004306;
1166;832;-0.404065;3.000177;0.999951;0.002049;-0.012830;0.029265;-0.001876;0.029349;-0.012913;-87.453270;0.029419;
1176;982;-1.927393;11.736145;0.999406;0.007287;-0.045857;0.110102;-0.005146;0.110272;-0.046026;-88.112080;0.110772;
1156;1252;-1.143811;73.671291;0.999394;0.005939;-0.050008;0.121366;0.002450;0.121401;-0.050043;89.181214;0.122024;
1036;667;0.183720;0.651449;0.999996;0.000501;-0.001992;0.005116;0.001259;0.005333;-0.002209;80.245975;0.005359;
966;562;0.129575;0.345462;0.999996;0.000550;-0.000400;0.001459;0.000331;0.001516;-0.000457;80.210421;0.001556;
1046;1762;0.050708;86.189373;1.000000;0.000126;-0.000577;0.001591;-0.000098;0.001595;-0.000582;-87.414687;0.001615;
1111;1657;0.024283;85.996925;1.000000;0.000142;-0.001099;0.002389;-0.000089;0.002391;-0.001102;-88.533217;0.002393;
1016;632;0.150276;0.503221;0.999997;0.000507;-0.001173;0.003244;0.000901;0.003421;-0.001349;78.905949;0.003446;
1266;647;-0.190596;0.549345;0.999996;0.000518;-0.001450;0.004029;-0.001283;0.004314;-0.001736;-77.450812;0.004342;
1046;637;0.120138;0.532283;0.999996;0.000480;-0.001322;0.003395;0.000695;0.003495;-0.001423;81.787904;0.003515;
1026;847;1.625549;3.484174;0.999934;0.002273;-0.015448;0.033179;0.007167;0.034214;-0.016483;81.788028;0.034221;
1201;1502;-0.335523;85.155195;0.999985;0.000919;-0.005059;0.012153;0.001948;0.012370;-0.005276;83.623112;0.012415;
1181;982;-2.159172;11.767445;0.999400;0.006113;-0.046196;0.110529;-0.005722;0.110738;-0.046405;-87.911764;0.111221;
1141;1242;-0.409154;72.508767;0.999162;0.007796;-0.053611;0.131989;0.000794;0.131992;-0.053614;89.754914;0.132764;
1021;617;0.131011;0.463559;0.999997;0.000533;-0.000943;0.002606;0.000633;0.002715;-0.001053;80.179145;0.002738;
1271;647;-0.198252;0.549449;0.999996;0.000534;-0.001433;0.004032;-0.001335;0.004341;-0.001741;-76.984224;0.004369;
1021;632;0.145496;0.505011;0.999997;0.000505;-0.001177;0.003235;0.000857;0.003396;-0.001337;79.386574;0.003421;
1046;1767;0.049294;86.197743;1.000000;0.000153;-0.000564;0.001581;-0.000097;0.001585;-0.000568;-87.407579;0.001606;
1026;852;1.706959;3.648349;0.999912;0.002549;-0.016151;0.035309;0.007407;0.036354;-0.017196;81.970113;0.036372;
1046;642;0.125473;0.549806;0.999997;0.000406;-0.001406;0.003622;0.000759;0.003735;-0.001518;81.600484;0.003756;
1036;672;0.196181;0.679112;0.999996;0.000468;-0.002136;0.005458;0.001346;0.005689;-0.002367;80.237188;0.005716;
1041;1642;0.098950;85.977132;1.000000;0.000146;-0.000897;0.002269;-0.000394;0.002318;-0.000945;-83.010142;0.002331;
1186;982;-2.385557;11.791813;0.999407;0.004900;-0.046484;0.111038;-0.006304;0.111290;-0.046736;-87.711806;0.111764;
1261;1522;-0.501848;85.354128;0.999984;0.001116;-0.004177;0.009752;0.003003;0.010372;-0.004797;78.337895;0.010382;
1121;1242;0.676880;72.580408;0.999164;0.007194;-0.053187;0.130329;-0.001434;0.130340;-0.053199;-89.552180;0.131071;
1026;617;0.125163;0.465082;0.999996;0.000606;-0.000967;0.002620;0.000605;0.002720;-0.001066;80.674120;0.002741;
1261;642;-0.173861;0.533508;0.999996;0.000463;-0.001328;0.003731;-0.001124;0.003969;-0.001566;-78.023506;0.003998;
1026;632;0.139067;0.506778;0.999996;0.000592;-0.001188;0.003228;0.000818;0.003375;-0.001335;79.838820;0.003399;
1046;1772;0.047964;86.205919;1.000000;0.000126;-0.000551;0.001570;-0.000098;0.001575;-0.000555;-87.363822;0.001598;
1046;647;0.132026;0.568751;0.999997;0.000399;-0.001500;0.003882;0.000831;0.004007;-0.001625;81.424254;0.004031;
1091;837;0.585787;3.157241;0.999940;0.002044;-0.013602;0.030628;0.002565;0.030777;-0.013750;86.692404;0.030835;
1006;1727;0.086770;86.130110;1.000000;0.000177;-0.000593;0.001576;-0.000179;0.001591;-0.000607;-85.319304;0.001605;
981;587;0.133114;0.386681;0.999996;0.000476;-0.000502;0.001694;0.000471;0.001791;-0.000599;78.383025;0.001823;
1081;977;2.375793;11.274531;0.999400;0.007030;-0.045319;0.107099;0.006546;0.107379;-0.045600;87.545339;0.107785;
1166;1257;-1.574017;74.224102;0.999308;0.007460;-0.048570;0.116731;0.003857;0.116821;-0.048660;88.664044;0.117362;
1201;847;-0.981516;3.458047;0.999956;0.001888;-0.015053;0.033661;-0.004288;0.034036;-0.015428;-85.007691;0.034085;
1011;627;0.149064;0.484749;0.999997;0.000504;-0.001051;0.003016;0.000848;0.003186;-0.001220;78.682072;0.003215;
1046;1482;0.536813;84.899807;0.999987;0.001225;-0.006412;0.014836;-0.003043;0.015263;-0.006839;-82.008761;0.015290;
1061;1782;0.037070;86.222527;1.000000;0.000118;-0.000518;0.001554;-0.000085;0.001558;-0.000522;-87.653326;0.001586;
1171;707;-0.108887;0.899530;0.999995;0.000642;-0.003161;0.007890;-0.000740;0.007939;-0.003210;-86.187282;0.007987;
1221;672;-0.165761;0.675720;0.999996;0.000497;-0.002102;0.005315;-0.001169;0.005495;-0.002282;-81.253481;0.005521;
1091;842;0.611906;3.308258;0.999945;0.001532;-0.014216;0.032133;0.002662;0.032285;-0.014369;86.723199;0.032350;
1011;1727;0.083963;86.130398;1.000000;0.000157;-0.000604;0.001591;-0.000173;0.001605;-0.000617;-85.530811;0.001619;
1211;967;-3.157594;10.435179;0.999402;0.006370;-0.042297;0.098773;-0.009640;0.099429;-0.042952;-86.108651;0.099735;
1171;1257;-1.823808;74.196521;0.999179;0.007455;-0.048855;0.117443;0.004554;0.117567;-0.048979;88.432529;0.118111;
1011;632;0.155847;0.499996;0.999997;0.000465;-0.001131;0.003259;0.000933;0.003450;-0.001321;78.482639;0.003481;
1021;622;0.134633;0.474633;0.999997;0.000632;-0.001013;0.002793;0.000701;0.002918;-0.001138;79.886103;0.002942;
1206;847;-1.055218;3.464898;0.999958;0.002021;-0.015127;0.033696;-0.004636;0.034132;-0.015564;-84.623256;0.034176;
1051;1482;0.508286;84.900345;0.999987;0.000919;-0.006389;0.014852;-0.002879;0.015236;-0.006772;-82.416403;0.015267;
1061;1787;0.036029;86.230610;1.000000;0.000107;-0.000502;0.001546;-0.000087;0.001550;-0.000506;-87.565251;0.001581;
1046;632;0.115064;0.514861;0.999995;0.000584;-0.001244;0.003190;0.000637;0.003280;-0.001334;81.986158;0.003299;
1196;852;-0.947078;3.623927;0.999933;0.002112;-0.015675;0.035103;-0.004097;0.035431;-0.016004;-85.416776;0.035486;
1091;847;0.638505;3.459867;0.999936;0.001645;-0.014871;0.033568;0.002759;0.033724;-0.015028;86.750053;0.033791;
1216;967;-3.367953;10.466860;0.999363;0.005878;-0.042528;0.099318;-0.010429;0.100081;-0.043291;-85.817236;0.100384;
1151;1247;-0.931251;73.092082;0.999262;0.006715;-0.051929;0.126950;0.001820;0.126968;-0.051947;89.417127;0.127665;
1261;1717;-0.092592;86.112409;1.000000;0.000255;-0.000604;0.001599;0.000199;0.001617;-0.000622;84.884299;0.001631;
1211;847;-1.132073;3.464650;0.999962;0.002091;-0.015217;0.033741;-0.004991;0.034245;-0.015721;-84.237924;0.034283;
1056;697;0.214540;0.837007;0.999996;0.000536;-0.002928;0.007206;0.001421;0.007401;-0.003123;82.169377;0.007431;
1056;1482;0.475887;84.899450;0.999986;0.000907;-0.006396;0.014877;-0.002702;0.015215;-0.006734;-82.874277;0.015248;
1061;1792;0.034379;86.237363;1.000000;0.000103;-0.000486;0.001537;-0.000089;0.001540;-0.000490;-87.474725;0.001574;
1051;697;0.228555;0.838000;0.999996;0.000596;-0.002940;0.007251;0.001523;0.007474;-0.003163;81.678461;0.007503;
961;1862;0.044784;86.325825;1.000000;0.000185;-0.000496;0.001584;-0.000134;0.001592;-0.000504;-86.333619;0.001628;
1221;842;-1.227587;3.307028;0.999927;0.002011;-0.014576;0.032122;-0.005503;0.032762;-0.015216;-83.369145;0.032790;
1221;967;-3.591990;10.504809;0.999257;0.006774;-0.042734;0.099840;-0.011234;0.100720;-0.043614;-85.522433;0.101020;
1116;827;0.229652;2.855885;0.999942;0.001979;-0.012294;0.028004;0.000958;0.028027;-0.012317;88.638973;0.028095;
1166;1442;-0.319280;84.176346;0.999972;0.001483;-0.009457;0.022086;0.001393;0.022148;-0.009518;87.475406;0.022220;
1186;1262;-2.467653;74.624233;0.999138;0.008229;-0.048080;0.114144;0.006318;0.114390;-0.048326;87.772962;0.114847;
1266;1717;-0.095663;86.112844;1.000000;0.000223;-0.000593;0.001583;0.000203;0.001601;-0.000612;84.721486;0.001616;
1266;652;-0.201822;0.567816;0.999997;0.000472;-0.001592;0.004350;-0.001388;0.004658;-0.001900;-77.477031;0.004685;
1261;637;-0.164112;0.514025;0.999997;0.000481;-0.001214;0.003466;-0.001021;0.003679;-0.001427;-78.209935;0.003710;
1066;1792;0.031961;86.238033;1.000000;0.000090;-0.000483;0.001536;-0.000084;0.001539;-0.000487;-87.631115;0.001574;
1061;1482;0.445676;84.901214;0.999988;0.001114;-0.006386;0.014899;-0.002522;0.015194;-0.006681;-83.334675;0.015231;
1051;967;3.464829;10.505717;0.999378;0.006384;-0.043399;0.101660;0.010738;0.102451;-0.044189;85.789116;0.102773;
996;592;0.128428;0.402356;0.999997;0.000432;-0.000585;0.001811;0.000473;0.001901;-0.000675;79.237106;0.001928;
1126;837;0.108762;3.159009;0.999943;0.002429;-0.013406;0.030541;0.000364;0.030544;-0.013409;89.525590;0.030620;
1181;837;-0.624036;3.146027;0.999951;0.002350;-0.013515;0.030668;-0.002825;0.030848;-0.013695;-86.356851;0.030912;
1226;1247;-5.144680;72.394993;0.998765;0.009937;-0.057568;0.140361;0.014984;0.141489;-0.058696;85.695203;0.142171;
966;1862;0.042544;86.327842;0.999999;0.000199;-0.000474;0.001572;-0.000144;0.001582;-0.000484;-85.996557;0.001621;
1271;652;-0.209920;0.567030;0.999996;0.000443;-0.001578;0.004361;-0.001445;0.004694;-0.001910;-77.030003;0.004721;
1271;1717;-0.099104;86.112394;1.000000;0.000195;-0.000579;0.001566;0.000208;0.001586;-0.000599;84.506708;0.001601;
1041;642;0.131608;0.546494;0.999995;0.000629;-0.001397;0.003643;0.000809;0.003770;-0.001524;81.099869;0.003793;
1126;1442;0.052647;84.181206;0.999974;0.001274;-0.009561;0.022117;-0.000328;0.022121;-0.009565;-89.405981;0.022188;
1071;1792;0.029814;86.238827;1.000000;0.000120;-0.000482;0.001534;-0.000078;0.001537;-0.000485;-87.782157;0.001571;
1066;1482;0.413735;84.900562;0.999986;0.001380;-0.006368;0.014911;-0.002337;0.015164;-0.006622;-83.805593;0.015205;
1201;982;-3.099071;11.870474;0.999271;0.007146;-0.047538;0.112681;-0.008484;0.113129;-0.047986;-86.977371;0.113562;
1011;637;0.162825;0.519159;0.999997;0.000416;-0.001226;0.003508;0.001025;0.003720;-0.001439;78.287895;0.003752;
1126;842;0.116592;3.309670;0.999944;0.001811;-0.014028;0.031974;0.000366;0.031977;-0.014031;89.543788;0.032056;
1191;842;-0.794704;3.301966;0.999949;0.002060;-0.014275;0.032139;-0.003516;0.032404;-0.014539;-85.692528;0.032461;
1206;1237;-4.355784;71.284117;0.999322;0.008093;-0.061820;0.152799;0.010723;0.153333;-0.062354;87.146846;0.154221;
1026;832;1.416625;3.008669;0.999939;0.002584;-0.013427;0.029313;0.006359;0.030239;-0.014353;81.714593;0.030252;
1061;1617;0.089801;85.905701;0.999999;0.000275;-0.001209;0.002971;-0.000466;0.003022;-0.001261;-83.715611;0.003036;
1046;1642;0.094760;85.975595;1.000000;0.000168;-0.000925;0.002299;-0.000376;0.002343;-0.000969;-83.432265;0.002354;
1046;1777;0.046438;86.213374;1.000000;0.000119;-0.000537;0.001563;-0.000098;0.001568;-0.000542;-87.321267;0.001592;
1121;842;0.185631;3.308348;0.999942;0.002101;-0.014061;0.031986;0.000692;0.031997;-0.014072;89.138969;0.032074;
1131;1442;0.005508;84.183125;0.999978;0.001310;-0.009522;0.022077;-0.000110;0.022077;-0.009522;-89.800761;0.022146;
1206;982;-3.340499;11.915942;0.999372;0.005669;-0.047724;0.113308;-0.009343;0.113848;-0.048265;-86.690464;0.114286;
1126;847;0.124858;3.457782;0.999938;0.001459;-0.014649;0.033373;0.000378;0.033376;-0.014652;89.548909;0.033459;
1041;1492;0.507880;85.040892;0.999981;0.000911;-0.005724;0.013357;-0.002919;0.013794;-0.006161;-81.493227;0.013820;
1136;852;-0.023173;3.618554;0.999940;0.002236;-0.015286;0.034733;-0.000218;0.034734;-0.015287;-89.749999;0.034817;
1211;1237;-4.681717;71.219622;0.999373;0.010098;-0.062120;0.154033;0.011790;0.154674;-0.062761;86.887047;0.155587;
1196;842;-0.867264;3.303035;0.999951;0.001956;-0.014334;0.032165;-0.003841;0.032480;-0.014649;-85.309852;0.032532;
1031;832;1.349458;3.004250;0.999935;0.002904;-0.013392;0.029365;0.006068;0.030209;-0.014236;82.077395;0.030226;
976;1637;0.148631;85.991380;0.999997;0.000543;-0.000630;0.001967;-0.000747;0.002166;-0.000830;-75.041201;0.002186;
1051;1642;0.090017;85.973988;1.000000;0.000181;-0.000951;0.002330;-0.000358;0.002369;-0.000990;-83.841078;0.002379;
1211;972;-3.287777;10.901241;0.999463;0.006418;-0.044058;0.103397;-0.009915;0.104061;-0.044722;-86.170286;0.104403;
1051;1777;0.043779;86.213947;1.000000;0.000113;-0.000536;0.001563;-0.000093;0.001568;-0.000540;-87.460332;0.001593;
1221;847;-1.284425;3.467798;0.999930;0.002257;-0.015286;0.033724;-0.005683;0.034375;-0.015936;-83.471148;0.034405;
1136;1442;-0.040754;84.186824;0.999978;0.001464;-0.009472;0.022050;0.000106;0.022050;-0.009472;89.806680;0.022123;
1216;1237;-4.998122;71.142350;0.999236;0.008940;-0.062456;0.155164;0.012924;0.155929;-0.063221;86.613156;0.156856;
1131;847;0.053297;3.456897;0.999947;0.001597;-0.014637;0.033353;0.000064;0.033353;-0.014637;89.923078;0.033436;
1141;852;-0.098304;3.616832;0.999936;0.002540;-0.015268;0.034729;-0.000521;0.034734;-0.015274;-89.402570;0.034818;
1041;1497;0.478027;85.100771;0.999986;0.000847;-0.005393;0.012643;-0.002788;0.013064;-0.005814;-81.411632;0.013090;
1201;842;-0.939178;3.303215;0.999958;0.001752;-0.014381;0.032194;-0.004162;0.032563;-0.014750;-84.933478;0.032611;
1036;832;1.283331;2.994339;0.999933;0.002748;-0.013364;0.029390;0.005766;0.030154;-0.014128;82.452136;0.030174;
981;1637;0.143496;85.989836;0.999999;0.000243;-0.000651;0.002019;-0.000717;0.002200;-0.000831;-75.887094;0.002221;
1211;977;-3.438906;11.420968;0.999455;0.006631;-0.045932;0.108370;-0.010075;0.109025;-0.046587;-86.279863;0.109408;
1056;1777;0.041135;86.214340;1.000000;0.000147;-0.000534;0.001563;-0.000088;0.001567;-0.000538;-87.591609;0.001592;
1221;852;-1.344931;3.626440;0.999910;0.002600;-0.016008;0.035276;-0.005838;0.035932;-0.016664;-83.587104;0.035963;
1221;1242;-5.068106;71.755469;0.999249;0.008667;-0.060030;0.147712;0.014059;0.148659;-0.060977;86.145795;0.149457;
1051;1647;0.088239;85.985049;1.000000;0.000189;-0.000923;0.002249;-0.000336;0.002284;-0.000958;-84.021790;0.002294;
1026;837;1.486838;3.154834;0.999949;0.002134;-0.014076;0.030362;0.006623;0.031328;-0.015042;81.700802;0.031337;
1146;852;-0.178087;3.620218;0.999937;0.002091;-0.015297;0.034731;-0.000833;0.034744;-0.015311;-89.046448;0.034826;
1161;1422;-0.322804;83.696787;0.999961;0.002406;-0.011573;0.026664;0.001384;0.026714;-0.011623;87.929688;0.026788;
1041;1502;0.449606;85.163879;0.999985;0.000955;-0.005079;0.011974;-0.002657;0.012378;-0.005483;-81.346173;0.012405;
1176;842;-0.583495;3.299813;0.999938;0.002216;-0.014123;0.032078;-0.002572;0.032221;-0.014265;-86.823205;0.032291;
1081;852;0.817670;3.623279;0.999944;0.001894;-0.015645;0.035062;0.003522;0.035306;-0.015888;86.045554;0.035365;
1321;1852;-0.059738;86.299217;0.999982;0.000877;-0.000526;0.001557;0.000071;0.001560;-0.000528;88.057527;0.001586;
1211;982;-3.583714;11.963267;0.999404;0.006330;-0.047975;0.113954;-0.010171;0.114591;-0.048611;-86.420013;0.115028;
1061;1777;0.038359;86.214437;1.000000;0.000134;-0.000533;0.001563;-0.000084;0.001567;-0.000536;-87.709149;0.001593;
1041;857;1.525016;3.811282;0.999918;0.003556;-0.016840;0.037034;0.006544;0.037817;-0.017623;83.172741;0.037846;
1161;1252;-1.392228;73.652291;0.999314;0.007165;-0.050323;0.122019;0.003086;0.122074;-0.050378;88.974416;0.122693;
1231;837;-1.311757;3.144150;0.999939;0.002552;-0.013952;0.030530;-0.005967;0.031317;-0.014738;-82.491312;0.031335;
1106;852;0.435529;3.627735;0.999935;0.002007;-0.015396;0.034841;0.001831;0.034907;-0.015463;87.915550;0.034983;
1141;1447;-0.084300;84.292846;0.999982;0.001389;-0.008985;0.021016;0.000299;0.021019;-0.008988;89.429846;0.021092;
1266;1657;-0.123137;86.015736;1.000000;0.000151;-0.000604;0.001812;0.000426;0.001885;-0.000677;80.296759;0.001910;
1171;837;-0.487132;3.146194;0.999939;0.001788;-0.013436;0.030647;-0.002225;0.030759;-0.013548;-87.117946;0.030832;
1086;852;0.740658;3.619999;0.999939;0.002028;-0.015587;0.035014;0.003192;0.035214;-0.015788;86.404545;0.035277;
1076;1502;0.274043;85.166445;0.999988;0.001008;-0.004991;0.011918;-0.001629;0.012074;-0.005147;-84.546709;0.012117;
1231;1902;-0.005099;86.394379;0.999999;0.000241;-0.000060;0.001370;0.000191;0.001395;-0.000085;82.527946;0.001564;
1191;982;-2.614547;11.814315;0.999282;0.005646;-0.046860;0.111629;-0.006959;0.111934;-0.047165;-87.490700;0.112394;
1056;1782;0.039742;86.222397;1.000000;0.000125;-0.000520;0.001554;-0.000090;0.001558;-0.000524;-87.528447;0.001586;
1201;1247;-3.671980;72.709559;0.999249;0.008194;-0.056382;0.136090;0.009322;0.136540;-0.056832;87.233518;0.137177;
1106;832;0.364176;3.005357;0.999946;0.002782;-0.012910;0.029185;0.001570;0.029244;-0.012969;87.867033;0.029306;
1116;832;0.237129;3.003071;0.999937;0.001942;-0.012862;0.029183;0.000975;0.029206;-0.012884;88.672813;0.029273;
1106;857;0.452731;3.803455;0.999931;0.002076;-0.016076;0.036345;0.001897;0.036413;-0.016144;87.929791;0.036491;
1151;847;-0.239160;3.451164;0.999931;0.001831;-0.014652;0.033332;-0.001136;0.033359;-0.014679;-88.645148;0.033439;
1271;1657;-0.125977;86.016676;1.000000;0.000152;-0.000582;0.001783;0.000444;0.001864;-0.000663;79.702465;0.001889;
1206;842;-1.008897;3.304620;0.999955;0.002242;-0.014447;0.032211;-0.004500;0.032641;-0.014877;-84.541677;0.032684;
1146;1447;-0.125586;84.289422;0.999980;0.001319;-0.008966;0.020998;0.000500;0.021006;-0.008974;89.044879;0.021080;
1026;622;0.129342;0.477159;0.999996;0.000710;-0.001032;0.002802;0.000670;0.002916;-0.001146;80.363583;0.002938;
1146;1892;-0.000839;86.381613;0.999999;0.000222;-0.000084;0.001309;0.000025;0.001310;-0.000084;88.973034;0.001466;
1056;1787;0.038544;86.230270;1.000000;0.000108;-0.000505;0.001546;-0.000092;0.001550;-0.000509;-87.436473;0.001580;
1181;847;-0.684648;3.454739;0.999935;0.002315;-0.014825;0.033504;-0.002963;0.033685;-0.015006;-86.504520;0.033752;
1006;637;0.169203;0.516698;0.999997;0.000521;-0.001219;0.003510;0.001075;0.003743;-0.001451;77.776365;0.003774;
1151;1447;-0.171561;84.283394;0.999978;0.001157;-0.008956;0.020989;0.000709;0.021006;-0.008972;88.644291;0.021080;
1041;657;0.155240;0.606937;0.999996;0.000563;-0.001724;0.004464;0.001030;0.004631;-0.001891;80.789988;0.004657;
1106;1252;1.354080;73.684760;0.999304;0.006880;-0.049208;0.118666;-0.003643;0.118745;-0.049287;-88.757411;0.119314;
1171;842;-0.510945;3.297735;0.999933;0.002028;-0.014071;0.032056;-0.002273;0.032168;-0.014182;-87.185784;0.032242;
1276;1657;-0.128285;86.017782;1.000000;0.000193;-0.000554;0.001760;0.000454;0.001846;-0.000640;79.281902;0.001875;
1131;862;0.052464;3.980896;0.999924;0.003212;-0.016651;0.037926;0.000112;0.037926;-0.016651;89.882101;0.038020;
1211;842;-1.084021;3.304132;0.999953;0.002225;-0.014526;0.032235;-0.004844;0.032732;-0.015023;-84.146945;0.032768;
1246;1892;-0.010325;86.379807;0.999999;0.000216;-0.000112;0.001391;0.000213;0.001420;-0.000142;82.072679;0.001565;
1146;717;-0.037206;0.984277;0.999997;0.000515;-0.003584;0.008920;-0.000251;0.008925;-0.003589;-88.852405;0.008981;
1056;1792;0.036963;86.237059;1.000000;0.000112;-0.000489;0.001536;-0.000094;0.001541;-0.000493;-87.341559;0.001573;
1186;847;-0.755998;3.461114;0.999938;0.001913;-0.014884;0.033537;-0.003294;0.033760;-0.015107;-86.126214;0.033822;
1006;642;0.178889;0.535159;0.999996;0.000532;-0.001344;0.003787;0.001168;0.004040;-0.001597;77.763233;0.004069;
1101;837;0.451345;3.155159;0.999934;0.002202;-0.013525;0.030601;0.001937;0.030686;-0.013610;87.491971;0.030751;
1131;1447;0.004058;84.293606;0.999982;0.001268;-0.009050;0.021047;-0.000113;0.021047;-0.009050;-89.784011;0.021116;
1036;622;0.118373;0.483905;0.999997;0.000431;-0.001068;0.002814;0.000600;0.002905;-0.001158;81.407887;0.002925;
1156;1247;-1.198205;73.069842;0.999362;0.007420;-0.052199;0.127690;0.002393;0.127722;-0.052231;89.238114;0.128426;
1216;842;-1.155014;3.306060;0.999945;0.001994;-0.014547;0.032189;-0.005192;0.032759;-0.015117;-83.736580;0.032792;
1131;867;0.057860;4.171238;0.999928;0.003148;-0.017367;0.039641;0.000134;0.039641;-0.017367;89.865499;0.039742;
1066;1617;0.083377;85.903723;0.999999;0.000342;-0.001229;0.002973;-0.000431;0.003017;-0.001273;-84.208470;0.003029;
1206;1897;-0.004790;86.386998;0.999999;0.000201;-0.000075;0.001357;0.000131;0.001368;-0.000087;84.832485;0.001532;
1151;717;-0.055250;0.984632;0.999997;0.000524;-0.003592;0.008933;-0.000365;0.008944;-0.003603;-88.331643;0.009000;
1056;1797;0.035583;86.245299;1.000000;0.000128;-0.000473;0.001524;-0.000096;0.001529;-0.000477;-87.252565;0.001564;
1191;852;-0.869299;3.621222;0.999931;0.002563;-0.015621;0.035049;-0.003754;0.035326;-0.015898;-85.786013;0.035385;
1141;717;-0.019311;0.984226;0.999996;0.000463;-0.003579;0.008904;-0.000138;0.008906;-0.003580;-89.368667;0.008962;
1136;1447;-0.038642;84.292947;0.999982;0.001210;-0.009005;0.021026;0.000095;0.021026;-0.009006;89.819681;0.021098;
1161;1247;-1.456172;73.048277;0.999321;0.008424;-0.052545;0.128522;0.003033;0.128573;-0.052596;89.040753;0.129279;
1106;837;0.381396;3.157674;0.999937;0.002979;-0.013498;0.030574;0.001627;0.030634;-0.013558;87.889060;0.030701;
1196;847;-0.903973;3.459394;0.999949;0.002107;-0.014998;0.033614;-0.003956;0.033934;-0.015318;-85.377651;0.033987;
1131;872;0.062142;4.369022;0.999920;0.002738;-0.018128;0.041337;0.000171;0.041338;-0.018128;89.835399;0.041442;
1181;702;-0.130570;0.866272;0.999997;0.000761;-0.002986;0.007453;-0.000892;0.007529;-0.003062;-85.150210;0.007572;
1041;1637;0.100931;85.966119;1.000000;0.000192;-0.000933;0.002380;-0.000427;0.002434;-0.000987;-82.765312;0.002448;
1236;1632;-0.116355;85.954642;0.999999;0.000221;-0.000956;0.002523;0.000524;0.002600;-0.001033;81.622991;0.002618;
1156;717;-0.074588;0.985309;0.999996;0.000479;-0.003596;0.008947;-0.000483;0.008965;-0.003614;-87.799140;0.009021;
1061;1797;0.033059;86.245604;1.000000;0.000126;-0.000469;0.001523;-0.000091;0.001528;-0.000473;-87.386223;0.001564;
1161;842;-0.374500;3.297570;0.999941;0.001874;-0.014042;0.032001;-0.001683;0.032063;-0.014103;-87.909671;0.032140;
1126;1447;0.049544;84.292765;0.999979;0.001507;-0.009082;0.021077;-0.000324;0.021080;-0.009085;-89.385032;0.021147;
1196;1252;-3.214885;73.427268;0.999173;0.007121;-0.053448;0.128214;0.008126;0.128576;-0.053810;87.443913;0.129144;
1131;857;0.051899;3.793856;0.999932;0.002498;-0.015960;0.036261;0.000095;0.036261;-0.015960;89.895240;0.036347;
1116;882;0.368599;4.795971;0.999926;0.002518;-0.019834;0.044940;0.001366;0.044969;-0.019863;88.792436;0.045070;
1266;607;-0.133997;0.430518;0.999995;0.000531;-0.000754;0.002197;-0.000613;0.002319;-0.000876;-78.721713;0.002342;
1216;837;-1.100729;3.145098;0.999953;0.001953;-0.013878;0.030710;-0.005035;0.031271;-0.014440;-83.637063;0.031302;
1031;622;0.124368;0.481101;0.999997;0.000516;-0.001045;0.002810;0.000638;0.002913;-0.001148;80.840789;0.002935;
1046;1637;0.096712;85.964423;1.000000;0.000178;-0.000961;0.002405;-0.000405;0.002453;-0.001009;-83.230071;0.002466;
1241;1632;-0.120824;85.956514;0.999999;0.000286;-0.000931;0.002508;0.000551;0.002594;-0.001017;81.117747;0.002614;
1031;857;1.690852;3.811367;0.999912;0.003278;-0.016953;0.037013;0.007322;0.037988;-0.017929;82.409411;0.038008;
1066;1797;0.030645;86.245895;1.000000;0.000130;-0.000465;0.001523;-0.000085;0.001526;-0.000469;-87.558151;0.001564;
1186;702;-0.145033;0.866456;0.999996;0.000647;-0.003009;0.007488;-0.000990;0.007580;-0.003102;-84.659231;0.007622;
1156;1447;-0.217377;84.281417;0.999973;0.001104;-0.008949;0.020987;0.000921;0.021015;-0.008977;88.238561;0.021089;
1046;862;1.496407;3.995763;0.999923;0.004078;-0.017538;0.038689;0.006341;0.039395;-0.018244;83.645264;0.039431;
1221;837;-1.171573;3.142056;0.999944;0.001761;-0.013904;0.030632;-0.005323;0.031259;-0.014531;-83.278541;0.031285;
1106;842;0.400345;3.313521;0.999946;0.002026;-0.014110;0.032052;0.001699;0.032115;-0.014172;87.895181;0.032189;
1116;1252;0.858344;73.711050;0.999312;0.005944;-0.048905;0.118494;-0.002415;0.118529;-0.048939;-89.173786;0.119127;
1051;1637;0.091872;85.962269;1.000000;0.000208;-0.000986;0.002432;-0.000384;0.002475;-0.001028;-83.674812;0.002486;
1036;597;0.104818;0.422394;0.999996;0.000770;-0.000848;0.002172;0.000390;0.002221;-0.000897;82.760860;0.002235;
1036;857;1.606445;3.810936;0.999921;0.002977;-0.016885;0.037045;0.006924;0.037920;-0.017760;82.799408;0.037945;
1246;667;-0.206037;0.647848;0.999997;0.000467;-0.002043;0.005222;-0.001445;0.005499;-0.002320;-79.151747;0.005522;
1246;1632;-0.125156;85.958485;0.999999;0.000248;-0.000905;0.002493;0.000579;0.002589;-0.001001;80.593423;0.002611;
1041;1772;0.050755;86.205202;1.000000;0.000144;-0.000550;0.001570;-0.000104;0.001575;-0.000555;-87.208046;0.001598;
1016;627;0.144033;0.486826;0.999997;0.000550;-0.001082;0.003003;0.000815;0.003159;-0.001238;79.117771;0.003184;
1241;837;-1.451829;3.147082;0.999923;0.002309;-0.013954;0.030178;-0.006626;0.031152;-0.014927;-81.642982;0.031161;
1161;1447;-0.259040;84.281459;0.999973;0.001121;-0.008972;0.020997;0.001131;0.021040;-0.009014;87.841986;0.021111;
1026;827;1.351522;2.876302;0.999951;0.002349;-0.012746;0.027989;0.006150;0.028897;-0.013654;81.598372;0.028912;
1106;847;0.417255;3.463836;0.999944;0.001567;-0.014745;0.033472;0.001777;0.033537;-0.014811;87.892128;0.033613;
1191;1257;-2.827512;74.052230;0.999101;0.007798;-0.050663;0.120976;0.007180;0.121275;-0.050963;87.608748;0.121789;
1196;982;-2.850007;11.839776;0.999324;0.008060;-0.047286;0.112310;-0.007660;0.112677;-0.047653;-87.258578;0.113122;
1111;837;0.315427;3.151946;0.999931;0.002473;-0.013479;0.030558;0.001314;0.030597;-0.013518;88.292862;0.030666;
1196;692;-0.151131;0.794953;0.999996;0.000623;-0.002665;0.006641;-0.001063;0.006760;-0.002785;-83.567349;0.006795;
1046;1827;0.030572;86.289271;1.000000;0.000240;-0.000372;0.001480;-0.000123;0.001488;-0.000380;-86.218169;0.001546;
1226;657;-0.146472;0.604434;0.999997;0.000603;-0.001715;0.004408;-0.001003;0.004568;-0.001875;-80.929693;0.004592;
956;1857;0.050859;86.315203;0.999999;0.000232;-0.000538;0.001574;-0.000099;0.001578;-0.000542;-87.327530;0.001604;
1021;627;0.139511;0.488629;0.999997;0.000610;-0.001091;0.003003;0.000776;0.003145;-0.001233;79.617956;0.003169;
1031;827;1.283303;2.873573;0.999948;0.002554;-0.012735;0.028050;0.005863;0.028876;-0.013561;81.980469;0.028894;
1126;877;0.162689;4.569633;0.999945;0.002375;-0.018939;0.043067;0.000552;0.043072;-0.018944;89.490206;0.043176;
1166;1447;-0.302850;84.278369;0.999979;0.001241;-0.008994;0.021018;0.001348;0.021079;-0.009054;87.433557;0.021148;
1041;977;4.274801;11.595853;0.999273;0.008770;-0.047807;0.112849;0.013666;0.114003;-0.048961;85.172288;0.114380;
1101;842;0.470320;3.310170;0.999942;0.002102;-0.014131;0.032094;0.002019;0.032182;-0.014219;87.503397;0.032254;
1206;1232;-4.531000;70.615974;0.999107;0.010397;-0.064548;0.160792;0.010946;0.161322;-0.065079;87.225550;0.162323;
1116;837;0.243274;3.154908;0.999936;0.002014;-0.013465;0.030546;0.000998;0.030568;-0.013488;88.701323;0.030639;
1166;847;-0.463504;3.452013;0.999932;0.001863;-0.014714;0.033411;-0.002026;0.033497;-0.014799;-87.593992;0.033572;
956;1862;0.047490;86.323508;0.999999;0.000181;-0.000525;0.001593;-0.000118;0.001600;-0.000532;-86.812473;0.001629;
1046;1832;0.028940;86.296582;1.000000;0.000208;-0.000352;0.001470;-0.000126;0.001479;-0.000361;-86.058419;0.001542;
1051;632;0.109776;0.518116;0.999996;0.000487;-0.001258;0.003186;0.000595;0.003264;-0.001336;82.502221;0.003282;
1036;827;1.219875;2.868549;0.999942;0.002282;-0.012725;0.028084;0.005571;0.028831;-0.013472;82.364627;0.028851;
1026;627;0.134111;0.491744;0.999996;0.000688;-0.001106;0.003005;0.000742;0.003134;-0.001235;80.073807;0.003158;
1131;877;0.061687;4.565629;0.999927;0.002495;-0.018914;0.043047;0.000187;0.043047;-0.018915;89.827012;0.043153;
1121;1442;0.100151;84.180736;0.999972;0.001399;-0.009606;0.022153;-0.000535;0.022162;-0.009615;-89.034361;0.022227;
1046;977;4.033483;11.536122;0.999398;0.007327;-0.047559;0.112349;0.012552;0.113328;-0.048538;85.539003;0.113716;
1211;1232;-4.875752;70.538310;0.999077;0.012427;-0.064876;0.162164;0.012003;0.162797;-0.065509;86.982227;0.163828;
1101;847;0.490567;3.462539;0.999937;0.001925;-0.014775;0.033514;0.002107;0.033606;-0.014866;87.506819;0.033680;
1121;837;0.176606;3.157730;0.999937;0.002067;-0.013441;0.030539;0.000676;0.030550;-0.013451;89.119794;0.030622;
956;1867;0.043584;86.330406;0.999999;0.000156;-0.000507;0.001621;-0.000148;0.001631;-0.000517;-86.047929;0.001667;
1151;852;-0.254538;3.625625;0.999922;0.001889;-0.015323;0.034745;-0.001147;0.034771;-0.015349;-88.688713;0.034850;
1046;1837;0.027345;86.304822;1.000000;0.000170;-0.000332;0.001457;-0.000130;0.001466;-0.000341;-85.863884;0.001535;
1226;837;-1.238432;3.143376;0.999942;0.002100;-0.013919;0.030595;-0.005646;0.031300;-0.014624;-82.883212;0.031322;
971;572;0.129341;0.361684;0.999997;0.000532;-0.000421;0.001532;0.000377;0.001602;-0.000491;79.441087;0.001642;
1051;972;3.631876;10.970484;0.999373;0.007549;-0.045379;0.106668;0.011125;0.107478;-0.046188;85.837216;0.107831;
1236;667;-0.185052;0.648797;0.999996;0.000496;-0.002009;0.005128;-0.001297;0.005357;-0.002238;-80.012189;0.005381;
1111;842;0.330831;3.308347;0.999945;0.002273;-0.014095;0.032020;0.001366;0.032061;-0.014136;88.304555;0.032135;
1216;1232;-5.218998;70.444069;0.998884;0.010901;-0.065225;0.163459;0.013104;0.164207;-0.065974;86.731005;0.165260;
1121;1447;0.095155;84.292094;0.999976;0.001297;-0.009125;0.021103;-0.000525;0.021112;-0.009134;-89.004992;0.021176;
1101;852;0.512505;3.621243;0.999923;0.001896;-0.015435;0.034887;0.002174;0.034981;-0.015529;87.530747;0.035054;
961;1867;0.041158;86.333916;1.000000;0.000173;-0.000476;0.001605;-0.000160;0.001618;-0.000489;-85.634818;0.001659;
1121;832;0.174642;3.002924;0.999934;0.002340;-0.012834;0.029184;0.000667;0.029195;-0.012845;89.090806;0.029265;
1196;857;-0.992012;3.799915;0.999926;0.002208;-0.016387;0.036658;-0.004244;0.036996;-0.016724;-85.454918;0.037052;
971;577;0.131772;0.370879;0.999997;0.000519;-0.000435;0.001619;0.000399;0.001693;-0.000510;79.374532;0.001738;
1091;832;0.559197;3.003134;0.999942;0.002284;-0.013003;0.029210;0.002471;0.029354;-0.013147;86.661757;0.029407;
1031;1732;0.069788;86.139700;1.000000;0.000169;-0.000628;0.001620;-0.000138;0.001629;-0.000636;-86.492641;0.001642;
1216;972;-3.513016;10.934596;0.999385;0.006034;-0.044303;0.103912;-0.010750;0.104688;-0.045078;-85.873086;0.105024;
1116;842;0.251507;3.307334;0.999947;0.002413;-0.014083;0.032001;0.001031;0.032024;-0.014106;88.718558;0.032099;
1201;862;-1.121822;3.990698;0.999933;0.002064;-0.017183;0.038413;-0.004725;0.038812;-0.017582;-85.176186;0.038869;
1111;1437;0.211705;84.065439;0.999969;0.001763;-0.010158;0.023302;-0.001038;0.023334;-0.010190;-88.224648;0.023396;
1226;842;-1.298191;3.305229;0.999929;0.002588;-0.014597;0.032090;-0.005841;0.032809;-0.015316;-82.975878;0.032833;
1111;1252;1.097784;73.691408;0.999337;0.007413;-0.049073;0.118537;-0.003028;0.118592;-0.049128;-88.965288;0.119172;
966;1867;0.039050;86.335797;0.999999;0.000204;-0.000454;0.001588;-0.000167;0.001601;-0.000467;-85.347589;0.001647;
971;582;0.134768;0.379927;0.999997;0.000476;-0.000419;0.001640;0.000445;0.001732;-0.000511;78.304561;0.001780;
1131;852;0.053761;3.618818;0.999941;0.002031;-0.015285;0.034741;0.000077;0.034741;-0.015285;89.911862;0.034825;
1201;857;-1.072105;3.800015;0.999939;0.002048;-0.016439;0.036706;-0.004601;0.037102;-0.016834;-85.088466;0.037155;
1216;977;-3.668363;11.453888;0.999426;0.007558;-0.046215;0.108910;-0.010947;0.109678;-0.046984;-85.983145;0.110053;
1026;857;1.784415;3.818069;0.999880;0.003160;-0.016991;0.036922;0.007681;0.037995;-0.018064;82.047878;0.038010;
1056;977;3.545750;11.448397;0.999308;0.008108;-0.047034;0.110849;0.010557;0.111552;-0.047737;86.191561;0.111937;
1131;1452;0.005534;84.392523;0.999982;0.001329;-0.008604;0.020075;-0.000116;0.020076;-0.008604;-89.769172;0.020144;
1086;857;0.774479;3.805025;0.999927;0.002460;-0.016297;0.036540;0.003293;0.036745;-0.016502;86.447746;0.036808;
1096;1857;0.008628;86.335201;0.999999;0.000231;-0.000232;0.001380;-0.000065;0.001383;-0.000235;-87.693969;0.001480;
1276;1902;-0.008038;86.392472;0.999999;0.000289;-0.000093;0.001474;0.000297;0.001529;-0.000147;79.606732;0.001686;
1096;832;0.495401;3.005775;0.999944;0.002077;-0.012975;0.029199;0.002169;0.029311;-0.013086;87.063353;0.029367;
1216;982;-3.829785;12.002292;0.999414;0.008704;-0.048278;0.114594;-0.011067;0.115343;-0.049026;-86.130588;0.115774;
1166;707;-0.092600;0.898712;0.999996;0.000581;-0.003147;0.007866;-0.000633;0.007902;-0.003183;-86.719471;0.007952;
1206;857;-1.156439;3.796855;0.999936;0.001936;-0.016522;0.036757;-0.004967;0.037216;-0.016982;-84.718761;0.037263;
1201;1242;-3.836272;72.035104;0.999273;0.008627;-0.058882;0.143768;0.009552;0.144217;-0.059331;87.307305;0.144970;
1171;987;-1.742696;12.232789;0.999335;0.009767;-0.047543;0.114867;-0.004563;0.114995;-0.047671;-88.391876;0.115553;
1181;852;-0.719387;3.618793;0.999925;0.002413;-0.015504;0.034948;-0.003064;0.035133;-0.015689;-86.537071;0.035200;
1061;977;3.316624;11.412571;0.999344;0.008917;-0.046818;0.110004;0.009627;0.110593;-0.047407;86.500355;0.110967;
1136;1452;-0.035036;84.391034;0.999985;0.001102;-0.008572;0.020050;0.000085;0.020050;-0.008572;89.830743;0.020120;
1176;847;-0.613004;3.451749;0.999935;0.002504;-0.014788;0.033476;-0.002635;0.033619;-0.014931;-86.884285;0.033689;
1101;1857;0.007182;86.335360;1.000000;0.000234;-0.000229;0.001379;-0.000055;0.001381;-0.000231;-88.027102;0.001479;
1101;832;0.430555;3.007053;0.999945;0.002185;-0.012935;0.029195;0.001866;0.029277;-0.013017;87.468689;0.029337;
1141;857;-0.110829;3.798029;0.999922;0.002467;-0.015950;0.036267;-0.000511;0.036272;-0.015955;-89.438977;0.036360;
986;587;0.131989;0.389103;0.999995;0.000598;-0.000519;0.001703;0.000461;0.001795;-0.000611;78.727692;0.001825;
1086;1612;0.061448;85.881241;0.999999;0.000214;-0.001323;0.003127;-0.000317;0.003149;-0.001346;-85.944870;0.003160;
1216;992;-4.163330;13.088668;0.999325;0.006471;-0.052686;0.126489;-0.011315;0.127200;-0.053397;-86.400689;0.127745;
1176;1257;-2.061610;74.162928;0.999149;0.007273;-0.049227;0.118248;0.005214;0.118411;-0.049389;88.218581;0.118952;
1151;992;-0.833324;12.699379;0.999389;0.008521;-0.049126;0.118988;-0.002237;0.119018;-0.049156;-89.237674;0.119616;
1046;867;1.573628;4.201042;0.999900;0.003906;-0.018358;0.040533;0.006513;0.041245;-0.019070;83.763740;0.041284;
1066;977;3.064092;11.373442;0.999263;0.008129;-0.046603;0.109195;0.008725;0.109682;-0.047090;86.804549;0.110047;
1141;1452;-0.077759;84.387211;0.999986;0.001212;-0.008555;0.020033;0.000284;0.020036;-0.008557;89.430221;0.020106;
1091;852;0.667566;3.619431;0.999929;0.002112;-0.015552;0.034970;0.002848;0.035130;-0.015712;86.783943;0.035195;
1106;1857;0.006103;86.334789;0.999999;0.000226;-0.000227;0.001379;-0.000048;0.001380;-0.000228;-88.285752;0.001480;
1311;1687;-0.130197;86.069078;0.999660;0.005209;-0.000209;0.001468;0.000130;0.001477;-0.000218;85.606168;0.001595;
1226;967;-3.811332;10.543238;0.999350;0.007179;-0.042901;0.100289;-0.012030;0.101292;-0.043905;-85.230717;0.101591;
1221;992;-4.432766;13.142177;0.999429;0.006515;-0.053021;0.127166;-0.012296;0.128001;-0.053856;-86.114239;0.128536;
1086;862;0.812171;4.000972;0.999917;0.002429;-0.017038;0.038247;0.003388;0.038454;-0.017245;86.506684;0.038522;
1151;1242;-0.976751;72.470463;0.999160;0.006773;-0.054222;0.133444;0.001895;0.133463;-0.054241;89.421663;0.134240;
1061;872;1.355951;4.394689;0.999890;0.002459;-0.018973;0.042327;0.005529;0.042822;-0.019468;84.886851;0.042881;
1046;652;0.138908;0.588778;0.999997;0.000444;-0.001606;0.004158;0.000899;0.004295;-0.001743;81.334514;0.004320;
1236;837;-1.380546;3.144435;0.999931;0.002703;-0.013958;0.030405;-0.006293;0.031281;-0.014833;-82.080502;0.031295;
1216;1517;-0.341698;85.311871;0.999986;0.000855;-0.004319;0.010270;0.002058;0.010555;-0.004603;82.122126;0.010583;
1041;1777;0.049064;86.212303;1.000000;0.000120;-0.000537;0.001562;-0.000104;0.001567;-0.000542;-87.170481;0.001592;
1146;1452;-0.117474;84.382835;0.999985;0.001137;-0.008530;0.020003;0.000484;0.020011;-0.008538;89.027630;0.020082;
1226;982;-4.347499;12.088407;0.999496;0.008036;-0.048782;0.115244;-0.013035;0.116273;-0.049812;-85.484483;0.116670;
1051;977;3.786016;11.490451;0.999390;0.006716;-0.047305;0.111664;0.011505;0.112492;-0.048134;85.881821;0.112881;
1221;682;-0.189677;0.736275;0.999997;0.000426;-0.002416;0.006062;-0.001336;0.006267;-0.002621;-81.253189;0.006295;
1046;987;4.422220;12.696990;0.999323;0.007786;-0.051972;0.124557;0.013236;0.125544;-0.052959;85.735698;0.126055;
1226;1847;-0.025525;86.317737;0.999999;0.000206;-0.000299;0.001453;0.000147;0.001465;-0.000312;85.223558;0.001544;
1056;872;1.452166;4.402005;0.999907;0.002269;-0.019020;0.042346;0.005984;0.042924;-0.019598;84.482535;0.042978;
1156;1242;-1.247340;72.461828;0.999250;0.007948;-0.054485;0.134327;0.002472;0.134359;-0.054517;89.249888;0.135153;
1211;857;-1.237842;3.803728;0.999940;0.001821;-0.016620;0.036822;-0.005337;0.037350;-0.017148;-84.352708;0.037391;
1126;832;0.110501;3.006248;0.999938;0.002378;-0.012800;0.029191;0.000367;0.029194;-0.012804;89.498676;0.029267;
1226;987;-4.531968;12.643518;0.999509;0.008595;-0.050941;0.121269;-0.013160;0.122268;-0.051941;-85.655276;0.122728;
1041;1782;0.047343;86.220330;1.000000;0.000127;-0.000523;0.001556;-0.000105;0.001561;-0.000529;-87.118843;0.001588;
1051;987;4.149943;12.638201;0.999334;0.007907;-0.051742;0.123873;0.012115;0.124704;-0.052574;86.072142;0.125215;
1126;1452;0.048695;84.394916;0.999979;0.001245;-0.008627;0.020103;-0.000318;0.020107;-0.008631;-89.365859;0.020174;
1236;842;-1.448668;3.306147;0.999923;0.002884;-0.014640;0.031921;-0.006519;0.032817;-0.015536;-82.178761;0.032832;
1216;1522;-0.319936;85.363905;0.999987;0.000909;-0.004070;0.009681;0.001959;0.009954;-0.004344;82.048047;0.009981;
1146;857;-0.189674;3.796116;0.999923;0.002571;-0.015985;0.036275;-0.000833;0.036289;-0.015998;-89.086656;0.036373;
1161;1242;-1.525133;72.429192;0.999249;0.009796;-0.054841;0.135307;0.003127;0.135358;-0.054892;89.058224;0.136161;
1221;687;-0.203457;0.766718;0.999996;0.000512;-0.002584;0.006450;-0.001415;0.006667;-0.002800;-81.303186;0.006695;
1096;1007;2.203883;14.647390;0.999178;0.009400;-0.057812;0.143378;0.005095;0.143507;-0.057941;88.550388;0.144390;
1261;1742;-0.081971;86.152612;1.000000;0.000188;-0.000584;0.001573;0.000158;0.001584;-0.000596;85.822688;0.001600;
1051;867;1.481311;4.197662;0.999919;0.003102;-0.018299;0.040501;0.006131;0.041134;-0.018931;84.109852;0.041177;
1176;987;-1.997908;12.247915;0.999373;0.007903;-0.047758;0.115298;-0.005186;0.115463;-0.047923;-88.180018;0.116017;
1056;987;3.874935;12.574070;0.999201;0.007923;-0.051473;0.122996;0.011098;0.123699;-0.052176;86.374776;0.124202;
1046;1782;0.044793;86.220979;1.000000;0.000119;-0.000524;0.001555;-0.000100;0.001560;-0.000529;-87.244982;0.001587;
1151;1452;-0.163054;84.380641;0.999983;0.001144;-0.008520;0.019976;0.000690;0.019992;-0.008537;88.613843;0.020063;
1091;857;0.697454;3.801470;0.999914;0.002309;-0.016254;0.036494;0.002943;0.036658;-0.016418;86.816559;0.036724;
1151;857;-0.266464;3.800407;0.999909;0.002680;-0.016014;0.036297;-0.001156;0.036322;-0.016039;-88.735017;0.036405;
1206;992;-3.632279;13.008446;0.999409;0.007216;-0.052046;0.124822;-0.009543;0.125336;-0.052560;-86.920605;0.125878;
1216;1527;-0.299722;85.414455;0.999988;0.000896;-0.003834;0.009172;0.001862;0.009434;-0.004095;82.009291;0.009461;
1201;1237;-4.020540;71.373392;0.999183;0.007731;-0.061496;0.151580;0.009647;0.152016;-0.061931;87.413058;0.152883;
1036;602;0.106977;0.433911;0.999996;0.000710;-0.000879;0.002250;0.000422;0.002306;-0.000935;82.460632;0.002320;
1056;867;1.387186;4.197094;0.999935;0.002509;-0.018237;0.040513;0.005776;0.041075;-0.018800;84.438368;0.041124;
1206;987;-3.488431;12.456131;0.999373;0.006599;-0.049834;0.118904;-0.009417;0.119428;-0.050358;-86.815521;0.119916;
1041;1832;0.031093;86.296573;1.000000;0.000186;-0.000355;0.001472;-0.000131;0.001481;-0.000364;-85.907294;0.001544;
1051;1782;0.042300;86.221627;1.000000;0.000102;-0.000522;0.001555;-0.000095;0.001559;-0.000527;-87.389697;0.001586;
1121;1452;0.092431;84.395232;0.999975;0.001061;-0.008669;0.020127;-0.000514;0.020136;-0.008678;-88.977217;0.020200;
1156;992;-1.063349;12.713192;0.999318;0.009504;-0.049236;0.119146;-0.002837;0.119194;-0.049284;-89.035026;0.119788;
1171;847;-0.538582;3.451186;0.999933;0.002210;-0.014739;0.033441;-0.002326;0.033553;-0.014851;-87.242653;0.033626;
1211;992;-3.894627;13.037620;0.999362;0.007143;-0.052336;0.125666;-0.010403;0.126272;-0.052942;-86.666701;0.126819;
1096;852;0.589268;3.617278;0.999927;0.002146;-0.015504;0.034930;0.002506;0.035054;-0.015628;87.161805;0.035123;
1261;672;-0.251927;0.670589;0.999997;0.000677;-0.002189;0.005621;-0.001773;0.006005;-0.002572;-77.789713;0.006025;
1041;1482;0.572052;84.900811;0.999978;0.001133;-0.006425;0.014825;-0.003195;0.015295;-0.006895;-81.631266;0.015320;
1111;832;0.301827;3.001554;0.999942;0.002313;-0.012886;0.029185;0.001273;0.029223;-0.012924;88.267964;0.029288;
1066;1242;3.696022;72.207420;0.999253;0.006718;-0.057163;0.137819;-0.009086;0.138242;-0.057586;-87.337728;0.138882;
1076;977;2.598907;11.296637;0.999323;0.008194;-0.045740;0.107818;0.007212;0.108156;-0.046078;87.316787;0.108550;
1041;1837;0.029102;86.304445;1.000000;0.000162;-0.000335;0.001461;-0.000136;0.001471;-0.000345;-85.707443;0.001538;
1161;1452;-0.247045;84.378450;0.999982;0.001139;-0.008527;0.019954;0.001103;0.019997;-0.008570;87.785277;0.020065;
1156;997;-1.110033;13.310229;0.999218;0.009656;-0.051311;0.124702;-0.002925;0.124751;-0.051360;-89.048340;0.125397;
1071;1797;0.028488;86.246354;1.000000;0.000125;-0.000464;0.001520;-0.000079;0.001523;-0.000467;-87.720562;0.001561;
1206;862;-1.209709;3.988951;0.999921;0.002404;-0.017273;0.038466;-0.005107;0.038930;-0.017737;-84.808175;0.038981;
1041;862;1.593879;4.003790;0.999898;0.003967;-0.017613;0.038715;0.006719;0.039506;-0.018404;83.291314;0.039536;
1266;672;-0.264272;0.670584;0.999996;0.000669;-0.002171;0.005630;-0.001849;0.006046;-0.002587;-77.317025;0.006067;
1096;1012;2.310765;15.301881;0.998718;0.007871;-0.060488;0.151316;0.005154;0.151442;-0.060613;88.606921;0.152443;
1041;987;4.705637;12.760008;0.998487;0.011909;-0.052167;0.124911;0.014441;0.126081;-0.053336;85.368259;0.126578;
1076;982;2.733293;11.834100;0.999052;0.008011;-0.047888;0.113505;0.007357;0.113840;-0.048223;87.395556;0.114282;
1041;1842;0.027122;86.311216;1.000000;0.000145;-0.000315;0.001450;-0.000140;0.001461;-0.000326;-85.493467;0.001534;
1116;1247;0.899790;73.156001;0.999262;0.007422;-0.051025;0.124130;-0.002199;0.124158;-0.051053;-89.280748;0.124809;
1051;1787;0.040743;86.229070;1.000000;0.000099;-0.000507;0.001546;-0.000097;0.001551;-0.000512;-87.296930;0.001581;
1211;862;-1.297009;3.989175;0.999916;0.002343;-0.017369;0.038535;-0.005486;0.039069;-0.017902;-84.448126;0.039114;
1271;672;-0.274694;0.668888;0.999995;0.000546;-0.002149;0.005617;-0.001920;0.006066;-0.002598;-76.841931;0.006087;
1101;857;0.533291;3.803543;0.999914;0.002197;-0.016119;0.036398;0.002252;0.036494;-0.016216;87.548834;0.036569;
1101;1012;1.982226;15.261432;0.999139;0.008949;-0.059986;0.150345;0.004480;0.150441;-0.060081;88.780454;0.151453;
1166;1452;-0.289965;84.376455;0.999983;0.001139;-0.008543;0.019962;0.001315;0.020022;-0.008604;87.364704;0.020088;
1041;982;4.530718;12.159841;0.998707;0.013194;-0.049880;0.118367;0.014147;0.119548;-0.051061;85.226836;0.119971;
1166;837;-0.424436;3.146285;0.999943;0.001902;-0.013427;0.030636;-0.001938;0.030721;-0.013512;-87.486170;0.030795;
1041;1487;0.538476;84.972791;0.999982;0.000933;-0.006071;0.014097;-0.003057;0.014550;-0.006524;-81.568062;0.014576;
1151;1012;-0.971592;15.137503;0.999019;0.007727;-0.057912;0.145574;-0.002477;0.145605;-0.057942;-89.302618;0.146612;
1046;1842;0.025427;86.311778;1.000000;0.000174;-0.000313;0.001446;-0.000134;0.001456;-0.000323;-85.669728;0.001529;
1051;1792;0.039207;86.236391;1.000000;0.000100;-0.000492;0.001537;-0.000099;0.001542;-0.000496;-87.207962;0.001574;
1216;857;-1.319762;3.803771;0.999934;0.002341;-0.016681;0.036802;-0.005656;0.037393;-0.017272;-84.028295;0.037430;
1111;1247;1.155096;73.139295;0.999214;0.008169;-0.051236;0.124229;-0.002815;0.124274;-0.051281;-89.081245;0.124905;
1261;652;-0.193890;0.569020;0.999997;0.000661;-0.001598;0.004328;-0.001327;0.004611;-0.001882;-77.934761;0.004637;
1216;1002;-4.528425;14.367749;0.999255;0.007548;-0.057735;0.140384;-0.011693;0.141072;-0.058423;-86.633913;0.141764;
1046;982;4.224000;12.121854;0.999384;0.007832;-0.049663;0.118031;0.012963;0.119027;-0.050659;85.605604;0.119465;
1166;987;-1.503153;12.215625;0.999266;0.007782;-0.047459;0.114550;-0.003969;0.114647;-0.047556;-88.597530;0.115201;
1171;1442;-0.364987;84.173510;0.999973;0.002051;-0.009491;0.022124;0.001623;0.022207;-0.009574;87.068916;0.022277;
1191;847;-0.830301;3.460911;0.999942;0.002186;-0.014939;0.033572;-0.003623;0.033841;-0.015209;-85.751844;0.033899;
1171;992;-1.790128;12.756416;0.999306;0.008697;-0.049558;0.120109;-0.004662;0.120237;-0.049686;-88.427204;0.120839;
1076;1497;0.291257;85.109855;0.999986;0.001301;-0.005308;0.012630;-0.001717;0.012792;-0.005471;-84.580727;0.012837;
1051;1842;0.023790;86.312328;0.999999;0.000197;-0.000310;0.001442;-0.000128;0.001452;-0.000319;-85.855545;0.001526;
1051;1797;0.037782;86.244468;1.000000;0.000116;-0.000476;0.001526;-0.000101;0.001531;-0.000481;-87.119028;0.001566;
1216;862;-1.381491;3.992303;0.999917;0.002371;-0.017432;0.038507;-0.005799;0.039102;-0.018027;-84.143141;0.039142;
1051;982;3.963922;12.070842;0.999407;0.006187;-0.049430;0.117418;0.011861;0.118257;-0.050269;85.953935;0.118699;
971;567;0.128205;0.354244;0.999996;0.000505;-0.000419;0.001491;0.000355;0.001555;-0.000483;79.795216;0.001591;
1201;997;-3.502339;13.570171;0.999390;0.006210;-0.054122;0.130458;-0.008722;0.130869;-0.054534;-87.300532;0.131473;
1106;1237;1.546477;71.937189;0.999255;0.007579;-0.056135;0.137882;-0.003289;0.137937;-0.056191;-89.029125;0.138724;
1191;992;-2.827478;12.864734;0.999406;0.009030;-0.051017;0.122706;-0.007137;0.122998;-0.051309;-87.651377;0.123560;
1171;1447;-0.348050;84.276544;0.999977;0.001383;-0.009026;0.021045;0.001572;0.021127;-0.009108;87.015817;0.021193;
1186;997;-2.703025;13.435856;0.999343;0.007570;-0.052809;0.128086;-0.006554;0.128323;-0.053046;-87.927840;0.128963;
1176;992;-2.062265;12.786387;0.999388;0.006846;-0.049806;0.120655;-0.005296;0.120820;-0.049970;-88.222023;0.121420;
1041;1787;0.045595;86.228619;1.000000;0.000148;-0.000508;0.001548;-0.000107;0.001554;-0.000514;-87.038752;0.001583;
1241;1507;-0.508086;85.200462;0.999985;0.000994;-0.004942;0.011529;0.002933;0.012036;-0.005449;80.198791;0.012054;
1206;997;-3.775004;13.612668;0.999405;0.007982;-0.054385;0.131375;-0.009665;0.131877;-0.054886;-87.029521;0.132493;
1166;1252;-1.645885;73.621460;0.999333;0.006960;-0.050681;0.122693;0.003789;0.122776;-0.050764;88.748478;0.123388;
1191;997;-2.957832;13.470261;0.999408;0.007850;-0.053269;0.128920;-0.007245;0.129208;-0.053556;-87.726348;0.129836;
1081;857;0.859983;3.806471;0.999937;0.002693;-0.016359;0.036595;0.003634;0.036843;-0.016607;86.092218;0.036903;
1261;1772;-0.070432;86.199133;1.000000;0.000201;-0.000529;0.001544;0.000122;0.001551;-0.000536;86.650088;0.001576;
1311;1692;-0.112288;86.074223;0.999821;0.004243;-0.000282;0.001422;0.000165;0.001438;-0.000297;84.528044;0.001518;
1206;692;-0.178246;0.795758;0.999996;0.000641;-0.002707;0.006728;-0.001236;0.006887;-0.002866;-82.659760;0.006919;
1171;1452;-0.331115;84.376277;0.999982;0.001138;-0.008572;0.019980;0.001531;0.020062;-0.008654;86.939038;0.020124;
1226;972;-3.976097;11.020725;0.999423;0.006712;-0.044675;0.104533;-0.012503;0.105573;-0.045716;-85.243104;0.105888;
1186;1002;-2.819434;14.065082;0.999420;0.006658;-0.055158;0.135016;-0.006740;0.135255;-0.055397;-87.972906;0.135990;
1046;1787;0.043152;86.229155;1.000000;0.000122;-0.000509;0.001547;-0.000102;0.001552;-0.000514;-87.153944;0.001582;
1211;997;-4.050077;13.659157;0.999367;0.007399;-0.054718;0.132306;-0.010565;0.132901;-0.055313;-86.777010;0.133521;
1046;1507;0.396378;85.223188;0.999985;0.001115;-0.004778;0.011319;-0.002397;0.011668;-0.005127;-81.708191;0.011697;
1191;1002;-3.083431;14.090627;0.999514;0.006467;-0.055657;0.135903;-0.007447;0.136192;-0.055946;-87.777028;0.136912;
1081;862;0.899422;4.001456;0.999926;0.003337;-0.017101;0.038306;0.003740;0.038558;-0.017352;86.155866;0.038622;
1211;692;-0.191903;0.795291;0.999997;0.000517;-0.002719;0.006774;-0.001325;0.006955;-0.002900;-82.201808;0.006987;
1136;1457;-0.031022;84.480751;0.999990;0.001022;-0.008150;0.019130;0.000087;0.019131;-0.008150;89.817959;0.019200;
956;1872;0.039329;86.339105;0.999999;0.000191;-0.000477;0.001635;-0.000184;0.001651;-0.000493;-85.053953;0.001695;
1171;997;-1.885133;13.324221;0.999240;0.008092;-0.051699;0.125892;-0.004707;0.126017;-0.051824;-88.482971;0.126677;
1121;1842;0.003526;86.314138;0.999999;0.000175;-0.000282;0.001407;-0.000019;0.001407;-0.000282;-89.360346;0.001489;
1186;1007;-2.925596;14.701295;0.999493;0.005682;-0.057622;0.142146;-0.006822;0.142379;-0.057855;-88.046523;0.143209;
1051;1802;0.036230;86.252859;1.000000;0.000122;-0.000460;0.001519;-0.000103;0.001525;-0.000465;-87.040298;0.001563;
1196;987;-2.972532;12.366488;0.999240;0.008292;-0.049336;0.117753;-0.007728;0.118110;-0.049693;-87.357639;0.118604;
1196;862;-1.037448;3.988045;0.999928;0.002133;-0.017127;0.038372;-0.004354;0.038711;-0.017466;-85.541770;0.038773;
1196;1002;-3.368307;14.149740;0.999555;0.006842;-0.056203;0.136911;-0.008201;0.137258;-0.056551;-87.572526;0.137965;
1071;1492;0.338894;85.047289;0.999984;0.001619;-0.005649;0.013387;-0.001971;0.013590;-0.005851;-84.149194;0.013633;
1096;837;0.519220;3.156429;0.999937;0.002027;-0.013570;0.030618;0.002249;0.030732;-0.013685;87.093772;0.030793;
1216;692;-0.204542;0.796050;0.999996;0.000488;-0.002737;0.006819;-0.001415;0.007024;-0.002942;-81.752011;0.007055;
1141;1457;-0.073284;84.481406;0.999989;0.001236;-0.008138;0.019107;0.000280;0.019110;-0.008141;89.411603;0.019180;
961;1872;0.037077;86.342078;1.000000;0.000182;-0.000447;0.001614;-0.000192;0.001632;-0.000465;-84.727940;0.001682;
1176;997;-2.158590;13.349632;0.999315;0.007952;-0.051980;0.126537;-0.005351;0.126698;-0.052140;-88.284712;0.127357;
1206;1007;-4.125254;14.920992;0.999419;0.009903;-0.059493;0.146045;-0.009965;0.146527;-0.059975;-87.230684;0.147328;
1121;1847;0.003321;86.321343;0.999999;0.000153;-0.000262;0.001400;-0.000019;0.001400;-0.000262;-89.358963;0.001488;
1056;1802;0.034218;86.253248;1.000000;0.000128;-0.000456;0.001517;-0.000098;0.001522;-0.000461;-87.173326;0.001561;
1196;992;-3.096798;12.922804;0.999369;0.007727;-0.051496;0.123506;-0.007866;0.123859;-0.051849;-87.431497;0.124405;
1206;1012;-4.310287;15.589604;0.999264;0.006936;-0.062199;0.154167;-0.010252;0.154652;-0.062684;-87.293292;0.155573;
1201;1002;-3.635309;14.198927;0.999488;0.008441;-0.056598;0.137529;-0.008893;0.137936;-0.057004;-87.382586;0.138626;
1016;1507;0.538530;85.211580;0.999987;0.001327;-0.004772;0.011377;-0.003128;0.011962;-0.005356;-79.412687;0.011983;
971;557;0.123989;0.339635;0.999996;0.000570;-0.000437;0.001481;0.000325;0.001535;-0.000491;80.630424;0.001568;
1096;842;0.543527;3.309362;0.999942;0.001977;-0.014179;0.032118;0.002338;0.032236;-0.014297;87.116536;0.032304;
966;1872;0.035103;86.344400;0.999999;0.000203;-0.000425;0.001593;-0.000195;0.001612;-0.000443;-84.519633;0.001666;
1146;1457;-0.112712;84.479922;0.999988;0.001063;-0.008117;0.019073;0.000475;0.019081;-0.008125;89.000306;0.019151;
1211;1007;-4.428143;14.991165;0.999344;0.009133;-0.059941;0.147130;-0.010892;0.147702;-0.060512;-86.997233;0.148503;
1181;992;-2.328563;12.811847;0.999300;0.006591;-0.050221;0.121294;-0.005876;0.121496;-0.050422;-88.040190;0.122079;
1211;1012;-4.616456;15.653821;0.999138;0.008152;-0.062640;0.155429;-0.011238;0.156007;-0.063217;-87.057731;0.156938;
1061;1802;0.032149;86.253481;1.000000;0.000145;-0.000451;0.001516;-0.000093;0.001520;-0.000456;-87.313539;0.001560;
1196;997;-3.227532;13.515961;0.999435;0.006858;-0.053770;0.129845;-0.007996;0.130192;-0.054118;-87.511294;0.130808;
1206;1642;-0.083412;85.967819;0.999999;0.000169;-0.001011;0.002431;0.000322;0.002460;-0.001041;84.707073;0.002470;
1206;1002;-3.928029;14.251463;0.999489;0.008724;-0.056897;0.138485;-0.009849;0.138981;-0.057393;-87.121494;0.139681;
966;1897;0.015016;86.382898;0.999999;0.000158;-0.000242;0.001607;-0.000315;0.001659;-0.000294;-80.603713;0.001771;
1021;1507;0.517562;85.216595;0.999986;0.001129;-0.004781;0.011365;-0.003010;0.011908;-0.005324;-79.776325;0.011930;
1096;847;0.564504;3.458642;0.999934;0.002019;-0.014827;0.033546;0.002428;0.033667;-0.014949;87.133451;0.033737;
1171;1002;-1.971973;13.953399;0.999148;0.008060;-0.053915;0.132823;-0.004827;0.132947;-0.054039;-88.520322;0.133720;
1151;1457;-0.154685;84.478204;0.999985;0.001076;-0.008109;0.019043;0.000676;0.019059;-0.008126;88.574957;0.019128;
1181;997;-2.429682;13.400257;0.999330;0.007916;-0.052425;0.127281;-0.005951;0.127477;-0.052621;-88.105292;0.128122;
1186;992;-2.580464;12.842682;0.999255;0.007465;-0.050575;0.121985;-0.006460;0.122226;-0.050816;-87.859162;0.122803;
1216;1012;-4.948517;15.718715;0.999037;0.009324;-0.063130;0.156697;-0.012251;0.157378;-0.063810;-86.820044;0.158313;
1221;1002;-4.857093;14.433227;0.999273;0.009225;-0.058107;0.141155;-0.012627;0.141952;-0.058904;-86.388456;0.142635;
1191;1252;-2.949765;73.463659;0.999056;0.008536;-0.052918;0.127147;0.007368;0.127448;-0.053219;87.660859;0.128024;
1036;1777;0.051778;86.212428;1.000000;0.000123;-0.000536;0.001560;-0.000108;0.001566;-0.000542;-87.056406;0.001590;
1161;987;-1.272077;12.193164;0.999210;0.009042;-0.047384;0.114325;-0.003377;0.114395;-0.047455;-88.804020;0.114947;
971;1897;0.014305;86.383632;0.999999;0.000201;-0.000225;0.001571;-0.000301;0.001620;-0.000274;-80.720026;0.001734;
1066;1842;0.019169;86.312656;0.999999;0.000193;-0.000300;0.001433;-0.000105;0.001439;-0.000307;-86.529695;0.001516;
1056;982;3.708740;12.015561;0.999272;0.008588;-0.049170;0.116625;0.010872;0.117335;-0.049880;86.264054;0.117772;
1181;842;-0.652099;3.301587;0.999943;0.002097;-0.014168;0.032092;-0.002886;0.032271;-0.014347;-86.443248;0.032337;
1166;842;-0.440918;3.295680;0.999934;0.001742;-0.014054;0.032034;-0.001981;0.032119;-0.014139;-87.543181;0.032196;
1186;1022;-3.329515;16.815331;0.999308;0.009984;-0.065864;0.166893;-0.007135;0.167112;-0.066083;-88.245777;0.168325;
1201;987;-3.218263;12.411138;0.999217;0.007434;-0.049620;0.118196;-0.008531;0.118628;-0.050053;-87.097474;0.119109;
1071;977;2.828910;11.329671;0.999240;0.009165;-0.046184;0.108602;0.007903;0.109004;-0.046587;87.084687;0.109387;
1146;1242;-0.700968;72.484016;0.999140;0.006848;-0.053923;0.132667;0.001340;0.132676;-0.053933;89.588469;0.133447;
1036;1782;0.049744;86.219903;1.000000;0.000124;-0.000523;0.001554;-0.000108;0.001560;-0.000528;-87.028030;0.001586;
976;1897;0.013413;86.383863;0.999999;0.000215;-0.000175;0.001536;-0.000300;0.001587;-0.000226;-80.333327;0.001717;
1221;1007;-5.065872;15.144823;0.999253;0.006741;-0.060866;0.149048;-0.012827;0.149829;-0.061647;-86.516199;0.150611;
1226;977;-4.156726;11.532289;0.999425;0.007180;-0.046698;0.109412;-0.012891;0.110470;-0.047756;-85.310963;0.110807;
1081;1002;2.970274;14.125641;0.998897;0.008514;-0.056818;0.138708;0.007178;0.138971;-0.057081;87.900312;0.139707;
1146;1857;-0.002715;86.334979;0.999999;0.000209;-0.000225;0.001377;0.000023;0.001378;-0.000225;89.187341;0.001478;
1186;842;-0.718592;3.303060;0.999949;0.001886;-0.014227;0.032116;-0.003201;0.032336;-0.014447;-86.067584;0.032397;
1201;992;-3.363186;12.966067;0.999386;0.005982;-0.051809;0.124020;-0.008635;0.124443;-0.052232;-87.195354;0.124977;
1156;847;-0.319705;3.454149;0.999933;0.002140;-0.014670;0.033345;-0.001428;0.033387;-0.014713;-88.297902;0.033466;
1191;1022;-3.674816;16.902061;0.999324;0.007662;-0.066507;0.168194;-0.007904;0.168460;-0.066773;-88.073420;0.169662;
1076;987;2.848737;12.388358;0.998891;0.006435;-0.050112;0.119517;0.007469;0.119845;-0.050440;87.483809;0.120344;
1181;1257;-2.315029;74.123218;0.999069;0.007063;-0.049734;0.119109;0.005840;0.119311;-0.049935;88.021333;0.119837;
1036;1787;0.048481;86.228381;1.000000;0.000158;-0.000509;0.001547;-0.000110;0.001553;-0.000515;-86.959147;0.001582;
1221;1012;-5.274792;15.784896;0.999026;0.008658;-0.063589;0.157888;-0.013304;0.158685;-0.064386;-86.574711;0.159622;
1216;997;-4.348177;13.696121;0.999278;0.007319;-0.055100;0.133165;-0.011491;0.133863;-0.055799;-86.520115;0.134479;
991;1892;0.014857;86.378352;0.999999;0.000272;-0.000159;0.001471;-0.000275;0.001516;-0.000204;-80.686834;0.001645;
1221;972;-3.745475;10.972698;0.999200;0.005446;-0.044508;0.104331;-0.011624;0.105233;-0.045411;-85.561176;0.105561;
1046;837;1.200745;3.155332;0.999947;0.001908;-0.013927;0.030670;0.005346;0.031302;-0.014559;83.259204;0.031327;
1161;847;-0.390123;3.455322;0.999932;0.001981;-0.014691;0.033376;-0.001722;0.033438;-0.014753;-87.950453;0.033515;
1196;1022;-4.011223;16.957719;0.999211;0.007778;-0.067272;0.169746;-0.008693;0.170064;-0.067591;-87.902430;0.171252;
1076;992;2.966112;12.904104;0.999077;0.006777;-0.052403;0.125770;0.007577;0.126092;-0.052725;87.569168;0.126654;
1191;1032;-4.004741;18.456040;0.999071;0.010333;-0.073065;0.188309;-0.008063;0.188558;-0.073313;-88.234819;0.190105;
1221;997;-4.641066;13.753494;0.999366;0.008136;-0.055470;0.133895;-0.012441;0.134709;-0.056284;-86.257038;0.135314;
1001;1707;0.097560;86.098657;1.000000;0.000188;-0.000581;0.001581;-0.000222;0.001604;-0.000603;-84.207745;0.001620;
1221;977;-3.915597;11.487570;0.999335;0.007534;-0.046456;0.109305;-0.011904;0.110210;-0.047361;-85.654802;0.110572;
1166;1247;-1.719993;73.023964;0.999381;0.008484;-0.052942;0.129379;0.003744;0.129456;-0.053019;88.823942;0.130160;
1191;1017;-3.512948;16.082539;0.999455;0.006993;-0.063621;0.158996;-0.007762;0.159266;-0.063891;-88.005552;0.160300;
996;1892;0.013914;86.378678;0.999999;0.000310;-0.000152;0.001453;-0.000265;0.001495;-0.000194;-80.864658;0.001626;
1066;1802;0.029410;86.253282;1.000000;0.000165;-0.000447;0.001515;-0.000086;0.001518;-0.000451;-87.499576;0.001559;
1211;1002;-4.228165;14.313169;0.999377;0.007796;-0.057298;0.139469;-0.010752;0.140055;-0.057884;-86.881487;0.140755;
1221;982;-4.087386;12.048194;0.999361;0.008776;-0.048518;0.115080;-0.012047;0.115962;-0.049401;-85.810851;0.116385;
1186;852;-0.792654;3.618807;0.999928;0.002464;-0.015562;0.034997;-0.003414;0.035227;-0.015792;-86.154464;0.035290;
1136;847;-0.020165;3.454189;0.999943;0.002024;-0.014634;0.033340;-0.000228;0.033341;-0.014635;-89.728145;0.033424;
1196;1027;-4.186821;17.774779;0.999302;0.009904;-0.070470;0.179646;-0.008766;0.179953;-0.070777;-87.995175;0.181314;
1076;997;3.110378;13.520519;0.999118;0.008786;-0.054838;0.132440;0.007712;0.132757;-0.055155;87.646037;0.133388;
1176;1032;-2.880704;18.291335;0.998994;0.014350;-0.070998;0.184152;-0.005831;0.184285;-0.071132;-88.691448;0.185875;
1046;1902;0.004515;86.393703;0.999999;0.000314;-0.000055;0.001330;-0.000162;0.001348;-0.000074;-83.401078;0.001516;
1036;1832;0.032853;86.296336;1.000000;0.000164;-0.000361;0.001475;-0.000135;0.001485;-0.000371;-85.805142;0.001546;
1196;1017;-3.839452;16.157702;0.999402;0.008880;-0.064344;0.160437;-0.008565;0.160763;-0.064669;-87.820914;0.161784;
1171;1247;-2.005875;72.981153;0.999393;0.006883;-0.053247;0.130296;0.004508;0.130407;-0.053358;88.593932;0.131122;
1041;1792;0.044089;86.236018;1.000000;0.000141;-0.000493;0.001539;-0.000108;0.001545;-0.000498;-86.955843;0.001577;
1061;982;3.475264;11.975103;0.999231;0.009582;-0.048959;0.115784;0.009907;0.116378;-0.049553;86.570979;0.116804;
1211;987;-3.735595;12.490042;0.999361;0.006555;-0.050096;0.119649;-0.010270;0.120268;-0.050715;-86.550276;0.120759;
1231;842;-1.372394;3.302721;0.999924;0.003122;-0.014631;0.032035;-0.006175;0.032839;-0.015434;-82.587984;0.032858;
1211;1017;-4.826082;16.363362;0.998928;0.008822;-0.065316;0.164898;-0.012020;0.165524;-0.065942;-87.019346;0.166660;
1141;847;-0.086385;3.451408;0.999947;0.002165;-0.014615;0.033331;-0.000524;0.033337;-0.014621;-89.373931;0.033420;
1066;1002;3.849479;14.296817;0.999122;0.008712;-0.058512;0.142147;0.009543;0.142600;-0.058965;87.283394;0.143310;
981;1897;0.012917;86.384493;0.999999;0.000213;-0.000152;0.001504;-0.000298;0.001556;-0.000204;-80.106984;0.001692;
1171;1007;-2.061020;14.615160;0.998956;0.009533;-0.056264;0.139819;-0.004917;0.139942;-0.056387;-88.564300;0.140818;
1201;1017;-4.182168;16.226465;0.999282;0.008358;-0.064612;0.161838;-0.009723;0.162255;-0.065029;-87.545914;0.163316;
1036;1837;0.030592;86.303610;1.000000;0.000133;-0.000342;0.001465;-0.000140;0.001476;-0.000353;-85.590859;0.001542;
1171;1252;-1.909482;73.600811;0.999307;0.007345;-0.050984;0.123480;0.004519;0.123597;-0.051101;88.517191;0.124212;
1046;1792;0.041525;86.235930;1.000000;0.000100;-0.000493;0.001539;-0.000104;0.001544;-0.000498;-87.067375;0.001576;
1066;982;3.205192;11.929810;0.999020;0.008948;-0.048734;0.114954;0.008973;0.115445;-0.049224;86.871811;0.115861;
1216;987;-3.987828;12.550713;0.999343;0.007438;-0.050422;0.120382;-0.011189;0.121112;-0.051151;-86.268067;0.121598;
1051;997;4.536268;13.804092;0.999152;0.008187;-0.056832;0.137985;0.012490;0.138782;-0.057630;86.346574;0.139445;
1136;857;-0.028615;3.794943;0.999933;0.002102;-0.015964;0.036260;-0.000202;0.036261;-0.015965;-89.777996;0.036347;
1146;847;-0.162184;3.448371;0.999941;0.001716;-0.014636;0.033326;-0.000828;0.033340;-0.014650;-89.011294;0.033421;
1131;1457;0.006118;84.482820;0.999988;0.001067;-0.008174;0.019157;-0.000109;0.019158;-0.008174;-89.771351;0.019226;
1121;882;0.272301;4.790488;0.999926;0.002794;-0.019802;0.044914;0.000963;0.044928;-0.019816;89.147671;0.045032;
1161;1002;-1.441495;13.922910;0.999131;0.006682;-0.053661;0.131847;-0.003594;0.131916;-0.053730;-88.890642;0.132670;
1186;1017;-3.192611;16.030785;0.999384;0.007803;-0.062987;0.157790;-0.006999;0.158012;-0.063209;-88.186122;0.159061;
1036;1842;0.028338;86.310619;1.000000;0.000122;-0.000322;0.001456;-0.000146;0.001468;-0.000334;-85.352277;0.001539;
1036;1792;0.046995;86.235505;1.000000;0.000181;-0.000494;0.001539;-0.000111;0.001545;-0.000500;-86.883616;0.001576;
1121;1237;0.690988;71.949634;0.999057;0.006928;-0.055608;0.137368;-0.001338;0.137377;-0.055617;-89.602671;0.138203;
1221;987;-4.258291;12.603128;0.999409;0.007204;-0.050728;0.120990;-0.012178;0.121849;-0.051588;-85.963481;0.122325;
1166;992;-1.572064;12.730242;0.999261;0.007810;-0.049464;0.119672;-0.004049;0.119769;-0.049560;-88.629295;0.120361;
1056;997;4.236684;13.752929;0.999256;0.007401;-0.056476;0.136834;0.011412;0.137505;-0.057147;86.633138;0.138157;
1076;1007;3.406555;14.855048;0.998803;0.010037;-0.060112;0.147942;0.008016;0.148250;-0.060421;87.796712;0.149093;
1176;837;-0.556384;3.145612;0.999947;0.002013;-0.013480;0.030662;-0.002520;0.030805;-0.013623;-86.743341;0.030873;
1156;1452;-0.206036;84.379326;0.999982;0.001203;-0.008511;0.019959;0.000897;0.019987;-0.008540;88.196941;0.020057;
1206;1017;-4.503069;16.291796;0.999072;0.006945;-0.064904;0.163319;-0.010902;0.163839;-0.065423;-87.271349;0.164942;
1126;882;0.173963;4.790205;0.999921;0.003329;-0.019758;0.044893;0.000572;0.044898;-0.019763;89.492785;0.045005;
1046;992;4.620064;13.253455;0.999214;0.008331;-0.054454;0.131508;0.013494;0.132483;-0.055428;85.871156;0.133070;
1216;1007;-4.744702;15.065488;0.999329;0.006823;-0.060438;0.148177;-0.011838;0.148846;-0.061108;-86.762679;0.149638;
1036;1847;0.026658;86.318089;1.000000;0.000136;-0.000303;0.001447;-0.000150;0.001460;-0.000316;-85.146587;0.001536;
1126;1237;0.417391;71.930018;0.999084;0.007270;-0.055622;0.137596;-0.000703;0.137598;-0.055625;-89.791650;0.138437;
1046;1797;0.040101;86.243921;1.000000;0.000120;-0.000478;0.001529;-0.000107;0.001534;-0.000483;-86.969526;0.001569;
1086;1002;2.675445;14.084202;0.999081;0.007563;-0.056296;0.137595;0.006456;0.137810;-0.056510;88.094892;0.138551;
1061;992;3.785622;13.085621;0.999201;0.008429;-0.053644;0.128632;0.010254;0.129207;-0.054219;86.790168;0.129762;
1081;1007;3.099895;14.806576;0.998734;0.007659;-0.059487;0.146660;0.007277;0.146917;-0.059743;87.980899;0.147768;
1041;832;1.212089;2.996919;0.999941;0.002293;-0.013334;0.029393;0.005462;0.030080;-0.014021;82.829202;0.030103;
1051;992;4.338281;13.185411;0.999234;0.010076;-0.054218;0.130676;0.012340;0.131496;-0.055038;86.198493;0.132076;
1056;992;4.049221;13.132294;0.999254;0.008085;-0.053909;0.129673;0.011281;0.130363;-0.054600;86.496844;0.130935;
1156;1457;-0.195967;84.476939;0.999985;0.001099;-0.008095;0.019020;0.000876;0.019049;-0.008124;88.152396;0.019117;
1176;1007;-2.342781;14.645407;0.999173;0.010423;-0.056629;0.140452;-0.005545;0.140608;-0.056785;-88.389591;0.141472;
1131;882;0.066070;4.780812;0.999916;0.002776;-0.019728;0.044884;0.000197;0.044885;-0.019729;89.825157;0.044994;
1041;1847;0.025299;86.317866;1.000000;0.000142;-0.000296;0.001442;-0.000143;0.001454;-0.000308;-85.313876;0.001532;
1131;1237;0.126370;71.922245;0.998992;0.008657;-0.055696;0.137871;-0.000131;0.137871;-0.055697;-89.961211;0.138716;
1091;1002;2.388110;14.050484;0.999150;0.008102;-0.055717;0.136581;0.005773;0.136754;-0.055890;88.282123;0.137512;
1051;1807;0.034830;86.259967;1.000000;0.000143;-0.000444;0.001512;-0.000106;0.001518;-0.000450;-86.917287;0.001559;
1061;997;3.946651;13.702815;0.999162;0.008338;-0.056179;0.135662;0.010369;0.136221;-0.056738;86.915079;0.136853;
1166;1012;-1.843995;15.204218;0.998659;0.010143;-0.058508;0.146478;-0.004317;0.146568;-0.058599;-88.794121;0.147546;
1206;852;-1.104030;3.619317;0.999939;0.002052;-0.015813;0.035207;-0.004797;0.035654;-0.016260;-84.675464;0.035700;
1176;1012;-2.445552;15.254591;0.998996;0.010600;-0.059168;0.147718;-0.005558;0.147867;-0.059317;-88.462264;0.148827;
1161;1457;-0.236845;84.476942;0.999985;0.001095;-0.008103;0.019006;0.001075;0.019048;-0.008146;87.733346;0.019115;
1191;1007;-3.208600;14.745558;0.999541;0.007764;-0.058166;0.143133;-0.007517;0.143413;-0.058446;-87.864333;0.144228;
1176;1002;-2.257786;13.996162;0.999222;0.009796;-0.054244;0.133445;-0.005484;0.133605;-0.054404;-88.327674;0.134370;
1176;1037;-3.015418;19.116584;0.998714;0.013841;-0.074442;0.195191;-0.005762;0.195314;-0.074566;-88.776358;0.197126;
1046;1847;0.024186;86.318202;1.000000;0.000184;-0.000293;0.001438;-0.000136;0.001449;-0.000304;-85.526887;0.001528;
1201;1232;-4.184690;70.694142;0.999107;0.008956;-0.064202;0.159445;0.009867;0.159880;-0.064636;87.478681;0.160853;
1056;1807;0.032636;86.260746;1.000000;0.000123;-0.000440;0.001509;-0.000100;0.001515;-0.000445;-87.060403;0.001557;
1181;987;-2.249479;12.264561;0.999267;0.006576;-0.048133;0.115818;-0.005765;0.116021;-0.048336;-87.988663;0.116557;
1166;1002;-1.703087;13.927943;0.999080;0.006340;-0.053760;0.132269;-0.004206;0.132364;-0.053855;-88.705335;0.133127;
1211;1022;-5.055473;17.171189;0.998689;0.009579;-0.068332;0.174538;-0.012244;0.175154;-0.068948;-87.121223;0.176470;
1211;852;-1.183897;3.623215;0.999934;0.001769;-0.015908;0.035269;-0.005158;0.035784;-0.016423;-84.301951;0.035824;
1071;982;2.973785;11.878894;0.998938;0.008819;-0.048362;0.114418;0.008068;0.114816;-0.048760;87.169593;0.115250;
1191;1012;-3.365351;15.399211;0.999509;0.007327;-0.060856;0.150720;-0.007595;0.150993;-0.061129;-87.946641;0.151901;
1166;1457;-0.276873;84.476804;0.999985;0.001386;-0.008110;0.019005;0.001280;0.019065;-0.008170;87.302771;0.019130;
1196;1007;-3.515787;14.802900;0.999550;0.008813;-0.058778;0.144285;-0.008278;0.144622;-0.059115;-87.669568;0.145422;
1101;1022;2.200701;16.730186;0.998597;0.008898;-0.065545;0.166956;0.004607;0.167047;-0.065636;88.865220;0.168319;
1051;1847;0.022455;86.318570;0.999999;0.000182;-0.000290;0.001435;-0.000130;0.001445;-0.000300;-85.720586;0.001525;
1046;997;4.834795;13.866086;0.999126;0.008528;-0.057113;0.138985;0.013673;0.139934;-0.058061;86.030717;0.140607;
1166;1242;-1.804666;72.410899;0.999356;0.010482;-0.055241;0.136308;0.003845;0.136385;-0.055318;88.850608;0.137193;
1186;987;-2.484020;12.301082;0.999185;0.006638;-0.048463;0.116407;-0.006349;0.116651;-0.048707;-87.797933;0.117178;
1061;1807;0.030710;86.260712;1.000000;0.000141;-0.000434;0.001508;-0.000095;0.001512;-0.000439;-87.210304;0.001556;
1186;1037;-3.793085;19.251445;0.998815;0.008447;-0.075782;0.197945;-0.007291;0.198139;-0.075977;-88.475294;0.199925;
1041;992;4.889906;13.335770;0.998121;0.011029;-0.054674;0.132078;0.014695;0.133227;-0.055823;85.528184;0.133809;
1216;847;-1.207716;3.470084;0.999950;0.002202;-0.015252;0.033711;-0.005333;0.034285;-0.015827;-83.855174;0.034319;
1201;1007;-3.824208;14.856446;0.999491;0.009711;-0.059197;0.144983;-0.008979;0.145377;-0.059591;-87.486789;0.146162;
1171;1457;-0.315768;84.475794;0.999984;0.001034;-0.008135;0.019015;0.001489;0.019096;-0.008216;86.869820;0.019158;
1196;1012;-3.647046;15.442433;0.999528;0.009498;-0.061524;0.152034;-0.008372;0.152361;-0.061852;-87.758388;0.153257;
1221;1237;-5.327531;71.050436;0.999058;0.008684;-0.062787;0.156073;0.014185;0.156989;-0.063702;86.307149;0.157915;
1106;1022;1.872940;16.683188;0.998682;0.009846;-0.065015;0.165737;0.003837;0.165801;-0.065079;89.047691;0.167073;
1036;1827;0.034876;86.288822;0.999999;0.000220;-0.000379;0.001484;-0.000131;0.001493;-0.000389;-86.004392;0.001549;
1196;1032;-4.381781;18.568097;0.998946;0.011167;-0.073849;0.190132;-0.008844;0.190428;-0.074145;-88.083414;0.191976;
1066;1807;0.028261;86.260575;1.000000;0.000151;-0.000429;0.001506;-0.000088;0.001510;-0.000433;-87.405314;0.001555;
1191;987;-2.729417;12.331509;0.999216;0.007899;-0.048882;0.117039;-0.007014;0.117335;-0.049178;-87.583835;0.117846;
1191;1037;-4.197025;19.334028;0.998689;0.011199;-0.076503;0.199613;-0.008140;0.199853;-0.076742;-88.312943;0.201638;
1161;992;-1.327064;12.716234;0.999275;0.008672;-0.049374;0.119364;-0.003449;0.119434;-0.049444;-88.829485;0.120022;
1226;1242;-5.380507;71.645947;0.998248;0.012511;-0.060030;0.148236;0.015433;0.149373;-0.061168;85.784887;0.150187;
1216;852;-1.262574;3.624435;0.999925;0.002028;-0.015960;0.035250;-0.005486;0.035831;-0.016541;-83.953150;0.035866;
1201;1012;-3.997172;15.513651;0.999387;0.008855;-0.061904;0.152946;-0.009202;0.153340;-0.062297;-87.552049;0.154235;
1111;1027;1.604268;17.475322;0.998575;0.010340;-0.067366;0.174659;0.003105;0.174699;-0.067406;89.265217;0.176210;
1126;1457;0.048068;84.488309;0.999984;0.000879;-0.008190;0.019181;-0.000305;0.019185;-0.008193;-89.361578;0.019253;
1211;1027;-5.304417;18.012294;0.998737;0.009565;-0.071610;0.185048;-0.012446;0.185650;-0.072212;-87.230168;0.187170;
1221;1032;-6.356772;19.095968;0.998904;0.011011;-0.075944;0.200801;-0.015316;0.201646;-0.076789;-86.841906;0.203547;
1201;1027;-4.571156;17.841736;0.999102;0.011567;-0.070797;0.181327;-0.010014;0.181724;-0.071194;-87.728992;0.183137;
1041;1827;0.032412;86.289100;1.000000;0.000219;-0.000374;0.001481;-0.000127;0.001490;-0.000383;-86.090667;0.001548;
1071;1802;0.027372;86.253788;1.000000;0.000147;-0.000446;0.001512;-0.000080;0.001515;-0.000449;-87.669538;0.001557;
1196;1037;-4.574754;19.399579;0.998688;0.010900;-0.077292;0.201490;-0.008946;0.201776;-0.077579;-88.163985;0.203564;
1161;997;-1.379975;13.304528;0.999169;0.007404;-0.051472;0.124960;-0.003515;0.125030;-0.051542;-88.859242;0.125670;
1201;852;-1.027367;3.623441;0.999941;0.001836;-0.015730;0.035156;-0.004440;0.035541;-0.016115;-85.050196;0.035592;
1221;1037;-6.643306;19.995052;0.998978;0.008960;-0.079466;0.212332;-0.015781;0.213183;-0.080317;-86.913347;0.215331;
1136;1237;-0.163094;71.898237;0.999005;0.010524;-0.055789;0.138280;0.000373;0.138280;-0.055790;89.889751;0.139137;
1211;1032;-5.553306;18.849933;0.998696;0.010854;-0.075047;0.196000;-0.012666;0.196590;-0.075638;-87.330354;0.198324;
1121;827;0.168927;2.855244;0.999942;0.001857;-0.012262;0.028002;0.000664;0.028013;-0.012273;89.055959;0.028084;
1116;1032;1.332490;18.251911;0.998517;0.008983;-0.069946;0.184522;0.002430;0.184545;-0.069970;89.453004;0.186333;
1201;1032;-4.751198;18.662592;0.998923;0.011376;-0.074195;0.191952;-0.010133;0.192338;-0.074581;-87.822814;0.193946;
1026;1507;0.489855;85.218925;0.999986;0.001305;-0.004780;0.011352;-0.002889;0.011854;-0.005282;-80.147293;0.011877;
1186;1012;-3.050546;15.337291;0.999442;0.006315;-0.060261;0.149632;-0.006870;0.149856;-0.060486;-88.127254;0.150781;
986;1897;0.012297;86.385345;0.999999;0.000239;-0.000137;0.001481;-0.000292;0.001532;-0.000188;-80.063186;0.001671;
1201;1022;-4.363542;17.025176;0.999036;0.010252;-0.067583;0.171236;-0.009893;0.171645;-0.067993;-87.632020;0.172875;
1151;1022;-1.047733;16.542052;0.998737;0.010543;-0.063241;0.161366;-0.002436;0.161392;-0.063268;-89.378809;0.162642;
1126;827;0.107221;2.857515;0.999947;0.001827;-0.012229;0.028000;0.000372;0.028003;-0.012232;89.470322;0.028078;
1101;1027;2.294345;17.569897;0.998585;0.008648;-0.068468;0.177103;0.004677;0.177192;-0.068557;88.909322;0.178696;
1051;1002;4.761916;14.511027;0.998793;0.007996;-0.059517;0.145897;0.012696;0.146679;-0.060298;86.476695;0.147450;
1106;1232;1.601136;71.268534;0.999065;0.008866;-0.058725;0.145553;-0.003307;0.145607;-0.058779;-89.072639;0.146504;
1161;1042;-2.006483;19.880991;0.998321;0.012225;-0.076788;0.204629;-0.003850;0.204682;-0.076841;-89.216430;0.206789;
1116;1027;1.267261;17.438427;0.998581;0.008725;-0.066887;0.173665;0.002383;0.173689;-0.066910;89.432479;0.175207;
1181;1042;-3.585200;20.132298;0.998113;0.011086;-0.078699;0.208761;-0.006529;0.208909;-0.078847;-88.699511;0.210991;
1181;1002;-2.542412;14.036473;0.999368;0.007788;-0.054726;0.134176;-0.006114;0.134374;-0.054924;-88.148007;0.135118;
1036;1512;0.419545;85.274491;0.999988;0.000874;-0.004527;0.010747;-0.002509;0.011149;-0.004929;-80.905515;0.011173;
1056;1002;4.438093;14.434346;0.999182;0.007878;-0.059142;0.144638;0.011625;0.145299;-0.059803;86.745409;0.146054;
1166;997;-1.636686;13.306854;0.999133;0.006384;-0.051578;0.125365;-0.004103;0.125460;-0.051673;-88.672509;0.126108;
1111;1022;1.540967;16.646577;0.998677;0.011246;-0.064426;0.164643;0.003105;0.164685;-0.064468;89.223671;0.165974;
1131;837;0.045547;3.158092;0.999952;0.001897;-0.013398;0.030539;0.000076;0.030539;-0.013399;89.901464;0.030615;
1171;1242;-2.088726;72.372856;0.999371;0.009294;-0.055564;0.137366;0.004605;0.137476;-0.055673;88.633323;0.138302;
1091;1017;2.741753;16.053275;0.998427;0.009047;-0.063816;0.160635;0.005929;0.160791;-0.063972;88.487983;0.161906;
1106;1027;1.945052;17.523020;0.998696;0.009446;-0.067944;0.175799;0.003858;0.175860;-0.068005;89.093465;0.177359;
1071;1607;0.081961;85.871930;0.999999;0.000265;-0.001359;0.003316;-0.000478;0.003364;-0.001408;-84.224215;0.003379;
1086;1012;2.929726;15.411549;0.998511;0.008029;-0.061668;0.153537;0.006619;0.153741;-0.061871;88.240033;0.154713;
1186;1042;-3.990708;20.219292;0.998262;0.010553;-0.079341;0.210230;-0.007359;0.210417;-0.079528;-88.545119;0.212496;
1176;1447;-0.393618;84.273420;0.999978;0.001350;-0.009059;0.021067;0.001800;0.021174;-0.009166;86.593636;0.021237;
1036;1517;0.393300;85.321981;0.999988;0.000900;-0.004279;0.010150;-0.002397;0.010538;-0.004667;-80.809106;0.010561;
1221;1017;-5.525449;16.520838;0.998752;0.011189;-0.066171;0.168568;-0.014477;0.169458;-0.067060;-86.484292;0.170681;
1061;1002;4.140612;14.357999;0.999140;0.008019;-0.058830;0.143382;0.010575;0.143934;-0.059381;87.014410;0.144666;
1056;1017;5.102298;16.573530;0.998592;0.009555;-0.067728;0.170612;0.012030;0.171217;-0.068334;87.117811;0.172375;
1156;1002;-1.165728;13.924811;0.999207;0.009030;-0.053496;0.131576;-0.002984;0.131625;-0.053545;-89.076652;0.132385;
1176;1242;-2.378449;72.333485;0.999237;0.007544;-0.056021;0.138461;0.005360;0.138609;-0.056168;88.422645;0.139436;
1131;842;0.050286;3.306869;0.999953;0.001611;-0.014014;0.031955;0.000066;0.031955;-0.014014;89.917956;0.032035;
1081;1012;3.237437;15.473719;0.998377;0.008668;-0.062261;0.154825;0.007424;0.155079;-0.062514;88.043684;0.156046;
1071;1017;4.068795;16.325516;0.998095;0.009219;-0.066410;0.166525;0.009110;0.166880;-0.066766;87.763848;0.167987;
1191;1042;-4.397996;20.286946;0.998282;0.012891;-0.080059;0.211876;-0.008249;0.212109;-0.080292;-88.382730;0.214185;
1076;1607;0.075437;85.870452;0.999999;0.000223;-0.001368;0.003307;-0.000436;0.003348;-0.001408;-84.711493;0.003362;
1131;1462;0.008070;84.574548;0.999987;0.000986;-0.007750;0.018244;-0.000104;0.018244;-0.007750;-89.770592;0.018313;
1051;1012;5.219309;15.939989;0.998478;0.009967;-0.065211;0.162767;0.012923;0.163497;-0.065941;86.766040;0.164513;
1246;1507;-0.529854;85.197382;0.999983;0.001314;-0.004964;0.011517;0.003065;0.012068;-0.005516;79.798026;0.012083;
1026;842;1.553270;3.322126;0.999936;0.002379;-0.014723;0.031599;0.006933;0.032614;-0.015739;81.668310;0.032621;
1066;987;3.359473;12.477803;0.998865;0.008908;-0.050996;0.121141;0.009140;0.121625;-0.051480;86.968962;0.122101;
1061;1017;4.761849;16.480548;0.998527;0.009052;-0.067310;0.169120;0.010979;0.169629;-0.067818;87.346895;0.170760;
1176;1247;-2.272879;72.934735;0.999273;0.007132;-0.053663;0.131250;0.005262;0.131400;-0.053813;88.371438;0.132115;
1156;1007;-1.217121;14.543164;0.999167;0.007467;-0.055752;0.138580;-0.003071;0.138629;-0.055800;-89.094993;0.139504;
1211;1037;-5.812395;19.716429;0.998609;0.011784;-0.078505;0.207501;-0.013029;0.208093;-0.079097;-87.397123;0.210078;
1201;1037;-4.981108;19.508561;0.998697;0.009249;-0.077629;0.203379;-0.010315;0.203757;-0.078007;-87.900634;0.205613;
1096;1027;2.649247;17.612519;0.998361;0.009527;-0.069090;0.178424;0.005378;0.178540;-0.069207;88.755847;0.180037;
1081;1607;0.069398;85.868150;0.999999;0.000176;-0.001373;0.003301;-0.000394;0.003334;-0.001406;-85.214023;0.003348;
1056;1012;4.874801;15.843884;0.998682;0.008882;-0.064784;0.161378;0.011893;0.162002;-0.065408;86.998054;0.162999;
1136;1462;-0.029978;84.573309;0.999989;0.001010;-0.007733;0.018221;0.000084;0.018221;-0.007733;89.814889;0.018291;
1066;1017;4.415222;16.404069;0.998217;0.009123;-0.066910;0.167646;0.009930;0.168066;-0.067329;87.580065;0.169169;
1061;1037;5.770623;19.939274;0.998403;0.013568;-0.079191;0.210001;0.012101;0.210507;-0.079696;87.608046;0.212565;
1061;1042;6.027922;20.918103;0.998129;0.014896;-0.082266;0.220427;0.012145;0.220913;-0.082752;87.705970;0.223218;
1091;1492;0.226050;85.052703;0.999984;0.000862;-0.005585;0.013408;-0.001300;0.013497;-0.005674;-86.101200;0.013554;
1176;1252;-2.157969;73.559885;0.999131;0.007944;-0.051370;0.124335;0.005228;0.124490;-0.051526;88.297257;0.125104;
1156;1012;-1.269198;15.155601;0.998896;0.008226;-0.058121;0.145733;-0.003089;0.145780;-0.058168;-89.132056;0.146768;
1051;1022;5.737514;17.489150;0.998691;0.008440;-0.071143;0.181761;0.013455;0.182475;-0.071857;86.963153;0.183842;
1166;1042;-2.397561;19.915380;0.998308;0.013762;-0.077153;0.205389;-0.004455;0.205459;-0.077223;-89.096879;0.207559;
1096;1022;2.535402;16.757663;0.998210;0.009615;-0.066117;0.168225;0.005281;0.168343;-0.066236;88.709628;0.169613;
1061;1012;4.545852;15.752387;0.998704;0.008331;-0.064407;0.160007;0.010864;0.160531;-0.064932;87.234967;0.161505;
1141;1462;-0.069485;84.573074;0.999988;0.001129;-0.007726;0.018203;0.000273;0.018206;-0.007729;89.397310;0.018275;
1181;1007;-2.633177;14.688422;0.999360;0.007099;-0.057143;0.141249;-0.006182;0.141441;-0.057336;-88.216966;0.142283;
1221;1057;-8.058296;24.254887;0.998602;0.011268;-0.093915;0.262399;-0.016165;0.263131;-0.094647;-87.407667;0.266562;
1156;1042;-1.602218;19.851338;0.998370;0.015777;-0.076328;0.204074;-0.003239;0.204111;-0.076365;-89.338243;0.206256;
1216;1047;-6.824348;21.864203;0.998411;0.011934;-0.086239;0.234254;-0.014698;0.234927;-0.086912;-87.379757;0.237561;
1101;1042;2.684535;20.120697;0.998547;0.011421;-0.077770;0.210948;0.005297;0.211046;-0.077867;88.949217;0.213448;
1206;1022;-4.705909;17.102214;0.998935;0.009696;-0.067902;0.172823;-0.011108;0.173335;-0.068414;-87.363633;0.174612;
1161;1237;-1.577576;71.829068;0.998662;0.010890;-0.057202;0.142384;0.003311;0.142439;-0.057257;89.049786;0.143349;
1191;1492;-0.323259;85.028546;0.999987;0.000931;-0.005659;0.013557;0.001798;0.013724;-0.005825;84.700245;0.013776;
1171;1042;-2.783634;19.961911;0.998329;0.013029;-0.077567;0.206262;-0.005087;0.206353;-0.077658;-88.973524;0.208446;
1066;1012;4.222238;15.670119;0.998622;0.008096;-0.064050;0.158667;0.009815;0.159098;-0.064481;87.481594;0.160047;
1181;1037;-3.404170;19.194982;0.998681;0.010112;-0.075108;0.196479;-0.006485;0.196633;-0.075262;-88.632880;0.198427;
1146;1462;-0.106401;84.573335;0.999987;0.001123;-0.007709;0.018179;0.000461;0.018187;-0.007717;88.981209;0.018257;
1221;1047;-7.304554;22.037173;0.998740;0.011456;-0.086644;0.236320;-0.016090;0.237119;-0.087443;-87.154947;0.239826;
1066;1022;4.625713;17.201666;0.997869;0.011932;-0.069840;0.177078;0.010171;0.177496;-0.070259;87.645244;0.178775;
1181;1012;-2.738628;15.297362;0.999250;0.007405;-0.059725;0.148630;-0.006199;0.148814;-0.059909;-88.297210;0.149753;
1196;1042;-4.811447;20.366238;0.998195;0.012249;-0.080839;0.213695;-0.009066;0.213974;-0.081118;-88.238536;0.216049;
1106;1042;2.268029;20.032891;0.998573;0.010456;-0.077296;0.209850;0.004330;0.209915;-0.077362;89.136184;0.212320;
1166;1237;-1.896732;71.810675;0.998947;0.012234;-0.057594;0.143422;0.004046;0.143503;-0.057675;88.847477;0.144421;
1216;1022;-5.408323;17.249554;0.998678;0.010341;-0.068822;0.176425;-0.013434;0.177158;-0.069555;-86.874020;0.178515;
1186;1027;-3.486415;17.624729;0.999335;0.009114;-0.069008;0.176543;-0.007227;0.176755;-0.069220;-88.315599;0.178134;
1176;1042;-3.186251;20.037316;0.998229;0.012265;-0.078079;0.207420;-0.005771;0.207536;-0.078196;-88.842510;0.209626;
1166;1037;-2.277764;18.997729;0.998730;0.012171;-0.073494;0.193348;-0.004531;0.193424;-0.073571;-89.027521;0.195262;
1046;1022;6.112678;17.593545;0.998746;0.009654;-0.071593;0.183138;0.014647;0.183977;-0.072432;86.719861;0.185358;
1046;1042;7.384101;21.335093;0.998062;0.010270;-0.083461;0.224512;0.015727;0.225313;-0.084262;87.084199;0.227687;
1151;1462;-0.145644;84.571660;0.999986;0.001182;-0.007709;0.018159;0.000654;0.018175;-0.007726;88.553178;0.018243;
1216;1042;-6.506720;20.782321;0.998610;0.010026;-0.082595;0.221648;-0.014597;0.222346;-0.083293;-87.259376;0.224665;
1081;1017;3.392590;16.164224;0.998124;0.009309;-0.065075;0.163372;0.007526;0.163619;-0.065323;88.115167;0.164723;
1206;1037;-5.407883;19.646007;0.998613;0.010965;-0.078004;0.205385;-0.011698;0.205867;-0.078486;-87.640260;0.207794;
1111;1042;1.868437;19.962736;0.998209;0.010844;-0.076795;0.208751;0.003412;0.208792;-0.076836;89.315521;0.211203;
1046;1007;5.319276;15.316607;0.998809;0.009730;-0.062745;0.155490;0.013871;0.156368;-0.063623;86.377635;0.157269;
1171;1237;-2.188519;71.766733;0.999144;0.011243;-0.057935;0.144558;0.004796;0.144672;-0.058049;88.643977;0.145609;
1061;987;3.629505;12.530279;0.999109;0.008461;-0.051242;0.122067;0.010101;0.122654;-0.051829;86.675542;0.123143;
1071;1807;0.025811;86.260487;1.000000;0.000137;-0.000428;0.001504;-0.000082;0.001507;-0.000431;-87.577066;0.001553;
1056;1022;5.362072;17.377168;0.998516;0.010101;-0.070687;0.180230;0.012334;0.180835;-0.071292;87.192527;0.182178;
1171;1037;-2.635477;19.048759;0.998796;0.012721;-0.073902;0.194116;-0.005140;0.194215;-0.074000;-88.901698;0.196039;
1221;1042;-6.964059;20.951084;0.998985;0.009070;-0.083013;0.224012;-0.016008;0.224844;-0.083845;-87.023466;0.227252;
1086;1022;3.217923;16.873611;0.997961;0.012102;-0.067391;0.171004;0.006767;0.171196;-0.067583;88.375375;0.172455;
1126;1462;0.048953;84.579277;0.999987;0.000935;-0.007761;0.018265;-0.000294;0.018268;-0.007765;-89.352559;0.018336;
1086;1017;3.066110;16.110487;0.998284;0.009862;-0.064465;0.161934;0.006688;0.162131;-0.064662;88.309395;0.163234;
1071;1012;3.880996;15.596838;0.998537;0.009275;-0.063538;0.157680;0.008990;0.158045;-0.063902;87.676657;0.159006;
1066;1027;4.881082;18.079858;0.997955;0.011386;-0.072740;0.187541;0.010570;0.187969;-0.073169;87.678368;0.189500;
1196;1237;-3.704033;71.452840;0.999055;0.009013;-0.060955;0.150731;0.008684;0.151086;-0.061311;87.654821;0.151977;
1116;1037;1.395966;19.073003;0.998417;0.011013;-0.073111;0.195978;0.002551;0.196002;-0.073135;89.456870;0.198094;
1091;1007;2.510510;14.704795;0.998971;0.008014;-0.058324;0.144392;0.005799;0.144557;-0.058490;88.362678;0.145431;
1046;1017;5.824475;16.770347;0.998872;0.011125;-0.068627;0.173390;0.014260;0.174227;-0.069464;86.639447;0.175415;
1046;1802;0.038454;86.252451;1.000000;0.000139;-0.000462;0.001522;-0.000108;0.001528;-0.000468;-86.887587;0.001566;
1101;1032;2.399026;18.380477;0.998596;0.010146;-0.071510;0.187959;0.004849;0.188049;-0.071601;88.929821;0.189824;
1181;1047;-3.762804;21.131460;0.998353;0.010965;-0.082453;0.221927;-0.006640;0.222072;-0.082597;-88.750892;0.224487;
1206;1047;-5.950176;21.625413;0.998197;0.009509;-0.085132;0.230263;-0.011981;0.230718;-0.085587;-87.827671;0.233265;
1156;1462;-0.186316;84.571283;0.999987;0.001029;-0.007695;0.018148;0.000845;0.018176;-0.007723;88.129204;0.018244;
1216;1062;-7.896071;25.191164;0.997762;0.013244;-0.097380;0.274892;-0.015001;0.275495;-0.097983;-87.696141;0.279296;
1216;1027;-5.674740;18.101599;0.998613;0.009245;-0.072120;0.187144;-0.013675;0.187864;-0.072839;-86.989151;0.189436;
1066;1032;5.109594;18.951852;0.997880;0.010028;-0.075796;0.197893;0.010764;0.198316;-0.076218;87.751310;0.200077;
1076;1012;3.550531;15.534759;0.998405;0.009654;-0.062910;0.156183;0.008211;0.156490;-0.063217;87.856749;0.157449;
1196;1242;-3.533106;72.106446;0.999291;0.007586;-0.058370;0.142989;0.008551;0.143352;-0.058733;87.572556;0.144128;
1051;1017;5.472534;16.675228;0.998707;0.010102;-0.068179;0.172065;0.013111;0.172779;-0.068892;86.885455;0.173956;
1181;1032;-3.282238;18.351828;0.998941;0.009377;-0.071673;0.185362;-0.006527;0.185527;-0.071839;-88.546356;0.187094;
1046;1807;0.036785;86.259314;1.000000;0.000179;-0.000446;0.001515;-0.000111;0.001521;-0.000452;-86.760909;0.001562;
1106;1032;2.048101;18.338541;0.998644;0.009275;-0.070998;0.186678;0.003956;0.186738;-0.071059;89.120743;0.188507;
1221;1062;-8.417514;25.386380;0.998065;0.011718;-0.097536;0.275366;-0.016327;0.276079;-0.098249;-87.497752;0.279876;
1181;1052;-3.944513;22.104207;0.998247;0.012577;-0.086461;0.236113;-0.006862;0.236259;-0.086607;-88.781990;0.239047;
1091;1027;3.010779;17.679135;0.998145;0.012819;-0.069739;0.179843;0.006098;0.179992;-0.069888;88.601107;0.181483;
1161;1462;-0.226458;84.571719;0.999988;0.001166;-0.007699;0.018141;0.001039;0.018183;-0.007740;87.701114;0.018250;
1216;1032;-5.934963;18.968508;0.998798;0.009922;-0.075555;0.198287;-0.013966;0.198997;-0.076266;-87.088051;0.200798;
1221;1022;-5.783126;17.341759;0.998664;0.011938;-0.069254;0.178511;-0.014709;0.179381;-0.070125;-86.614440;0.180798;
1211;1042;-6.074922;20.652940;0.998419;0.010083;-0.082020;0.219486;-0.013243;0.220066;-0.082601;-87.489817;0.222334;
1066;1037;5.353339;19.817711;0.997785;0.011235;-0.078857;0.208551;0.010918;0.208965;-0.079272;87.827633;0.210983;
1196;1247;-3.374145;72.768318;0.999193;0.006690;-0.055858;0.135318;0.008367;0.135683;-0.056224;87.498888;0.136345;
1186;1032;-3.647824;18.420422;0.999031;0.008385;-0.072352;0.186735;-0.007280;0.186939;-0.072557;-88.391807;0.188492;
1041;1797;0.042803;86.243538;1.000000;0.000149;-0.000477;0.001529;-0.000110;0.001535;-0.000483;-86.873803;0.001570;
1111;1032;1.690266;18.279704;0.998492;0.008725;-0.070427;0.185530;0.003155;0.185569;-0.070466;89.293897;0.187350;
1091;1037;3.337565;19.363215;0.998059;0.014562;-0.075897;0.201730;0.006521;0.201883;-0.076050;88.655158;0.203918;
1046;1012;5.564714;16.034672;0.998776;0.011792;-0.065623;0.164072;0.014004;0.164922;-0.066473;86.523961;0.165952;
1161;1057;-2.265565;22.884954;0.998332;0.013095;-0.088321;0.249527;-0.003986;0.249574;-0.088368;-89.324126;0.253093;
1091;1032;3.163056;18.517510;0.998307;0.013799;-0.072811;0.190592;0.006296;0.190742;-0.072961;88.631618;0.192489;
1166;1462;-0.263471;84.569757;0.999986;0.001580;-0.007702;0.018142;0.001241;0.018202;-0.007761;87.257089;0.018267;
1191;1047;-4.605865;21.277609;0.997951;0.013290;-0.083776;0.224893;-0.008291;0.225116;-0.083998;-88.462472;0.227518;
1201;1042;-5.226207;20.459455;0.998048;0.009990;-0.081141;0.215524;-0.010481;0.215894;-0.081510;-87.979145;0.218042;
1076;1017;3.711151;16.235039;0.998151;0.008637;-0.065743;0.164870;0.008347;0.165171;-0.066045;87.929907;0.166272;
1111;1237;1.257988;71.946230;0.999233;0.007919;-0.055975;0.137558;-0.002625;0.137594;-0.056011;-89.223115;0.138383;
1191;1027;-3.827882;17.692233;0.999380;0.009368;-0.069686;0.177978;-0.007993;0.178235;-0.069943;-88.153385;0.179605;
1046;1027;6.427888;18.512737;0.998850;0.009087;-0.074207;0.194213;0.015414;0.195095;-0.075089;86.724147;0.196811;
1216;1037;-6.210072;19.822378;0.998757;0.009104;-0.079042;0.209794;-0.014399;0.210510;-0.079758;-87.153172;0.212559;
1036;1797;0.045284;86.243032;1.000000;0.000156;-0.000478;0.001529;-0.000113;0.001535;-0.000485;-86.801740;0.001569;
1211;1052;-6.698218;22.823491;0.998116;0.012028;-0.089433;0.245630;-0.013335;0.246159;-0.089962;-87.724578;0.249112;
1091;1042;3.514098;20.273960;0.998243;0.013662;-0.079030;0.213088;0.006672;0.213240;-0.079183;88.692344;0.215581;
1166;1057;-2.711616;22.923468;0.998292;0.011489;-0.088808;0.250085;-0.004732;0.250151;-0.088875;-89.200142;0.253620;
1171;1462;-0.300562;84.568220;0.999984;0.001098;-0.007726;0.018148;0.001447;0.018229;-0.007806;86.808865;0.018291;
1206;1042;-5.662066;20.579202;0.998175;0.009838;-0.081494;0.217464;-0.011897;0.217937;-0.081967;-87.724735;0.220156;
1216;1057;-7.554223;24.062650;0.998195;0.013506;-0.093667;0.261133;-0.014822;0.261751;-0.094285;-87.611937;0.265139;
1196;1047;-5.033996;21.381092;0.997938;0.013515;-0.084525;0.226601;-0.009122;0.226869;-0.084792;-88.322074;0.229267;
1051;1027;6.022550;18.376945;0.998677;0.008520;-0.073888;0.192551;0.014085;0.193293;-0.074630;86.982230;0.194958;
1221;1027;-6.065802;18.213939;0.998618;0.012007;-0.072546;0.189453;-0.014981;0.190307;-0.073400;-86.738108;0.191958;
1226;1502;-0.460928;85.149614;0.999984;0.001123;-0.005177;0.012177;0.002675;0.012580;-0.005580;81.432061;0.012607;
1066;1042;5.594951;20.819084;0.997751;0.013126;-0.081944;0.219137;0.010981;0.219537;-0.082344;87.913998;0.221809;
1091;1047;3.687881;21.294943;0.998279;0.011270;-0.082180;0.225009;0.006710;0.225156;-0.082326;88.749318;0.227849;
1041;1802;0.041120;86.251673;1.000000;0.000166;-0.000461;0.001523;-0.000111;0.001529;-0.000468;-86.802507;0.001567;
1231;1632;-0.112049;85.952911;0.999999;0.000210;-0.000977;0.002539;0.000497;0.002607;-0.001046;82.113948;0.002624;
1086;1027;3.383058;17.747003;0.997723;0.012983;-0.070431;0.181323;0.006889;0.181512;-0.070619;88.433630;0.182995;
1066;1047;5.877593;21.847263;0.997650;0.013505;-0.085028;0.230230;0.010923;0.230608;-0.085406;88.018046;0.233178;
1086;1042;3.909279;20.343156;0.997767;0.012184;-0.079711;0.214175;0.007434;0.214363;-0.079899;88.551996;0.216665;
1101;1047;2.838176;21.129816;0.998471;0.012392;-0.080971;0.223059;0.005329;0.223152;-0.081064;88.996190;0.225916;
1061;1022;4.993207;17.285621;0.998371;0.011421;-0.070249;0.178648;0.011252;0.179155;-0.070757;87.416797;0.180469;
1106;1017;1.769418;15.923577;0.999007;0.008402;-0.062200;0.157244;0.003816;0.157311;-0.062266;89.004051;0.158445;
1121;1457;0.090752;84.490838;0.999979;0.000917;-0.008230;0.019204;-0.000498;0.019213;-0.008239;-88.960544;0.019278;
1091;1022;2.874644;16.805341;0.998044;0.010944;-0.066727;0.169579;0.005986;0.169730;-0.066879;88.549773;0.170996;
1156;1047;-1.688156;20.859476;0.998491;0.011260;-0.080076;0.217189;-0.003200;0.217223;-0.080110;-89.383301;0.219702;
1231;1502;-0.486304;85.148738;0.999985;0.001185;-0.005189;0.012170;0.002812;0.012614;-0.005633;81.022858;0.012638;
1126;1807;0.003016;86.263417;1.000000;0.000132;-0.000416;0.001492;-0.000010;0.001492;-0.000416;-89.711080;0.001540;
1231;1637;-0.109159;85.963984;0.999999;0.000209;-0.000927;0.002410;0.000457;0.002471;-0.000989;82.339845;0.002487;
1086;1032;3.548067;18.599893;0.997864;0.012460;-0.073524;0.191984;0.007097;0.192174;-0.073713;88.469998;0.193903;
1046;1032;6.733604;19.429344;0.998833;0.009775;-0.077247;0.204336;0.015503;0.205187;-0.078098;86.858053;0.207127;
1041;997;5.144028;13.905673;0.997366;0.011750;-0.057364;0.139775;0.014850;0.140887;-0.058477;85.716244;0.141563;
1086;1047;4.118077;21.383203;0.998019;0.010262;-0.082828;0.225982;0.007467;0.226162;-0.083009;88.615634;0.228813;
1101;1062;3.331922;24.381310;0.997579;0.016488;-0.090818;0.262747;0.005399;0.262830;-0.090901;89.125286;0.266961;
1106;1047;2.420145;21.037256;0.998234;0.011530;-0.080516;0.222088;0.004357;0.222151;-0.080579;89.175299;0.224924;
1121;1462;0.087470;84.582162;0.999984;0.001048;-0.007803;0.018285;-0.000482;0.018294;-0.007812;-88.940807;0.018359;
1096;1052;3.429696;22.287186;0.998171;0.013435;-0.084778;0.236276;0.006115;0.236392;-0.084894;88.909202;0.239500;
1161;1047;-2.092141;20.897494;0.998594;0.011834;-0.080545;0.217730;-0.003862;0.217780;-0.080595;-89.258296;0.220217;
1236;1502;-0.513985;85.145061;0.999983;0.001100;-0.005199;0.012148;0.002953;0.012637;-0.005687;80.599691;0.012658;
1051;1032;6.311295;19.290916;0.998658;0.009307;-0.076929;0.202716;0.014191;0.203434;-0.077648;87.102454;0.205324;
1086;1037;3.743577;19.430936;0.997572;0.014253;-0.076594;0.202977;0.007311;0.203168;-0.076785;88.502958;0.205176;
1236;1897;-0.007334;86.386690;0.999999;0.000197;-0.000082;0.001375;0.000200;0.001402;-0.000109;82.315820;0.001560;
1126;1812;0.002842;86.270594;1.000000;0.000129;-0.000398;0.001480;-0.000010;0.001481;-0.000398;-89.701451;0.001532;
1076;1002;3.261362;14.171282;0.998948;0.009935;-0.057421;0.139916;0.007901;0.140232;-0.057736;87.710980;0.140959;
1086;1052;4.336683;22.489507;0.997893;0.013084;-0.085961;0.237911;0.007483;0.238084;-0.086134;88.677071;0.241097;
1106;1062;2.872726;24.316958;0.997442;0.017281;-0.090594;0.262896;0.004598;0.262956;-0.090654;89.254938;0.267148;
1111;1047;1.992051;20.942621;0.998294;0.009960;-0.080072;0.221033;0.003409;0.221071;-0.080110;89.351362;0.223845;
1131;1467;0.007428;84.663175;0.999988;0.000902;-0.007337;0.017364;-0.000110;0.017365;-0.007338;-89.745935;0.017434;
1101;1052;2.983380;22.220778;0.998139;0.014217;-0.084223;0.235563;0.005398;0.235654;-0.084314;89.033178;0.238810;
1166;1047;-2.513937;20.924128;0.998718;0.013661;-0.080928;0.218544;-0.004537;0.218613;-0.080997;-89.132289;0.221043;
1216;1052;-7.195568;22.983666;0.998157;0.014033;-0.089934;0.247512;-0.014609;0.248143;-0.090566;-87.525613;0.251141;
1221;1507;-0.408672;85.206912;0.999987;0.001087;-0.004861;0.011536;0.002418;0.011885;-0.005210;81.783847;0.011915;
1051;1052;7.595987;23.311105;0.997936;0.015111;-0.089103;0.244140;0.013882;0.244717;-0.089680;87.618763;0.247609;
1161;1062;-2.356964;23.982476;0.998152;0.011124;-0.092386;0.267208;-0.003694;0.267246;-0.092424;-89.411513;0.271447;
1161;1007;-1.495420;14.566603;0.999075;0.007472;-0.055945;0.138861;-0.003679;0.138930;-0.056014;-88.918506;0.139796;
956;1877;0.035742;86.346170;0.999999;0.000273;-0.000455;0.001649;-0.000224;0.001673;-0.000479;-83.993727;0.001723;
1096;1812;0.014817;86.270171;1.000000;0.000164;-0.000403;0.001487;-0.000052;0.001489;-0.000404;-88.426948;0.001540;
1176;1062;-3.835031;24.181709;0.998158;0.009763;-0.094131;0.269051;-0.005922;0.269147;-0.094228;-89.065998;0.273149;
1096;1042;3.098034;20.196567;0.998526;0.012870;-0.078390;0.212012;0.006045;0.212138;-0.078516;88.807946;0.214511;
1136;1467;-0.029972;84.663160;0.999986;0.000834;-0.007332;0.017354;0.000073;0.017354;-0.007332;89.830909;0.017424;
1221;1052;-7.695028;23.152753;0.998533;0.011833;-0.090252;0.249401;-0.015954;0.250148;-0.090999;-87.316654;0.253224;
1106;1052;2.577926;22.133083;0.997937;0.013110;-0.083802;0.234859;0.004467;0.234922;-0.083864;89.196965;0.238104;
1171;1047;-2.927228;20.983689;0.998763;0.008949;-0.081363;0.219514;-0.005227;0.219605;-0.081454;-89.005016;0.222031;
1221;1512;-0.387625;85.261163;0.999988;0.001041;-0.004592;0.010906;0.002301;0.011240;-0.004926;81.731621;0.011269;
1056;1052;7.101767;23.170430;0.997943;0.013642;-0.088784;0.243118;0.012838;0.243614;-0.089280;87.788275;0.246492;
1081;1022;3.565668;16.945689;0.997629;0.011079;-0.067995;0.172543;0.007639;0.172786;-0.068237;88.182894;0.174053;
1101;1812;0.012861;86.270083;1.000000;0.000155;-0.000402;0.001486;-0.000046;0.001487;-0.000403;-88.619308;0.001538;
1101;1017;2.092015;15.960886;0.998937;0.008479;-0.062726;0.158308;0.004542;0.158401;-0.062820;88.823274;0.159526;
961;1877;0.033392;86.349053;0.999999;0.000231;-0.000423;0.001624;-0.000225;0.001649;-0.000448;-83.793374;0.001705;
1166;1067;-2.972181;25.308372;0.997365;0.010637;-0.096944;0.285929;-0.004050;0.285972;-0.096987;-89.393970;0.290862;
1096;1047;3.269661;21.210222;0.998460;0.010662;-0.081561;0.224043;0.006086;0.224164;-0.081682;88.859570;0.226896;
1056;1032;5.906697;19.158632;0.998753;0.010322;-0.076552;0.201055;0.013035;0.201666;-0.077163;87.317581;0.203510;
1141;1467;-0.066746;84.663127;0.999986;0.001110;-0.007331;0.017347;0.000258;0.017350;-0.007334;89.401312;0.017418;
1091;1052;3.871391;22.377941;0.998019;0.012876;-0.085343;0.237080;0.006744;0.237221;-0.085484;88.802212;0.240285;
1176;1047;-3.338419;21.050088;0.998590;0.010456;-0.081853;0.220684;-0.005911;0.220800;-0.081968;-88.881157;0.223227;
1061;1052;6.638190;23.046414;0.997805;0.013200;-0.088363;0.242221;0.011919;0.242650;-0.088793;87.937773;0.245540;
1221;1517;-0.362710;85.310206;0.999989;0.000934;-0.004333;0.010287;0.002186;0.010607;-0.004653;81.674361;0.010634;
1051;1042;6.909422;21.143485;0.997765;0.011195;-0.083078;0.223161;0.014322;0.223829;-0.083746;87.328243;0.226180;
1171;1057;-3.181001;22.990497;0.998406;0.009787;-0.089417;0.250843;-0.005489;0.250931;-0.089506;-89.076013;0.254344;
1066;992;3.492061;13.032960;0.999147;0.009349;-0.053364;0.127606;0.009265;0.128079;-0.053837;87.076901;0.128620;
1046;1002;5.075372;14.588027;0.998787;0.008721;-0.059855;0.147064;0.013858;0.147987;-0.060778;86.185504;0.148772;
966;1877;0.031294;86.351274;0.999999;0.000234;-0.000399;0.001599;-0.000224;0.001624;-0.000424;-83.673547;0.001685;
1171;1067;-3.480668;25.389440;0.997702;0.010238;-0.097556;0.286587;-0.004818;0.286647;-0.097617;-89.281573;0.291466;
1161;1822;-0.009944;86.284875;1.000000;0.000131;-0.000361;0.001460;0.000040;0.001461;-0.000362;88.730874;0.001522;
1156;1467;-0.175054;84.660150;0.999988;0.001009;-0.007309;0.017336;0.000817;0.017364;-0.007336;88.103387;0.017433;
1111;1052;2.122999;22.022465;0.997898;0.010472;-0.083470;0.234101;0.003554;0.234141;-0.083510;89.358963;0.237326;
1216;1067;-8.242864;26.452945;0.997395;0.012694;-0.101084;0.289061;-0.014669;0.289611;-0.101635;-87.849817;0.293870;
1161;1052;-2.174644;21.885527;0.998332;0.014442;-0.084388;0.232434;-0.004004;0.232485;-0.084439;-89.276093;0.235368;
1216;1512;-0.363852;85.259077;0.999985;0.000962;-0.004574;0.010888;0.002165;0.011185;-0.004871;82.178446;0.011216;
1056;1042;6.460532;21.032035;0.998142;0.012005;-0.082700;0.221746;0.013174;0.222315;-0.083269;87.526798;0.224635;
1176;1057;-3.655689;23.064092;0.998245;0.010248;-0.090001;0.251679;-0.006172;0.251791;-0.090113;-88.965400;0.255158;
1066;997;3.653294;13.657616;0.999148;0.010133;-0.055870;0.134503;0.009360;0.134962;-0.056329;87.191977;0.135575;
1176;1067;-4.017664;25.471113;0.997245;0.011833;-0.098068;0.287159;-0.005529;0.287238;-0.098147;-89.177946;0.291998;
1146;1897;-0.000369;86.387828;0.999999;0.000224;-0.000064;0.001299;0.000027;0.001300;-0.000064;88.848174;0.001465;
1086;1007;2.796632;14.762319;0.998947;0.006739;-0.058929;0.145470;0.006513;0.145678;-0.059137;88.176886;0.146534;
1221;1067;-8.786667;26.649909;0.997796;0.011250;-0.101229;0.288780;-0.016043;0.289438;-0.101888;-87.648411;0.293633;
1161;1467;-0.213112;84.657516;0.999988;0.001256;-0.007314;0.017341;0.001005;0.017382;-0.007355;87.668953;0.017450;
1196;1052;-5.284649;22.401493;0.997851;0.011448;-0.088376;0.240408;-0.009230;0.240667;-0.088635;-88.393219;0.243434;
1166;1052;-2.586243;21.939209;0.998480;0.013215;-0.084819;0.233126;-0.004761;0.233197;-0.084891;-89.142374;0.236054;
1201;1732;-0.048238;86.142397;1.000000;0.000124;-0.000668;0.001646;0.000104;0.001651;-0.000673;87.426711;0.001660;
1071;1037;4.932048;19.702427;0.997427;0.009508;-0.078530;0.207133;0.009722;0.207463;-0.078860;88.053120;0.209442;
1146;1902;-0.000294;86.394904;0.999999;0.000281;-0.000044;0.001302;0.000030;0.001303;-0.000045;88.741436;0.001479;
1051;1007;4.990802;15.220352;0.998701;0.008827;-0.062339;0.154242;0.012748;0.154990;-0.063087;86.642988;0.155881;
1046;1047;7.728625;22.365880;0.998059;0.013906;-0.086578;0.234787;0.015539;0.235537;-0.087328;87.238078;0.238145;
1196;1497;-0.330316;85.091451;0.999989;0.000867;-0.005358;0.012848;0.001879;0.013040;-0.005550;84.168054;0.013088;
1181;1057;-4.135869;23.144725;0.998322;0.012301;-0.090570;0.252557;-0.006844;0.252693;-0.090706;-88.857786;0.256023;
1181;1062;-4.329467;24.303556;0.997858;0.011554;-0.094626;0.269744;-0.006666;0.269866;-0.094748;-88.952260;0.273826;
1071;992;3.225552;12.980315;0.999152;0.008460;-0.052955;0.126897;0.008319;0.127281;-0.053339;87.357260;0.127836;
1166;1467;-0.250271;84.656016;0.999986;0.001605;-0.007316;0.017347;0.001202;0.017406;-0.007375;87.216470;0.017473;
1196;1057;-5.540611;23.472544;0.998020;0.009977;-0.092336;0.255895;-0.009327;0.256145;-0.092586;-88.466791;0.259402;
1171;1052;-3.029577;21.951335;0.998551;0.009840;-0.085343;0.233990;-0.005509;0.234085;-0.085438;-89.011863;0.236913;
1126;1817;0.002764;86.278090;1.000000;0.000138;-0.000379;0.001469;-0.000010;0.001469;-0.000379;-89.698241;0.001526;
1056;1007;4.658493;15.135715;0.999032;0.008345;-0.061935;0.152906;0.011707;0.153542;-0.062571;86.890149;0.154415;
1201;1057;-6.048875;23.612923;0.997842;0.013743;-0.092550;0.257108;-0.010831;0.257444;-0.092885;-88.227447;0.260748;
1201;1497;-0.356938;85.091324;0.999987;0.001046;-0.005363;0.012840;0.002034;0.013065;-0.005587;83.700237;0.013110;
1186;1047;-4.188746;21.196915;0.997965;0.012299;-0.083074;0.223340;-0.007428;0.223520;-0.083254;-88.612141;0.225931;
1086;1087;5.832013;31.153913;0.996938;0.013945;-0.107240;0.335513;0.005366;0.335578;-0.107305;89.305681;0.342769;
1186;1057;-4.597558;23.248222;0.997995;0.012220;-0.091098;0.253638;-0.007621;0.253806;-0.091267;-88.734248;0.257120;
1071;997;3.376904;13.583857;0.999179;0.009314;-0.055427;0.133656;0.008447;0.134033;-0.055804;87.447184;0.134657;
1021;1632;0.121034;85.962575;1.000000;0.000201;-0.000873;0.002416;-0.000566;0.002511;-0.000968;-80.503613;0.002532;
1146;1467;-0.102312;84.662646;0.999986;0.001005;-0.007320;0.017341;0.000441;0.017349;-0.007328;88.975118;0.017418;
1196;1062;-5.813202;24.655448;0.997383;0.011824;-0.096225;0.271947;-0.009345;0.272184;-0.096462;-88.546976;0.276003;
1176;1052;-3.493633;22.007720;0.998404;0.010945;-0.085877;0.235023;-0.006194;0.235142;-0.085997;-88.894539;0.237952;
1131;1817;0.000785;86.278218;1.000000;0.000116;-0.000380;0.001470;-0.000003;0.001470;-0.000380;-89.906272;0.001526;
1061;1007;4.348069;15.057316;0.998930;0.007213;-0.061603;0.151592;0.010678;0.152125;-0.062136;87.139788;0.152973;
1201;1062;-6.317517;24.789557;0.997584;0.013557;-0.096418;0.272671;-0.010880;0.272992;-0.096738;-88.312988;0.276825;
1256;1517;-0.514662;85.304726;0.999984;0.001036;-0.004403;0.010285;0.003060;0.010897;-0.005015;78.688721;0.010908;
1186;1052;-4.390073;22.206126;0.997988;0.013217;-0.087035;0.237414;-0.007601;0.237592;-0.087213;-88.658760;0.240374;
1186;1062;-4.828564;24.418094;0.997032;0.013010;-0.095090;0.270518;-0.007528;0.270673;-0.095245;-88.820856;0.274603;
1091;1087;5.278198;31.071324;0.997205;0.011408;-0.106965;0.337586;0.004791;0.337638;-0.107017;89.382634;0.345097;
1151;1467;-0.138241;84.661425;0.999986;0.000910;-0.007323;0.017335;0.000632;0.017351;-0.007339;88.533635;0.017419;
1306;1847;-0.055295;86.301307;0.999999;0.000218;-0.000467;0.001553;0.000110;0.001559;-0.000473;86.881916;0.001598;
1201;1072;-6.929790;27.381585;0.997343;0.015663;-0.103606;0.305203;-0.009743;0.305435;-0.103839;-88.635548;0.310606;
1046;1052;8.064254;23.468138;0.998063;0.016596;-0.089577;0.245197;0.015192;0.245885;-0.090265;87.407046;0.248763;
1076;1087;6.984041;31.348939;0.997015;0.016316;-0.107788;0.331068;0.006561;0.331167;-0.107886;89.143682;0.337802;
996;1707;0.100910;86.098622;1.000000;0.000218;-0.000569;0.001562;-0.000227;0.001586;-0.000592;-83.987029;0.001602;
1136;1817;-0.001175;86.278032;1.000000;0.000124;-0.000381;0.001471;0.000004;0.001471;-0.000381;89.869198;0.001527;
1091;1012;2.618824;15.356618;0.998443;0.008113;-0.061040;0.152383;0.005879;0.152545;-0.061202;88.423408;0.153535;
1221;1522;-0.340203;85.362903;0.999989;0.001024;-0.004083;0.009700;0.002080;0.010007;-0.004390;81.603581;0.010032;
1166;1062;-2.848112;24.058996;0.998222;0.010769;-0.092899;0.267681;-0.004422;0.267735;-0.092953;-89.297487;0.271872;
1071;1062;6.241376;24.988007;0.997412;0.012917;-0.093789;0.263981;0.009444;0.264231;-0.094038;88.489019;0.267864;
1096;1087;4.706463;30.980127;0.996962;0.012918;-0.106870;0.339709;0.004229;0.339749;-0.106910;89.457514;0.347441;
1126;1467;0.046627;84.665467;0.999989;0.001135;-0.007344;0.017375;-0.000291;0.017379;-0.007347;-89.325048;0.017447;
1206;1072;-7.499918;27.506178;0.997707;0.011695;-0.103871;0.304804;-0.011065;0.305103;-0.104171;-88.450194;0.310176;
1081;1042;4.313453;20.432816;0.997504;0.012518;-0.080264;0.215346;0.008326;0.215580;-0.080498;88.388023;0.217871;
1016;1627;0.129680;85.951729;0.999999;0.000274;-0.000911;0.002574;-0.000659;0.002695;-0.001031;-79.650759;0.002719;
1076;1052;5.251111;22.681362;0.997587;0.013512;-0.087188;0.239643;0.009078;0.239895;-0.087440;88.410259;0.242814;
1171;1012;-2.149504;15.226897;0.998782;0.010150;-0.058756;0.147052;-0.004930;0.147170;-0.058874;-88.628507;0.148147;
1221;1527;-0.317518;85.412434;0.999987;0.000880;-0.003850;0.009195;0.001975;0.009488;-0.004142;81.574809;0.009513;
996;1712;0.099487;86.106519;1.000000;0.000181;-0.000571;0.001559;-0.000216;0.001581;-0.000592;-84.272034;0.001597;
1036;1802;0.043549;86.251137;1.000000;0.000153;-0.000464;0.001522;-0.000114;0.001529;-0.000470;-86.734448;0.001566;
1206;1052;-6.253716;22.676877;0.997951;0.011010;-0.088924;0.243785;-0.012057;0.244222;-0.089360;-87.927345;0.247132;
1171;1062;-3.329424;24.091064;0.998353;0.008597;-0.093542;0.268350;-0.005204;0.268424;-0.093617;-89.176285;0.272487;
1081;1087;6.378234;31.240293;0.996707;0.018687;-0.107529;0.333379;0.006046;0.333461;-0.107612;89.214530;0.340377;
1211;1072;-8.041530;27.678848;0.997103;0.013920;-0.104265;0.304286;-0.012344;0.304659;-0.104638;-88.270969;0.309596;
1121;1467;0.082191;84.666204;0.999988;0.001086;-0.007385;0.017391;-0.000471;0.017400;-0.007394;-88.912031;0.017466;
1081;1047;4.548716;21.482371;0.997789;0.011611;-0.083389;0.227024;0.008343;0.227248;-0.083613;88.461488;0.229875;
1076;1047;4.983265;21.582671;0.997410;0.014334;-0.084090;0.228101;0.009118;0.228368;-0.084356;88.328407;0.230950;
1016;1632;0.125289;85.964633;0.999999;0.000259;-0.000846;0.002395;-0.000593;0.002500;-0.000952;-79.950645;0.002524;
1161;1012;-1.557192;15.187066;0.998771;0.009580;-0.058343;0.146014;-0.003687;0.146081;-0.058409;-88.966848;0.147054;
1011;1507;0.567063;85.207015;0.999986;0.001345;-0.004776;0.011377;-0.003255;0.012008;-0.005407;-79.024079;0.012028;
1161;1067;-2.478564;25.260499;0.997590;0.011239;-0.096471;0.285406;-0.003315;0.285435;-0.096500;-89.502675;0.290381;
1001;1712;0.095580;86.106391;1.000000;0.000181;-0.000582;0.001578;-0.000211;0.001598;-0.000602;-84.469405;0.001614;
1166;1072;-3.095269;26.610025;0.996005;0.015390;-0.100864;0.304848;-0.003978;0.304887;-0.100903;-89.438358;0.310641;
1056;1057;7.411379;24.248937;0.997410;0.015380;-0.091847;0.254106;0.012656;0.254569;-0.092309;87.907631;0.257752;
1111;1062;2.363595;24.258834;0.997646;0.015103;-0.090496;0.263076;0.003819;0.263117;-0.090537;89.381207;0.267347;
1176;1672;-0.044904;86.032099;1.000000;0.000122;-0.000986;0.002169;0.000139;0.002175;-0.000992;87.476743;0.002178;
1171;1467;-0.284049;84.653034;0.999985;0.001007;-0.007341;0.017352;0.001403;0.017431;-0.007420;86.757756;0.017495;
1066;1057;6.456880;23.987643;0.997408;0.012014;-0.091090;0.252850;0.010711;0.253184;-0.091423;88.217947;0.256420;
1081;1052;4.782948;22.572464;0.997807;0.012676;-0.086511;0.238745;0.008337;0.238959;-0.086725;88.532743;0.241933;
1021;1627;0.124741;85.950095;1.000000;0.000197;-0.000936;0.002588;-0.000626;0.002696;-0.001044;-80.212539;0.002718;
1061;1067;7.512464;26.440839;0.997423;0.013853;-0.097360;0.275545;0.011280;0.275886;-0.097700;88.268982;0.279772;
1071;1002;3.563181;14.233593;0.999089;0.010217;-0.058034;0.141223;0.008656;0.141598;-0.058410;87.517255;0.142319;
1061;1057;6.937002;24.088485;0.997417;0.011689;-0.091407;0.253467;0.011788;0.253869;-0.091810;88.044600;0.257088;
1081;1687;0.048824;86.064288;1.000000;0.000155;-0.000879;0.001969;-0.000147;0.001977;-0.000887;-87.048420;0.001980;
1046;1512;0.372658;85.278684;0.999987;0.000912;-0.004505;0.010694;-0.002273;0.011027;-0.004838;-81.673788;0.011054;
1176;1457;-0.354457;84.478027;0.999979;0.001027;-0.008150;0.019020;0.001699;0.019126;-0.008256;86.434991;0.019185;
1086;1057;4.547661;23.568103;0.998013;0.015229;-0.089037;0.250355;0.007447;0.250519;-0.089200;88.743689;0.253955;
1311;1847;-0.057914;86.299251;0.999999;0.000228;-0.000479;0.001552;0.000106;0.001558;-0.000484;87.022704;0.001594;
1056;1027;5.628266;18.257666;0.998571;0.010003;-0.073512;0.190862;0.012879;0.191488;-0.074138;87.217641;0.193106;
1216;1072;-8.599830;27.802305;0.997032;0.014005;-0.104527;0.303547;-0.013638;0.304002;-0.104982;-88.087986;0.308812;
1101;1037;2.529081;19.219458;0.998476;0.011495;-0.074620;0.199321;0.005102;0.199416;-0.074715;88.933316;0.201494;
1121;1057;1.349267;23.036339;0.997821;0.011935;-0.086618;0.247701;0.002295;0.247717;-0.086634;89.606774;0.251418;
1061;1062;7.233575;25.240161;0.997212;0.013958;-0.094405;0.264652;0.011595;0.265026;-0.094779;88.152246;0.268584;
1066;1072;7.277519;27.603379;0.997639;0.013804;-0.099936;0.287842;0.009899;0.288094;-0.100188;88.538678;0.292512;
1166;1007;-1.774163;14.586989;0.999004;0.008324;-0.056066;0.139273;-0.004309;0.139368;-0.056161;-88.737036;0.140240;
1221;1072;-9.180521;27.968366;0.997675;0.012621;-0.104681;0.302632;-0.014940;0.303179;-0.105228;-87.902188;0.307869;
1051;1082;9.573834;30.608257;0.997153;0.018742;-0.106173;0.308574;0.011434;0.308889;-0.106488;88.422102;0.313814;
1316;1847;-0.060170;86.296071;0.999999;0.000202;-0.000500;0.001548;0.000097;0.001553;-0.000505;87.297057;0.001584;
1211;1047;-6.375487;21.750409;0.998241;0.010668;-0.085669;0.232231;-0.013335;0.232789;-0.086228;-87.602180;0.235381;
1121;1472;0.077907;84.751449;0.999989;0.001194;-0.006968;0.016543;-0.000463;0.016553;-0.006977;-88.872297;0.016620;
1166;1487;-0.194290;84.969291;0.999983;0.001207;-0.005914;0.014261;0.001051;0.014315;-0.005968;87.025085;0.014381;
1106;1037;2.141562;19.148133;0.998567;0.010087;-0.074138;0.198129;0.004174;0.198193;-0.074202;89.121831;0.200267;
1111;1057;2.229043;23.118688;0.997658;0.012262;-0.086969;0.248227;0.003740;0.248268;-0.087010;89.360787;0.251942;
1076;1037;4.524883;19.607414;0.997330;0.012569;-0.077883;0.205723;0.009022;0.206009;-0.078169;88.179730;0.207996;
1126;1677;0.006647;86.042561;1.000000;0.000142;-0.001018;0.002175;-0.000027;0.002176;-0.001018;-89.514393;0.002177;
1051;1087;9.874210;31.947966;0.996548;0.015507;-0.108834;0.319397;0.010777;0.319668;-0.109105;88.559350;0.324990;
1066;1077;7.562112;28.861266;0.997845;0.012315;-0.102742;0.300890;0.009317;0.301105;-0.102957;88.678423;0.306079;
1046;1077;9.792571;29.458825;0.996385;0.015631;-0.103697;0.295760;0.013067;0.296187;-0.104123;88.128437;0.300507;
1071;987;3.092964;12.426341;0.998864;0.008506;-0.050620;0.120549;0.008202;0.120942;-0.051012;87.263045;0.121434;
1076;1042;4.735886;20.546843;0.997416;0.012854;-0.080982;0.216597;0.009113;0.216876;-0.081261;88.247508;0.219135;
1031;1617;0.122695;85.919024;0.999999;0.000306;-0.001110;0.002971;-0.000688;0.003084;-0.001223;-80.690309;0.003106;
1056;1072;8.365762;27.878220;0.996375;0.012446;-0.100549;0.286387;0.011687;0.286740;-0.100901;88.271478;0.290903;
1171;1487;-0.224321;84.966811;0.999985;0.001052;-0.005934;0.014259;0.001221;0.014332;-0.006007;86.553438;0.014395;
1126;1472;0.043225;84.751121;0.999989;0.001108;-0.006935;0.016536;-0.000293;0.016539;-0.006939;-89.285544;0.016611;
1111;1037;1.766979;19.095498;0.998516;0.008666;-0.073600;0.197009;0.003313;0.197050;-0.073641;89.298754;0.199134;
1116;1057;1.804083;23.072833;0.997864;0.011687;-0.086760;0.247853;0.003036;0.247881;-0.086787;89.480222;0.251566;
1236;1737;-0.068878;86.146793;1.000000;0.000136;-0.000623;0.001623;0.000138;0.001631;-0.000631;86.496088;0.001645;
1066;1082;7.874444;30.193036;0.997789;0.012858;-0.105543;0.313831;0.008736;0.314013;-0.105725;88.807202;0.319547;
1181;1072;-4.769047;26.842339;0.996237;0.013772;-0.102236;0.305951;-0.006041;0.306041;-0.102325;-89.152298;0.311589;
1066;1007;4.033045;14.976790;0.998919;0.007429;-0.061265;0.150304;0.009632;0.150742;-0.061703;87.398633;0.151565;
1061;1087;8.718095;31.676125;0.996881;0.013740;-0.108617;0.324114;0.009085;0.324305;-0.108807;88.797850;0.330103;
1056;1077;8.697600;29.156796;0.996988;0.015750;-0.103339;0.298424;0.011106;0.298731;-0.103646;88.417832;0.303360;
1126;1102;1.296120;35.695405;0.997069;0.023126;-0.115870;0.401454;0.000765;0.401455;-0.115871;89.915265;0.413240;
1036;1617;0.117659;85.917142;1.000000;0.000276;-0.001126;0.002969;-0.000651;0.003070;-0.001227;-81.187406;0.003091;
1176;1487;-0.259169;84.964050;0.999982;0.001171;-0.005940;0.014260;0.001385;0.014354;-0.006035;86.095851;0.014415;
1201;1047;-5.490271;21.482045;0.997894;0.011618;-0.084799;0.228381;-0.010565;0.228737;-0.085155;-88.069991;0.231211;
1076;1057;5.501427;23.719252;0.997545;0.012779;-0.090232;0.251565;0.008978;0.251800;-0.090468;88.496370;0.255103;
1096;1032;2.783099;18.446429;0.998417;0.011870;-0.072141;0.189242;0.005576;0.189361;-0.072260;88.778371;0.191122;
1111;1242;1.214293;72.562653;0.999243;0.008600;-0.053535;0.130465;-0.002669;0.130503;-0.053574;-89.169179;0.131198;
1066;1052;6.181070;22.915796;0.997596;0.013754;-0.088070;0.241345;0.010817;0.241699;-0.088425;88.121304;0.244582;
1236;1742;-0.067551;86.155145;1.000000;0.000155;-0.000615;0.001619;0.000132;0.001626;-0.000623;86.624137;0.001641;
1056;1082;9.008771;30.452538;0.997283;0.015130;-0.106150;0.310463;0.010484;0.310727;-0.106414;88.559409;0.315826;
1066;1087;8.134826;31.571149;0.997032;0.014356;-0.108324;0.326394;0.008133;0.326546;-0.108476;88.928608;0.332620;
1126;1097;1.260824;34.030672;0.996518;0.016760;-0.113600;0.387105;0.000879;0.387106;-0.113602;89.899465;0.397963;
1096;1017;2.415284;15.995416;0.998510;0.008282;-0.063249;0.159420;0.005208;0.159542;-0.063371;88.660801;0.160662;
1126;1107;1.228879;37.487917;0.996697;0.021852;-0.117691;0.413423;0.000503;0.413423;-0.117692;89.945735;0.426011;
1041;1617;0.112199;85.915071;0.999999;0.000371;-0.001138;0.002969;-0.000613;0.003058;-0.001228;-81.687857;0.003078;
1196;1492;-0.350939;85.025440;0.999989;0.001121;-0.005672;0.013553;0.001959;0.013750;-0.005869;84.240249;0.013799;
1201;1052;-5.763745;22.547522;0.997830;0.011118;-0.088620;0.242052;-0.010683;0.242397;-0.088964;-88.151534;0.245238;
1096;1037;2.925959;19.276121;0.998318;0.014656;-0.075239;0.200500;0.005842;0.200624;-0.075362;88.786904;0.202681;
1066;1067;6.998619;26.339733;0.997628;0.013608;-0.097043;0.275685;0.010248;0.275966;-0.097324;88.426330;0.279932;
1056;1087;9.293263;31.814990;0.996448;0.014316;-0.108889;0.321832;0.009847;0.322057;-0.109114;88.691072;0.327589;
1046;1082;10.156017;30.767156;0.996684;0.017544;-0.106494;0.306764;0.012437;0.307138;-0.106868;88.277707;0.311836;
1216;1017;-5.168399;16.432167;0.998875;0.010954;-0.065776;0.166625;-0.013187;0.167370;-0.066522;-86.762724;0.168540;
1236;1747;-0.065381;86.162750;1.000000;0.000138;-0.000606;0.001612;0.000127;0.001619;-0.000613;86.735693;0.001635;
1176;1237;-2.482133;71.726227;0.999125;0.007868;-0.058430;0.145750;0.005536;0.145900;-0.058580;88.447937;0.146840;
1201;1082;-7.576192;30.150676;0.996639;0.018776;-0.110279;0.338512;-0.008313;0.338666;-0.110433;-88.939147;0.345428;
1071;1042;5.156547;20.689427;0.997552;0.010816;-0.081636;0.217864;0.009798;0.218184;-0.081956;88.128233;0.220423;
961;1897;0.016136;86.381703;0.999999;0.000194;-0.000263;0.001648;-0.000326;0.001702;-0.000317;-80.574101;0.001810;
1131;1472;0.007790;84.750537;0.999989;0.000789;-0.006940;0.016533;-0.000120;0.016534;-0.006940;-89.706240;0.016604;
1201;1492;-0.380278;85.021250;0.999987;0.001286;-0.005679;0.013546;0.002121;0.013778;-0.005910;83.778628;0.013824;
1061;1027;5.257642;18.167883;0.998455;0.011207;-0.073109;0.189179;0.011733;0.189703;-0.073633;87.443764;0.191278;
1046;1087;10.462273;32.082851;0.996277;0.016817;-0.109145;0.316986;0.011734;0.317309;-0.109467;88.423845;0.322352;
1056;1062;7.744709;25.362415;0.997020;0.015589;-0.094846;0.265002;0.012449;0.265432;-0.095276;88.020923;0.268930;
1071;1057;5.979386;23.868307;0.997368;0.013484;-0.090804;0.252218;0.009600;0.252486;-0.091073;88.398121;0.255731;
1206;1082;-8.143460;30.299050;0.996951;0.017138;-0.110424;0.336905;-0.009476;0.337106;-0.110625;-88.786950;0.343678;
1116;1022;1.215478;16.601941;0.998838;0.010609;-0.063958;0.163704;0.002373;0.163729;-0.063982;89.402926;0.165026;
1191;1237;-3.394078;71.556290;0.998998;0.010490;-0.060275;0.149415;0.007865;0.149709;-0.060569;87.854967;0.150615;
1071;1047;5.431531;21.712032;0.997552;0.013249;-0.084727;0.229162;0.009771;0.229465;-0.085031;88.218766;0.232014;
1201;1692;-0.062074;86.073227;1.000000;0.000133;-0.000811;0.001875;0.000168;0.001885;-0.000821;86.423773;0.001890;
1061;1032;5.508345;19.048630;0.998565;0.012676;-0.076156;0.199447;0.011935;0.199963;-0.076672;87.525011;0.201766;
1156;1472;-0.164358;84.739626;0.999984;0.001187;-0.006935;0.016536;0.000792;0.016563;-0.006961;88.070315;0.016633;
1206;1507;-0.338899;85.215136;0.999985;0.000867;-0.004785;0.011509;0.001990;0.011749;-0.005024;83.136827;0.011790;
1256;1647;-0.123004;85.994919;0.999999;0.000207;-0.000712;0.002040;0.000468;0.002117;-0.000789;80.598066;0.002140;
1056;1067;8.048480;26.561094;0.997012;0.014927;-0.097733;0.275440;0.012098;0.275831;-0.098125;88.145053;0.279632;
1116;1112;2.501898;39.325507;0.996484;0.018582;-0.118748;0.418928;0.000289;0.418928;-0.118748;89.969204;0.431825;
1211;1082;-8.746299;30.410196;0.996183;0.015908;-0.110677;0.335136;-0.010595;0.335388;-0.110929;-88.639381;0.341733;
1146;1072;-0.978367;26.511821;0.997298;0.016389;-0.098967;0.301908;-0.001298;0.301912;-0.098971;-89.814554;0.307822;
1071;1007;3.722462;14.919787;0.998912;0.010121;-0.060737;0.149348;0.008793;0.149715;-0.061104;87.607607;0.150555;
1046;1037;7.034979;20.327194;0.998429;0.008840;-0.080325;0.214549;0.015649;0.215377;-0.081154;86.970644;0.217546;
1191;1242;-3.250853;72.173799;0.999200;0.008500;-0.057760;0.141760;0.007714;0.142058;-0.058058;87.789080;0.142845;
1156;1072;-2.045986;26.593472;0.997064;0.017329;-0.099951;0.303675;-0.002522;0.303690;-0.099966;-89.642009;0.309542;
1201;1697;-0.060103;86.082253;1.000000;0.000132;-0.000791;0.001832;0.000160;0.001842;-0.000801;86.524405;0.001847;
1161;1472;-0.200626;84.738952;0.999984;0.001199;-0.006941;0.016540;0.000977;0.016580;-0.006982;87.622553;0.016649;
1161;1487;-0.167609;84.971287;0.999982;0.001316;-0.005906;0.014256;0.000885;0.014294;-0.005945;87.491435;0.014362;
1001;1892;0.013016;86.379014;0.999999;0.000289;-0.000144;0.001438;-0.000253;0.001477;-0.000184;-81.135977;0.001610;
1186;1072;-5.293995;26.940129;0.996472;0.014012;-0.102576;0.305988;-0.006810;0.306102;-0.102689;-89.045371;0.311577;
1121;1112;1.839984;39.353212;0.996802;0.019749;-0.119020;0.420636;0.000365;0.420636;-0.119021;89.961263;0.433645;
1191;1077;-6.102601;28.373640;0.996633;0.014257;-0.106563;0.324187;-0.006900;0.324298;-0.106673;-89.082521;0.330564;
1151;1072;-1.505443;26.563586;0.997015;0.016882;-0.099409;0.302886;-0.001959;0.302896;-0.099418;-89.721073;0.308797;
1051;1037;6.615587;20.153890;0.998175;0.010300;-0.079996;0.213041;0.014307;0.213738;-0.080693;87.211415;0.215865;
1171;1032;-2.536353;18.233441;0.999015;0.010316;-0.070431;0.183194;-0.005211;0.183301;-0.070538;-88.823440;0.184915;
1191;1247;-3.086440;72.807526;0.999179;0.007961;-0.055293;0.134205;0.007554;0.134506;-0.055594;87.720887;0.135178;
1161;1072;-2.586161;26.612759;0.996675;0.015884;-0.100422;0.304258;-0.003228;0.304284;-0.100448;-89.542988;0.310084;
1166;1472;-0.235941;84.736835;0.999982;0.001558;-0.006945;0.016544;0.001167;0.016602;-0.007003;87.163094;0.016669;
1056;1902;0.004055;86.394306;0.999999;0.000289;-0.000056;0.001325;-0.000139;0.001339;-0.000070;-84.324852;0.001507;
1156;1487;-0.137581;84.972549;0.999984;0.001064;-0.005901;0.014253;0.000720;0.014278;-0.005927;87.957384;0.014347;
1211;1057;-7.037243;23.898335;0.998145;0.012065;-0.093268;0.259757;-0.013550;0.260276;-0.093788;-87.805110;0.263639;
1126;1112;1.177540;39.367792;0.996421;0.017493;-0.119015;0.421901;0.000310;0.421901;-0.119015;89.967153;0.435052;
1196;1077;-6.717277;28.509197;0.996913;0.020533;-0.106952;0.323257;-0.007618;0.323392;-0.107087;-88.985878;0.329482;
1056;1037;6.191601;20.047612;0.998534;0.011340;-0.079615;0.211476;0.013169;0.212071;-0.080210;87.415032;0.214157;
1066;1092;8.352270;33.044088;0.996920;0.015230;-0.110929;0.339313;0.007252;0.339430;-0.111046;89.077422;0.346124;
1186;1077;-5.511961;28.281553;0.995870;0.013031;-0.106154;0.324810;-0.006205;0.324900;-0.106243;-89.175320;0.331319;
1206;1027;-4.947530;17.927380;0.998978;0.011944;-0.071145;0.183132;-0.011268;0.183630;-0.071643;-87.467537;0.185102;
1181;1242;-2.654724;72.273223;0.999254;0.006606;-0.056663;0.139517;0.006122;0.139708;-0.056854;88.214263;0.140512;
1201;1077;-7.283926;28.667712;0.996981;0.018244;-0.107035;0.322381;-0.008883;0.322565;-0.107218;-88.815506;0.328550;
1151;1472;-0.130310;84.741347;0.999982;0.001022;-0.006947;0.016531;0.000608;0.016547;-0.006963;88.518413;0.016616;
1191;1487;-0.344147;84.963166;0.999987;0.001139;-0.005982;0.014261;0.001876;0.014433;-0.006154;84.749784;0.014485;
1031;1612;0.128107;85.903033;0.999999;0.000358;-0.001187;0.003185;-0.000755;0.003312;-0.001314;-80.475251;0.003335;
1211;1062;-7.349255;25.030076;0.997788;0.015238;-0.097100;0.274174;-0.013678;0.274677;-0.097603;-87.892962;0.278483;
1156;1077;-2.124630;27.937738;0.996615;0.015336;-0.103719;0.323633;-0.002441;0.323647;-0.103733;-89.672727;0.330524;
1136;1082;0.078529;29.372395;0.996667;0.017264;-0.105606;0.337697;0.000255;0.337697;-0.105606;89.967103;0.345503;
1136;1102;0.033568;35.838384;0.996166;0.017683;-0.116481;0.404023;0.000348;0.404023;-0.116481;89.961647;0.415919;
1206;1032;-5.164555;18.764899;0.998797;0.011934;-0.074561;0.193909;-0.011428;0.194395;-0.075047;-87.566958;0.196070;
1071;1092;7.757515;32.949176;0.997076;0.015965;-0.110687;0.342205;0.006290;0.342292;-0.110774;89.204441;0.349319;
1086;1092;5.967299;32.700865;0.996515;0.014646;-0.109971;0.350950;0.004638;0.350997;-0.110018;89.423537;0.359048;
1206;1077;-7.833408;28.840388;0.997267;0.013148;-0.107252;0.321375;-0.010114;0.321614;-0.107490;-88.649098;0.327453;
1181;1247;-2.539620;72.892129;0.999263;0.008348;-0.054241;0.132192;0.006011;0.132386;-0.054434;88.155309;0.133080;
1136;1472;-0.028222;84.749155;0.999987;0.000759;-0.006947;0.016529;0.000056;0.016529;-0.006947;89.862464;0.016599;
1196;1487;-0.375071;84.960813;0.999990;0.001192;-0.005997;0.014261;0.002039;0.014465;-0.006200;84.307863;0.014514;
1036;1612;0.122447;85.900568;0.999999;0.000291;-0.001201;0.003176;-0.000712;0.003289;-0.001314;-80.989862;0.003311;
1091;1057;4.072385;23.443702;0.997997;0.012883;-0.088449;0.249774;0.006736;0.249908;-0.088583;88.859470;0.253413;
1161;1077;-2.652675;27.946041;0.996523;0.019883;-0.104143;0.324369;-0.003124;0.324391;-0.104166;-89.582352;0.331240;
1221;1087;-10.296291;32.122272;0.996813;0.015246;-0.113810;0.343757;-0.012134;0.344079;-0.114132;-88.482018;0.350516;
1151;1077;-1.564782;27.951986;0.996389;0.015474;-0.103177;0.322581;-0.001857;0.322589;-0.103185;-89.750146;0.329494;
1136;1107;-0.044043;37.618074;0.996223;0.018362;-0.118219;0.415228;0.000335;0.415228;-0.118219;89.964032;0.427866;
1211;1077;-8.399645;28.992821;0.996510;0.013663;-0.107601;0.320232;-0.011315;0.320531;-0.107900;-88.486149;0.326184;
1091;1092;5.404065;32.634050;0.996545;0.014729;-0.109743;0.353664;0.004085;0.353700;-0.109779;89.495034;0.362080;
1076;1092;7.177534;32.844489;0.996812;0.019170;-0.110436;0.345192;0.005755;0.345265;-0.110508;89.276494;0.352638;
1116;1462;0.125175;84.580396;0.999982;0.001016;-0.007844;0.018301;-0.000674;0.018319;-0.007861;-88.524207;0.018380;
1201;1487;-0.405146;84.955177;0.999988;0.001174;-0.006006;0.014258;0.002205;0.014495;-0.006244;83.860546;0.014541;
1041;1612;0.117268;85.898723;0.999999;0.000415;-0.001210;0.003167;-0.000670;0.003268;-0.001311;-81.484810;0.003289;
1096;1057;3.617761;23.360553;0.998076;0.012376;-0.087940;0.249228;0.006114;0.249339;-0.088051;88.961540;0.252899;
1216;1082;-9.361716;30.532612;0.995984;0.014760;-0.110811;0.333227;-0.011720;0.333536;-0.111120;-88.489142;0.339669;
1141;1082;-0.518047;29.327254;0.996343;0.020599;-0.105998;0.339383;-0.000434;0.339384;-0.105999;-89.944162;0.347261;
1086;1097;6.102231;34.364858;0.996862;0.016426;-0.112434;0.365895;0.003593;0.365922;-0.112461;89.569636;0.374868;
1181;1252;-2.423510;73.519581;0.999070;0.007878;-0.051910;0.125223;0.005928;0.125421;-0.052108;88.085512;0.126017;
1191;1082;-6.342156;29.884644;0.996131;0.014105;-0.109878;0.341430;-0.006393;0.341521;-0.109969;-89.188633;0.348660;
1096;1092;4.808026;32.562877;0.996545;0.017280;-0.109665;0.356370;0.003524;0.356397;-0.109692;89.566837;0.365070;
1091;1112;5.738175;39.267058;0.996889;0.014605;-0.118191;0.405822;0.001000;0.405824;-0.118193;89.890608;0.417448;
1221;1082;-9.973497;30.669172;0.996868;0.013777;-0.110972;0.331170;-0.012918;0.331547;-0.111350;-88.327955;0.337451;
1081;1092;6.555025;32.749495;0.996629;0.016456;-0.110244;0.348138;0.005269;0.348198;-0.110304;89.341543;0.355905;
1201;1702;-0.058535;86.091263;1.000000;0.000150;-0.000772;0.001791;0.000151;0.001800;-0.000781;86.632003;0.001805;
1146;1082;-1.086888;29.353337;0.996423;0.017713;-0.106266;0.340951;-0.001094;0.340953;-0.106268;-89.859827;0.348921;
1016;1622;0.134178;85.939743;0.999999;0.000345;-0.000987;0.002768;-0.000730;0.002905;-0.001124;-79.383287;0.002930;
1071;1482;0.380888;84.900137;0.999981;0.001333;-0.006342;0.014920;-0.002148;0.015135;-0.006557;-84.289875;0.015180;
1116;1467;0.117572;84.665189;0.999987;0.000945;-0.007420;0.017405;-0.000653;0.017423;-0.007438;-88.495424;0.017484;
1046;1067;9.119357;26.859313;0.996937;0.016203;-0.098307;0.275487;0.014197;0.276026;-0.098846;87.827976;0.279707;
1101;1057;3.141478;23.297329;0.998093;0.013358;-0.087479;0.248835;0.005437;0.248922;-0.087567;89.074091;0.252542;
1071;1022;4.257791;17.106655;0.997618;0.011196;-0.069371;0.175788;0.009249;0.176136;-0.069719;87.842527;0.177406;
1171;1072;-3.640287;26.667366;0.996393;0.014884;-0.101455;0.305413;-0.004735;0.305468;-0.101510;-89.333319;0.311142;
1051;1072;8.908934;28.013191;0.996566;0.015673;-0.100641;0.285623;0.012630;0.286036;-0.101053;88.129159;0.290111;
1051;1077;9.240020;29.314533;0.996829;0.018144;-0.103368;0.297020;0.012067;0.297384;-0.103731;88.275290;0.301881;
1051;1067;8.591158;26.712350;0.996561;0.016362;-0.097893;0.275372;0.013070;0.275829;-0.098350;87.997013;0.279587;
1116;1242;0.937866;72.576158;0.999232;0.008833;-0.053307;0.130282;-0.002054;0.130305;-0.053330;-89.359104;0.131018;
1116;1062;1.912434;24.225197;0.997678;0.013350;-0.090361;0.263177;0.003144;0.263205;-0.090389;89.490518;0.267472;
1021;1622;0.128719;85.938044;0.999999;0.000246;-0.001007;0.002772;-0.000693;0.002895;-0.001130;-79.931704;0.002919;
1061;1092;8.950697;33.144544;0.996830;0.015455;-0.111220;0.336362;0.008134;0.336509;-0.111368;88.959189;0.342861;
1071;1487;0.361054;84.978435;0.999986;0.001563;-0.005988;0.014163;-0.002061;0.014371;-0.006196;-84.220697;0.014417;
1116;1472;0.111902;84.749215;0.999987;0.000841;-0.006997;0.016551;-0.000634;0.016568;-0.007014;-88.458351;0.016633;
1156;1067;-1.967294;25.223883;0.997730;0.015211;-0.095967;0.284986;-0.002650;0.285005;-0.095985;-89.601503;0.290022;
1176;1072;-4.200566;26.768363;0.996205;0.013474;-0.101894;0.305777;-0.005356;0.305847;-0.101964;-89.247442;0.311456;
1196;1087;-7.208379;31.575270;0.996113;0.019748;-0.113231;0.355380;-0.006617;0.355473;-0.113325;-89.191162;0.363171;
1196;1082;-6.981632;30.000924;0.996444;0.018590;-0.110211;0.339973;-0.007111;0.340085;-0.110323;-89.095208;0.347006;
1076;1117;7.710273;41.086065;0.993693;0.021216;-0.119531;0.399718;0.000751;0.399719;-0.119533;89.917168;0.410340;
1121;1102;1.917739;35.711258;0.997302;0.019496;-0.115780;0.399745;0.001013;0.399747;-0.115782;89.887460;0.411371;
1121;1062;1.436991;24.182402;0.997375;0.012883;-0.090259;0.263430;0.002414;0.263447;-0.090275;89.609044;0.267759;
1286;1642;-0.144547;85.994944;0.999999;0.000236;-0.000670;0.001978;0.000676;0.002140;-0.000833;76.473249;0.002158;
1141;1237;-0.443946;71.866556;0.998824;0.009518;-0.056021;0.138876;0.000902;0.138880;-0.056025;89.734980;0.139741;
1131;1097;0.684933;34.004299;0.996482;0.016338;-0.113952;0.388784;0.000647;0.388785;-0.113953;89.926262;0.399726;
1171;1472;-0.268808;84.731142;0.999983;0.001051;-0.006969;0.016544;0.001359;0.016622;-0.007048;86.701871;0.016686;
1031;1507;0.467363;85.218601;0.999986;0.000880;-0.004794;0.011355;-0.002771;0.011817;-0.005256;-80.530771;0.011841;
1181;1067;-4.559188;25.576989;0.997269;0.012550;-0.098483;0.287641;-0.006320;0.287744;-0.098586;-89.062539;0.292457;
1046;1097;10.959706;34.893066;0.996968;0.014446;-0.113757;0.337260;0.009057;0.337442;-0.113938;88.850070;0.343320;
1196;1067;-6.092713;25.919841;0.997707;0.015829;-0.099911;0.288574;-0.008994;0.288782;-0.100119;-88.674519;0.293272;
1186;1082;-5.720100;29.801214;0.995892;0.013523;-0.109531;0.342517;-0.005713;0.342589;-0.109604;-89.276043;0.349917;
1136;1087;0.093666;30.834924;0.995751;0.018158;-0.108832;0.356668;0.000239;0.356668;-0.108832;89.970590;0.365585;
1291;1642;-0.148132;85.996422;0.999999;0.000205;-0.000669;0.001932;0.000707;0.002112;-0.000849;75.730142;0.002125;
1121;1107;1.876139;37.463297;0.997136;0.023235;-0.117666;0.411933;0.000697;0.411934;-0.117667;89.924608;0.424364;
1066;1062;6.734554;25.152924;0.997208;0.012564;-0.094074;0.264327;0.010541;0.264637;-0.094384;88.316842;0.268238;
1121;1477;0.071836;84.835433;0.999991;0.000940;-0.006571;0.015752;-0.000447;0.015761;-0.006580;-88.852178;0.015832;
1131;1102;0.677523;35.748428;0.996914;0.018931;-0.116158;0.402857;0.000562;0.402857;-0.116159;89.937932;0.414715;
1111;1232;1.291685;71.254931;0.999023;0.008368;-0.058524;0.145266;-0.002612;0.145299;-0.058557;-89.265821;0.146208;
1036;1507;0.445766;85.221276;0.999986;0.000848;-0.004785;0.011359;-0.002639;0.011779;-0.005205;-80.948582;0.011806;
1076;1022;3.906800;17.010751;0.997645;0.010863;-0.068680;0.174110;0.008478;0.174406;-0.068976;88.002610;0.175671;
1046;1102;11.208313;36.477599;0.997039;0.017828;-0.115744;0.347678;0.007688;0.347806;-0.115871;89.049791;0.354202;
1296;1642;-0.154012;85.996907;0.999976;0.001438;-0.000663;0.001856;0.000747;0.002061;-0.000868;74.663712;0.002070;
1196;1072;-6.399879;27.224138;0.997266;0.019318;-0.103468;0.305479;-0.008369;0.305650;-0.103639;-88.828139;0.310882;
1201;1087;-7.821454;31.682259;0.996091;0.021136;-0.113292;0.353368;-0.007757;0.353497;-0.113421;-89.047928;0.360981;
1156;1082;-2.188198;29.359809;0.996662;0.017228;-0.107241;0.343418;-0.002213;0.343429;-0.107252;-89.718709;0.351403;
1081;1032;3.940205;18.663748;0.997306;0.014177;-0.074104;0.193468;0.008000;0.193707;-0.074343;88.288902;0.195444;
1101;1122;4.389645;42.951539;0.996859;0.016825;-0.119544;0.420117;-0.000542;0.420117;-0.119544;-89.942482;0.432923;
1051;1047;7.251819;22.215030;0.997811;0.013618;-0.086142;0.233646;0.014141;0.234270;-0.086766;87.473024;0.236880;
1151;1237;-1.008084;71.865023;0.998845;0.006935;-0.056600;0.140418;0.001986;0.140438;-0.056620;89.422500;0.141313;
1131;1107;0.582979;37.541037;0.996857;0.019253;-0.117918;0.414447;0.000409;0.414447;-0.117918;89.955954;0.427084;
1126;1477;0.040439;84.833613;0.999992;0.001034;-0.006548;0.015752;-0.000280;0.015755;-0.006552;-89.280254;0.015830;
1041;1517;0.372129;85.324749;0.999987;0.000927;-0.004258;0.010117;-0.002278;0.010470;-0.004610;-81.206099;0.010495;
1136;1092;0.095062;32.383177;0.995935;0.019342;-0.111768;0.374316;0.000304;0.374316;-0.111768;89.964109;0.384305;
1046;1062;8.756733;25.686652;0.997197;0.018062;-0.095499;0.266053;0.014598;0.266641;-0.096088;87.691604;0.270085;
1256;1897;-0.008875;86.386884;0.999999;0.000248;-0.000100;0.001407;0.000235;0.001443;-0.000136;81.349577;0.001593;
1206;1087;-8.391861;31.775517;0.996080;0.017420;-0.113389;0.351188;-0.008910;0.351358;-0.113560;-88.901723;0.358605;
1161;1082;-2.768564;29.415093;0.996644;0.016781;-0.107664;0.344179;-0.002827;0.344196;-0.107682;-89.641506;0.352142;
991;1707;0.103677;86.099417;1.000000;0.000271;-0.000554;0.001539;-0.000236;0.001565;-0.000580;-83.639456;0.001582;
1056;1047;6.777923;22.064345;0.998069;0.013799;-0.085763;0.232419;0.013040;0.232953;-0.086296;87.657145;0.235545;
1106;1117;3.774827;41.165168;0.996695;0.015795;-0.119070;0.419989;-0.000098;0.419989;-0.119070;-89.989594;0.432913;
1156;1237;-1.297499;71.841495;0.998933;0.007282;-0.056862;0.141370;0.002613;0.141404;-0.056896;89.244831;0.142300;
1131;1477;0.006476;84.833465;0.999991;0.000829;-0.006563;0.015756;-0.000114;0.015756;-0.006563;-89.707075;0.015829;
1056;1102;9.952778;36.327151;0.996114;0.012747;-0.115869;0.356702;0.006293;0.356785;-0.115952;89.237184;0.363998;
1051;1062;8.263736;25.541343;0.996725;0.018326;-0.095078;0.265439;0.013438;0.265939;-0.095578;87.868278;0.269421;
1091;1127;5.686370;44.730586;0.996296;0.015609;-0.119955;0.414936;-0.001490;0.414940;-0.119959;-89.840408;0.427067;
1181;1077;-4.965583;28.223825;0.995705;0.013395;-0.105866;0.325175;-0.005528;0.325245;-0.105937;-89.265414;0.331766;
1066;1097;8.525521;34.595005;0.996763;0.014450;-0.113299;0.352056;0.005997;0.352133;-0.113376;89.261793;0.359497;
1076;1107;7.608604;37.578907;0.995305;0.015956;-0.116874;0.385053;0.002697;0.385067;-0.116888;89.692110;0.394850;
1201;1632;-0.082307;85.941838;0.999999;0.000262;-0.001096;0.002637;0.000345;0.002668;-0.001127;84.768957;0.002679;
1061;1047;6.323613;21.942078;0.997905;0.015017;-0.085332;0.231311;0.012069;0.231771;-0.085792;87.820303;0.234361;
1106;1122;3.740102;42.983878;0.996432;0.014667;-0.119545;0.422685;-0.000598;0.422686;-0.119545;-89.936768;0.435774;
1216;1077;-9.003239;29.168690;0.996659;0.017109;-0.107817;0.318843;-0.012554;0.319212;-0.108186;-88.316087;0.324687;
1186;1242;-2.946179;72.228803;0.999209;0.007725;-0.057268;0.140594;0.006896;0.140834;-0.057508;88.006420;0.141621;
991;1712;0.102321;86.107033;1.000000;0.000264;-0.000557;0.001537;-0.000224;0.001560;-0.000580;-83.948126;0.001577;
1061;1102;9.329530;36.258141;0.996276;0.013480;-0.115757;0.360944;0.005597;0.361010;-0.115823;89.327362;0.368655;
1136;1477;-0.026744;84.831216;0.999990;0.000730;-0.006581;0.015757;0.000057;0.015758;-0.006581;89.852623;0.015829;
1176;1082;-4.544581;29.647992;0.996049;0.015906;-0.109063;0.344058;-0.004498;0.344102;-0.109107;-89.431330;0.351694;
1191;1087;-6.552188;31.469013;0.995603;0.017033;-0.112958;0.357314;-0.005909;0.357388;-0.113032;-89.280279;0.365342;
1071;1097;7.920047;34.513301;0.996892;0.016029;-0.113032;0.355485;0.005095;0.355541;-0.113088;89.377007;0.363301;
1151;1087;-1.654649;30.820533;0.995710;0.016889;-0.109921;0.361039;-0.001484;0.361043;-0.109926;-89.819514;0.370132;
1221;1077;-9.590104;29.327151;0.997285;0.013275;-0.107990;0.317239;-0.013809;0.317687;-0.108438;-88.142016;0.322975;
1206;1057;-6.554700;23.755273;0.998194;0.013443;-0.092826;0.258377;-0.012244;0.258803;-0.093252;-88.005681;0.262148;
1121;1902;0.000682;86.394014;0.999999;0.000371;-0.000051;0.001303;-0.000015;0.001303;-0.000051;-89.347711;0.001476;
1136;1117;-0.167659;41.285477;0.995049;0.020293;-0.120366;0.427585;0.000654;0.427586;-0.120367;89.931580;0.440985;
1186;1247;-2.812553;72.855623;0.999201;0.008658;-0.054814;0.133159;0.006763;0.133402;-0.055057;87.942271;0.134077;
1086;1107;6.347492;37.509494;0.996717;0.019638;-0.116704;0.393036;0.001929;0.393044;-0.116712;89.783223;0.403703;
991;1717;0.099733;86.114762;1.000000;0.000177;-0.000560;0.001532;-0.000214;0.001553;-0.000581;-84.211120;0.001570;
1091;1482;0.255835;84.904698;0.999982;0.001112;-0.006306;0.014960;-0.001393;0.015051;-0.006397;-86.268012;0.015107;
1176;1087;-4.715596;31.200893;0.996068;0.016238;-0.112249;0.361353;-0.004000;0.361386;-0.112283;-89.516182;0.369919;
1146;1087;-1.078118;30.829604;0.995419;0.015696;-0.109498;0.359880;-0.000960;0.359882;-0.109500;-89.882848;0.368959;
1206;1062;-6.852639;24.896291;0.997971;0.015721;-0.096703;0.273398;-0.012340;0.273809;-0.097113;-88.092456;0.277637;
1321;1787;-0.099562;86.208741;0.999988;0.000978;-0.000611;0.001420;0.000063;0.001422;-0.000613;88.232319;0.001427;
1076;1027;4.127683;17.891295;0.997622;0.012218;-0.071735;0.184387;0.008622;0.184677;-0.072025;88.074051;0.186161;
1111;1122;3.083031;43.021867;0.996121;0.019850;-0.119831;0.424632;-0.000456;0.424632;-0.119831;-89.951987;0.437855;
1186;1252;-2.692005;73.481517;0.998974;0.008237;-0.052450;0.126150;0.006624;0.126395;-0.052695;87.878760;0.126976;
1056;1107;10.156164;37.829821;0.995813;0.016228;-0.117662;0.367362;0.005006;0.367413;-0.117713;89.408691;0.375232;
1086;1112;6.386160;39.263295;0.996843;0.018028;-0.118299;0.402314;0.001195;0.402316;-0.118302;89.868467;0.413536;
996;1717;0.097430;86.114147;1.000000;0.000176;-0.000573;0.001554;-0.000206;0.001573;-0.000592;-84.518076;0.001589;
1076;1097;7.314014;34.457281;0.996686;0.016889;-0.112819;0.359044;0.004611;0.359089;-0.112865;89.440219;0.367251;
1091;1487;0.239911;84.982338;0.999985;0.000856;-0.005936;0.014191;-0.001350;0.014281;-0.006026;-86.179553;0.014339;
1156;1087;-2.271978;30.891765;0.995623;0.017974;-0.110454;0.361963;-0.001957;0.361971;-0.110462;-89.762714;0.371018;
1131;1117;0.472695;41.237204;0.994574;0.015033;-0.120128;0.427251;0.000530;0.427251;-0.120128;89.944515;0.440681;
951;1752;0.105446;86.162547;0.999999;0.000232;-0.000546;0.001302;-0.000156;0.001315;-0.000559;-85.205978;0.001320;
1106;1057;2.697114;23.190782;0.997588;0.017320;-0.087172;0.248522;0.004579;0.248585;-0.087234;89.218612;0.252241;
1076;1032;4.330096;18.738994;0.997445;0.011574;-0.074807;0.194931;0.008838;0.195220;-0.075096;88.125395;0.196944;
1116;1122;2.441820;43.049621;0.996130;0.019689;-0.120164;0.426151;-0.000163;0.426151;-0.120164;-89.982860;0.439448;
1181;1237;-2.773928;71.664543;0.999134;0.006097;-0.059094;0.146912;0.006286;0.147103;-0.059286;88.253834;0.148023;
1061;1107;9.523496;37.818565;0.995648;0.016707;-0.117573;0.371986;0.004397;0.372025;-0.117613;89.485431;0.380317;
1111;1112;3.156831;39.270187;0.996033;0.017924;-0.118434;0.416927;0.000256;0.416928;-0.118434;89.972634;0.429693;
1211;1087;-9.017525;31.873016;0.995621;0.014445;-0.113565;0.348762;-0.010000;0.348978;-0.113782;-88.761459;0.355949;
1001;1717;0.093749;86.114703;1.000000;0.000201;-0.000583;0.001571;-0.000202;0.001590;-0.000602;-84.698855;0.001606;
1216;1097;-10.137047;35.222866;0.995605;0.015714;-0.118317;0.367584;-0.007609;0.367703;-0.118436;-89.103008;0.375381;
1251;1507;-0.558183;85.196113;0.999980;0.001799;-0.004977;0.011494;0.003196;0.012092;-0.005576;79.394683;0.012104;
1161;1087;-2.888179;30.962585;0.995990;0.015943;-0.110884;0.362619;-0.002477;0.362631;-0.110897;-89.700340;0.371636;
946;1847;0.063743;86.289632;0.999970;0.001537;-0.000636;0.001522;-0.000029;0.001522;-0.000636;-89.236848;0.001529;
1116;1127;2.396046;44.867374;0.996315;0.017248;-0.120227;0.425277;-0.000204;0.425278;-0.120227;-89.978558;0.438460;
1141;1077;-0.515608;27.882008;0.997055;0.016728;-0.102474;0.319968;-0.000492;0.319969;-0.102474;-89.933267;0.326787;
1171;1082;-3.935616;29.553798;0.996286;0.017672;-0.108661;0.344455;-0.004047;0.344491;-0.108697;-89.488288;0.352219;
1046;1072;9.460756;28.166207;0.996886;0.014305;-0.101000;0.284985;0.013692;0.285471;-0.101485;87.970967;0.289417;
1186;1237;-3.082215;71.616668;0.999045;0.007523;-0.059737;0.148141;0.007055;0.148381;-0.059976;88.058520;0.149286;
1221;1097;-10.784582;35.315852;0.995639;0.017558;-0.118486;0.364378;-0.008367;0.364523;-0.118631;-89.007600;0.371854;
1101;1132;4.324974;46.678414;0.997040;0.015303;-0.119367;0.417437;-0.001345;0.417440;-0.119370;-89.856446;0.430001;
1131;1092;0.673315;32.397907;0.996352;0.014984;-0.111346;0.372685;0.000650;0.372686;-0.111347;89.923036;0.382615;
1081;1497;0.262385;85.110342;0.999983;0.001383;-0.005284;0.012631;-0.001562;0.012766;-0.005419;-85.055470;0.012814;
946;1852;0.062968;86.298995;0.999963;0.001660;-0.000633;0.001565;-0.000047;0.001566;-0.000634;-88.780434;0.001575;
1166;1082;-3.347269;29.483367;0.996294;0.016498;-0.108085;0.344506;-0.003483;0.344533;-0.108112;-89.559163;0.352407;
1066;1637;0.077342;85.956768;1.000000;0.000192;-0.001053;0.002504;-0.000319;0.002533;-0.001081;-84.911942;0.002542;
1226;1237;-5.669371;70.939593;0.997916;0.013067;-0.062842;0.156621;0.015563;0.157719;-0.063940;85.963903;0.158657;
1146;1077;-1.039234;27.925360;0.996659;0.016982;-0.102732;0.321331;-0.001203;0.321334;-0.102735;-89.837485;0.328223;
1096;1137;4.861256;48.378249;0.996463;0.017234;-0.118556;0.407758;-0.002094;0.407766;-0.118564;-89.772073;0.419499;
1061;1097;9.135568;34.654041;0.996798;0.012796;-0.113603;0.348532;0.006837;0.348633;-0.113704;89.152555;0.355588;
1171;1087;-4.100174;31.120724;0.996061;0.015836;-0.111871;0.362204;-0.003568;0.362231;-0.111898;-89.568782;0.370943;
1171;1077;-3.799974;28.036876;0.996104;0.017895;-0.105156;0.325274;-0.004465;0.325320;-0.105203;-89.405763;0.332016;
1106;1132;3.658741;46.672715;0.996482;0.016058;-0.119356;0.419148;-0.001108;0.419150;-0.119358;-89.882147;0.431901;
1166;1077;-3.230308;27.983181;0.995657;0.020478;-0.104568;0.324929;-0.003809;0.324963;-0.104601;-89.491870;0.331764;
951;1757;0.103257;86.168911;0.999999;0.000181;-0.000530;0.001324;-0.000128;0.001333;-0.000539;-86.080245;0.001341;
1191;1482;-0.365262;84.890298;0.999983;0.001369;-0.006323;0.014974;0.001958;0.015152;-0.006502;84.791851;0.015203;
1166;1087;-3.489626;31.034085;0.996189;0.015540;-0.111313;0.362684;-0.003037;0.362704;-0.111333;-89.632879;0.371606;
1036;1637;0.105117;85.968320;1.000000;0.000198;-0.000906;0.002352;-0.000449;0.002412;-0.000967;-82.299113;0.002428;
1116;1237;0.968979;71.953487;0.999177;0.007585;-0.055744;0.137344;-0.001988;0.137364;-0.055765;-89.410240;0.138171;
1136;1097;0.060981;34.038963;0.995951;0.017476;-0.114323;0.390227;0.000389;0.390228;-0.114324;89.955835;0.401224;
1191;1067;-5.573640;25.787321;0.997740;0.015619;-0.099381;0.288414;-0.008119;0.288584;-0.099551;-88.801165;0.293172;
1086;1122;6.334151;42.902000;0.995627;0.022405;-0.119858;0.410533;-0.000757;0.410534;-0.119859;-89.918232;0.422213;
951;1762;0.100812;86.175131;0.999999;0.000161;-0.000527;0.001322;-0.000129;0.001331;-0.000536;-86.025333;0.001339;
1086;1102;6.224191;35.936015;0.996550;0.018333;-0.114703;0.380545;0.002635;0.380559;-0.114717;89.695112;0.390433;
1176;1077;-4.383597;28.147107;0.995982;0.014039;-0.105574;0.325355;-0.004949;0.325412;-0.105631;-89.342125;0.332018;
1111;1132;3.010259;46.676509;0.996425;0.017432;-0.119564;0.420255;-0.000712;0.420256;-0.119565;-89.924450;0.433071;
1141;1087;-0.500740;30.825728;0.995398;0.017352;-0.109217;0.358378;-0.000374;0.358378;-0.109217;-89.954135;0.367373;
1046;1092;10.725178;33.475055;0.996804;0.014053;-0.111586;0.327224;0.010532;0.327476;-0.111839;88.625915;0.332914;
1196;1482;-0.398621;84.889599;0.999986;0.001254;-0.006340;0.014972;0.002125;0.015182;-0.006550;84.360844;0.015230;
1036;1642;0.102940;85.979660;1.000000;0.000144;-0.000870;0.002237;-0.000411;0.002291;-0.000923;-82.585518;0.002305;
1221;1232;-5.564410;70.343456;0.998606;0.008577;-0.065555;0.164539;0.014324;0.165428;-0.066444;86.451373;0.166491;
951;1767;0.098494;86.181944;0.999999;0.000156;-0.000515;0.001319;-0.000109;0.001326;-0.000521;-86.613650;0.001336;
1096;1127;5.047515;44.767735;0.996436;0.017078;-0.119772;0.417915;-0.001184;0.417918;-0.119774;-89.873790;0.430419;
1191;1072;-5.833864;27.075637;0.997256;0.015894;-0.103023;0.305840;-0.007586;0.305981;-0.103164;-88.937381;0.311344;
1096;1142;4.733717;50.030464;0.995752;0.016316;-0.117064;0.396881;-0.002602;0.396895;-0.117077;-89.709923;0.407865;
1051;1092;10.119579;33.351885;0.996543;0.013237;-0.111278;0.330286;0.009709;0.330500;-0.111491;88.741035;0.336279;
1131;1112;0.515636;39.381994;0.996299;0.016017;-0.119215;0.422655;0.000386;0.422656;-0.119215;89.959234;0.435833;
1101;1117;4.401141;41.122317;0.996448;0.017515;-0.119077;0.417329;0.000076;0.417329;-0.119077;89.991926;0.429959;
1096;1132;5.008100;46.581839;0.996557;0.017829;-0.119483;0.415289;-0.001659;0.415294;-0.119488;-89.822221;0.427589;
1086;1117;6.345742;41.121407;0.995555;0.019706;-0.119328;0.407633;0.000261;0.407633;-0.119328;89.971599;0.419145;
1201;1482;-0.427411;84.886612;0.999987;0.000941;-0.006354;0.014968;0.002296;0.015213;-0.006598;83.923855;0.015257;
1101;1137;4.204444;48.441529;0.996058;0.015431;-0.118388;0.409608;-0.001697;0.409613;-0.118393;-89.815889;0.421592;
1096;1097;4.923245;34.249004;0.996919;0.018422;-0.112170;0.372251;0.002623;0.372266;-0.112184;89.689803;0.381933;
1116;1232;0.992188;71.268063;0.999050;0.007703;-0.058271;0.145077;-0.001949;0.145095;-0.058290;-89.450915;0.146026;
956;1767;0.096323;86.184183;0.999999;0.000184;-0.000508;0.001348;-0.000111;0.001354;-0.000515;-86.578112;0.001367;
1071;1052;5.727778;22.796235;0.997523;0.013439;-0.087788;0.240489;0.009697;0.240775;-0.088074;88.309432;0.243649;
1051;1097;10.343782;34.851473;0.996650;0.013747;-0.113535;0.341147;0.008331;0.341300;-0.113687;88.950626;0.347580;
1101;1142;4.093632;50.089381;0.995823;0.019032;-0.116909;0.398628;-0.002149;0.398637;-0.116918;-89.761215;0.409835;
1101;1127;4.372937;44.808774;0.996733;0.018540;-0.119675;0.420548;-0.001021;0.420550;-0.119677;-89.891736;0.433366;
1116;1477;0.103956;84.832349;0.999986;0.000781;-0.006591;0.015749;-0.000613;0.015766;-0.006608;-88.430579;0.015834;
1106;1812;0.011040;86.270076;1.000000;0.000143;-0.000402;0.001485;-0.000038;0.001486;-0.000403;-88.835641;0.001537;
1136;1112;-0.134348;39.471090;0.995956;0.018338;-0.119497;0.423180;0.000430;0.423180;-0.119498;89.954553;0.436336;
1091;1117;5.721967;41.125749;0.996283;0.016812;-0.119212;0.411145;0.000208;0.411145;-0.119212;89.977567;0.423065;
1096;1102;5.043884;35.842123;0.997040;0.017482;-0.114470;0.387382;0.001845;0.387388;-0.114477;89.789366;0.398041;
1106;1137;3.578295;48.434708;0.994355;0.014237;-0.118330;0.411138;-0.001392;0.411142;-0.118334;-89.849360;0.423302;
1281;1642;-0.141073;85.993068;0.999999;0.000229;-0.000676;0.002011;0.000649;0.002160;-0.000825;77.102553;0.002180;
1166;1097;-3.742379;34.373820;0.995733;0.018133;-0.116442;0.392287;-0.002366;0.392298;-0.116453;-89.733582;0.402947;
1051;1102;10.562169;36.397667;0.996138;0.017082;-0.115571;0.352309;0.007057;0.352416;-0.115678;89.136019;0.359280;
1196;1232;-3.867943;70.776191;0.999006;0.009547;-0.063626;0.158477;0.008954;0.158837;-0.063987;87.695067;0.159834;
1056;1097;9.746397;34.725680;0.996500;0.011632;-0.113746;0.344906;0.007534;0.345029;-0.113870;89.059117;0.351612;
1121;1137;1.653865;48.525832;0.995305;0.018008;-0.118848;0.413729;0.000023;0.413729;-0.118848;89.997488;0.426029;
1106;1127;3.695734;44.809263;0.996740;0.017569;-0.119681;0.422757;-0.000881;0.422758;-0.119682;-89.906993;0.435816;
1141;1472;-0.063217;84.748123;0.999986;0.001049;-0.006955;0.016528;0.000237;0.016530;-0.006957;89.420993;0.016599;
1096;1117;5.089357;41.094326;0.996097;0.018861;-0.119097;0.414389;0.000207;0.414389;-0.119097;89.977729;0.426692;
1091;1097;5.522385;34.311972;0.997008;0.018890;-0.112237;0.369105;0.003117;0.369126;-0.112257;89.629027;0.378450;
1091;1137;5.475085;48.331883;0.996774;0.019069;-0.118777;0.405640;-0.002550;0.405652;-0.118789;-89.721442;0.417097;
1041;1767;0.052318;86.197234;1.000000;0.000170;-0.000563;0.001580;-0.000103;0.001585;-0.000568;-87.253032;0.001606;
1011;1627;0.134244;85.954101;0.999999;0.000258;-0.000892;0.002564;-0.000690;0.002696;-0.001025;-79.107653;0.002722;
1171;1097;-4.395261;34.411819;0.995875;0.017317;-0.116971;0.391153;-0.002832;0.391169;-0.116987;-89.680677;0.401559;
1111;1117;3.127953;41.204928;0.996294;0.018473;-0.119329;0.422136;-0.000113;0.422136;-0.119329;-89.988065;0.435224;
1046;1112;11.609312;39.521191;0.996467;0.018362;-0.118839;0.365532;0.004826;0.365580;-0.118887;89.429201;0.372953;
1216;1092;-9.901726;33.589638;0.995996;0.014335;-0.116146;0.356849;-0.009699;0.357048;-0.116344;-88.825773;0.364195;
1186;1257;-2.574029;74.078109;0.999058;0.007262;-0.050228;0.120017;0.006483;0.120264;-0.050475;87.822468;0.120780;
1141;1112;-0.763700;39.520890;0.995658;0.018036;-0.119701;0.423377;0.000373;0.423377;-0.119701;89.960615;0.436498;
1141;1477;-0.058912;84.827533;0.999987;0.000821;-0.006596;0.015760;0.000233;0.015762;-0.006598;89.402210;0.015831;
1081;1107;6.965236;37.540353;0.996341;0.019933;-0.116858;0.389177;0.002365;0.389189;-0.116870;89.732237;0.399403;
1091;1102;5.650366;35.872084;0.996460;0.018093;-0.114531;0.384029;0.002225;0.384039;-0.114541;89.744341;0.394322;
1111;1137;2.944292;48.474453;0.994696;0.016195;-0.118504;0.412249;-0.000899;0.412251;-0.118505;-89.902978;0.424485;
1221;1092;-10.556962;33.697336;0.996405;0.017062;-0.116271;0.353935;-0.010607;0.354175;-0.116511;-88.708330;0.361016;
1051;1112;10.925967;39.469204;0.995738;0.018770;-0.118731;0.370846;0.004225;0.370883;-0.118767;89.505574;0.378789;
1046;1117;11.631184;41.172512;0.995648;0.016915;-0.119805;0.371345;0.002746;0.371360;-0.119820;89.679648;0.379067;
1186;1687;-0.050618;86.063655;1.000000;0.000120;-0.000887;0.001972;0.000148;0.001980;-0.000895;87.054357;0.001983;
1011;1632;0.129662;85.966822;0.999999;0.000284;-0.000824;0.002376;-0.000620;0.002492;-0.000940;-79.410163;0.002517;
1176;1092;-4.903292;32.831861;0.995993;0.017566;-0.115044;0.376165;-0.003674;0.376192;-0.115072;-89.571484;0.385527;
1146;1237;-0.734651;71.865900;0.998703;0.007102;-0.056316;0.139582;0.001431;0.139592;-0.056327;89.581454;0.140456;
1161;1092;-2.992969;32.645487;0.995453;0.016330;-0.113739;0.378473;-0.002194;0.378483;-0.113749;-89.744558;0.388391;
1081;1112;7.026703;39.261405;0.996484;0.020130;-0.118449;0.398436;0.001551;0.398440;-0.118454;89.828120;0.409209;
1111;1462;0.161088;84.579667;0.999981;0.000948;-0.007861;0.018317;-0.000864;0.018345;-0.007890;-88.111264;0.018405;
1091;1107;5.727088;37.495808;0.996789;0.015203;-0.116581;0.396600;0.001614;0.396605;-0.116586;89.819785;0.407675;
1116;1132;2.342045;46.704729;0.996236;0.018839;-0.119754;0.421008;-0.000283;0.421009;-0.119755;-89.970017;0.433854;
1051;1117;10.954465;41.119713;0.995308;0.021177;-0.119730;0.376590;0.002323;0.376600;-0.119741;89.731877;0.384831;
1081;1097;6.690556;34.385595;0.996514;0.015786;-0.112679;0.362523;0.004172;0.362560;-0.112716;89.497042;0.371103;
1111;1127;3.054385;44.858784;0.996254;0.019268;-0.119947;0.424253;-0.000573;0.424254;-0.119948;-89.939626;0.437402;
1176;1097;-5.043032;34.457245;0.995327;0.018682;-0.117316;0.389690;-0.003159;0.389710;-0.117335;-89.642985;0.399858;
1191;1687;-0.054954;86.063904;1.000000;0.000156;-0.000871;0.001954;0.000158;0.001963;-0.000879;86.804352;0.001966;
1306;1837;-0.061431;86.285859;0.999999;0.000213;-0.000487;0.001511;0.000096;0.001516;-0.000492;87.243270;0.001546;
1121;1232;0.695532;71.261428;0.998970;0.007917;-0.058136;0.145076;-0.001279;0.145084;-0.058144;-89.639511;0.146033;
1166;1092;-3.620829;32.698505;0.995812;0.017221;-0.114146;0.378228;-0.002730;0.378243;-0.114161;-89.682316;0.388020;
1081;1117;7.016690;41.100646;0.994969;0.021160;-0.119503;0.403813;0.000534;0.403813;-0.119504;89.941565;0.414872;
1111;1467;0.152487;84.664389;0.999986;0.000914;-0.007433;0.017421;-0.000833;0.017448;-0.007461;-88.082956;0.017509;
1096;1107;5.116112;37.464085;0.996799;0.016085;-0.116522;0.400009;0.001370;0.400013;-0.116526;89.848012;0.411464;
1116;1137;2.296099;48.508648;0.995426;0.018370;-0.118685;0.413111;-0.000394;0.413111;-0.118685;-89.957570;0.425389;
1091;1132;5.661304;46.504215;0.996190;0.017127;-0.119691;0.412773;-0.002097;0.412782;-0.119699;-89.774400;0.424746;
1091;1122;5.711838;42.893451;0.996386;0.018316;-0.119750;0.414004;-0.000678;0.414005;-0.119750;-89.927263;0.426088;
1096;1112;5.100123;39.263269;0.996315;0.017125;-0.118113;0.409123;0.000860;0.409124;-0.118115;89.906490;0.421125;
1191;1092;-6.737960;33.121832;0.995676;0.020191;-0.115648;0.370734;-0.005310;0.370792;-0.115706;-89.374531;0.379424;
1196;1687;-0.059542;86.063959;1.000000;0.000185;-0.000853;0.001935;0.000168;0.001945;-0.000863;86.558548;0.001950;
1306;1842;-0.058361;86.293442;0.999999;0.000202;-0.000479;0.001531;0.000103;0.001536;-0.000484;87.069006;0.001571;
1166;1232;-1.978393;71.079966;0.998994;0.011535;-0.060033;0.150606;0.004232;0.150691;-0.060118;88.849361;0.151714;
1171;1092;-4.267948;32.735477;0.996187;0.016420;-0.114680;0.377374;-0.003259;0.377395;-0.114701;-89.620511;0.386947;
1111;1472;0.145184;84.746821;0.999987;0.000858;-0.007007;0.016561;-0.000803;0.016588;-0.007035;-88.049795;0.016652;
1151;1082;-1.630424;29.343947;0.996432;0.015739;-0.106697;0.342304;-0.001674;0.342311;-0.106704;-89.786339;0.350307;
1101;1102;4.401188;35.836517;0.996915;0.016054;-0.114569;0.390362;0.001504;0.390367;-0.114573;89.829304;0.401311;
1121;1122;1.781375;43.089899;0.995297;0.016380;-0.120469;0.427389;0.000130;0.427389;-0.120469;89.986442;0.440737;
1086;1127;6.329879;44.709083;0.995544;0.020673;-0.120049;0.411655;-0.001728;0.411660;-0.120054;-89.813762;0.423408;
1101;1112;4.447695;39.277895;0.996307;0.016912;-0.118160;0.412078;0.000635;0.412079;-0.118160;89.931363;0.424389;
1181;1082;-5.132905;29.734904;0.995710;0.013332;-0.109300;0.343358;-0.005063;0.343415;-0.109357;-89.359228;0.350881;
1076;1132;7.621656;46.419408;0.995804;0.019610;-0.120072;0.403369;-0.002598;0.403382;-0.120085;-89.715621;0.414241;
1256;1642;-0.126507;85.984275;0.999999;0.000199;-0.000751;0.002156;0.000521;0.002246;-0.000841;80.143077;0.002270;
1171;1232;-2.298923;71.039142;0.998843;0.010347;-0.060403;0.151775;0.004986;0.151892;-0.060520;88.654489;0.152933;
1076;1692;0.051760;86.073979;1.000000;0.000113;-0.000841;0.001903;-0.000152;0.001911;-0.000849;-86.848430;0.001915;
1141;1097;-0.590412;34.089349;0.995732;0.019102;-0.114632;0.391380;-0.000053;0.391380;-0.114632;-89.993982;0.402416;
1111;1477;0.137056;84.829415;0.999987;0.000899;-0.006601;0.015748;-0.000773;0.015775;-0.006628;-88.021806;0.015842;
1096;1157;4.375635;55.133851;0.997089;0.014836;-0.110592;0.358599;-0.004585;0.358643;-0.110637;-89.440125;0.367308;
1101;1107;4.453950;37.481340;0.996808;0.015917;-0.116631;0.403026;0.001121;0.403029;-0.116633;89.876453;0.414775;
1121;1127;1.740814;44.919091;0.995360;0.017417;-0.120472;0.426056;0.000109;0.426056;-0.120472;89.988548;0.439256;
1086;1132;6.310968;46.475918;0.995547;0.016798;-0.119778;0.409969;-0.002424;0.409980;-0.119789;-89.737855;0.421619;
1106;1112;3.808503;39.286178;0.996129;0.015920;-0.118167;0.414712;0.000391;0.414712;-0.118167;89.958012;0.427309;
1071;1132;8.269130;46.390927;0.995892;0.018675;-0.120249;0.399318;-0.002856;0.399333;-0.120264;-89.685089;0.409724;
1076;1137;7.504975;48.112642;0.996647;0.019944;-0.119233;0.397375;-0.003305;0.397396;-0.119254;-89.633520;0.407847;
1311;1837;-0.063302;86.283436;0.999999;0.000211;-0.000499;0.001503;0.000097;0.001507;-0.000503;87.235047;0.001535;
1176;1232;-2.593059;70.997035;0.998696;0.008183;-0.060955;0.153036;0.005755;0.153191;-0.061110;88.460545;0.154231;
1186;1087;-5.908795;31.373177;0.995481;0.015791;-0.112655;0.358874;-0.005254;0.358933;-0.112714;-89.361724;0.367116;
1146;1472;-0.095772;84.745565;0.999984;0.000987;-0.006946;0.016531;0.000419;0.016538;-0.006954;88.977071;0.016608;
1141;1817;-0.002582;86.277802;1.000000;0.000153;-0.000380;0.001471;0.000011;0.001471;-0.000380;89.657192;0.001527;
1066;1102;8.693544;36.168673;0.996264;0.014318;-0.115454;0.364996;0.004816;0.365044;-0.115502;89.425738;0.373157;
1096;1162;4.197510;56.600722;0.997742;0.014223;-0.107673;0.342412;-0.004921;0.342466;-0.107727;-89.373632;0.350229;
1121;1132;1.689324;46.745150;0.995325;0.017941;-0.119917;0.421536;0.000073;0.421536;-0.119917;89.992253;0.434394;
1066;1107;8.908988;37.773088;0.995386;0.016305;-0.117285;0.376362;0.003717;0.376390;-0.117313;89.568611;0.385186;
1116;1117;2.461844;41.211419;0.996170;0.019230;-0.119664;0.423997;0.000039;0.423997;-0.119664;89.995905;0.437197;
1071;1137;8.153063;48.071213;0.996480;0.019502;-0.119444;0.393741;-0.003639;0.393766;-0.119470;-89.593786;0.403785;
1316;1837;-0.065502;86.280226;0.999999;0.000192;-0.000522;0.001492;0.000095;0.001496;-0.000527;87.311189;0.001518;
1076;1142;7.303313;49.809330;0.996575;0.017825;-0.117848;0.387480;-0.004233;0.387515;-0.117883;-89.520072;0.397296;
1181;1232;-2.893501;70.937686;0.998766;0.008141;-0.061654;0.154293;0.006529;0.154490;-0.061852;88.269686;0.155509;
1081;1132;6.963209;46.440165;0.995532;0.016984;-0.119958;0.406903;-0.002508;0.406915;-0.119970;-89.727239;0.418178;
1121;1482;0.067137;84.910765;0.999993;0.000858;-0.006195;0.014974;-0.000420;0.014982;-0.006203;-88.864176;0.015056;
1071;1102;8.087999;36.118493;0.996171;0.011744;-0.115185;0.368926;0.003988;0.368959;-0.115218;89.528004;0.377528;
1076;1162;6.504406;56.218172;0.997232;0.014266;-0.109120;0.338170;-0.007417;0.338293;-0.109243;-89.050230;0.345292;
1321;1837;-0.067786;86.274443;0.999986;0.000984;-0.000551;0.001477;0.000094;0.001481;-0.000556;87.340606;0.001496;
1166;1802;-0.014555;86.255480;1.000000;0.000166;-0.000439;0.001507;0.000044;0.001508;-0.000440;88.702030;0.001550;
1071;1107;8.241358;37.612691;0.995488;0.014520;-0.117024;0.380634;0.003016;0.380652;-0.117042;89.652778;0.389944;
1081;1102;6.823991;35.990682;0.996606;0.018599;-0.114914;0.376854;0.003142;0.376874;-0.114935;89.633973;0.386313;
1141;1102;-0.646358;35.919976;0.995533;0.017711;-0.116753;0.404825;0.000023;0.404825;-0.116753;89.997478;0.416734;
1071;1142;7.965663;49.724541;0.996298;0.017312;-0.118101;0.384291;-0.004633;0.384334;-0.118143;-89.471705;0.393724;
1076;1147;7.137982;51.476973;0.996286;0.015832;-0.116163;0.376335;-0.005259;0.376391;-0.116219;-89.388270;0.385458;
1186;1232;-3.215022;70.902662;0.998786;0.008332;-0.062321;0.155656;0.007334;0.155902;-0.062567;88.075018;0.156911;
1081;1137;6.821957;48.216432;0.996645;0.015961;-0.119057;0.400528;-0.003112;0.400547;-0.119076;-89.656848;0.411374;
1126;1482;0.039069;84.909514;0.999994;0.000807;-0.006184;0.014977;-0.000256;0.014980;-0.006187;-89.306064;0.015056;
1076;1102;7.464037;36.082673;0.996261;0.013796;-0.115002;0.372991;0.003547;0.373017;-0.115028;89.583600;0.382040;
1081;1162;5.924258;56.348410;0.997443;0.013445;-0.108602;0.339390;-0.006879;0.339496;-0.108707;-89.120440;0.346736;
1121;1117;1.816937;41.245719;0.995238;0.017755;-0.119970;0.425538;0.000239;0.425538;-0.119970;89.974869;0.438822;
1166;1807;-0.013807;86.262635;1.000000;0.000152;-0.000420;0.001499;0.000044;0.001500;-0.000421;88.681549;0.001547;
1141;1107;-0.708671;37.728149;0.995619;0.016322;-0.118443;0.415668;0.000153;0.415668;-0.118443;89.983585;0.428292;
1071;1147;7.764621;51.391248;0.996135;0.015353;-0.116456;0.373562;-0.005735;0.373629;-0.116523;-89.329565;0.382343;
1081;1167;5.677948;57.692842;0.997846;0.013219;-0.105618;0.323470;-0.007251;0.323592;-0.105741;-89.032117;0.330002;
1076;1152;6.949700;53.167171;0.996243;0.017787;-0.114186;0.365252;-0.006199;0.365332;-0.114266;-89.259387;0.373772;
1196;1617;-0.082564;85.899048;0.999999;0.000210;-0.001244;0.003032;0.000400;0.003069;-0.001281;84.700657;0.003083;
1196;1227;-4.040354;70.004786;0.998961;0.010882;-0.066319;0.166653;0.009206;0.167017;-0.066682;87.740692;0.168143;
1056;1092;9.537802;33.232490;0.996543;0.013451;-0.111402;0.333373;0.008851;0.333549;-0.111579;88.860379;0.339584;
1081;1142;6.638687;49.918883;0.996567;0.016692;-0.117571;0.390261;-0.003926;0.390291;-0.117601;-89.557108;0.400431;
1131;1482;0.008542;84.907695;0.999993;0.000792;-0.006202;0.014985;-0.000095;0.014985;-0.006202;-89.742268;0.015059;
1071;1152;7.574255;53.052461;0.996009;0.016100;-0.114501;0.362955;-0.006736;0.363050;-0.114596;-89.191847;0.371184;
1086;1137;6.160769;48.260781;0.996632;0.017852;-0.118860;0.403234;-0.002933;0.403250;-0.118877;-89.678140;0.414416;
1166;1812;-0.013021;86.269761;1.000000;0.000165;-0.000400;0.001489;0.000045;0.001490;-0.000401;88.646549;0.001542;
1126;1117;1.150888;41.245186;0.994814;0.015292;-0.119969;0.426617;0.000333;0.426617;-0.119969;89.965112;0.440021;
1076;1157;6.742015;54.789531;0.996788;0.017124;-0.111801;0.352670;-0.006957;0.352774;-0.111905;-89.142029;0.360546;
1071;1167;6.810467;57.454489;0.997477;0.013276;-0.106604;0.321733;-0.008489;0.321902;-0.106772;-88.865137;0.327925;
1081;1152;6.321068;53.293472;0.996567;0.017258;-0.113806;0.367392;-0.005732;0.367460;-0.113874;-89.317610;0.376209;
1201;1227;-4.373921;69.940111;0.999076;0.012175;-0.066925;0.167684;0.010060;0.168115;-0.067356;87.549289;0.169218;
1081;1037;4.125101;19.515039;0.997371;0.012851;-0.077163;0.204327;0.008218;0.204567;-0.077403;88.329120;0.206574;
1216;1087;-9.657502;31.988378;0.995568;0.013759;-0.113658;0.346221;-0.011052;0.346486;-0.113924;-88.624115;0.353191;
1116;1482;0.096794;84.909223;0.999989;0.000816;-0.006205;0.014969;-0.000584;0.014985;-0.006221;-88.421993;0.015057;
1081;1147;6.483489;51.590828;0.996321;0.015451;-0.115824;0.378855;-0.004839;0.378902;-0.115871;-89.439579;0.388311;
1071;1157;7.355952;54.673094;0.996478;0.016357;-0.112149;0.350943;-0.007556;0.351066;-0.112273;-89.065488;0.358585;
1086;1142;6.003769;49.973080;0.996412;0.015811;-0.117362;0.392678;-0.003609;0.392703;-0.117388;-89.594643;0.403149;
1106;1152;3.281084;53.570233;0.997512;0.019677;-0.112836;0.375362;-0.002957;0.375380;-0.112854;-89.652960;0.385198;
1081;1157;6.151149;54.929258;0.996809;0.015645;-0.111360;0.354333;-0.006444;0.354422;-0.111449;-89.207380;0.362466;
1101;1152;3.880320;53.535567;0.996729;0.018515;-0.112965;0.374227;-0.003459;0.374252;-0.112989;-89.593227;0.383918;
1086;1152;5.720006;53.342653;0.996534;0.012989;-0.113532;0.369377;-0.005242;0.369433;-0.113589;-89.378133;0.378453;
1111;1672;0.022749;86.031493;1.000000;0.000140;-0.001027;0.002208;-0.000077;0.002210;-0.001029;-88.630420;0.002211;
1206;1227;-4.751750;69.875036;0.998880;0.012601;-0.067287;0.169078;0.011146;0.169602;-0.067811;87.306082;0.170733;
1186;1067;-5.075043;25.691661;0.997269;0.013684;-0.098881;0.288087;-0.007208;0.288221;-0.099015;-88.933295;0.292887;
1121;1487;0.063903;84.979741;0.999993;0.000994;-0.005843;0.014199;-0.000393;0.014207;-0.005850;-88.876522;0.014280;
1136;1482;-0.022145;84.905947;0.999991;0.000908;-0.006226;0.014988;0.000069;0.014988;-0.006226;89.813194;0.015059;
1086;1147;5.854132;51.665635;0.996048;0.014876;-0.115601;0.381092;-0.004419;0.381131;-0.115641;-89.490333;0.390827;
1066;1157;7.965684;54.575340;0.996352;0.014177;-0.112346;0.349107;-0.008417;0.349260;-0.112500;-88.955346;0.356553;
1111;1157;2.574032;55.183502;0.997717;0.025143;-0.110229;0.360858;-0.002643;0.360873;-0.110244;-89.678509;0.369863;
1071;1162;7.098869;56.118157;0.996908;0.014049;-0.109529;0.336880;-0.007982;0.337022;-0.109672;-88.975943;0.343803;
1196;1092;-7.370458;33.217244;0.996075;0.022498;-0.115860;0.368311;-0.005898;0.368383;-0.115932;-89.302212;0.376720;
1046;1107;11.467603;37.999300;0.996747;0.019023;-0.117483;0.357518;0.006344;0.357602;-0.117568;89.234901;0.364525;
1196;1622;-0.080332;85.912861;0.999999;0.000218;-0.001194;0.002889;0.000371;0.002923;-0.001228;84.850515;0.002935;
1126;1487;0.036788;84.977276;0.999994;0.000808;-0.005840;0.014208;-0.000235;0.014210;-0.005843;-89.329029;0.014285;
1076;1112;7.716398;39.270424;0.995476;0.017648;-0.118461;0.394254;0.001837;0.394261;-0.118467;89.794754;0.404589;
1061;1072;7.819258;27.731318;0.997361;0.013279;-0.100221;0.287099;0.010909;0.287406;-0.100528;88.387882;0.291697;
1141;1482;-0.052567;84.902017;0.999989;0.000881;-0.006244;0.014988;0.000235;0.014991;-0.006247;89.364765;0.015060;
1086;1157;5.567647;54.999103;0.996549;0.013006;-0.111039;0.355914;-0.005902;0.355989;-0.111113;-89.276000;0.364269;
1206;1482;-0.455905;84.883469;0.999988;0.001065;-0.006371;0.014974;0.002473;0.015257;-0.006653;83.477602;0.015299;
1066;1162;7.684362;56.000739;0.996765;0.013741;-0.109753;0.335548;-0.008914;0.335726;-0.109931;-88.853672;0.342326;
1111;1162;2.476154;56.773140;0.997649;0.018172;-0.107184;0.343679;-0.002780;0.343696;-0.107201;-89.646722;0.351709;
1066;1132;8.947715;46.324908;0.995909;0.014923;-0.120488;0.395277;-0.003034;0.395295;-0.120506;-89.662976;0.405207;
1051;1107;10.784306;37.895508;0.995888;0.018134;-0.117377;0.362548;0.005720;0.362616;-0.117446;89.317193;0.370038;
1201;1092;-7.971515;33.301920;0.996053;0.018715;-0.115908;0.365844;-0.006901;0.365943;-0.116006;-89.179419;0.374023;
1196;1627;-0.078143;85.926320;0.999999;0.000205;-0.001151;0.002764;0.000344;0.002794;-0.001181;85.020870;0.002805;
1061;1077;8.121398;29.021270;0.997509;0.016140;-0.103039;0.299672;0.010324;0.299937;-0.103303;88.532439;0.304739;
1116;1492;0.092970;85.050613;0.999992;0.000920;-0.005505;0.013418;-0.000520;0.013433;-0.005519;-88.425921;0.013504;
1131;1487;0.008897;84.975746;0.999994;0.000754;-0.005857;0.014217;-0.000082;0.014217;-0.005857;-89.767370;0.014290;
1091;1152;5.132444;53.400122;0.996497;0.013172;-0.113408;0.371245;-0.004644;0.371290;-0.113452;-89.451100;0.380533;
1106;1472;0.181273;84.747142;0.999986;0.001046;-0.007013;0.016570;-0.000968;0.016610;-0.007053;-87.653292;0.016672;
1081;1057;5.030381;23.641745;0.997830;0.012754;-0.089577;0.250908;0.008262;0.251109;-0.089777;88.610831;0.254484;
1106;1157;3.192688;55.200777;0.998100;0.022753;-0.110216;0.360273;-0.003443;0.360298;-0.110241;-89.580799;0.369230;
1066;1137;8.793582;48.043828;0.995853;0.013846;-0.119669;0.390114;-0.003988;0.390145;-0.119700;-89.551854;0.399734;
1111;1167;2.361580;58.219720;0.997683;0.017026;-0.104057;0.326042;-0.002888;0.326061;-0.104076;-89.615316;0.333091;
1206;1092;-8.616945;33.377192;0.996288;0.015212;-0.115953;0.363095;-0.007895;0.363225;-0.116083;-89.056107;0.371022;
1096;1122;5.078854;42.909641;0.996347;0.019722;-0.119607;0.417204;-0.000526;0.417205;-0.119607;-89.943836;0.429675;
1061;1082;8.430532;30.319925;0.997498;0.014337;-0.105853;0.312160;0.009712;0.312385;-0.106078;88.669812;0.317700;
1046;1057;8.406076;24.562697;0.997679;0.018604;-0.092592;0.255749;0.014912;0.256386;-0.093230;87.553210;0.259545;
1141;1492;-0.046549;85.043953;0.999992;0.000724;-0.005554;0.013487;0.000216;0.013490;-0.005556;89.349686;0.013559;
1136;1487;-0.019199;84.975415;0.999993;0.000772;-0.005878;0.014223;0.000073;0.014223;-0.005879;89.791112;0.014294;
1091;1157;4.979648;55.052283;0.996997;0.015391;-0.110891;0.357361;-0.005236;0.357420;-0.110949;-89.359436;0.365883;
991;1637;0.138101;85.986171;0.999999;0.000202;-0.000683;0.002091;-0.000660;0.002240;-0.000832;-77.276684;0.002265;
1106;1477;0.172080;84.828414;0.999986;0.001019;-0.006608;0.015749;-0.000930;0.015787;-0.006647;-87.622336;0.015853;
1106;1162;3.094304;56.717426;0.998362;0.017621;-0.107215;0.343368;-0.003660;0.343398;-0.107244;-89.534667;0.351371;
1091;1167;4.590843;57.884251;0.997784;0.017782;-0.105036;0.324912;-0.005878;0.324993;-0.105116;-89.216933;0.331678;
1111;1172;2.211651;59.661515;0.997864;0.018187;-0.100673;0.308278;-0.003211;0.308303;-0.100698;-89.550167;0.314421;
1211;1092;-9.255970;33.475569;0.996207;0.013223;-0.116092;0.360027;-0.008805;0.360189;-0.116255;-88.940942;0.367655;
1106;1497;0.135860;85.118190;0.999993;0.000782;-0.005185;0.012633;-0.000789;0.012668;-0.005220;-87.469273;0.012733;
1051;1057;7.923371;24.405915;0.997424;0.018873;-0.092140;0.254856;0.013677;0.255394;-0.092678;87.746371;0.258575;
1071;1087;7.553192;31.443542;0.996943;0.013538;-0.108087;0.328681;0.007138;0.328798;-0.108203;89.063996;0.335140;
1321;1722;-0.128490;86.123433;0.999934;0.002036;-0.000633;0.001119;0.000305;0.001171;-0.000685;80.393963;0.001176;
1146;1492;-0.074233;85.042834;0.999990;0.000678;-0.005561;0.013505;0.000363;0.013512;-0.005568;88.910648;0.013582;
1201;1097;-8.177716;34.897537;0.996168;0.018521;-0.118156;0.377667;-0.005572;0.377729;-0.118219;-89.356205;0.386437;
1116;1487;0.092110;84.983262;0.999991;0.001056;-0.005845;0.014192;-0.000553;0.014207;-0.005860;-88.420996;0.014280;
1106;1482;0.162448;84.906653;0.999987;0.000887;-0.006221;0.014962;-0.000895;0.015000;-0.006259;-87.586079;0.015068;
1106;1167;2.963874;58.136260;0.998315;0.014657;-0.104142;0.325895;-0.003774;0.325929;-0.104175;-89.497204;0.332923;
1096;1167;3.985958;57.960856;0.997710;0.014610;-0.104661;0.325404;-0.005155;0.325466;-0.104722;-89.313396;0.332287;
1111;1152;2.631800;53.602224;0.997358;0.025018;-0.112899;0.376324;-0.002223;0.376334;-0.112909;-89.739713;0.386237;
1116;1507;0.078386;85.230401;0.999996;0.000618;-0.004555;0.011245;-0.000486;0.011260;-0.004570;-88.238415;0.011326;
1151;1487;-0.107628;84.972880;0.999985;0.000749;-0.005907;0.014248;0.000553;0.014263;-0.005922;88.428464;0.014331;
1191;1052;-4.823649;22.300074;0.997883;0.012108;-0.087681;0.238874;-0.008433;0.239092;-0.087898;-88.521689;0.241869;
1206;1097;-8.817458;35.016121;0.996120;0.014842;-0.118212;0.374492;-0.006319;0.374573;-0.118293;-89.265319;0.382951;
1101;1512;0.135921;85.282389;0.999996;0.000595;-0.004285;0.010562;-0.000825;0.010608;-0.004331;-86.828393;0.010667;
1111;1482;0.128901;84.908131;0.999989;0.000979;-0.006213;0.014966;-0.000741;0.014992;-0.006239;-87.998960;0.015062;
1106;1492;0.144747;85.056468;0.999990;0.000808;-0.005511;0.013411;-0.000824;0.013447;-0.005547;-87.510467;0.013515;
1141;1487;-0.049436;84.974786;0.999991;0.000817;-0.005897;0.014227;0.000228;0.014230;-0.005900;89.351911;0.014299;
1096;1172;3.795847;59.406891;0.997566;0.013319;-0.101551;0.308357;-0.005398;0.308428;-0.101622;-89.245725;0.314350;
1056;1622;0.093139;85.922251;0.999999;0.000287;-0.001136;0.002809;-0.000458;0.002861;-0.001188;-83.468185;0.002875;
1101;1157;3.773252;55.218732;0.997501;0.017549;-0.110384;0.359551;-0.003993;0.359585;-0.110418;-89.513256;0.368400;
1101;1177;3.108366;60.921101;0.998354;0.011201;-0.097823;0.291273;-0.005135;0.291341;-0.097891;-89.244083;0.296519;
1121;1507;0.056188;85.231441;0.999996;0.000569;-0.004563;0.011264;-0.000358;0.011272;-0.004572;-88.703492;0.011339;
1151;1492;-0.101767;85.040027;0.999989;0.000659;-0.005573;0.013521;0.000521;0.013535;-0.005588;88.439379;0.013603;
1191;1057;-5.057256;23.362935;0.998039;0.009690;-0.091698;0.254795;-0.008489;0.255003;-0.091906;-88.597405;0.258294;
1211;1097;-9.486030;35.133818;0.996018;0.013470;-0.118310;0.371034;-0.006955;0.371133;-0.118409;-89.185909;0.379148;
1106;1512;0.115218;85.279583;0.999996;0.000652;-0.004262;0.010571;-0.000707;0.010604;-0.004295;-87.278326;0.010668;
1146;1477;-0.090543;84.823407;0.999983;0.001027;-0.006591;0.015767;0.000410;0.015775;-0.006598;88.949973;0.015845;
1101;1172;3.274377;59.507446;0.997717;0.012722;-0.101245;0.308397;-0.004697;0.308451;-0.101299;-89.343199;0.314447;
1111;1492;0.117464;85.055104;0.999991;0.000746;-0.005506;0.013413;-0.000670;0.013436;-0.005530;-87.973875;0.013506;
1236;1902;-0.005503;86.395185;0.999999;0.000246;-0.000060;0.001373;0.000201;0.001401;-0.000088;82.159079;0.001569;
1106;1487;0.152607;84.984443;0.999990;0.000773;-0.005855;0.014189;-0.000861;0.014226;-0.005892;-87.543748;0.014295;
1101;1162;3.638517;56.685080;0.998101;0.013431;-0.107426;0.342983;-0.004283;0.343023;-0.107467;-89.455214;0.350905;
1106;1177;2.594431;60.993774;0.998186;0.012589;-0.097365;0.290834;-0.004476;0.290886;-0.097417;-89.339548;0.296125;
1126;1507;0.033152;85.231924;0.999995;0.000639;-0.004571;0.011287;-0.000228;0.011290;-0.004575;-89.177759;0.011357;
1151;1497;-0.095190;85.105585;0.999991;0.000583;-0.005252;0.012812;0.000494;0.012826;-0.005265;88.435609;0.012894;
1191;1062;-5.310279;24.544714;0.997488;0.011683;-0.095647;0.271298;-0.008463;0.271493;-0.095842;-88.679453;0.275375;
1086;1162;5.350319;56.466189;0.997265;0.014498;-0.108224;0.340531;-0.006297;0.340619;-0.108313;-89.196180;0.348060;
1206;1902;-0.003267;86.394717;0.999999;0.000304;-0.000053;0.001365;0.000127;0.001376;-0.000065;84.905697;0.001553;
1146;1482;-0.083462;84.900108;0.999986;0.000853;-0.006243;0.014996;0.000404;0.015004;-0.006251;88.910999;0.015073;
1131;1512;0.009964;85.285267;0.999996;0.000532;-0.004307;0.010661;-0.000103;0.010662;-0.004308;-89.606888;0.010727;
1106;1172;2.765914;59.599492;0.998076;0.014612;-0.100884;0.308369;-0.004044;0.308409;-0.100924;-89.433924;0.314486;
1101;1492;0.170353;85.055995;0.999988;0.000949;-0.005531;0.013410;-0.000978;0.013460;-0.005581;-87.052021;0.013525;
1111;1487;0.121547;84.985185;0.999991;0.000866;-0.005848;0.014189;-0.000706;0.014214;-0.005873;-87.983649;0.014285;
1101;1167;3.458916;58.051810;0.997970;0.011744;-0.104394;0.325682;-0.004453;0.325728;-0.104440;-89.406884;0.332640;
1111;1177;2.089855;61.086496;0.998488;0.013435;-0.097055;0.290307;-0.003618;0.290341;-0.097089;-89.464931;0.295602;
1111;1507;0.100023;85.228168;0.999995;0.000760;-0.004557;0.011230;-0.000609;0.011254;-0.004580;-87.792592;0.011318;
1116;1502;0.084340;85.173274;0.999995;0.000650;-0.004864;0.011917;-0.000490;0.011931;-0.004878;-88.329473;0.011997;
1201;1067;-6.629936;26.046988;0.997691;0.011653;-0.100093;0.288814;-0.010501;0.289097;-0.100376;-88.454469;0.293562;
1091;1162;4.778882;56.521937;0.997601;0.015608;-0.108027;0.341557;-0.005604;0.341627;-0.108097;-89.285941;0.349218;
986;1642;0.137131;85.996885;0.999999;0.000202;-0.000625;0.001926;-0.000617;0.002068;-0.000766;-77.085946;0.002091;
1076;1172;5.994147;58.954390;0.997872;0.010324;-0.103077;0.306868;-0.008348;0.307038;-0.103247;-88.833831;0.312478;
1096;1507;0.164666;85.229223;0.999994;0.000705;-0.004611;0.011215;-0.000985;0.011276;-0.004672;-86.451992;0.011332;
1101;1517;0.128062;85.333042;0.999996;0.000535;-0.004010;0.009937;-0.000791;0.009982;-0.004055;-86.763117;0.010040;
1096;1482;0.226379;84.906498;0.999986;0.000904;-0.006275;0.014960;-0.001213;0.015029;-0.006344;-86.741269;0.015089;
1146;1487;-0.078856;84.973159;0.999988;0.000699;-0.005900;0.014238;0.000385;0.014246;-0.005908;88.905609;0.014315;
1086;1167;5.133928;57.789525;0.997548;0.017872;-0.105243;0.324267;-0.006593;0.324368;-0.105344;-89.120768;0.330942;
1086;1177;4.655951;60.678074;0.998205;0.010941;-0.098908;0.291786;-0.007302;0.291923;-0.099044;-88.929671;0.296907;
1106;1507;0.121002;85.226366;0.999996;0.000742;-0.004558;0.011221;-0.000731;0.011255;-0.004592;-87.352134;0.011318;
1121;1502;0.060507;85.172683;0.999995;0.000712;-0.004870;0.011940;-0.000354;0.011948;-0.004877;-88.793234;0.012015;
1206;1067;-7.150482;26.179163;0.997954;0.012759;-0.100397;0.288972;-0.011941;0.289338;-0.100762;-88.245127;0.293746;
1096;1152;4.526849;53.462768;0.996436;0.015663;-0.113148;0.372861;-0.004025;0.372895;-0.113181;-89.525571;0.382371;
1081;1172;5.436195;59.077085;0.997858;0.010579;-0.102530;0.307322;-0.007656;0.307465;-0.102673;-88.930263;0.313067;
1096;1512;0.156122;85.284275;0.999996;0.000576;-0.004317;0.010558;-0.000947;0.010618;-0.004377;-86.373054;0.010672;
1091;1507;0.187175;85.228929;0.999991;0.000878;-0.004633;0.011218;-0.001120;0.011296;-0.004711;-85.977959;0.011348;
1046;1617;0.106178;85.912678;0.999999;0.000335;-0.001155;0.002967;-0.000577;0.003047;-0.001234;-82.182018;0.003065;
1076;1167;6.241272;57.574226;0.997761;0.011569;-0.106155;0.322608;-0.007869;0.322753;-0.106300;-88.948882;0.328959;
1096;1487;0.212734;84.983551;0.999988;0.000947;-0.005908;0.014188;-0.001176;0.014257;-0.005976;-86.663239;0.014319;
1101;1477;0.205943;84.828183;0.999986;0.000909;-0.006629;0.015753;-0.001091;0.015806;-0.006682;-87.217180;0.015868;
1141;1527;-0.028335;85.425478;0.999998;0.000302;-0.003560;0.008834;0.000134;0.008835;-0.003561;89.379977;0.008891;
1101;1507;0.142713;85.227776;0.999995;0.000699;-0.004580;0.011216;-0.000857;0.011263;-0.004627;-86.904868;0.011322;
1211;1067;-7.667848;26.300828;0.997501;0.017142;-0.100813;0.289102;-0.013311;0.289556;-0.101267;-88.047018;0.293882;
1126;1502;0.033860;85.173451;0.999994;0.000769;-0.004873;0.011963;-0.000219;0.011966;-0.004876;-89.255730;0.012034;
1116;1532;0.053854;85.472988;0.999998;0.000391;-0.003281;0.008257;-0.000387;0.008270;-0.003294;-88.080483;0.008327;
1136;1512;-0.011446;85.283561;0.999996;0.000533;-0.004321;0.010684;0.000026;0.010684;-0.004321;89.900492;0.010749;
1086;1172;4.895495;59.214433;0.997552;0.017165;-0.102161;0.307764;-0.006919;0.307881;-0.102278;-89.033264;0.313607;
1051;1617;0.101222;85.910160;0.999999;0.000309;-0.001175;0.002966;-0.000540;0.003036;-0.001244;-82.688122;0.003052;
1091;1512;0.176736;85.284267;0.999993;0.000912;-0.004342;0.010556;-0.001071;0.010632;-0.004419;-85.910498;0.010683;
1121;1497;0.062308;85.113270;0.999995;0.000838;-0.005184;0.012670;-0.000355;0.012677;-0.005191;-88.860981;0.012747;
1101;1482;0.194769;84.904463;0.999988;0.000783;-0.006243;0.014957;-0.001051;0.015009;-0.006295;-87.168275;0.015074;
1161;1532;-0.091956;85.467063;0.999998;0.000318;-0.003375;0.008380;0.000562;0.008407;-0.003402;87.267846;0.008458;
1146;1527;-0.045891;85.426587;0.999998;0.000354;-0.003576;0.008854;0.000246;0.008859;-0.003581;88.864943;0.008913;
1131;1507;0.009315;85.231020;0.999995;0.000631;-0.004586;0.011307;-0.000097;0.011308;-0.004586;-89.649592;0.011375;
1081;1027;3.753747;17.816336;0.997511;0.012421;-0.071028;0.182878;0.007785;0.183117;-0.071267;88.245473;0.184610;
1091;1147;5.241969;51.682964;0.995963;0.014445;-0.115510;0.383215;-0.003868;0.383245;-0.115540;-89.555659;0.393186;
1141;1532;-0.027245;85.467486;0.999998;0.000326;-0.003321;0.008291;0.000129;0.008292;-0.003322;89.363330;0.008346;
1141;1512;-0.033811;85.282590;0.999996;0.000588;-0.004334;0.010711;0.000158;0.010713;-0.004336;89.399895;0.010777;
1091;1172;4.353710;59.318968;0.997901;0.017454;-0.101957;0.308119;-0.006147;0.308211;-0.102049;-89.141332;0.314018;
1191;1612;-0.078346;85.882434;0.999999;0.000237;-0.001314;0.003180;0.000398;0.003215;-0.001349;84.976958;0.003229;
1236;1792;-0.050285;86.234388;1.000000;0.000189;-0.000497;0.001547;0.000110;0.001553;-0.000503;86.934804;0.001585;
1126;1497;0.036341;85.110368;0.999994;0.000849;-0.005186;0.012691;-0.000214;0.012693;-0.005189;-89.315745;0.012764;
1101;1487;0.182437;84.985462;0.999989;0.000890;-0.005875;0.014186;-0.001017;0.014238;-0.005927;-87.105568;0.014304;
1161;1537;-0.085852;85.505856;0.999998;0.000319;-0.003152;0.007850;0.000529;0.007875;-0.003177;87.252453;0.007924;
1151;1517;-0.072272;85.331443;0.999996;0.000511;-0.004090;0.010119;0.000398;0.010130;-0.004101;88.395722;0.010191;
1136;1507;-0.013730;85.227378;0.999995;0.000562;-0.004598;0.011331;0.000037;0.011331;-0.004598;89.868627;0.011398;
1071;1027;4.493944;17.979168;0.997669;0.012800;-0.072408;0.185964;0.009381;0.186304;-0.072749;87.923308;0.187788;
1096;1147;4.619838;51.739962;0.995886;0.016607;-0.115273;0.385082;-0.003264;0.385103;-0.115294;-89.626212;0.395301;
1146;1532;-0.042682;85.468154;0.999998;0.000346;-0.003340;0.008308;0.000234;0.008313;-0.003344;88.848014;0.008366;
1146;1512;-0.055416;85.281538;0.999996;0.000626;-0.004346;0.010733;0.000291;0.010738;-0.004352;88.893537;0.010803;
1071;1172;6.544053;58.859645;0.997555;0.014381;-0.103549;0.306499;-0.009023;0.306698;-0.103748;-88.740043;0.312000;
1196;1612;-0.084583;85.884540;0.999999;0.000213;-0.001300;0.003187;0.000435;0.003228;-0.001342;84.516310;0.003244;
1126;1492;0.038147;85.044691;0.999994;0.000933;-0.005509;0.013445;-0.000217;0.013447;-0.005512;-89.343811;0.013520;
1131;1497;0.008928;85.109682;0.999994;0.000672;-0.005194;0.012712;-0.000077;0.012712;-0.005194;-89.754491;0.012783;
1141;1537;-0.025125;85.508418;0.999998;0.000323;-0.003095;0.007768;0.000126;0.007770;-0.003097;89.333894;0.007823;
1141;1507;-0.035969;85.226770;0.999994;0.000634;-0.004613;0.011360;0.000172;0.011361;-0.004615;89.382257;0.011428;
1151;1522;-0.067053;85.381006;0.999998;0.000442;-0.003832;0.009491;0.000377;0.009502;-0.003843;88.382369;0.009560;
1071;1032;4.711910;18.857033;0.997427;0.010412;-0.075461;0.196411;0.009569;0.196748;-0.075797;87.986773;0.198467;
1236;1797;-0.048062;86.242000;1.000000;0.000157;-0.000483;0.001542;0.000113;0.001549;-0.000489;86.817171;0.001583;
1116;1547;0.044050;85.577360;0.999999;0.000284;-0.002677;0.006800;-0.000336;0.006812;-0.002689;-87.971321;0.006862;
1151;1532;-0.058744;85.467651;0.999998;0.000398;-0.003355;0.008332;0.000339;0.008342;-0.003365;88.341602;0.008394;
1116;1517;0.066231;85.332888;0.999996;0.000459;-0.003994;0.009960;-0.000455;0.009975;-0.004009;-88.132990;0.010039;
1136;1537;-0.010272;85.509700;0.999998;0.000362;-0.003081;0.007765;0.000028;0.007765;-0.003081;89.849916;0.007820;
1136;1497;-0.016388;85.108516;0.999993;0.000576;-0.005205;0.012734;0.000061;0.012734;-0.005205;89.804656;0.012805;
1201;1612;-0.090441;85.886292;0.999999;0.000216;-0.001287;0.003193;0.000473;0.003242;-0.001336;84.032967;0.003259;
1091;1142;5.355295;49.990018;0.996292;0.015492;-0.117281;0.394905;-0.003128;0.394924;-0.117300;-89.650064;0.405626;
1121;1552;0.028278;85.610408;0.999999;0.000238;-0.002507;0.006331;-0.000232;0.006337;-0.002513;-88.497803;0.006382;
1211;1227;-5.094678;69.802526;0.998838;0.009973;-0.067638;0.170462;0.012187;0.171084;-0.068260;87.077533;0.172244;
1146;1507;-0.058484;85.226166;0.999994;0.000551;-0.004628;0.011383;0.000310;0.011389;-0.004634;88.891019;0.011454;
1156;1557;-0.053531;85.643282;0.999999;0.000231;-0.002389;0.005987;0.000344;0.006001;-0.002403;87.654383;0.006041;
1156;1522;-0.086274;85.380644;0.999997;0.000526;-0.003844;0.009517;0.000498;0.009536;-0.003863;87.867543;0.009593;
1121;1547;0.031223;85.577535;0.999999;0.000248;-0.002679;0.006783;-0.000247;0.006790;-0.002686;-88.507814;0.006839;
1091;1517;0.167401;85.333199;0.999995;0.000787;-0.004068;0.009940;-0.001025;0.010015;-0.004143;-85.835211;0.010065;
1121;1517;0.046560;85.335202;0.999997;0.000459;-0.004007;0.009977;-0.000338;0.009985;-0.004015;-88.617202;0.010049;
1116;1497;0.089045;85.114780;0.999994;0.000679;-0.005179;0.012650;-0.000500;0.012664;-0.005193;-88.395709;0.012732;
1121;1542;0.034169;85.544484;0.999999;0.000304;-0.002867;0.007261;-0.000261;0.007267;-0.002874;-88.522262;0.007320;
1141;1547;-0.021952;85.577627;0.999999;0.000305;-0.002696;0.006783;0.000120;0.006784;-0.002697;89.277799;0.006832;
1141;1567;-0.017197;85.694737;0.999999;0.000191;-0.002075;0.005217;0.000088;0.005218;-0.002076;89.306857;0.005254;
1201;1617;-0.088257;85.900564;0.999999;0.000184;-0.001228;0.003032;0.000436;0.003076;-0.001272;84.218422;0.003091;
1126;1232;0.404493;71.264941;0.998888;0.008782;-0.058131;0.145197;-0.000638;0.145199;-0.058133;-89.820242;0.146156;
1096;1497;0.185998;85.115596;0.999989;0.000817;-0.005233;0.012626;-0.001086;0.012692;-0.005299;-86.532775;0.012749;
1161;1557;-0.065084;85.642131;0.999999;0.000284;-0.002395;0.006008;0.000426;0.006029;-0.002417;87.106893;0.006068;
1156;1527;-0.081196;85.425682;0.999998;0.000488;-0.003602;0.008903;0.000474;0.008921;-0.003620;87.830723;0.008974;
1126;1547;0.018041;85.577839;0.999999;0.000275;-0.002679;0.006774;-0.000155;0.006777;-0.002681;-89.063778;0.006826;
1131;1522;0.007864;85.382057;0.999998;0.000349;-0.003782;0.009402;-0.000089;0.009403;-0.003782;-89.612773;0.009463;
1126;1517;0.027698;85.336051;0.999997;0.000471;-0.004020;0.010000;-0.000218;0.010004;-0.004024;-89.107597;0.010067;
1141;1497;-0.042423;85.108136;0.999993;0.000676;-0.005222;0.012760;0.000200;0.012762;-0.005224;89.363267;0.012832;
1126;1542;0.020205;85.545313;0.999999;0.000350;-0.002866;0.007255;-0.000164;0.007258;-0.002869;-89.072442;0.007311;
1141;1552;-0.020850;85.610393;0.999999;0.000260;-0.002523;0.006344;0.000111;0.006345;-0.002525;89.283813;0.006389;
1201;1622;-0.086302;85.914388;0.999999;0.000180;-0.001176;0.002882;0.000404;0.002922;-0.001216;84.371355;0.002935;
1146;1567;-0.027596;85.694971;0.999999;0.000215;-0.002081;0.005217;0.000161;0.005221;-0.002085;88.740012;0.005256;
1131;1232;0.107468;71.264170;0.998869;0.009120;-0.058226;0.145358;-0.000047;0.145358;-0.058226;-89.986871;0.146313;
1096;1502;0.174265;85.172227;0.999991;0.000780;-0.004919;0.011892;-0.001031;0.011955;-0.004982;-86.502260;0.012010;
1111;1557;0.047465;85.644686;0.999999;0.000269;-0.002347;0.005956;-0.000364;0.005972;-0.002362;-87.493145;0.006015;
1156;1532;-0.076454;85.466716;0.999998;0.000424;-0.003367;0.008356;0.000448;0.008373;-0.003384;87.813009;0.008424;
1136;1522;-0.010710;85.382211;0.999998;0.000432;-0.003795;0.009421;0.000022;0.009421;-0.003795;89.903562;0.009480;
1111;1537;0.065215;85.512728;0.999998;0.000431;-0.003073;0.007765;-0.000468;0.007785;-0.003093;-87.530255;0.007840;
1106;1517;0.107691;85.329779;0.999997;0.000569;-0.003988;0.009941;-0.000676;0.009974;-0.004021;-87.225986;0.010036;
1131;1542;0.005991;85.546141;0.999999;0.000352;-0.002872;0.007255;-0.000067;0.007255;-0.002872;-89.622377;0.007307;
1146;1497;-0.068785;85.107058;0.999992;0.000622;-0.005234;0.012788;0.000342;0.012794;-0.005240;88.914491;0.012864;
1146;1552;-0.033517;85.611094;0.999999;0.000300;-0.002533;0.006360;0.000198;0.006364;-0.002538;88.722821;0.006408;
1216;1227;-5.448005;69.707445;0.998723;0.009174;-0.068031;0.171784;0.013242;0.172513;-0.068760;86.849141;0.173692;
1151;1567;-0.038044;85.695124;0.999999;0.000240;-0.002091;0.005221;0.000233;0.005229;-0.002099;88.180381;0.005262;
1186;1602;-0.077607;85.847238;0.999999;0.000216;-0.001450;0.003518;0.000423;0.003554;-0.001486;85.166013;0.003569;
1116;1512;0.071434;85.283415;0.999996;0.000523;-0.004266;0.010596;-0.000478;0.010611;-0.004281;-88.159923;0.010677;
1166;1547;-0.088352;85.578123;0.999998;0.000411;-0.002757;0.006875;0.000570;0.006909;-0.002790;86.625753;0.006951;
1156;1517;-0.092459;85.330199;0.999996;0.000604;-0.004101;0.010142;0.000525;0.010161;-0.004121;87.892963;0.010221;
1141;1522;-0.029702;85.382493;0.999998;0.000362;-0.003809;0.009442;0.000137;0.009444;-0.003810;89.405957;0.009502;
1111;1542;0.061339;85.543693;0.999998;0.000327;-0.002871;0.007289;-0.000447;0.007308;-0.002891;-87.485785;0.007361;
1111;1517;0.086201;85.330208;0.999997;0.000528;-0.003990;0.009950;-0.000567;0.009973;-0.004013;-87.675330;0.010036;
1116;1542;0.047840;85.544198;0.999999;0.000293;-0.002864;0.007273;-0.000357;0.007286;-0.002877;-87.984781;0.007340;
1111;1497;0.112761;85.117100;0.999994;0.000710;-0.005180;0.012639;-0.000642;0.012662;-0.005203;-87.940349;0.012729;
1151;1552;-0.045236;85.611091;0.999999;0.000294;-0.002546;0.006378;0.000285;0.006387;-0.002555;88.170574;0.006429;
1196;1222;-4.266855;69.173329;0.998935;0.008751;-0.069086;0.175397;0.009308;0.175751;-0.069440;87.822885;0.177035;
1156;1567;-0.047852;85.695250;0.999999;0.000219;-0.002098;0.005232;0.000303;0.005244;-0.002111;87.633207;0.005278;
1186;1607;-0.074661;85.863964;0.999999;0.000256;-0.001383;0.003335;0.000391;0.003367;-0.001416;85.296978;0.003381;
1121;1512;0.051170;85.284848;0.999997;0.000530;-0.004277;0.010616;-0.000355;0.010624;-0.004285;-88.634336;0.010690;
1141;1562;-0.018703;85.670960;0.999999;0.000204;-0.002212;0.005564;0.000092;0.005565;-0.002213;89.322537;0.005603;
1116;1537;0.050394;85.511556;0.999998;0.000361;-0.003067;0.007759;-0.000374;0.007772;-0.003080;-88.025373;0.007827;
1126;1522;0.026033;85.380829;0.999998;0.000329;-0.003763;0.009383;-0.000200;0.009386;-0.003767;-89.128358;0.009447;
1131;1517;0.009993;85.335075;0.999997;0.000441;-0.004041;0.010024;-0.000100;0.010024;-0.004042;-89.593225;0.010087;
1111;1547;0.056587;85.576658;0.999998;0.000312;-0.002683;0.006819;-0.000420;0.006838;-0.002701;-87.476187;0.006888;
1151;1542;-0.051302;85.545691;0.999999;0.000299;-0.002919;0.007293;0.000309;0.007303;-0.002929;88.267982;0.007350;
1156;1572;-0.045321;85.721005;0.999999;0.000268;-0.001972;0.004905;0.000286;0.004917;-0.001984;87.623982;0.004947;
1111;1552;0.051886;85.610129;0.999999;0.000351;-0.002507;0.006364;-0.000392;0.006381;-0.002524;-87.472990;0.006428;
1201;1222;-4.633034;69.084635;0.999012;0.010221;-0.069694;0.176427;0.010084;0.176839;-0.070106;87.657800;0.178099;
946;1737;0.119972;86.144471;0.999955;0.001745;-0.000827;0.001347;-0.000269;0.001380;-0.000860;-83.043752;0.001394;
1161;1567;-0.056744;85.695433;0.999999;0.000253;-0.002103;0.005250;0.000375;0.005269;-0.002122;87.087412;0.005303;
1126;1512;0.031142;85.286704;0.999996;0.000573;-0.004288;0.010638;-0.000229;0.010642;-0.004291;-89.120892;0.010708;
1146;1562;-0.029418;85.670975;0.999999;0.000228;-0.002219;0.005570;0.000169;0.005573;-0.002223;88.759705;0.005611;
1121;1537;0.036571;85.511052;0.999999;0.000283;-0.003070;0.007756;-0.000273;0.007763;-0.003077;-88.554242;0.007818;
1131;1492;0.010187;85.042942;0.999994;0.000646;-0.005520;0.013459;-0.000072;0.013459;-0.005521;-89.781667;0.013531;
1116;1522;0.059673;85.380334;0.999997;0.000440;-0.003741;0.009354;-0.000424;0.009368;-0.003755;-88.146727;0.009429;
1136;1517;-0.010331;85.336117;0.999998;0.000464;-0.004056;0.010047;0.000021;0.010047;-0.004056;89.915155;0.010109;
1131;1547;0.004873;85.578862;0.999999;0.000275;-0.002685;0.006772;-0.000063;0.006773;-0.002685;-89.620690;0.006821;
1156;1542;-0.065334;85.545268;0.999999;0.000349;-0.002932;0.007312;0.000404;0.007328;-0.002948;87.747151;0.007375;
1206;1222;-4.996669;69.019121;0.998650;0.012757;-0.070086;0.177841;0.011145;0.178341;-0.070586;87.431390;0.179628;
1161;1572;-0.054057;85.721430;0.999999;0.000293;-0.001977;0.004924;0.000352;0.004942;-0.001995;87.084910;0.004972;
1156;1552;-0.057955;85.610613;0.999999;0.000277;-0.002554;0.006394;0.000371;0.006409;-0.002569;87.631212;0.006451;
1026;1617;0.128183;85.922197;0.999999;0.000326;-0.001096;0.002973;-0.000726;0.003099;-0.001222;-80.184921;0.003122;
1111;1512;0.092980;85.279932;0.999997;0.000573;-0.004264;0.010582;-0.000594;0.010605;-0.004287;-87.712160;0.010670;
1151;1562;-0.039725;85.670595;0.999999;0.000227;-0.002229;0.005578;0.000246;0.005585;-0.002237;88.199962;0.005622;
1126;1537;0.021474;85.510945;0.999999;0.000327;-0.003071;0.007759;-0.000171;0.007762;-0.003074;-89.094787;0.007818;
1136;1492;-0.017936;85.043637;0.999994;0.000607;-0.005536;0.013473;0.000072;0.013473;-0.005536;89.784048;0.013544;
1141;1517;-0.031055;85.335552;0.999997;0.000492;-0.004070;0.010073;0.000145;0.010075;-0.004071;89.414332;0.010136;
1121;1522;0.042404;85.380927;0.999998;0.000413;-0.003752;0.009365;-0.000312;0.009373;-0.003759;-88.636126;0.009433;
1136;1547;-0.008835;85.578230;0.999999;0.000285;-0.002686;0.006776;0.000029;0.006776;-0.002686;89.825463;0.006824;
1161;1542;-0.079874;85.543788;0.999998;0.000316;-0.002940;0.007333;0.000503;0.007357;-0.002965;87.202625;0.007403;
1146;1572;-0.025899;85.720448;0.999999;0.000213;-0.001956;0.004889;0.000153;0.004892;-0.001959;88.721318;0.004924;
1161;1552;-0.070512;85.610509;0.999999;0.000351;-0.002561;0.006411;0.000458;0.006435;-0.002585;87.088588;0.006476;
1106;1227;1.649353;70.567940;0.999001;0.008673;-0.061552;0.154017;-0.003265;0.154066;-0.061601;-89.132331;0.155093;
1201;1627;-0.084046;85.927929;0.999999;0.000210;-0.001131;0.002751;0.000373;0.002787;-0.001167;84.560451;0.002799;
1156;1562;-0.050318;85.670438;0.999999;0.000203;-0.002236;0.005591;0.000321;0.005604;-0.002249;87.654633;0.005641;
1131;1537;0.005961;85.510693;0.999999;0.000409;-0.003077;0.007764;-0.000070;0.007764;-0.003078;-89.631962;0.007819;
1136;1577;-0.007489;85.743816;1.000000;0.000199;-0.001836;0.004570;0.000018;0.004570;-0.001836;89.839679;0.004599;
1146;1517;-0.051922;85.334741;0.999997;0.000483;-0.004080;0.010096;0.000272;0.010102;-0.004085;88.900174;0.010163;
1121;1492;0.064400;85.048005;0.999994;0.001068;-0.005507;0.013431;-0.000367;0.013438;-0.005514;-88.889518;0.013510;
1146;1547;-0.035448;85.578539;0.999999;0.000314;-0.002710;0.006797;0.000210;0.006801;-0.002715;88.732615;0.006847;
1136;1587;-0.006677;85.786119;1.000000;0.000146;-0.001657;0.004043;0.000013;0.004043;-0.001657;89.871820;0.004065;
1146;1542;-0.037157;85.545415;0.999998;0.000320;-0.002903;0.007273;0.000216;0.007278;-0.002907;88.785697;0.007327;
1141;1572;-0.016336;85.719719;0.999999;0.000181;-0.001950;0.004887;0.000085;0.004888;-0.001951;89.288822;0.004921;
1111;1227;1.332458;70.581894;0.998969;0.007256;-0.061277;0.153733;-0.002570;0.153763;-0.061308;-89.315291;0.154811;
1126;1557;0.014512;85.644350;0.999999;0.000251;-0.002347;0.005917;-0.000136;0.005920;-0.002349;-89.060036;0.005961;
1206;1617;-0.094085;85.902405;0.999999;0.000183;-0.001216;0.003031;0.000471;0.003082;-0.001268;83.745882;0.003098;
1141;1577;-0.016172;85.744565;1.000000;0.000168;-0.001839;0.004572;0.000079;0.004573;-0.001840;89.296070;0.004602;
1146;1537;-0.039595;85.508754;0.999999;0.000287;-0.003114;0.007784;0.000224;0.007789;-0.003119;88.820474;0.007840;
1146;1522;-0.047955;85.383281;0.999998;0.000328;-0.003821;0.009467;0.000257;0.009472;-0.003826;88.892156;0.009530;
1131;1592;0.001165;85.805189;1.000000;0.000141;-0.001586;0.003833;-0.000034;0.003833;-0.001586;-89.642948;0.003852;
1141;1587;-0.014547;85.785723;1.000000;0.000153;-0.001657;0.004045;0.000065;0.004046;-0.001658;89.351151;0.004068;
1151;1547;-0.048369;85.579288;0.999999;0.000271;-0.002725;0.006814;0.000301;0.006824;-0.002734;88.195902;0.006869;
1136;1542;-0.009089;85.545628;0.999998;0.000350;-0.002874;0.007255;0.000028;0.007255;-0.002874;89.839661;0.007307;
1226;1232;-5.956246;70.222565;0.997058;0.012243;-0.065665;0.165418;0.015561;0.166461;-0.066708;86.164692;0.167551;
1131;1572;0.002647;85.719695;0.999999;0.000214;-0.001945;0.004894;-0.000043;0.004894;-0.001945;-89.636130;0.004928;
1131;1557;0.003314;85.644173;0.999999;0.000257;-0.002354;0.005919;-0.000058;0.005920;-0.002354;-89.600813;0.005961;
1131;1502;0.008297;85.172617;0.999994;0.000717;-0.004881;0.011986;-0.000087;0.011987;-0.004881;-89.706097;0.012056;
1206;1622;-0.091661;85.915835;0.999999;0.000164;-0.001162;0.002874;0.000436;0.002921;-0.001208;83.907324;0.002935;
1151;1537;-0.054378;85.508621;0.999999;0.000329;-0.003132;0.007805;0.000322;0.007815;-0.003141;88.315842;0.007865;
1111;1577;0.037957;85.744760;0.999999;0.000208;-0.001834;0.004621;-0.000286;0.004634;-0.001847;-87.464341;0.004665;
1106;1522;0.101198;85.380242;0.999996;0.000582;-0.003741;0.009345;-0.000638;0.009376;-0.003773;-87.214004;0.009436;
1146;1587;-0.022196;85.785901;1.000000;0.000209;-0.001659;0.004048;0.000119;0.004051;-0.001661;88.808863;0.004072;
1156;1592;-0.037135;85.805418;0.999999;0.000159;-0.001590;0.003845;0.000208;0.003853;-0.001598;87.807119;0.003872;
1156;1547;-0.061656;85.578656;0.999999;0.000309;-0.002734;0.006830;0.000391;0.006846;-0.002750;87.664878;0.006890;
1141;1542;-0.022947;85.545107;0.999998;0.000329;-0.002886;0.007259;0.000122;0.007260;-0.002887;89.311467;0.007311;
1191;1232;-3.543397;70.852593;0.998779;0.010216;-0.062903;0.157050;0.008149;0.157352;-0.063205;87.881160;0.158362;
1136;1557;-0.008202;85.643791;0.999999;0.000286;-0.002356;0.005928;0.000020;0.005928;-0.002356;89.862250;0.005969;
1111;1572;0.040658;85.721537;0.999999;0.000223;-0.001946;0.004958;-0.000308;0.004972;-0.001960;-87.454174;0.005009;
1111;1502;0.106153;85.173602;0.999994;0.000796;-0.004866;0.011903;-0.000622;0.011926;-0.004889;-87.879396;0.011990;
1206;1627;-0.089308;85.929627;0.999999;0.000205;-0.001114;0.002738;0.000402;0.002780;-0.001156;84.113412;0.002793;
1156;1537;-0.070833;85.506928;0.999999;0.000335;-0.003144;0.007827;0.000423;0.007843;-0.003160;87.795087;0.007892;
1166;1567;-0.067749;85.696264;0.999999;0.000338;-0.002110;0.005273;0.000443;0.005299;-0.002137;86.581441;0.005332;
1126;1592;0.009002;85.806259;1.000000;0.000190;-0.001582;0.003835;-0.000082;0.003836;-0.001583;-89.135458;0.003856;
1111;1522;0.079689;85.379549;0.999997;0.000426;-0.003741;0.009349;-0.000532;0.009370;-0.003762;-87.678261;0.009430;
1151;1587;-0.030804;85.787013;1.000000;0.000198;-0.001664;0.004054;0.000171;0.004059;-0.001669;88.290180;0.004081;
1161;1547;-0.075011;85.577802;0.999998;0.000313;-0.002743;0.006848;0.000483;0.006872;-0.002767;87.123322;0.006915;
1166;1532;-0.107837;85.465605;0.999998;0.000347;-0.003384;0.008408;0.000671;0.008446;-0.003422;86.753100;0.008497;
1116;1227;1.011955;70.583192;0.998921;0.007810;-0.060978;0.153526;-0.001932;0.153544;-0.060995;-89.483935;0.154621;
1116;1557;0.036420;85.643502;0.999999;0.000280;-0.002342;0.005939;-0.000291;0.005949;-0.002352;-87.988213;0.005992;
1136;1572;-0.007492;85.719953;0.999999;0.000202;-0.001946;0.004888;0.000019;0.004888;-0.001946;89.838628;0.004921;
1251;1897;-0.008842;86.387687;0.999999;0.000266;-0.000093;0.001395;0.000224;0.001428;-0.000126;81.630767;0.001581;
1136;1502;-0.015267;85.171313;0.999994;0.000685;-0.004890;0.012014;0.000048;0.012014;-0.004890;89.835708;0.012083;
1161;1527;-0.098080;85.426033;0.999998;0.000344;-0.003612;0.008928;0.000595;0.008956;-0.003640;87.290616;0.009008;
1116;1582;0.027107;85.767302;0.999999;0.000217;-0.001730;0.004297;-0.000208;0.004304;-0.001737;-88.022192;0.004330;
1171;1572;-0.073729;85.723524;0.999999;0.000273;-0.001997;0.004962;0.000478;0.004994;-0.002029;86.091788;0.005024;
1131;1587;0.001282;85.787085;1.000000;0.000150;-0.001658;0.004042;-0.000036;0.004043;-0.001658;-89.634610;0.004064;
1101;1522;0.119660;85.379786;0.999997;0.000633;-0.003763;0.009349;-0.000752;0.009392;-0.003806;-86.728850;0.009448;
1166;1537;-0.100549;85.506261;0.999998;0.000294;-0.003161;0.007882;0.000631;0.007918;-0.003197;86.739622;0.007967;
1126;1552;0.016222;85.610404;0.999999;0.000221;-0.002507;0.006323;-0.000146;0.006325;-0.002510;-89.052386;0.006370;
1121;1227;0.705473;70.590425;0.998843;0.009284;-0.060786;0.153428;-0.001277;0.153436;-0.060793;-89.658496;0.154534;
1121;1557;0.025310;85.643538;0.999999;0.000246;-0.002346;0.005925;-0.000215;0.005931;-0.002351;-88.512871;0.005973;
1166;1562;-0.071529;85.670688;0.999998;0.000336;-0.002251;0.005636;0.000470;0.005664;-0.002278;86.604071;0.005700;
951;1792;0.087176;86.216745;0.999999;0.000200;-0.000533;0.001407;0.000009;0.001407;-0.000533;89.748872;0.001421;
1106;1502;0.127987;85.173383;0.999994;0.000770;-0.004870;0.011895;-0.000757;0.011930;-0.004904;-87.419282;0.011992;
1171;1577;-0.069558;85.747053;0.999999;0.000199;-0.001885;0.004651;0.000444;0.004681;-0.001915;86.131873;0.004707;
1121;1582;0.018581;85.767485;0.999999;0.000256;-0.001731;0.004288;-0.000152;0.004292;-0.001735;-88.552410;0.004318;
1116;1587;0.025360;85.789453;0.999999;0.000192;-0.001647;0.004049;-0.000194;0.004055;-0.001653;-88.049178;0.004078;
1191;1227;-3.711608;70.066620;0.998833;0.009285;-0.065569;0.165125;0.008383;0.165429;-0.065873;87.921674;0.166568;
1131;1552;0.003976;85.610892;0.999999;0.000242;-0.002514;0.006324;-0.000061;0.006325;-0.002514;-89.606601;0.006369;
1156;1587;-0.038505;85.786240;0.999999;0.000185;-0.001668;0.004066;0.000223;0.004075;-0.001676;87.775680;0.004096;
1206;1487;-0.433552;84.955322;0.999987;0.001202;-0.006023;0.014260;0.002373;0.014534;-0.006297;83.414831;0.014577;
1136;1607;-0.005657;85.857555;1.000000;0.000159;-0.001414;0.003294;0.000011;0.003294;-0.001414;89.864515;0.003305;
1116;1577;0.029129;85.743883;1.000000;0.000205;-0.001827;0.004604;-0.000226;0.004612;-0.001835;-87.989874;0.004644;
1141;1557;-0.019617;85.643153;0.999999;0.000208;-0.002362;0.005940;0.000099;0.005941;-0.002364;89.316278;0.005983;
956;1792;0.085152;86.218424;0.999999;0.000255;-0.000520;0.001418;-0.000015;0.001418;-0.000520;-89.560653;0.001435;
1161;1562;-0.060715;85.669745;0.999999;0.000267;-0.002242;0.005611;0.000398;0.005631;-0.002262;87.105873;0.005667;
1096;1517;0.147628;85.333754;0.999997;0.000549;-0.004040;0.009938;-0.000908;0.009997;-0.004099;-86.297602;0.010051;
1126;1587;0.009337;85.788099;0.999999;0.000224;-0.001653;0.004043;-0.000088;0.004045;-0.001654;-89.116526;0.004067;
1126;1567;0.012160;85.696943;0.999999;0.000270;-0.002062;0.005236;-0.000116;0.005238;-0.002064;-89.088888;0.005277;
1126;1582;0.009784;85.767286;0.999999;0.000281;-0.001734;0.004283;-0.000093;0.004285;-0.001736;-89.112651;0.004310;
1141;1607;-0.012302;85.857392;1.000000;0.000161;-0.001414;0.003295;0.000048;0.003295;-0.001414;89.414407;0.003306;
1136;1552;-0.008538;85.610873;0.999999;0.000271;-0.002516;0.006332;0.000025;0.006332;-0.002516;89.840956;0.006376;
1206;1492;-0.409510;85.021092;0.999986;0.001351;-0.005693;0.013546;0.002281;0.013813;-0.005960;83.328926;0.013856;
1121;1577;0.019884;85.743796;1.000000;0.000229;-0.001828;0.004590;-0.000165;0.004594;-0.001832;-88.531478;0.004625;
1146;1557;-0.031575;85.643498;0.999999;0.000224;-0.002370;0.005955;0.000181;0.005959;-0.002374;88.756130;0.006000;
1126;1562;0.013429;85.672264;0.999999;0.000326;-0.002198;0.005562;-0.000125;0.005564;-0.002200;-89.079760;0.005605;
961;1792;0.082510;86.220176;0.999999;0.000254;-0.000507;0.001430;-0.000035;0.001431;-0.000508;-88.971273;0.001451;
1171;1582;-0.065816;85.768585;0.999999;0.000193;-0.001784;0.004363;0.000410;0.004390;-0.001812;86.198004;0.004412;
1151;1612;-0.025390;85.873251;1.000000;0.000176;-0.001370;0.003170;0.000116;0.003173;-0.001373;88.538956;0.003182;
1131;1567;0.002654;85.696612;0.999999;0.000215;-0.002067;0.005224;-0.000047;0.005225;-0.002067;-89.629772;0.005262;
946;1792;0.090262;86.205795;0.999967;0.001136;-0.000555;0.001402;0.000045;0.001403;-0.000556;88.683625;0.001413;
1131;1582;0.001492;85.767108;1.000000;0.000179;-0.001739;0.004280;-0.000038;0.004280;-0.001739;-89.641561;0.004305;
1146;1607;-0.019389;85.857610;1.000000;0.000183;-0.001412;0.003297;0.000087;0.003298;-0.001414;88.945867;0.003309;
1116;1552;0.039969;85.610501;0.999999;0.000290;-0.002503;0.006346;-0.000314;0.006357;-0.002514;-87.968465;0.006403;
1086;1497;0.237334;85.111847;0.999984;0.001276;-0.005274;0.012629;-0.001407;0.012739;-0.005384;-85.534626;0.012790;
1126;1577;0.011202;85.743787;1.000000;0.000272;-0.001830;0.004580;-0.000101;0.004581;-0.001832;-89.097368;0.004612;
1151;1557;-0.042470;85.643163;0.999999;0.000276;-0.002381;0.005970;0.000263;0.005978;-0.002389;88.197552;0.006018;
1111;1847;0.005898;86.321109;1.000000;0.000177;-0.000265;0.001403;-0.000037;0.001404;-0.000266;-88.728594;0.001491;
1131;1562;0.003129;85.672342;0.999999;0.000267;-0.002204;0.005558;-0.000052;0.005558;-0.002204;-89.614672;0.005597;
1121;1592;0.016634;85.806689;0.999999;0.000188;-0.001578;0.003838;-0.000132;0.003841;-0.001582;-88.599825;0.003861;
1126;1612;0.008190;85.873332;1.000000;0.000136;-0.001366;0.003156;-0.000055;0.003156;-0.001367;-89.303798;0.003166;
1136;1567;-0.007377;85.695652;0.999999;0.000191;-0.002070;0.005218;0.000019;0.005218;-0.002070;89.849922;0.005255;
1321;1847;-0.063743;86.293121;0.999981;0.000929;-0.000527;0.001543;0.000085;0.001547;-0.000530;87.640908;0.001572;
1146;1582;-0.023507;85.766725;1.000000;0.000208;-0.001744;0.004288;0.000128;0.004291;-0.001747;88.784821;0.004315;
1131;1607;0.001488;85.857476;1.000000;0.000142;-0.001413;0.003292;-0.000024;0.003292;-0.001413;-89.713523;0.003303;
1131;1577;0.001716;85.743772;1.000000;0.000226;-0.001835;0.004573;-0.000040;0.004573;-0.001835;-89.640189;0.004603;
1136;1562;-0.007471;85.671405;0.999999;0.000242;-0.002206;0.005559;0.000019;0.005559;-0.002206;89.863281;0.005598;
1116;1617;0.021037;85.890315;1.000000;0.000196;-0.001319;0.003028;-0.000107;0.003031;-0.001322;-88.592045;0.003039;
1126;1627;0.007780;85.917823;1.000000;0.000152;-0.001271;0.002848;-0.000041;0.002848;-0.001271;-89.429500;0.002854;
1041;1507;0.422664;85.223952;0.999984;0.000990;-0.004792;0.011335;-0.002525;0.011721;-0.005178;-81.304935;0.011748;
1171;1587;-0.062868;85.788314;0.999999;0.000191;-0.001691;0.004115;0.000381;0.004140;-0.001716;86.259830;0.004160;
1116;1847;0.004388;86.321223;1.000000;0.000187;-0.000264;0.001400;-0.000028;0.001401;-0.000265;-89.027518;0.001488;
946;1757;0.111278;86.164926;0.999971;0.001049;-0.000545;0.001299;-0.000120;0.001306;-0.000552;-86.288813;0.001312;
1156;1612;-0.032424;85.873829;1.000000;0.000154;-0.001367;0.003172;0.000151;0.003177;-0.001372;88.099528;0.003187;
1116;1567;0.032593;85.696869;0.999999;0.000214;-0.002061;0.005270;-0.000258;0.005279;-0.002070;-87.986973;0.005320;
1146;1577;-0.025024;85.744516;1.000000;0.000189;-0.001844;0.004577;0.000141;0.004580;-0.001847;88.742818;0.004609;
1116;1607;0.021993;85.858503;1.000000;0.000143;-0.001403;0.003289;-0.000128;0.003293;-0.001407;-88.436883;0.003304;
1151;1582;-0.032312;85.767214;1.000000;0.000227;-0.001752;0.004295;0.000184;0.004301;-0.001757;88.261757;0.004325;
1116;1562;0.034102;85.672130;0.999999;0.000285;-0.002196;0.005590;-0.000272;0.005600;-0.002205;-87.998721;0.005642;
1131;1627;0.001578;85.917658;1.000000;0.000115;-0.001273;0.002851;-0.000014;0.002851;-0.001273;-89.803847;0.002857;
1156;1617;-0.031449;85.889105;1.000000;0.000165;-0.001328;0.003049;0.000142;0.003054;-0.001333;88.139005;0.003062;
1041;1512;0.397710;85.278619;0.999986;0.000991;-0.004523;0.010715;-0.002395;0.011083;-0.004891;-81.275712;0.011108;
1136;1597;-0.006033;85.822732;1.000000;0.000166;-0.001521;0.003630;0.000013;0.003630;-0.001521;89.853829;0.003646;
946;1762;0.104999;86.175068;0.999971;0.001028;-0.000542;0.001296;-0.000127;0.001305;-0.000551;-86.074152;0.001310;
991;1722;0.097661;86.122285;1.000000;0.000189;-0.000560;0.001527;-0.000204;0.001547;-0.000580;-84.483151;0.001563;
1111;1612;0.028585;85.875245;1.000000;0.000206;-0.001353;0.003140;-0.000149;0.003145;-0.001358;-88.106523;0.003155;
1121;1567;0.022456;85.696866;0.999999;0.000250;-0.002061;0.005252;-0.000189;0.005257;-0.002066;-88.523864;0.005297;
1151;1577;-0.034242;85.745014;1.000000;0.000288;-0.001852;0.004584;0.000202;0.004590;-0.001859;88.202254;0.004617;
1156;1582;-0.040493;85.767493;0.999999;0.000238;-0.001757;0.004309;0.000240;0.004319;-0.001767;87.739090;0.004343;
1121;1607;0.015193;85.857992;1.000000;0.000124;-0.001407;0.003290;-0.000094;0.003292;-0.001409;-88.851583;0.003303;
1136;1627;-0.004805;85.917883;1.000000;0.000130;-0.001273;0.002852;0.000014;0.002852;-0.001273;89.810300;0.002858;
1121;1562;0.023953;85.672120;0.999999;0.000266;-0.002197;0.005574;-0.000200;0.005579;-0.002203;-88.526815;0.005620;
1166;1602;-0.048355;85.843493;0.999999;0.000154;-0.001460;0.003475;0.000256;0.003488;-0.001474;87.041590;0.003502;
1141;1597;-0.013197;85.822844;1.000000;0.000179;-0.001520;0.003629;0.000058;0.003630;-0.001521;89.354623;0.003646;
1211;1617;-0.100330;85.903797;0.999999;0.000270;-0.001205;0.003030;0.000508;0.003090;-0.001265;83.260122;0.003107;
1216;1507;-0.386404;85.207951;0.999980;0.001145;-0.004841;0.011522;0.002275;0.011832;-0.005151;82.228654;0.011865;
996;1722;0.094700;86.121934;1.000000;0.000197;-0.000573;0.001548;-0.000196;0.001566;-0.000591;-84.770752;0.001581;
1116;1612;0.021455;85.874831;1.000000;0.000169;-0.001358;0.003145;-0.000117;0.003148;-0.001361;-88.516649;0.003158;
1111;1567;0.042707;85.697677;0.999999;0.000223;-0.002069;0.005292;-0.000325;0.005306;-0.002083;-87.476289;0.005347;
1156;1577;-0.043131;85.745321;0.999999;0.000321;-0.001859;0.004597;0.000263;0.004608;-0.001869;87.672320;0.004635;
1136;1582;-0.007072;85.766486;1.000000;0.000146;-0.001739;0.004280;0.000015;0.004280;-0.001739;89.857847;0.004305;
1141;1627;-0.011159;85.918014;1.000000;0.000160;-0.001273;0.002852;0.000041;0.002852;-0.001273;89.432844;0.002858;
1111;1562;0.044374;85.672292;0.999999;0.000244;-0.002202;0.005610;-0.000342;0.005625;-0.002217;-87.499385;0.005667;
1166;1607;-0.046996;85.859126;1.000000;0.000147;-0.001405;0.003312;0.000236;0.003324;-0.001417;87.140040;0.003336;
1146;1597;-0.020490;85.822877;1.000000;0.000185;-0.001520;0.003630;0.000104;0.003632;-0.001522;88.840252;0.003648;
1211;1622;-0.097120;85.917764;0.999999;0.000281;-0.001148;0.002866;0.000468;0.002920;-0.001202;83.435245;0.002935;
1151;1482;-0.114996;84.897147;0.999984;0.001012;-0.006245;0.015001;0.000582;0.015017;-0.006261;88.430849;0.015086;
1151;1527;-0.063029;85.426161;0.999998;0.000461;-0.003589;0.008877;0.000359;0.008888;-0.003599;88.353629;0.008941;
1121;1612;0.014878;85.874008;1.000000;0.000134;-0.001363;0.003150;-0.000087;0.003152;-0.001365;-88.902244;0.003161;
1001;1722;0.091567;86.122411;1.000000;0.000223;-0.000583;0.001565;-0.000191;0.001582;-0.000600;-84.950476;0.001597;
1106;1557;0.058904;85.643032;0.999999;0.000299;-0.002358;0.005980;-0.000443;0.006003;-0.002381;-86.969140;0.006046;
1161;1577;-0.051147;85.745627;0.999999;0.000271;-0.001865;0.004615;0.000325;0.004631;-0.001881;87.139721;0.004659;
1141;1582;-0.015301;85.766273;1.000000;0.000156;-0.001741;0.004283;0.000071;0.004284;-0.001742;89.328438;0.004309;
1121;1627;0.014465;85.918727;1.000000;0.000138;-0.001268;0.002842;-0.000067;0.002843;-0.001269;-89.069728;0.002849;
1166;1552;-0.083111;85.609963;0.999998;0.000350;-0.002574;0.006438;0.000538;0.006470;-0.002606;86.597097;0.006510;
1126;1622;0.008012;85.903439;1.000000;0.000136;-0.001300;0.002942;-0.000045;0.002942;-0.001300;-89.394019;0.002949;
1131;1597;0.001352;85.822953;1.000000;0.000151;-0.001521;0.003633;-0.000029;0.003633;-0.001521;-89.674516;0.003649;
1211;1627;-0.094357;85.931269;0.999999;0.000265;-0.001099;0.002725;0.000430;0.002773;-0.001146;83.660283;0.002786;
1116;1527;0.056341;85.428903;0.999998;0.000409;-0.003505;0.008782;-0.000400;0.008795;-0.003518;-88.135663;0.008853;
1161;1607;-0.040517;85.858383;1.000000;0.000152;-0.001410;0.003309;0.000199;0.003318;-0.001418;87.594221;0.003329;
1056;1477;0.505167;84.827637;0.999978;0.001104;-0.006770;0.015668;-0.002804;0.016013;-0.007115;-82.982720;0.016046;
1116;1572;0.031036;85.720937;0.999999;0.000202;-0.001938;0.004937;-0.000243;0.004946;-0.001946;-87.975266;0.004983;
986;1797;0.069586;86.234866;1.000000;0.000167;-0.000468;0.001484;-0.000103;0.001490;-0.000473;-86.979896;0.001523;
1141;1632;-0.010788;85.931793;1.000000;0.000158;-0.001245;0.002764;0.000038;0.002764;-0.001245;89.456484;0.002769;
1111;1582;0.035385;85.767642;0.999999;0.000205;-0.001734;0.004309;-0.000264;0.004321;-0.001745;-87.502581;0.004347;
1146;1627;-0.016864;85.918044;1.000000;0.000212;-0.001270;0.002851;0.000068;0.002852;-0.001271;89.050284;0.002857;
946;1767;0.098674;86.183345;0.999976;0.001006;-0.000528;0.001291;-0.000104;0.001297;-0.000534;-86.732861;0.001304;
1131;1622;0.001484;85.903311;1.000000;0.000104;-0.001303;0.002946;-0.000016;0.002946;-0.001303;-89.785180;0.002953;
1111;1627;0.027009;85.920131;1.000000;0.000149;-0.001251;0.002829;-0.000121;0.002832;-0.001254;-88.305910;0.002838;
1126;1597;0.008791;85.823338;1.000000;0.000158;-0.001518;0.003637;-0.000073;0.003638;-0.001519;-89.189134;0.003655;
1121;1527;0.039713;85.426874;0.999998;0.000400;-0.003513;0.008788;-0.000293;0.008795;-0.003520;-88.636598;0.008853;
1161;1612;-0.039292;85.874484;1.000000;0.000149;-0.001364;0.003172;0.000186;0.003179;-0.001372;87.654122;0.003189;
1061;1477;0.473561;84.830064;0.999981;0.001225;-0.006761;0.015696;-0.002617;0.015997;-0.007062;-83.439734;0.016033;
1121;1572;0.021211;85.720464;1.000000;0.000212;-0.001938;0.004920;-0.000178;0.004924;-0.001943;-88.517860;0.004961;
991;1797;0.067460;86.235775;1.000000;0.000207;-0.000474;0.001492;-0.000109;0.001498;-0.000480;-86.838933;0.001530;
1116;1632;0.020599;85.933181;1.000000;0.000115;-0.001233;0.002747;-0.000088;0.002749;-0.001235;-88.737291;0.002753;
1161;1582;-0.048265;85.767596;0.999999;0.000230;-0.001764;0.004327;0.000298;0.004341;-0.001779;87.210411;0.004365;
1151;1627;-0.023822;85.918263;1.000000;0.000229;-0.001266;0.002848;0.000096;0.002850;-0.001269;88.660385;0.002856;
1311;1842;-0.060498;86.290821;0.999999;0.000211;-0.000490;0.001527;0.000102;0.001532;-0.000495;87.123140;0.001564;
1151;1597;-0.027811;85.823406;1.000000;0.000193;-0.001523;0.003634;0.000148;0.003638;-0.001527;88.360141;0.003654;
1111;1632;0.026596;85.933765;1.000000;0.000138;-0.001224;0.002739;-0.000114;0.002743;-0.001228;-88.350038;0.002748;
1136;1622;-0.004922;85.903710;1.000000;0.000135;-0.001304;0.002948;0.000014;0.002948;-0.001304;89.815877;0.002954;
1126;1527;0.023674;85.425457;0.999998;0.000336;-0.003520;0.008801;-0.000186;0.008804;-0.003523;-89.137493;0.008863;
1136;1617;-0.005189;85.888366;1.000000;0.000161;-0.001336;0.003051;0.000012;0.003051;-0.001336;89.849547;0.003059;
1066;1477;0.438393;84.826953;0.999980;0.001249;-0.006741;0.015711;-0.002426;0.015970;-0.007000;-83.902669;0.016011;
1126;1572;0.012484;85.720459;1.000000;0.000253;-0.001940;0.004905;-0.000109;0.004906;-0.001942;-89.087687;0.004942;
1146;1632;-0.016929;85.931752;1.000000;0.000176;-0.001242;0.002763;0.000064;0.002764;-0.001243;89.083800;0.002769;
996;1797;0.064853;86.236902;1.000000;0.000220;-0.000475;0.001502;-0.000113;0.001508;-0.000482;-86.753512;0.001541;
1316;1842;-0.063012;86.288014;0.999999;0.000173;-0.000513;0.001522;0.000097;0.001526;-0.000518;87.277752;0.001552;
1166;1572;-0.063977;85.722239;0.999999;0.000278;-0.001984;0.004943;0.000417;0.004968;-0.002009;86.571112;0.004998;
1116;1627;0.020858;85.919516;1.000000;0.000124;-0.001259;0.002836;-0.000093;0.002838;-0.001262;-88.706007;0.002844;
1121;1597;0.016211;85.823846;1.000000;0.000168;-0.001516;0.003641;-0.000119;0.003644;-0.001519;-88.675510;0.003661;
1111;1637;0.025911;85.946750;1.000000;0.000124;-0.001198;0.002653;-0.000109;0.002656;-0.001201;-88.377765;0.002660;
1141;1622;-0.011438;85.903835;1.000000;0.000156;-0.001303;0.002948;0.000043;0.002948;-0.001303;89.416805;0.002955;
1131;1527;0.006561;85.425345;0.999998;0.000343;-0.003534;0.008813;-0.000079;0.008813;-0.003534;-89.633704;0.008870;
1141;1617;-0.011857;85.888085;1.000000;0.000122;-0.001335;0.003052;0.000044;0.003052;-0.001336;89.426076;0.003060;
1151;1572;-0.035836;85.720720;0.999999;0.000269;-0.001966;0.004893;0.000220;0.004900;-0.001973;88.165040;0.004931;
1096;1477;0.239934;84.829589;0.999986;0.000982;-0.006660;0.015761;-0.001258;0.015831;-0.006730;-86.797947;0.015891;
1321;1842;-0.065489;86.283668;0.999983;0.001117;-0.000541;0.001515;0.000092;0.001520;-0.000545;87.437922;0.001540;
1151;1632;-0.023084;85.931755;1.000000;0.000207;-0.001238;0.002760;0.000091;0.002762;-0.001240;88.698814;0.002766;
1156;1627;-0.030075;85.919056;1.000000;0.000207;-0.001261;0.002843;0.000123;0.002847;-0.001265;88.279522;0.002853;
1101;1632;0.038967;85.934568;1.000000;0.000189;-0.001201;0.002718;-0.000166;0.002725;-0.001208;-87.572645;0.002731;
1161;1862;-0.005636;86.341506;1.000000;0.000195;-0.000204;0.001371;0.000049;0.001372;-0.000206;88.227297;0.001480;
1156;1597;-0.035835;85.824757;0.999999;0.000165;-0.001522;0.003641;0.000191;0.003648;-0.001529;87.879386;0.003664;
1156;1637;-0.029028;85.945234;1.000000;0.000169;-0.001205;0.002671;0.000111;0.002675;-0.001208;88.363029;0.002679;
1146;1622;-0.018339;85.903695;1.000000;0.000168;-0.001300;0.002946;0.000073;0.002948;-0.001301;89.010777;0.002954;
1146;1617;-0.018414;85.887942;1.000000;0.000135;-0.001333;0.003052;0.000077;0.003053;-0.001334;88.991145;0.003061;
1136;1527;-0.011649;85.425030;0.999998;0.000396;-0.003544;0.008821;0.000026;0.008821;-0.003544;89.877563;0.008878;
951;1787;0.089376;86.210088;1.000000;0.000193;-0.000518;0.001386;-0.000006;0.001386;-0.000518;-89.829504;0.001401;
1241;1502;-0.538484;85.143260;0.999979;0.001301;-0.005212;0.012118;0.003079;0.012649;-0.005742;80.217667;0.012667;
1096;1652;0.041358;85.987410;1.000000;0.000167;-0.001083;0.002405;-0.000155;0.002411;-0.001090;-87.460168;0.002415;
1166;1617;-0.044561;85.891004;1.000000;0.000187;-0.001316;0.003043;0.000207;0.003053;-0.001326;87.289981;0.003062;
1161;1617;-0.038195;85.890080;1.000000;0.000170;-0.001324;0.003046;0.000175;0.003053;-0.001331;87.716562;0.003061;
1101;1637;0.038260;85.947836;1.000000;0.000186;-0.001175;0.002631;-0.000157;0.002637;-0.001181;-87.634423;0.002642;
1001;1752;0.080343;86.169742;1.000000;0.000169;-0.000553;0.001538;-0.000146;0.001548;-0.000564;-86.023015;0.001567;
1121;1642;0.013749;85.958722;1.000000;0.000160;-0.001190;0.002591;-0.000059;0.002592;-0.001191;-89.110870;0.002595;
1151;1622;-0.024317;85.903819;1.000000;0.000175;-0.001298;0.002944;0.000104;0.002946;-0.001300;88.600687;0.002953;
1146;1657;-0.015324;85.995959;1.000000;0.000170;-0.001116;0.002413;0.000046;0.002413;-0.001116;89.255366;0.002415;
956;1787;0.087056;86.211291;1.000000;0.000234;-0.000509;0.001402;-0.000027;0.001402;-0.000509;-89.203433;0.001420;
1131;1617;0.001675;85.888590;1.000000;0.000124;-0.001334;0.003048;-0.000020;0.003048;-0.001334;-89.739276;0.003056;
1106;1527;0.093885;85.428616;0.999995;0.000672;-0.003514;0.008782;-0.000608;0.008812;-0.003544;-87.177135;0.008868;
1211;1507;-0.362241;85.211366;0.999982;0.001095;-0.004816;0.011515;0.002130;0.011788;-0.005089;82.689794;0.011824;
1101;1642;0.037439;85.960958;1.000000;0.000159;-0.001149;0.002549;-0.000150;0.002555;-0.001155;-87.682883;0.002559;
1101;1652;0.035703;85.986536;1.000000;0.000175;-0.001098;0.002420;-0.000135;0.002425;-0.001103;-87.809553;0.002429;
1161;1622;-0.037350;85.905016;1.000000;0.000179;-0.001288;0.002935;0.000162;0.002941;-0.001294;87.800267;0.002948;
1166;1622;-0.043398;85.905574;1.000000;0.000185;-0.001278;0.002930;0.000192;0.002939;-0.001287;87.392735;0.002946;
961;1787;0.085156;86.212885;0.999999;0.000208;-0.000499;0.001418;-0.000044;0.001419;-0.000500;-88.673143;0.001439;
1136;1232;-0.195146;71.240575;0.998975;0.010184;-0.058322;0.145711;0.000461;0.145712;-0.058323;89.870430;0.146676;
1141;1502;-0.038942;85.171254;0.999993;0.000682;-0.004906;0.012045;0.000186;0.012047;-0.004908;89.372224;0.012116;
1206;1787;-0.036234;86.229447;1.000000;0.000111;-0.000505;0.001550;0.000086;0.001553;-0.000509;87.611538;0.001584;
1256;1707;-0.093576;86.096971;1.000000;0.000183;-0.000614;0.001626;0.000211;0.001646;-0.000633;84.664166;0.001661;
1111;1527;0.074026;85.429213;0.999997;0.000454;-0.003509;0.008782;-0.000504;0.008802;-0.003530;-87.655211;0.008859;
1116;1592;0.024305;85.807875;0.999999;0.000176;-0.001576;0.003841;-0.000180;0.003847;-0.001582;-88.099370;0.003867;
1201;1477;-0.452523;84.811307;0.999986;0.000916;-0.006721;0.015727;0.002384;0.015977;-0.006972;84.004592;0.016020;
1101;1647;0.036166;85.973720;1.000000;0.000159;-0.001123;0.002481;-0.000143;0.002486;-0.001128;-87.736574;0.002490;
1106;1652;0.030002;85.985778;1.000000;0.000155;-0.001111;0.002435;-0.000114;0.002438;-0.001114;-88.162408;0.002441;
1161;1627;-0.036247;85.919439;1.000000;0.000168;-0.001255;0.002837;0.000151;0.002843;-0.001261;87.889895;0.002849;
1166;1627;-0.042511;85.920118;1.000000;0.000176;-0.001245;0.002830;0.000179;0.002838;-0.001253;87.489028;0.002845;
1126;1607;0.008164;85.857671;1.000000;0.000131;-0.001410;0.003291;-0.000058;0.003292;-0.001411;-89.288596;0.003303;
1086;1607;0.062580;85.866088;0.999999;0.000174;-0.001376;0.003298;-0.000351;0.003324;-0.001403;-85.730043;0.003337;
1196;1217;-4.478931;68.373560;0.998972;0.007053;-0.071958;0.184518;0.009325;0.184856;-0.072296;87.920592;0.186312;
1101;1497;0.159229;85.117473;0.999991;0.000867;-0.005205;0.012629;-0.000937;0.012678;-0.005254;-86.999168;0.012740;
1121;1532;0.038795;85.471538;0.999999;0.000320;-0.003286;0.008262;-0.000284;0.008269;-0.003293;-88.593877;0.008326;
1041;1807;0.039534;86.259029;1.000000;0.000184;-0.000446;0.001515;-0.000114;0.001522;-0.000453;-86.677541;0.001563;
1116;1597;0.023670;85.824817;0.999999;0.000168;-0.001514;0.003645;-0.000163;0.003650;-0.001519;-88.191154;0.003667;
1106;1647;0.030706;85.973054;1.000000;0.000126;-0.001135;0.002495;-0.000120;0.002499;-0.001139;-88.101287;0.002502;
1256;1712;-0.091350;86.105129;1.000000;0.000201;-0.000615;0.001621;0.000201;0.001639;-0.000633;84.897665;0.001653;
1206;1477;-0.485638;84.809025;0.999986;0.000894;-0.006743;0.015730;0.002572;0.016021;-0.007034;83.554725;0.016060;
1126;1632;0.008198;85.932262;1.000000;0.000177;-0.001244;0.002759;-0.000040;0.002759;-0.001244;-89.433978;0.002764;
1141;1652;-0.009495;85.984102;1.000000;0.000155;-0.001144;0.002478;0.000029;0.002479;-0.001144;89.547051;0.002481;
1151;1607;-0.026041;85.857817;1.000000;0.000179;-0.001413;0.003301;0.000124;0.003304;-0.001416;88.495633;0.003316;
951;1857;0.053299;86.312990;0.999999;0.000194;-0.000576;0.001577;-0.000075;0.001580;-0.000579;-88.006665;0.001599;
1101;1502;0.150317;85.172435;0.999993;0.000804;-0.004891;0.011891;-0.000894;0.011938;-0.004938;-86.958947;0.011998;
1201;1217;-4.864635;68.245816;0.999028;0.010278;-0.072557;0.185505;0.010016;0.185893;-0.072945;87.780706;0.187323;
1126;1532;0.022962;85.470639;0.999999;0.000364;-0.003289;0.008272;-0.000179;0.008275;-0.003292;-89.114677;0.008332;
1126;1642;0.007745;85.958597;1.000000;0.000158;-0.001192;0.002598;-0.000036;0.002599;-0.001193;-89.448987;0.002602;
1161;1592;-0.044518;85.806234;0.999999;0.000187;-0.001593;0.003855;0.000257;0.003868;-0.001605;87.306346;0.003886;
1111;1647;0.025085;85.972312;1.000000;0.000129;-0.001146;0.002506;-0.000098;0.002509;-0.001149;-88.458148;0.002512;
1091;1672;0.042796;86.032612;1.000000;0.000139;-0.000979;0.002151;-0.000142;0.002157;-0.000986;-87.399298;0.002160;
1211;1477;-0.519656;84.805927;0.999987;0.001077;-0.006775;0.015737;0.002749;0.016067;-0.007106;83.136598;0.016103;
1131;1632;0.001697;85.931644;1.000000;0.000158;-0.001245;0.002762;-0.000014;0.002763;-0.001245;-89.797394;0.002767;
1246;1837;-0.036252;86.301156;0.999999;0.000150;-0.000359;0.001490;0.000152;0.001502;-0.000372;85.317638;0.001565;
951;1782;0.091261;86.202192;1.000000;0.000177;-0.000517;0.001370;-0.000019;0.001370;-0.000517;-89.427175;0.001384;
1111;1597;0.030565;85.826168;0.999999;0.000190;-0.001513;0.003649;-0.000207;0.003657;-0.001521;-87.708212;0.003675;
1206;1217;-5.269625;68.157313;0.998512;0.014537;-0.072963;0.186931;0.011038;0.187399;-0.073431;87.572305;0.188855;
1146;1502;-0.062910;85.169746;0.999992;0.000571;-0.004920;0.012074;0.000326;0.012080;-0.004927;88.900070;0.012148;
1131;1532;0.006236;85.470225;0.999998;0.000469;-0.003299;0.008280;-0.000074;0.008281;-0.003299;-89.631874;0.008338;
1131;1642;0.001942;85.958396;1.000000;0.000175;-0.001194;0.002603;-0.000013;0.002603;-0.001194;-89.801833;0.002606;
1136;1602;-0.005696;85.840454;1.000000;0.000172;-0.001463;0.003449;0.000014;0.003449;-0.001463;89.839242;0.003463;
1116;1647;0.019487;85.971888;1.000000;0.000151;-0.001156;0.002517;-0.000076;0.002518;-0.001158;-88.820787;0.002521;
1211;1482;-0.490136;84.884086;0.999988;0.001157;-0.006400;0.014981;0.002643;0.015303;-0.006722;83.055776;0.015341;
1136;1632;-0.004688;85.931660;1.000000;0.000143;-0.001246;0.002764;0.000012;0.002764;-0.001246;89.821399;0.002768;
1176;1657;-0.048241;85.998317;1.000000;0.000107;-0.001058;0.002345;0.000165;0.002353;-0.001066;87.230226;0.002356;
956;1782;0.089476;86.203932;1.000000;0.000208;-0.000507;0.001390;-0.000038;0.001390;-0.000508;-88.845732;0.001407;
1111;1602;0.029905;85.842411;1.000000;0.000173;-0.001454;0.003461;-0.000184;0.003468;-0.001461;-87.854084;0.003482;
1261;1747;-0.080292;86.160578;1.000000;0.000189;-0.000577;0.001565;0.000152;0.001575;-0.000587;85.950407;0.001592;
1136;1532;-0.010730;85.468909;0.999998;0.000411;-0.003305;0.008285;0.000026;0.008285;-0.003305;89.870390;0.008341;
1141;1232;-0.472301;71.229563;0.998804;0.009222;-0.058543;0.146255;0.000988;0.146260;-0.058548;89.723594;0.147226;
1151;1502;-0.087443;85.167885;0.999992;0.000551;-0.004942;0.012101;0.000474;0.012114;-0.004955;88.409700;0.012181;
1111;1642;0.025727;85.959914;1.000000;0.000121;-0.001172;0.002573;-0.000104;0.002576;-0.001175;-88.406604;0.002579;
1141;1602;-0.012697;85.840705;1.000000;0.000196;-0.001463;0.003449;0.000054;0.003450;-0.001463;89.368077;0.003463;
1136;1647;-0.004122;85.971233;1.000000;0.000138;-0.001170;0.002539;0.000010;0.002539;-0.001170;89.840829;0.002542;
1211;1487;-0.462131;84.957467;0.999988;0.001121;-0.006055;0.014264;0.002536;0.014576;-0.006366;82.992395;0.014615;
1121;1632;0.014540;85.932777;1.000000;0.000126;-0.001242;0.002753;-0.000063;0.002754;-0.001243;-89.089941;0.002759;
961;1782;0.087558;86.205837;0.999999;0.000212;-0.000499;0.001409;-0.000055;0.001410;-0.000500;-88.361062;0.001430;
1176;1662;-0.047134;86.010017;1.000000;0.000110;-0.001034;0.002281;0.000156;0.002289;-0.001041;87.306820;0.002292;
1111;1607;0.029256;85.858772;1.000000;0.000182;-0.001400;0.003288;-0.000164;0.003294;-0.001406;-88.003582;0.003305;
991;1727;0.095814;86.130331;1.000000;0.000205;-0.000559;0.001524;-0.000194;0.001542;-0.000577;-84.721713;0.001558;
1166;1657;-0.037344;85.996743;1.000000;0.000144;-0.001084;0.002376;0.000125;0.002380;-0.001088;87.934515;0.002383;
1081;1652;0.057156;85.989874;1.000000;0.000135;-0.001033;0.002348;-0.000214;0.002362;-0.001046;-86.390313;0.002367;
946;1782;0.097680;86.199396;0.999973;0.001313;-0.000532;0.001354;0.000010;0.001354;-0.000532;89.702038;0.001364;
1116;1642;0.019876;85.959040;1.000000;0.000148;-0.001181;0.002582;-0.000080;0.002584;-0.001183;-88.775524;0.002587;
1101;1222;2.023979;69.821405;0.998712;0.010426;-0.065147;0.164028;-0.003760;0.164090;-0.065209;-89.060355;0.165238;
1006;1507;0.590123;85.216150;0.999697;0.005563;-0.004760;0.011353;-0.003368;0.012029;-0.005436;-78.656357;0.012048;
1146;1602;-0.019578;85.840951;1.000000;0.000187;-0.001461;0.003450;0.000096;0.003452;-0.001463;88.880260;0.003465;
1141;1647;-0.009862;85.971289;1.000000;0.000150;-0.001169;0.002541;0.000032;0.002541;-0.001169;89.508952;0.002544;
1176;1667;-0.046149;86.021415;1.000000;0.000120;-0.001010;0.002224;0.000147;0.002230;-0.001017;87.406285;0.002233;
1156;1607;-0.033615;85.857940;1.000000;0.000171;-0.001411;0.003306;0.000161;0.003312;-0.001417;88.048960;0.003323;
946;1787;0.093730;86.207532;0.999972;0.001346;-0.000535;0.001375;0.000026;0.001375;-0.000535;89.208040;0.001386;
996;1727;0.092864;86.130347;1.000000;0.000181;-0.000571;0.001543;-0.000187;0.001560;-0.000587;-84.989803;0.001575;
1121;1622;0.014643;85.904185;1.000000;0.000168;-0.001296;0.002934;-0.000072;0.002936;-0.001297;-89.025397;0.002942;
1166;1662;-0.036616;86.009112;1.000000;0.000120;-0.001060;0.002312;0.000119;0.002316;-0.001064;87.977554;0.002319;
1081;1657;0.056323;86.000853;1.000000;0.000152;-0.001010;0.002288;-0.000204;0.002300;-0.001023;-86.473761;0.002305;
1106;1222;1.692467;69.849683;0.998985;0.008066;-0.064643;0.163330;-0.003012;0.163369;-0.064683;-89.243267;0.164545;
1106;1632;0.033004;85.933958;1.000000;0.000165;-0.001214;0.002730;-0.000140;0.002735;-0.001219;-87.964885;0.002740;
1146;1642;-0.016231;85.958425;1.000000;0.000134;-0.001191;0.002607;0.000058;0.002608;-0.001192;89.129313;0.002611;
1131;1602;0.001485;85.840661;1.000000;0.000139;-0.001464;0.003451;-0.000025;0.003451;-0.001464;-89.713086;0.003464;
1046;1477;0.569694;84.826176;0.999983;0.001450;-0.006789;0.015615;-0.003165;0.016053;-0.007227;-82.110779;0.016080;
1136;1612;-0.005562;85.872977;1.000000;0.000170;-0.001372;0.003163;0.000009;0.003164;-0.001372;89.882988;0.003173;
1206;1732;-0.051467;86.141817;1.000000;0.000128;-0.000662;0.001644;0.000110;0.001649;-0.000668;87.280661;0.001659;
1256;1902;-0.006778;86.393601;0.999999;0.000297;-0.000075;0.001402;0.000237;0.001439;-0.000112;81.089939;0.001601;
1001;1727;0.089656;86.130335;1.000000;0.000224;-0.000581;0.001560;-0.000182;0.001575;-0.000597;-85.166248;0.001591;
1111;1622;0.027188;85.906059;1.000000;0.000190;-0.001279;0.002920;-0.000129;0.002924;-0.001283;-88.247777;0.002931;
1161;1647;-0.033140;85.972557;1.000000;0.000256;-0.001145;0.002518;0.000118;0.002522;-0.001149;88.155928;0.002526;
1081;1662;0.054902;86.011944;1.000000;0.000140;-0.000988;0.002223;-0.000193;0.002235;-0.001000;-86.565936;0.002239;
1111;1222;1.370170;69.875446;0.998896;0.007650;-0.064265;0.162816;-0.002381;0.162841;-0.064290;-89.399284;0.164038;
1106;1637;0.031921;85.947689;1.000000;0.000148;-0.001187;0.002643;-0.000133;0.002648;-0.001192;-88.011465;0.002652;
1146;1647;-0.015903;85.971509;1.000000;0.000129;-0.001166;0.002540;0.000054;0.002541;-0.001166;89.166317;0.002544;
1151;1602;-0.026995;85.841221;1.000000;0.000180;-0.001463;0.003455;0.000136;0.003459;-0.001467;88.422190;0.003472;
1216;1477;-0.554690;84.806773;0.999983;0.001264;-0.006801;0.015743;0.002924;0.016116;-0.007174;82.728470;0.016148;
1141;1612;-0.012176;85.872987;1.000000;0.000136;-0.001372;0.003166;0.000044;0.003166;-0.001373;89.446820;0.003176;
1211;1732;-0.054767;86.140887;1.000000;0.000150;-0.000657;0.001643;0.000114;0.001649;-0.000663;87.159267;0.001659;
1096;1592;0.053845;85.812640;0.999999;0.000195;-0.001573;0.003874;-0.000372;0.003899;-0.001598;-86.106227;0.003920;
971;1672;0.126859;86.051197;1.000000;0.000171;-0.000410;0.001502;-0.000375;0.001573;-0.000481;-79.293158;0.001612;
1116;1622;0.021025;85.905001;1.000000;0.000175;-0.001287;0.002927;-0.000099;0.002930;-0.001290;-88.653737;0.002937;
1166;1647;-0.039062;85.973047;1.000000;0.000172;-0.001133;0.002507;0.000139;0.002512;-0.001138;87.818611;0.002516;
1081;1667;0.053550;86.022737;1.000000;0.000138;-0.000967;0.002164;-0.000183;0.002174;-0.000978;-86.671458;0.002178;
1106;1642;0.031365;85.960737;1.000000;0.000115;-0.001161;0.002563;-0.000127;0.002567;-0.001165;-88.046609;0.002571;
1161;1227;-1.756126;70.419559;0.998823;0.011116;-0.062235;0.157418;0.003626;0.157478;-0.062295;89.054389;0.158618;
1166;1632;-0.041554;85.933589;1.000000;0.000140;-0.001213;0.002738;0.000169;0.002745;-0.001220;87.559180;0.002750;
1126;1602;0.008521;85.841011;1.000000;0.000138;-0.001461;0.003453;-0.000064;0.003454;-0.001462;-89.254304;0.003468;
1216;1482;-0.525931;84.883733;0.999985;0.001356;-0.006427;0.014987;0.002810;0.015350;-0.006790;82.646744;0.015384;
1146;1612;-0.018891;85.872897;1.000000;0.000169;-0.001370;0.003168;0.000080;0.003169;-0.001372;88.988747;0.003179;
971;1677;0.124594;86.058449;1.000000;0.000156;-0.000404;0.001511;-0.000334;0.001567;-0.000460;-80.397295;0.001611;
1201;1687;-0.063657;86.064094;1.000000;0.000157;-0.000832;0.001915;0.000178;0.001927;-0.000843;86.304299;0.001932;
1101;1592;0.045889;85.811387;0.999999;0.000200;-0.001573;0.003861;-0.000325;0.003880;-0.001593;-86.593982;0.003901;
1156;1622;-0.030828;85.904107;1.000000;0.000197;-0.001293;0.002940;0.000133;0.002944;-0.001298;88.203170;0.002951;
1086;1667;0.048625;86.022187;1.000000;0.000182;-0.000985;0.002186;-0.000167;0.002194;-0.000994;-86.992099;0.002198;
1076;1652;0.062306;85.990743;1.000000;0.000142;-0.001013;0.002325;-0.000233;0.002341;-0.001029;-86.020744;0.002347;
1136;1642;-0.004299;85.958127;1.000000;0.000155;-0.001194;0.002606;0.000011;0.002606;-0.001194;89.836497;0.002609;
1161;1232;-1.668553;71.118865;0.998876;0.010831;-0.059653;0.149592;0.003475;0.149650;-0.059711;89.048841;0.150664;
1096;1637;0.044565;85.948203;1.000000;0.000172;-0.001158;0.002615;-0.000180;0.002623;-0.001167;-87.274315;0.002629;
1121;1602;0.015638;85.841250;1.000000;0.000143;-0.001458;0.003456;-0.000105;0.003458;-0.001461;-88.772879;0.003472;
1216;1487;-0.493775;84.953158;0.999985;0.001233;-0.006080;0.014268;0.002699;0.014620;-0.006432;82.571874;0.014655;
1131;1612;0.001448;85.873304;1.000000;0.000146;-0.001370;0.003160;-0.000023;0.003160;-0.001370;-89.705035;0.003170;
971;1682;0.122939;86.065688;1.000000;0.000144;-0.000418;0.001470;-0.000315;0.001522;-0.000469;-80.763103;0.001558;
1106;1592;0.038620;85.810258;0.999999;0.000237;-0.001575;0.003852;-0.000276;0.003866;-0.001589;-87.096244;0.003886;
1166;1612;-0.045813;85.875508;1.000000;0.000167;-0.001358;0.003171;0.000221;0.003182;-0.001369;87.210720;0.003192;
1066;1712;0.053149;86.109645;1.000000;0.000132;-0.000731;0.001726;-0.000133;0.001733;-0.000738;-86.918774;0.001740;
1091;1667;0.043866;86.021511;1.000000;0.000141;-0.001001;0.002206;-0.000151;0.002213;-0.001008;-87.313460;0.002216;
1146;1667;-0.014477;86.019642;1.000000;0.000123;-0.001065;0.002287;0.000041;0.002288;-0.001065;89.292353;0.002289;
1141;1642;-0.010042;85.958210;1.000000;0.000128;-0.001194;0.002608;0.000034;0.002608;-0.001194;89.489109;0.002611;
1166;1227;-2.089112;70.372116;0.998811;0.010156;-0.062633;0.158430;0.004376;0.158516;-0.062720;88.866531;0.159662;
1096;1642;0.043233;85.961429;1.000000;0.000142;-0.001133;0.002533;-0.000171;0.002541;-0.001141;-87.332728;0.002545;
1116;1602;0.022593;85.841669;1.000000;0.000147;-0.001456;0.003459;-0.000145;0.003463;-0.001460;-88.316686;0.003477;
1211;1492;-0.434801;85.020580;0.999984;0.001131;-0.005723;0.013549;0.002439;0.013853;-0.006027;82.897651;0.013891;
1146;1682;-0.013625;86.052567;1.000000;0.000115;-0.000985;0.002119;0.000035;0.002119;-0.000986;89.360030;0.002121;
1041;1852;0.023712;86.324842;1.000000;0.000173;-0.000277;0.001429;-0.000149;0.001442;-0.000289;-85.051151;0.001526;
1171;1602;-0.055549;85.844385;1.000000;0.000223;-0.001460;0.003484;0.000296;0.003502;-0.001477;86.580377;0.003516;
1161;1652;-0.032378;85.984759;1.000000;0.000226;-0.001120;0.002454;0.000111;0.002457;-0.001123;88.222867;0.002460;
1161;1872;-0.004279;86.355332;0.999999;0.000245;-0.000165;0.001347;0.000050;0.001348;-0.000167;88.120543;0.001470;
1051;1732;0.056868;86.141902;1.000000;0.000154;-0.000650;0.001639;-0.000113;0.001645;-0.000655;-87.174827;0.001656;
1096;1647;0.041954;85.974329;1.000000;0.000143;-0.001107;0.002465;-0.000164;0.002472;-0.001115;-87.384458;0.002476;
1171;1227;-2.404816;70.317847;0.998591;0.008432;-0.063030;0.159604;0.005115;0.159721;-0.063148;88.684554;0.160883;
1151;1667;-0.019617;86.019817;1.000000;0.000159;-0.001061;0.002281;0.000059;0.002282;-0.001062;88.981816;0.002284;
1156;1602;-0.034601;85.841711;0.999999;0.000188;-0.001463;0.003462;0.000175;0.003468;-0.001469;87.965663;0.003482;
1216;1492;-0.462585;85.019144;0.999985;0.001437;-0.005747;0.013551;0.002600;0.013895;-0.006091;82.460406;0.013931;
1151;1682;-0.018419;86.052467;1.000000;0.000107;-0.000982;0.002112;0.000051;0.002113;-0.000983;89.056242;0.002115;
1046;1852;0.022356;86.325007;1.000000;0.000194;-0.000272;0.001424;-0.000141;0.001436;-0.000284;-85.275350;0.001521;
1151;1617;-0.024949;85.888335;1.000000;0.000159;-0.001332;0.003051;0.000110;0.003054;-0.001335;88.557956;0.003062;
1146;1687;-0.013171;86.063028;1.000000;0.000117;-0.000959;0.002060;0.000033;0.002061;-0.000959;89.364356;0.002062;
1161;1657;-0.031529;85.996638;1.000000;0.000150;-0.001095;0.002389;0.000106;0.002392;-0.001099;88.260230;0.002395;
1091;1612;0.054872;85.879610;0.999999;0.000197;-0.001330;0.003129;-0.000281;0.003147;-0.001348;-86.412428;0.003157;
1156;1667;-0.025146;86.019877;1.000000;0.000166;-0.001055;0.002274;0.000077;0.002275;-0.001057;88.673300;0.002277;
1131;1227;0.095166;70.606585;0.998905;0.008366;-0.060851;0.153481;-0.000011;0.153481;-0.060851;-89.996933;0.154574;
1051;1477;0.537744;84.826396;0.999980;0.001163;-0.006764;0.015639;-0.002992;0.016032;-0.007157;-82.522148;0.016062;
1161;1597;-0.042935;85.825109;0.999999;0.000163;-0.001523;0.003649;0.000235;0.003660;-0.001533;87.400769;0.003676;
1096;1632;0.044760;85.935378;1.000000;0.000160;-0.001186;0.002703;-0.000191;0.002712;-0.001195;-87.197963;0.002718;
1086;1637;0.055249;85.951843;1.000000;0.000117;-0.001127;0.002584;-0.000226;0.002598;-0.001140;-86.520752;0.002604;
1161;1632;-0.035588;85.932749;1.000000;0.000140;-0.001224;0.002746;0.000142;0.002751;-0.001229;87.950629;0.002756;
1156;1682;-0.023274;86.052434;1.000000;0.000100;-0.000976;0.002104;0.000067;0.002106;-0.000978;88.761708;0.002108;
1051;1852;0.020930;86.325770;0.999999;0.000207;-0.000269;0.001421;-0.000135;0.001431;-0.000280;-85.471876;0.001517;
966;1902;0.011127;86.391248;0.999999;0.000257;-0.000174;0.001616;-0.000351;0.001683;-0.000240;-79.289153;0.001820;
1171;1687;-0.036962;86.063706;1.000000;0.000106;-0.000927;0.002016;0.000108;0.002020;-0.000931;87.891167;0.002022;
1156;1632;-0.029552;85.932045;1.000000;0.000179;-0.001232;0.002754;0.000116;0.002757;-0.001235;88.328367;0.002762;
1196;1212;-4.690444;67.545304;0.999044;0.008000;-0.074850;0.193846;0.009484;0.194181;-0.075184;87.981061;0.195821;
1161;1662;-0.031111;86.008450;1.000000;0.000121;-0.001071;0.002325;0.000101;0.002328;-0.001074;88.294270;0.002330;
1161;1602;-0.041365;85.842564;0.999999;0.000156;-0.001462;0.003468;0.000215;0.003478;-0.001471;87.502066;0.003492;
1161;1637;-0.035060;85.945871;1.000000;0.000141;-0.001196;0.002662;0.000135;0.002667;-0.001201;88.000895;0.002671;
1171;1692;-0.035529;86.073619;1.000000;0.000102;-0.000903;0.001965;0.000103;0.001969;-0.000906;87.942709;0.001971;
1161;1682;-0.028011;86.052285;1.000000;0.000131;-0.000969;0.002095;0.000082;0.002097;-0.000971;88.459804;0.002099;
1081;1642;0.059676;85.965523;1.000000;0.000140;-0.001080;0.002481;-0.000237;0.002497;-0.001095;-86.207461;0.002503;
946;1777;0.098427;86.190172;0.999980;0.001130;-0.000529;0.001299;-0.000009;0.001299;-0.000529;-89.722772;0.001307;
1126;1862;0.001654;86.341548;1.000000;0.000185;-0.000201;0.001364;-0.000014;0.001364;-0.000201;-89.473789;0.001473;
1141;1682;-0.008494;86.052722;1.000000;0.000132;-0.000989;0.002123;0.000018;0.002123;-0.000989;89.660537;0.002125;
1201;1212;-5.094949;67.426121;0.999095;0.008916;-0.075451;0.194818;0.010181;0.195201;-0.075834;87.845841;0.196813;
1161;1587;-0.046364;85.786589;0.999999;0.000211;-0.001673;0.004080;0.000276;0.004093;-0.001687;87.257735;0.004115;
1126;1637;0.008044;85.945453;1.000000;0.000180;-0.001218;0.002676;-0.000038;0.002676;-0.001218;-89.434421;0.002680;
1176;1682;-0.042849;86.053115;1.000000;0.000146;-0.000939;0.002055;0.000129;0.002061;-0.000944;87.537617;0.002063;
951;1777;0.093870;86.195543;1.000000;0.000155;-0.000517;0.001329;-0.000034;0.001330;-0.000517;-88.929977;0.001341;
1176;1572;-0.083317;85.724411;0.999999;0.000297;-0.002010;0.004986;0.000540;0.005027;-0.002051;85.610116;0.005055;
1166;1682;-0.032980;86.052542;1.000000;0.000139;-0.000960;0.002083;0.000098;0.002087;-0.000963;88.157587;0.002089;
1156;1702;-0.020859;86.092968;1.000000;0.000072;-0.000873;0.001895;0.000058;0.001896;-0.000875;88.803199;0.001898;
1171;1647;-0.044746;85.973727;1.000000;0.000138;-0.001120;0.002495;0.000161;0.002502;-0.001127;87.459831;0.002506;
1131;1862;0.000834;86.341182;1.000000;0.000193;-0.000202;0.001363;-0.000004;0.001363;-0.000202;-89.840094;0.001471;
1206;1212;-5.479485;67.316840;0.998592;0.011796;-0.075879;0.196215;0.011189;0.196674;-0.076339;87.649141;0.198308;
1141;1687;-0.008114;86.062973;1.000000;0.000141;-0.000962;0.002066;0.000018;0.002066;-0.000962;89.660376;0.002068;
1131;1637;0.001568;85.944984;1.000000;0.000182;-0.001219;0.002680;-0.000014;0.002680;-0.001219;-89.791798;0.002684;
1166;1577;-0.060029;85.746250;0.999999;0.000196;-0.001873;0.004633;0.000385;0.004656;-0.001896;86.621163;0.004683;
956;1777;0.092255;86.197839;1.000000;0.000188;-0.000508;0.001359;-0.000051;0.001360;-0.000509;-88.423261;0.001374;
1176;1687;-0.041717;86.063634;1.000000;0.000109;-0.000915;0.002002;0.000122;0.002007;-0.000920;87.602661;0.002010;
1171;1672;-0.039885;86.032131;1.000000;0.000134;-0.000998;0.002184;0.000123;0.002189;-0.001003;87.793577;0.002191;
1171;1652;-0.043637;85.985508;1.000000;0.000162;-0.001096;0.002428;0.000151;0.002434;-0.001102;87.542993;0.002438;
1161;1702;-0.025103;86.092614;1.000000;0.000074;-0.000868;0.001889;0.000071;0.001891;-0.000869;88.527890;0.001893;
1161;1707;-0.024187;86.101596;1.000000;0.000082;-0.000842;0.001846;0.000068;0.001848;-0.000844;88.558286;0.001850;
1151;1657;-0.020675;85.995875;1.000000;0.000147;-0.001111;0.002407;0.000066;0.002408;-0.001112;88.925608;0.002411;
1136;1862;-0.000638;86.341219;1.000000;0.000210;-0.000204;0.001364;0.000005;0.001364;-0.000204;89.832351;0.001471;
1136;1637;-0.004569;85.944858;1.000000;0.000180;-0.001220;0.002682;0.000011;0.002682;-0.001220;89.833403;0.002686;
1101;1217;2.118517;69.044246;0.998664;0.009211;-0.068508;0.175172;-0.003699;0.175228;-0.068565;-89.130581;0.176603;
1131;1687;0.001453;86.063166;1.000000;0.000121;-0.000967;0.002072;-0.000011;0.002072;-0.000967;-89.784522;0.002074;
961;1777;0.089741;86.199935;0.999999;0.000232;-0.000500;0.001386;-0.000065;0.001388;-0.000503;-88.015190;0.001405;
1176;1692;-0.040364;86.073797;1.000000;0.000115;-0.000891;0.001954;0.000116;0.001959;-0.000896;87.664726;0.001961;
1171;1677;-0.038754;86.042306;1.000000;0.000145;-0.000974;0.002128;0.000118;0.002132;-0.000979;87.817401;0.002135;
1146;1677;-0.013829;86.042302;1.000000;0.000114;-0.001013;0.002173;0.000037;0.002174;-0.001013;89.343467;0.002175;
1151;1707;-0.015891;86.102001;1.000000;0.000096;-0.000851;0.001856;0.000043;0.001857;-0.000852;89.086745;0.001859;
1166;1702;-0.029281;86.092370;1.000000;0.000101;-0.000860;0.001882;0.000083;0.001884;-0.000863;88.269064;0.001886;
1156;1647;-0.027133;85.972207;1.000000;0.000182;-0.001154;0.002529;0.000098;0.002531;-0.001156;88.479737;0.002534;
991;1732;0.093813;86.137948;1.000000;0.000209;-0.000557;0.001522;-0.000185;0.001538;-0.000573;-84.965019;0.001555;
1136;1687;-0.003334;86.063015;1.000000;0.000133;-0.000966;0.002070;0.000003;0.002070;-0.000966;89.949140;0.002072;
1106;1217;1.767060;69.070218;0.998780;0.007997;-0.067947;0.174178;-0.002895;0.174213;-0.067982;-89.315164;0.175607;
971;1902;0.010170;86.391632;0.999999;0.000251;-0.000161;0.001577;-0.000333;0.001639;-0.000223;-79.506959;0.001778;
1171;1682;-0.037741;86.052744;1.000000;0.000127;-0.000950;0.002070;0.000114;0.002075;-0.000954;87.840146;0.002077;
1126;1697;0.005818;86.083359;1.000000;0.000103;-0.000910;0.001957;-0.000024;0.001957;-0.000910;-89.527823;0.001959;
1151;1677;-0.018663;86.041905;1.000000;0.000117;-0.001009;0.002168;0.000053;0.002169;-0.001010;89.038935;0.002170;
1171;1702;-0.033530;86.092441;1.000000;0.000117;-0.000852;0.001873;0.000095;0.001876;-0.000855;88.005592;0.001878;
1181;1697;-0.043405;86.082900;1.000000;0.000141;-0.000853;0.001895;0.000122;0.001900;-0.000858;87.453909;0.001903;
1146;1652;-0.015509;85.984035;1.000000;0.000126;-0.001140;0.002476;0.000049;0.002477;-0.001141;89.217490;0.002480;
1156;1652;-0.026506;85.984380;1.000000;0.000187;-0.001129;0.002464;0.000091;0.002466;-0.001131;88.546833;0.002469;
976;1902;0.010059;86.391744;0.999999;0.000220;-0.000128;0.001547;-0.000328;0.001609;-0.000190;-79.323172;0.001759;
996;1732;0.091395;86.138433;1.000000;0.000175;-0.000568;0.001540;-0.000178;0.001555;-0.000583;-85.215786;0.001571;
1111;1217;1.426534;69.118771;0.998815;0.008403;-0.067515;0.173370;-0.002225;0.173391;-0.067535;-89.470791;0.174797;
1131;1667;0.001824;86.019335;1.000000;0.000163;-0.001070;0.002292;-0.000012;0.002292;-0.001070;-89.800520;0.002294;
1131;1672;0.001587;86.031490;1.000000;0.000146;-0.001045;0.002233;-0.000012;0.002233;-0.001045;-89.798578;0.002235;
1131;1697;0.001391;86.083320;1.000000;0.000129;-0.000912;0.001957;-0.000010;0.001957;-0.000912;-89.796810;0.001958;
1156;1677;-0.024014;86.042136;1.000000;0.000114;-0.001003;0.002161;0.000069;0.002162;-0.001004;88.744690;0.002164;
1176;1702;-0.037806;86.092208;1.000000;0.000118;-0.000842;0.001862;0.000107;0.001867;-0.000846;87.742433;0.001869;
1181;1702;-0.041945;86.091982;1.000000;0.000163;-0.000829;0.001850;0.000117;0.001855;-0.000835;87.500255;0.001858;
1151;1642;-0.022034;85.958924;1.000000;0.000153;-0.001186;0.002603;0.000082;0.002605;-0.001188;88.764622;0.002609;
1086;1652;0.052074;85.989057;1.000000;0.000142;-0.001053;0.002369;-0.000194;0.002380;-0.001064;-86.761399;0.002385;
1001;1732;0.088224;86.138542;1.000000;0.000187;-0.000579;0.001556;-0.000174;0.001570;-0.000593;-85.378198;0.001586;
1166;1592;-0.052138;85.807484;0.999999;0.000185;-0.001598;0.003868;0.000305;0.003885;-0.001615;86.817257;0.003903;
1176;1677;-0.043622;86.042553;1.000000;0.000142;-0.000962;0.002112;0.000134;0.002118;-0.000968;87.506788;0.002120;
1136;1227;-0.217435;70.591173;0.998965;0.009571;-0.060932;0.153787;0.000520;0.153788;-0.060933;89.861312;0.154888;
1131;1677;0.001438;86.042513;1.000000;0.000120;-0.001020;0.002179;-0.000011;0.002179;-0.001020;-89.795074;0.002180;
1136;1697;-0.003352;86.083352;1.000000;0.000140;-0.000912;0.001956;0.000003;0.001956;-0.000912;89.934447;0.001957;
1161;1677;-0.028864;86.042192;1.000000;0.000134;-0.000994;0.002152;0.000086;0.002154;-0.000996;88.444471;0.002156;
1181;1707;-0.040880;86.101037;1.000000;0.000126;-0.000806;0.001808;0.000111;0.001813;-0.000811;87.568933;0.001816;
1126;1702;0.005643;86.093410;1.000000;0.000103;-0.000882;0.001906;-0.000022;0.001907;-0.000883;-89.547012;0.001908;
1086;1657;0.051042;86.000016;1.000000;0.000115;-0.001030;0.002309;-0.000185;0.002319;-0.001040;-86.831215;0.002323;
1146;1672;-0.014030;86.031338;1.000000;0.000108;-0.001039;0.002228;0.000039;0.002229;-0.001039;89.322940;0.002230;
1171;1592;-0.060072;85.808552;0.999999;0.000207;-0.001603;0.003885;0.000352;0.003908;-0.001626;86.346949;0.003926;
1071;1642;0.070151;85.967604;1.000000;0.000173;-0.001041;0.002437;-0.000280;0.002459;-0.001064;-85.424416;0.002467;
1141;1227;-0.506488;70.602492;0.998958;0.010183;-0.061146;0.154286;0.001073;0.154291;-0.061152;89.714629;0.155392;
1126;1682;0.006358;86.053087;1.000000;0.000125;-0.000993;0.002125;-0.000026;0.002125;-0.000993;-89.514435;0.002127;
1131;1682;0.001395;86.052880;1.000000;0.000115;-0.000995;0.002127;-0.000012;0.002127;-0.000995;-89.785677;0.002129;
1161;1697;-0.026174;86.083067;1.000000;0.000084;-0.000893;0.001934;0.000073;0.001936;-0.000895;88.519355;0.001938;
1166;1667;-0.035793;86.020739;1.000000;0.000137;-0.001035;0.002253;0.000112;0.002256;-0.001039;88.055927;0.002259;
1126;1707;0.005222;86.103095;1.000000;0.000096;-0.000855;0.001862;-0.000019;0.001862;-0.000855;-89.593571;0.001864;
1131;1702;0.001223;86.093271;1.000000;0.000109;-0.000885;0.001907;-0.000009;0.001907;-0.000885;-89.808908;0.001909;
1086;1662;0.049885;86.011117;1.000000;0.000137;-0.001007;0.002246;-0.000176;0.002255;-0.001017;-86.905372;0.002259;
1151;1672;-0.019163;86.031272;1.000000;0.000134;-0.001035;0.002223;0.000056;0.002224;-0.001036;89.017868;0.002226;
1176;1592;-0.068208;85.809315;0.999999;0.000248;-0.001604;0.003907;0.000398;0.003935;-0.001633;85.889021;0.003954;
1126;1687;0.006219;86.063277;1.000000;0.000110;-0.000966;0.002071;-0.000026;0.002071;-0.000966;-89.516790;0.002073;
1191;1212;-4.304415;67.671472;0.999167;0.007781;-0.074033;0.192356;0.008685;0.192639;-0.074316;88.134726;0.194307;
1136;1682;-0.003604;86.052676;1.000000;0.000139;-0.000993;0.002127;0.000003;0.002127;-0.000993;89.946277;0.002128;
991;1652;0.127476;86.012706;1.000000;0.000174;-0.000565;0.001760;-0.000491;0.001859;-0.000664;-78.560014;0.001884;
1166;1697;-0.030372;86.083062;1.000000;0.000091;-0.000886;0.001927;0.000086;0.001929;-0.000889;88.251776;0.001931;
1166;1672;-0.034971;86.032139;1.000000;0.000139;-0.001009;0.002197;0.000106;0.002201;-0.001013;88.116656;0.002203;
1136;1702;-0.003160;86.093297;1.000000;0.000112;-0.000885;0.001907;0.000004;0.001907;-0.000885;89.927171;0.001909;
1131;1707;0.001045;86.103265;1.000000;0.000091;-0.000858;0.001863;-0.000007;0.001863;-0.000858;-89.846597;0.001865;
1091;1662;0.044970;86.010350;1.000000;0.000148;-0.001023;0.002266;-0.000159;0.002273;-0.001031;-87.239564;0.002277;
1156;1672;-0.024717;86.031944;1.000000;0.000146;-0.001029;0.002216;0.000072;0.002218;-0.001031;88.721801;0.002220;
966;1792;0.080634;86.221824;0.999999;0.000258;-0.000500;0.001442;-0.000050;0.001443;-0.000501;-88.515254;0.001466;
1126;1692;0.006020;86.073357;1.000000;0.000099;-0.000938;0.002014;-0.000025;0.002014;-0.000938;-89.522859;0.002015;
1151;1687;-0.017906;86.062804;1.000000;0.000120;-0.000955;0.002054;0.000049;0.002055;-0.000956;89.064399;0.002056;
1191;1217;-4.113277;68.464203;0.998952;0.009465;-0.071153;0.182972;0.008524;0.183258;-0.071439;88.081089;0.184735;
1171;1697;-0.034740;86.083030;1.000000;0.000119;-0.000877;0.001917;0.000099;0.001921;-0.000881;87.981958;0.001923;
1071;1647;0.068900;85.979828;1.000000;0.000185;-0.001017;0.002363;-0.000266;0.002384;-0.001038;-85.532799;0.002391;
1166;1677;-0.033905;86.042294;1.000000;0.000152;-0.000984;0.002141;0.000101;0.002144;-0.000988;88.142482;0.002147;
1136;1707;-0.003047;86.103200;1.000000;0.000094;-0.000858;0.001864;0.000005;0.001864;-0.000858;89.899970;0.001865;
1151;1692;-0.017521;86.073346;1.000000;0.000103;-0.000929;0.001997;0.000047;0.001998;-0.000930;89.070335;0.001999;
1161;1667;-0.030532;86.019891;1.000000;0.000160;-0.001046;0.002264;0.000095;0.002267;-0.001049;88.361026;0.002269;
1096;1662;0.039753;86.009845;1.000000;0.000137;-0.001037;0.002284;-0.000141;0.002290;-0.001043;-87.572902;0.002293;
1251;1902;-0.005995;86.394388;0.999999;0.000321;-0.000069;0.001390;0.000225;0.001424;-0.000103;81.413214;0.001588;
1131;1692;0.001638;86.073469;1.000000;0.000117;-0.000940;0.002014;-0.000011;0.002014;-0.000940;-89.789036;0.002015;
1191;1222;-3.932568;69.230365;0.998939;0.009850;-0.068305;0.173853;0.008476;0.174149;-0.068601;87.997820;0.175451;
1156;1687;-0.022811;86.063011;1.000000;0.000124;-0.000951;0.002046;0.000064;0.002048;-0.000952;88.776379;0.002049;
1141;1692;-0.007942;86.073314;1.000000;0.000150;-0.000935;0.002008;0.000018;0.002008;-0.000935;89.653573;0.002010;
1141;1677;-0.008730;86.042161;1.000000;0.000134;-0.001016;0.002177;0.000020;0.002177;-0.001016;89.646824;0.002179;
1151;1697;-0.017074;86.083426;1.000000;0.000100;-0.000903;0.001945;0.000046;0.001945;-0.000904;89.077355;0.001947;
1156;1712;-0.019307;86.111003;1.000000;0.000077;-0.000822;0.001806;0.000053;0.001807;-0.000823;88.849966;0.001809;
1246;1802;-0.050956;86.247420;1.000000;0.000172;-0.000472;0.001534;0.000121;0.001541;-0.000479;86.556574;0.001577;
1161;1672;-0.029701;86.031848;1.000000;0.000172;-0.001020;0.002208;0.000089;0.002210;-0.001022;88.417425;0.002213;
1086;1642;0.054218;85.964479;1.000000;0.000134;-0.001100;0.002499;-0.000214;0.002512;-0.001113;-86.609525;0.002517;
1221;1637;-0.099881;85.961181;0.999999;0.000235;-0.000973;0.002454;0.000411;0.002503;-0.001022;83.264789;0.002517;
1161;1687;-0.027511;86.062953;1.000000;0.000135;-0.000944;0.002038;0.000079;0.002040;-0.000946;88.481319;0.002042;
1126;1227;0.408118;70.609903;0.998870;0.007894;-0.060747;0.153410;-0.000626;0.153412;-0.060749;-89.832484;0.154515;
1141;1697;-0.007939;86.083321;1.000000;0.000146;-0.000909;0.001953;0.000018;0.001953;-0.000909;89.648666;0.001954;
1161;1712;-0.023353;86.110793;1.000000;0.000083;-0.000816;0.001801;0.000064;0.001802;-0.000818;88.594342;0.001805;
1151;1702;-0.016400;86.092980;1.000000;0.000099;-0.000877;0.001899;0.000045;0.001900;-0.000878;89.081441;0.001902;
1041;1477;0.607289;84.825893;0.999976;0.001283;-0.006792;0.015570;-0.003337;0.016057;-0.007279;-81.691384;0.016081;
1136;1667;-0.003636;86.019639;1.000000;0.000157;-0.001070;0.002293;0.000006;0.002293;-0.001070;89.903480;0.002294;
1246;1807;-0.049195;86.255807;1.000000;0.000163;-0.000458;0.001527;0.000125;0.001535;-0.000465;86.414216;0.001574;
1141;1667;-0.009096;86.019964;1.000000;0.000116;-0.001068;0.002291;0.000023;0.002291;-0.001068;89.608064;0.002293;
951;1772;0.096124;86.188837;1.000000;0.000155;-0.000512;0.001312;-0.000063;0.001314;-0.000515;-88.037777;0.001324;
1086;1647;0.052909;85.977016;1.000000;0.000149;-0.001076;0.002430;-0.000204;0.002442;-0.001088;-86.677372;0.002447;
1166;1687;-0.032214;86.063168;1.000000;0.000122;-0.000935;0.002027;0.000094;0.002030;-0.000938;88.191727;0.002032;
1186;1207;-4.126320;66.846077;0.998577;0.009382;-0.076189;0.200560;0.008151;0.200799;-0.076429;88.314499;0.202698;
1166;1712;-0.027469;86.110702;1.000000;0.000136;-0.000810;0.001794;0.000075;0.001796;-0.000813;88.353884;0.001799;
1136;1672;-0.003823;86.031700;1.000000;0.000135;-0.001045;0.002234;0.000005;0.002234;-0.001045;89.918020;0.002235;
1116;1687;0.016038;86.063410;1.000000;0.000124;-0.000960;0.002063;-0.000052;0.002064;-0.000961;-89.014591;0.002066;
1176;1697;-0.039067;86.083149;1.000000;0.000122;-0.000866;0.001907;0.000111;0.001911;-0.000870;87.710626;0.001914;
1206;1497;-0.385659;85.089723;0.999986;0.001291;-0.005375;0.012836;0.002187;0.013095;-0.005634;83.248077;0.013137;
1141;1672;-0.008852;86.031396;1.000000;0.000109;-0.001042;0.002232;0.000021;0.002232;-0.001042;89.631155;0.002234;
1171;1627;-0.048152;85.920560;1.000000;0.000194;-0.001232;0.002822;0.000207;0.002833;-0.001243;87.080222;0.002840;
956;1772;0.093884;86.190932;1.000000;0.000189;-0.000506;0.001345;-0.000074;0.001348;-0.000509;-87.705705;0.001361;
1146;1662;-0.015027;86.007844;1.000000;0.000152;-0.001090;0.002350;0.000044;0.002350;-0.001091;89.268812;0.002352;
1186;1212;-3.924080;67.760420;0.999057;0.009876;-0.073361;0.190826;0.007959;0.191066;-0.073601;88.275914;0.192737;
1176;1712;-0.035734;86.110316;1.000000;0.000114;-0.000794;0.001778;0.000096;0.001781;-0.000797;87.865166;0.001785;
1051;1737;0.055194;86.149896;1.000000;0.000152;-0.000639;0.001630;-0.000108;0.001635;-0.000644;-87.270381;0.001647;
1136;1677;-0.003684;86.042447;1.000000;0.000148;-0.001019;0.002179;0.000004;0.002179;-0.001019;89.930384;0.002181;
1121;1637;0.014051;85.945894;1.000000;0.000136;-0.001216;0.002669;-0.000061;0.002670;-0.001217;-89.094567;0.002674;
1151;1712;-0.015236;86.111038;1.000000;0.000096;-0.000825;0.001810;0.000041;0.001810;-0.000826;89.104644;0.001813;
1166;1707;-0.028272;86.101534;1.000000;0.000125;-0.000836;0.001839;0.000079;0.001841;-0.000838;88.312172;0.001843;
961;1772;0.091630;86.192726;0.999999;0.000224;-0.000500;0.001375;-0.000084;0.001379;-0.000504;-87.449769;0.001395;
1151;1662;-0.020304;86.007949;1.000000;0.000152;-0.001087;0.002344;0.000063;0.002345;-0.001088;88.945014;0.002347;
1006;1782;0.066375;86.216062;1.000000;0.000212;-0.000510;0.001520;-0.000121;0.001528;-0.000518;-86.590913;0.001554;
1126;1617;0.008089;85.888619;1.000000;0.000119;-0.001331;0.003043;-0.000050;0.003044;-0.001331;-89.342970;0.003052;
1096;1667;0.038761;86.021237;1.000000;0.000132;-0.001015;0.002224;-0.000134;0.002229;-0.001020;-87.636125;0.002232;
1171;1657;-0.042952;85.997513;1.000000;0.000140;-0.001071;0.002361;0.000145;0.002367;-0.001077;87.581946;0.002370;
1186;1217;-3.760537;68.545791;0.998986;0.014112;-0.070508;0.181407;0.007762;0.181646;-0.070747;88.236885;0.183119;
1141;1637;-0.010627;85.944784;1.000000;0.000140;-0.001219;0.002683;0.000036;0.002683;-0.001219;89.472376;0.002687;
1171;1707;-0.032702;86.101409;1.000000;0.000146;-0.000828;0.001830;0.000090;0.001833;-0.000831;88.055695;0.001835;
1181;1712;-0.039944;86.110356;1.000000;0.000127;-0.000783;0.001768;0.000105;0.001772;-0.000787;87.646914;0.001776;
1071;1692;0.055927;86.074214;1.000000;0.000117;-0.000822;0.001881;-0.000161;0.001890;-0.000832;-86.597477;0.001895;
1166;1582;-0.057259;85.768287;0.999999;0.000203;-0.001773;0.004344;0.000355;0.004365;-0.001794;86.691816;0.004388;
946;1772;0.094016;86.184179;0.999979;0.001032;-0.000525;0.001278;-0.000044;0.001279;-0.000526;-88.595861;0.001285;
1156;1657;-0.026231;85.996208;1.000000;0.000151;-0.001104;0.002399;0.000086;0.002401;-0.001106;88.588209;0.002404;
1006;1787;0.064181;86.223042;1.000000;0.000195;-0.000500;0.001518;-0.000120;0.001526;-0.000507;-86.613511;0.001554;
1116;1637;0.019955;85.946127;1.000000;0.000118;-0.001207;0.002661;-0.000084;0.002663;-0.001209;-88.751769;0.002667;
1191;1207;-4.519614;66.768872;0.998777;0.009402;-0.076874;0.202061;0.008896;0.202345;-0.077157;88.175142;0.204236;
1121;1617;0.014589;85.889400;1.000000;0.000151;-0.001327;0.003035;-0.000079;0.003036;-0.001329;-88.963574;0.003044;
1141;1657;-0.009296;85.995916;1.000000;0.000165;-0.001119;0.002416;0.000026;0.002416;-0.001119;89.582157;0.002419;
1126;1722;0.005308;86.129114;1.000000;0.000075;-0.000774;0.001732;-0.000016;0.001732;-0.000774;-89.639661;0.001735;
1166;1587;-0.054565;85.787322;0.999999;0.000194;-0.001681;0.004096;0.000330;0.004114;-0.001700;86.745791;0.004135;
1176;1707;-0.036809;86.101226;1.000000;0.000103;-0.000818;0.001820;0.000101;0.001824;-0.000822;87.801435;0.001827;
1126;1712;0.005251;86.111975;1.000000;0.000071;-0.000827;0.001816;-0.000017;0.001816;-0.000827;-89.622512;0.001819;
1206;1687;-0.067554;86.064331;1.000000;0.000125;-0.000811;0.001892;0.000187;0.001905;-0.000824;86.052075;0.001911;
1206;1502;-0.360741;85.154944;0.999982;0.001205;-0.005070;0.012151;0.002092;0.012401;-0.005321;83.171510;0.012443;
1226;1637;-0.104853;85.962598;0.999999;0.000230;-0.000950;0.002432;0.000434;0.002487;-0.001005;82.808655;0.002502;
1156;1662;-0.025835;86.008124;1.000000;0.000139;-0.001080;0.002335;0.000083;0.002337;-0.001082;88.616414;0.002339;
1081;1647;0.058259;85.978004;1.000000;0.000140;-0.001056;0.002411;-0.000226;0.002425;-0.001070;-86.291782;0.002431;
1006;1792;0.061811;86.231342;1.000000;0.000205;-0.000489;0.001515;-0.000119;0.001522;-0.000496;-86.599018;0.001553;
1146;1637;-0.016652;85.944868;1.000000;0.000146;-0.001216;0.002682;0.000061;0.002683;-0.001217;89.104280;0.002687;
1196;1207;-4.941143;66.639617;0.998784;0.010526;-0.077689;0.203552;0.009688;0.203886;-0.078022;88.029488;0.205748;
1131;1722;0.001382;86.128955;1.000000;0.000072;-0.000776;0.001733;-0.000006;0.001733;-0.000776;-89.867708;0.001736;
1111;1617;0.027498;85.891081;1.000000;0.000218;-0.001312;0.003021;-0.000137;0.003025;-0.001317;-88.188180;0.003034;
1121;1587;0.017492;85.788550;0.999999;0.000217;-0.001649;0.004045;-0.000142;0.004049;-0.001652;-88.567535;0.004071;
1206;1692;-0.065770;86.073371;1.000000;0.000129;-0.000792;0.001854;0.000177;0.001865;-0.000803;86.187774;0.001871;
1211;1902;-0.003856;86.393976;0.999999;0.000361;-0.000057;0.001367;0.000138;0.001380;-0.000070;84.517470;0.001555;
1196;1477;-0.422674;84.811509;0.999983;0.001296;-0.006704;0.015733;0.002204;0.015948;-0.006918;84.441723;0.015994;
1101;1662;0.034500;86.009485;1.000000;0.000141;-0.001052;0.002299;-0.000123;0.002304;-0.001056;-87.900982;0.002307;
1116;1727;0.012765;86.137873;1.000000;0.000052;-0.000744;0.001693;-0.000033;0.001694;-0.000745;-89.227984;0.001698;
1001;1787;0.066309;86.223239;1.000000;0.000173;-0.000495;0.001513;-0.000119;0.001520;-0.000502;-86.624953;0.001549;
1201;1207;-5.370603;66.539224;0.998913;0.010481;-0.078216;0.204657;0.010516;0.205048;-0.078607;87.873826;0.206899;
1156;1707;-0.020041;86.101879;1.000000;0.000071;-0.000848;0.001852;0.000056;0.001853;-0.000849;88.822375;0.001855;
1151;1637;-0.022397;85.945230;1.000000;0.000179;-0.001212;0.002678;0.000086;0.002680;-0.001214;88.727292;0.002684;
1136;1722;-0.002512;86.128954;1.000000;0.000082;-0.000777;0.001735;0.000004;0.001735;-0.000777;89.902137;0.001738;
1106;1727;0.019842;86.137455;1.000000;0.000073;-0.000740;0.001688;-0.000049;0.001689;-0.000741;-88.844805;0.001693;
1136;1592;-0.006219;85.804796;1.000000;0.000145;-0.001585;0.003832;0.000012;0.003832;-0.001585;89.871309;0.003851;
1206;1697;-0.063770;86.082284;1.000000;0.000127;-0.000774;0.001813;0.000168;0.001824;-0.000784;86.306671;0.001830;
1316;1792;-0.088478;86.214844;0.999999;0.000238;-0.000580;0.001435;0.000059;0.001437;-0.000582;88.310525;0.001445;
1181;1487;-0.285195;84.962920;0.999985;0.001098;-0.005946;0.014263;0.001547;0.014381;-0.006064;85.647351;0.014440;
1116;1742;0.011173;86.162423;1.000000;0.000083;-0.000672;0.001626;-0.000026;0.001626;-0.000672;-89.343089;0.001634;
1121;1727;0.009293;86.138071;1.000000;0.000063;-0.000745;0.001695;-0.000024;0.001696;-0.000745;-89.428941;0.001700;
1206;1207;-5.760679;66.455673;0.998722;0.009318;-0.078644;0.206090;0.011558;0.206558;-0.079112;87.679368;0.208435;
1001;1792;0.064192;86.230756;0.999999;0.000212;-0.000485;0.001510;-0.000118;0.001517;-0.000492;-86.640053;0.001548;
1141;1722;-0.006256;86.129051;1.000000;0.000106;-0.000777;0.001736;0.000015;0.001736;-0.000777;89.666734;0.001739;
1106;1747;0.017370;86.170167;1.000000;0.000062;-0.000647;0.001610;-0.000037;0.001610;-0.000648;-89.053108;0.001620;
1106;1732;0.019219;86.145636;1.000000;0.000077;-0.000715;0.001659;-0.000045;0.001660;-0.000716;-88.920952;0.001665;
1151;1747;-0.011747;86.170248;1.000000;0.000065;-0.000655;0.001617;0.000024;0.001617;-0.000655;89.392229;0.001627;
1141;1592;-0.013673;85.804442;1.000000;0.000149;-0.001584;0.003832;0.000061;0.003833;-0.001585;89.352642;0.003852;
1201;1682;-0.065189;86.054552;1.000000;0.000150;-0.000853;0.001959;0.000190;0.001972;-0.000866;86.154743;0.001976;
1156;1892;-0.001853;86.382072;0.999999;0.000205;-0.000087;0.001319;0.000044;0.001320;-0.000088;88.228056;0.001476;
1186;1487;-0.312560;84.962710;0.999986;0.001050;-0.005950;0.014263;0.001709;0.014407;-0.006093;85.201168;0.014464;
1121;1742;0.007732;86.162736;1.000000;0.000065;-0.000673;0.001628;-0.000019;0.001628;-0.000673;-89.520885;0.001636;
1146;1727;-0.009728;86.137682;1.000000;0.000099;-0.000751;0.001704;0.000023;0.001704;-0.000751;89.466773;0.001708;
971;1667;0.129269;86.043828;1.000000;0.000183;-0.000419;0.001525;-0.000415;0.001610;-0.000504;-78.431902;0.001647;
1116;1222;1.048612;69.894118;0.998897;0.008970;-0.063901;0.162394;-0.001811;0.162409;-0.063916;-89.541508;0.163631;
1146;1722;-0.010167;86.128905;1.000000;0.000087;-0.000776;0.001735;0.000025;0.001735;-0.000776;89.426845;0.001739;
1156;1747;-0.014957;86.170145;1.000000;0.000069;-0.000653;0.001616;0.000032;0.001617;-0.000653;89.198729;0.001627;
1111;1747;0.014127;86.170354;1.000000;0.000073;-0.000649;0.001610;-0.000031;0.001610;-0.000649;-89.220328;0.001620;
1111;1732;0.015703;86.145748;1.000000;0.000062;-0.000717;0.001662;-0.000037;0.001663;-0.000718;-89.100096;0.001668;
1146;1592;-0.021213;85.804428;1.000000;0.000181;-0.001585;0.003833;0.000112;0.003835;-0.001587;88.817448;0.003854;
1156;1897;-0.001439;86.387385;0.999999;0.000223;-0.000069;0.001309;0.000046;0.001311;-0.000070;88.096275;0.001475;
1206;1682;-0.069687;86.054692;1.000000;0.000136;-0.000832;0.001934;0.000200;0.001948;-0.000846;85.882382;0.001954;
1126;1742;0.004543;86.162747;1.000000;0.000053;-0.000675;0.001630;-0.000012;0.001630;-0.000675;-89.701610;0.001638;
1151;1727;-0.013469;86.137242;1.000000;0.000093;-0.000749;0.001703;0.000033;0.001703;-0.000750;89.235473;0.001707;
1221;1502;-0.433835;85.147827;0.999983;0.001216;-0.005141;0.012166;0.002538;0.012531;-0.005505;81.826145;0.012561;
1156;1902;-0.001254;86.394111;0.999999;0.000316;-0.000052;0.001312;0.000049;0.001313;-0.000053;87.951896;0.001487;
1151;1722;-0.014053;86.128628;1.000000;0.000082;-0.000774;0.001733;0.000036;0.001734;-0.000774;89.183345;0.001737;
1216;1657;-0.087651;86.004896;1.000000;0.000144;-0.000885;0.002142;0.000293;0.002170;-0.000913;84.527879;0.002179;
1101;1722;0.023987;86.129185;1.000000;0.000083;-0.000760;0.001716;-0.000062;0.001718;-0.000761;-88.557478;0.001722;
1101;1747;0.020635;86.169958;1.000000;0.000060;-0.000645;0.001609;-0.000044;0.001610;-0.000646;-88.877988;0.001620;
1151;1592;-0.029091;85.804814;1.000000;0.000179;-0.001588;0.003837;0.000160;0.003842;-0.001593;88.311014;0.003860;
1151;1732;-0.013241;86.146292;1.000000;0.000100;-0.000726;0.001677;0.000030;0.001678;-0.000726;89.280408;0.001683;
1211;1682;-0.074005;86.054625;1.000000;0.000109;-0.000809;0.001906;0.000209;0.001922;-0.000825;85.630370;0.001929;
1131;1742;0.001169;86.162742;1.000000;0.000063;-0.000677;0.001632;-0.000005;0.001632;-0.000677;-89.875437;0.001640;
1131;1222;0.096204;69.937954;0.998907;0.009969;-0.063593;0.161869;0.000006;0.161869;-0.063593;89.998522;0.163103;
1111;1717;0.017235;86.121028;1.000000;0.000077;-0.000794;0.001765;-0.000048;0.001766;-0.000795;-88.928699;0.001769;
1076;1492;0.310074;85.048222;0.999984;0.001609;-0.005644;0.013392;-0.001802;0.013561;-0.005813;-84.640386;0.013607;
1116;1712;0.013638;86.112459;1.000000;0.000067;-0.000823;0.001812;-0.000040;0.001813;-0.000824;-89.130782;0.001815;
1136;1752;-0.001729;86.178635;1.000000;0.000079;-0.000633;0.001600;0.000004;0.001600;-0.000633;89.898976;0.001612;
1066;1607;0.089124;85.873128;0.999999;0.000325;-0.001350;0.003325;-0.000520;0.003382;-0.001407;-83.726832;0.003398;
1211;1687;-0.071915;86.063641;1.000000;0.000130;-0.000790;0.001867;0.000195;0.001882;-0.000804;85.820739;0.001888;
1136;1737;-0.002312;86.154445;1.000000;0.000063;-0.000702;0.001652;0.000002;0.001652;-0.000702;89.939446;0.001658;
1136;1747;-0.001929;86.170558;1.000000;0.000071;-0.000656;0.001617;0.000003;0.001617;-0.000656;89.919863;0.001626;
1116;1762;0.009881;86.193947;1.000000;0.000051;-0.000590;0.001577;-0.000020;0.001578;-0.000590;-89.477649;0.001594;
986;1802;0.067247;86.242453;1.000000;0.000167;-0.000462;0.001489;-0.000103;0.001494;-0.000468;-86.978327;0.001528;
1136;1742;-0.002193;86.162432;1.000000;0.000065;-0.000679;0.001633;0.000003;0.001633;-0.000679;89.936687;0.001641;
1111;1722;0.016798;86.129329;1.000000;0.000081;-0.000768;0.001725;-0.000045;0.001726;-0.000769;-88.972997;0.001729;
1136;1222;-0.228309;69.918745;0.998965;0.010812;-0.063651;0.162144;0.000538;0.162146;-0.063652;89.863426;0.163389;
1116;1717;0.013363;86.121102;1.000000;0.000077;-0.000797;0.001768;-0.000038;0.001768;-0.000797;-89.161715;0.001771;
1051;1902;0.004461;86.394168;0.999999;0.000342;-0.000056;0.001327;-0.000151;0.001343;-0.000072;-83.833299;0.001511;
1206;1472;-0.511358;84.724448;0.999985;0.000940;-0.007134;0.016529;0.002672;0.016827;-0.007432;83.636371;0.016865;
1116;1757;0.010333;86.186394;1.000000;0.000050;-0.000609;0.001588;-0.000021;0.001588;-0.000610;-89.460998;0.001602;
1211;1692;-0.069419;86.073107;1.000000;0.000170;-0.000772;0.001830;0.000184;0.001843;-0.000785;85.971237;0.001850;
1121;1762;0.007077;86.194261;1.000000;0.000057;-0.000589;0.001577;-0.000014;0.001577;-0.000589;-89.627796;0.001594;
1141;1747;-0.005233;86.170518;1.000000;0.000086;-0.000657;0.001616;0.000010;0.001616;-0.000657;89.746815;0.001626;
1141;1737;-0.005760;86.154139;1.000000;0.000058;-0.000704;0.001654;0.000011;0.001654;-0.000704;89.740264;0.001660;
991;1802;0.065279;86.243158;1.000000;0.000186;-0.000468;0.001495;-0.000109;0.001501;-0.000474;-86.821642;0.001534;
1141;1742;-0.005610;86.162477;1.000000;0.000068;-0.000680;0.001634;0.000010;0.001634;-0.000681;89.749891;0.001641;
1111;1727;0.016285;86.137346;1.000000;0.000064;-0.000743;0.001691;-0.000041;0.001691;-0.000743;-89.032591;0.001696;
1141;1222;-0.542378;69.896437;0.999028;0.009502;-0.063834;0.162637;0.001102;0.162642;-0.063839;89.721335;0.163890;
1116;1722;0.013210;86.129414;1.000000;0.000065;-0.000771;0.001728;-0.000035;0.001728;-0.000771;-89.193531;0.001731;
1121;1757;0.007418;86.186665;1.000000;0.000054;-0.000609;0.001588;-0.000015;0.001588;-0.000610;-89.621316;0.001602;
1211;1472;-0.545858;84.721814;0.999986;0.001071;-0.007168;0.016535;0.002858;0.016875;-0.007508;83.220437;0.016909;
1176;1577;-0.079129;85.746277;0.999999;0.000282;-0.001895;0.004672;0.000503;0.004711;-0.001933;85.648456;0.004736;
1126;1762;0.004140;86.194687;1.000000;0.000059;-0.000590;0.001576;-0.000008;0.001576;-0.000590;-89.790597;0.001593;
1121;1677;0.011708;86.042592;1.000000;0.000156;-0.001016;0.002170;-0.000043;0.002171;-0.001016;-89.232101;0.002172;
1146;1737;-0.009223;86.154258;1.000000;0.000074;-0.000705;0.001654;0.000019;0.001655;-0.000705;89.536071;0.001661;
1146;1747;-0.008477;86.170413;1.000000;0.000067;-0.000657;0.001617;0.000017;0.001617;-0.000657;89.573796;0.001626;
996;1802;0.062965;86.244631;1.000000;0.000185;-0.000469;0.001502;-0.000114;0.001508;-0.000476;-86.714876;0.001542;
1111;1742;0.014527;86.162152;1.000000;0.000071;-0.000670;0.001623;-0.000033;0.001623;-0.000670;-89.164315;0.001632;
1171;1717;-0.030730;86.119521;1.000000;0.000101;-0.000779;0.001750;0.000080;0.001753;-0.000782;88.183283;0.001756;
1146;1222;-0.871882;69.851534;0.998883;0.008113;-0.064088;0.163239;0.001677;0.163251;-0.064101;89.577296;0.164500;
1121;1722;0.009438;86.129394;1.000000;0.000069;-0.000771;0.001730;-0.000026;0.001730;-0.000772;-89.415551;0.001734;
1126;1757;0.004435;86.186462;1.000000;0.000063;-0.000610;0.001587;-0.000008;0.001587;-0.000610;-89.794664;0.001601;
1216;1472;-0.586280;84.724157;0.999979;0.001115;-0.007196;0.016543;0.003041;0.016926;-0.007580;82.814693;0.016957;
1176;1582;-0.074731;85.767317;0.999999;0.000265;-0.001791;0.004385;0.000465;0.004420;-0.001826;85.715644;0.004442;
1106;1762;0.015824;86.193607;1.000000;0.000055;-0.000589;0.001578;-0.000032;0.001579;-0.000590;-89.143520;0.001595;
1131;1737;0.001302;86.154469;1.000000;0.000066;-0.000700;0.001650;-0.000006;0.001650;-0.000700;-89.862910;0.001656;
1156;1732;-0.017014;86.145892;1.000000;0.000100;-0.000724;0.001676;0.000039;0.001677;-0.000724;89.060475;0.001682;
1166;1817;-0.012391;86.277831;1.000000;0.000161;-0.000381;0.001476;0.000046;0.001477;-0.000382;88.595344;0.001534;
1101;1737;0.022176;86.153814;1.000000;0.000075;-0.000688;0.001634;-0.000049;0.001635;-0.000689;-88.789467;0.001642;
1131;1732;0.001317;86.146426;1.000000;0.000067;-0.000724;0.001673;-0.000006;0.001673;-0.000724;-89.857904;0.001678;
1221;1852;-0.022540;86.325156;1.000000;0.000254;-0.000274;0.001433;0.000146;0.001446;-0.000287;85.144976;0.001531;
1181;1207;-3.732792;66.925196;0.998222;0.011568;-0.075567;0.199136;0.007275;0.199329;-0.075760;88.484055;0.201231;
1116;1707;0.014120;86.102990;1.000000;0.000081;-0.000850;0.001856;-0.000043;0.001857;-0.000851;-89.096085;0.001859;
1106;1757;0.016429;86.186192;1.000000;0.000055;-0.000608;0.001589;-0.000034;0.001589;-0.000609;-89.114583;0.001604;
1111;1592;0.031346;85.809202;0.999999;0.000200;-0.001576;0.003846;-0.000227;0.003855;-0.001586;-87.608527;0.003875;
1111;1762;0.012812;86.193630;1.000000;0.000055;-0.000589;0.001577;-0.000026;0.001578;-0.000589;-89.309582;0.001594;
1156;1737;-0.016305;86.153791;1.000000;0.000101;-0.000701;0.001653;0.000037;0.001653;-0.000701;89.103992;0.001660;
1116;1737;0.011647;86.154249;1.000000;0.000064;-0.000694;0.001642;-0.000028;0.001642;-0.000694;-89.316372;0.001649;
1106;1467;0.188322;84.665751;0.999985;0.001020;-0.007438;0.017433;-0.001010;0.017474;-0.007479;-87.678113;0.017535;
1136;1732;-0.002487;86.146380;1.000000;0.000053;-0.000726;0.001675;0.000003;0.001675;-0.000726;89.930277;0.001680;
1101;1742;0.021261;86.161827;1.000000;0.000064;-0.000666;0.001620;-0.000047;0.001621;-0.000667;-88.828260;0.001629;
1236;1752;-0.063685;86.171163;1.000000;0.000159;-0.000596;0.001604;0.000122;0.001611;-0.000603;86.834275;0.001628;
1181;1212;-3.558850;67.828443;0.998506;0.012087;-0.072703;0.189341;0.007151;0.189536;-0.072898;88.438088;0.191212;
1011;1737;0.080580;86.146461;1.000000;0.000211;-0.000596;0.001582;-0.000160;0.001594;-0.000608;-85.813108;0.001609;
1141;1702;-0.007574;86.093288;1.000000;0.000112;-0.000883;0.001906;0.000017;0.001906;-0.000883;89.651859;0.001908;
1111;1757;0.013337;86.186223;1.000000;0.000051;-0.000609;0.001588;-0.000027;0.001588;-0.000609;-89.288538;0.001602;
1131;1762;0.001078;86.194612;1.000000;0.000066;-0.000589;0.001576;-0.000002;0.001576;-0.000589;-89.941681;0.001592;
1121;1737;0.008216;86.154477;1.000000;0.000054;-0.000695;0.001645;-0.000021;0.001645;-0.000695;-89.495948;0.001652;
1186;1482;-0.332475;84.890478;0.999981;0.001127;-0.006285;0.014978;0.001785;0.015126;-0.006434;85.235284;0.015183;
1251;1637;-0.126170;85.971353;0.999999;0.000176;-0.000822;0.002319;0.000553;0.002414;-0.000917;80.299588;0.002437;
1106;1752;0.016872;86.178337;1.000000;0.000058;-0.000628;0.001598;-0.000035;0.001599;-0.000628;-89.088691;0.001611;
1106;1742;0.017887;86.161936;1.000000;0.000055;-0.000668;0.001621;-0.000040;0.001622;-0.000669;-88.998999;0.001630;
1141;1662;-0.009381;86.007761;1.000000;0.000153;-0.001093;0.002354;0.000025;0.002354;-0.001093;89.590478;0.002356;
1181;1217;-3.386806;68.629943;0.998592;0.013839;-0.069844;0.179908;0.006954;0.180101;-0.070037;88.406331;0.181578;
1191;1792;-0.027682;86.238684;1.000000;0.000139;-0.000483;0.001534;0.000070;0.001537;-0.000485;88.012646;0.001571;
1141;1732;-0.006011;86.146569;1.000000;0.000058;-0.000727;0.001677;0.000012;0.001677;-0.000727;89.717236;0.001682;
1136;1692;-0.003282;86.073353;1.000000;0.000133;-0.000938;0.002012;0.000003;0.002012;-0.000938;89.942808;0.002014;
1126;1727;0.005423;86.137912;1.000000;0.000077;-0.000747;0.001698;-0.000015;0.001698;-0.000747;-89.637981;0.001702;
1241;1797;-0.050634;86.241256;1.000000;0.000184;-0.000485;0.001542;0.000116;0.001549;-0.000491;86.735970;0.001583;
1131;1757;0.001266;86.186691;1.000000;0.000066;-0.000611;0.001586;-0.000002;0.001586;-0.000611;-89.950734;0.001600;
1101;1762;0.018654;86.193372;1.000000;0.000072;-0.000588;0.001580;-0.000039;0.001580;-0.000589;-88.959215;0.001597;
1111;1752;0.013719;86.178404;1.000000;0.000055;-0.000628;0.001598;-0.000029;0.001598;-0.000629;-89.262151;0.001610;
1166;1872;-0.005420;86.355608;0.999999;0.000210;-0.000166;0.001348;0.000058;0.001350;-0.000168;87.792183;0.001472;
1146;1742;-0.008976;86.162304;1.000000;0.000065;-0.000681;0.001634;0.000018;0.001634;-0.000681;89.559241;0.001642;
1076;1657;0.060962;86.002099;1.000000;0.000158;-0.000991;0.002264;-0.000222;0.002279;-0.001006;-86.113686;0.002284;
1136;1217;-0.263835;69.153191;0.998937;0.010997;-0.066538;0.171580;0.000663;0.171582;-0.066540;89.840568;0.173016;
1156;1697;-0.021660;86.083390;1.000000;0.000093;-0.000899;0.001940;0.000060;0.001941;-0.000901;88.799229;0.001943;
1146;1732;-0.009327;86.146638;1.000000;0.000084;-0.000728;0.001678;0.000021;0.001678;-0.000728;89.502921;0.001683;
1156;1692;-0.022329;86.073425;1.000000;0.000111;-0.000925;0.001991;0.000062;0.001992;-0.000926;88.789305;0.001994;
1041;1762;0.053539;86.188864;1.000000;0.000137;-0.000576;0.001590;-0.000104;0.001595;-0.000581;-87.265769;0.001615;
1131;1727;0.001386;86.137819;1.000000;0.000076;-0.000749;0.001699;-0.000006;0.001699;-0.000749;-89.853490;0.001703;
1101;1757;0.019463;86.185645;1.000000;0.000063;-0.000607;0.001590;-0.000041;0.001591;-0.000608;-88.928671;0.001605;
1116;1752;0.010465;86.178398;1.000000;0.000054;-0.000630;0.001599;-0.000022;0.001599;-0.000630;-89.430650;0.001611;
1261;1722;-0.090795;86.120688;1.000000;0.000197;-0.000603;0.001594;0.000191;0.001611;-0.000619;85.079180;0.001625;
1151;1742;-0.012179;86.162164;1.000000;0.000072;-0.000679;0.001634;0.000026;0.001634;-0.000679;89.357741;0.001642;
1056;1617;0.095651;85.907987;0.999999;0.000277;-0.001191;0.002966;-0.000503;0.003026;-0.001250;-83.204269;0.003042;
1141;1217;-0.611171;69.126159;0.999026;0.009035;-0.066662;0.171943;0.001211;0.171950;-0.066668;89.709161;0.173389;
1076;1662;0.059747;86.012582;1.000000;0.000154;-0.000969;0.002200;-0.000210;0.002214;-0.000983;-86.217022;0.002219;
1121;1687;0.011197;86.063477;1.000000;0.000115;-0.000963;0.002068;-0.000039;0.002069;-0.000964;-89.267065;0.002070;
1131;1712;0.001225;86.111905;1.000000;0.000059;-0.000830;0.001817;-0.000006;0.001817;-0.000830;-89.868819;0.001819;
1161;1692;-0.026979;86.073248;1.000000;0.000108;-0.000919;0.001984;0.000076;0.001986;-0.000921;88.504680;0.001987;
1136;1727;-0.002467;86.137739;1.000000;0.000057;-0.000751;0.001701;0.000003;0.001701;-0.000751;89.926741;0.001705;
1096;1747;0.023657;86.169621;1.000000;0.000078;-0.000643;0.001609;-0.000051;0.001610;-0.000644;-88.714838;0.001621;
1121;1752;0.007653;86.178706;1.000000;0.000064;-0.000630;0.001599;-0.000016;0.001599;-0.000631;-89.598085;0.001611;
1166;1822;-0.011570;86.284762;1.000000;0.000154;-0.000362;0.001461;0.000047;0.001462;-0.000363;88.527330;0.001523;
1116;1747;0.010984;86.170573;1.000000;0.000074;-0.000650;0.001612;-0.000024;0.001612;-0.000651;-89.392266;0.001622;
1151;1892;-0.001528;86.381551;0.999999;0.000246;-0.000085;0.001314;0.000034;0.001314;-0.000086;88.603758;0.001471;
1146;1217;-0.950799;69.079660;0.998998;0.007643;-0.066872;0.172415;0.001776;0.172428;-0.066885;89.574839;0.173867;
1281;1682;-0.118565;86.058741;1.000000;0.000191;-0.000459;0.001572;0.000304;0.001617;-0.000503;81.674089;0.001655;
1076;1667;0.058302;86.022949;1.000000;0.000106;-0.000949;0.002141;-0.000198;0.002153;-0.000961;-86.340394;0.002158;
1121;1692;0.010697;86.073527;1.000000;0.000099;-0.000935;0.002011;-0.000037;0.002012;-0.000936;-89.281623;0.002014;
1126;1717;0.005344;86.120564;1.000000;0.000069;-0.000800;0.001772;-0.000016;0.001772;-0.000800;-89.633201;0.001775;
1141;1727;-0.006047;86.137689;1.000000;0.000077;-0.000751;0.001703;0.000013;0.001703;-0.000751;89.698917;0.001707;
1096;1752;0.022999;86.177878;1.000000;0.000072;-0.000624;0.001599;-0.000049;0.001601;-0.000625;-88.738102;0.001613;
1126;1752;0.004438;86.178832;1.000000;0.000073;-0.000632;0.001600;-0.000009;0.001600;-0.000632;-89.770319;0.001611;
1201;1677;-0.066773;86.044181;1.000000;0.000125;-0.000875;0.002008;0.000201;0.002022;-0.000889;86.032911;0.002027;
1151;1897;-0.001228;86.387291;0.999999;0.000217;-0.000065;0.001303;0.000036;0.001304;-0.000066;88.481821;0.001469;
1121;1747;0.007613;86.170612;1.000000;0.000068;-0.000652;0.001613;-0.000017;0.001613;-0.000652;-89.563776;0.001623;
1146;1227;-0.809525;70.568945;0.998866;0.007840;-0.061419;0.154888;0.001626;0.154900;-0.061431;89.569307;0.156001;
986;1807;0.064711;86.249739;1.000000;0.000168;-0.000457;0.001491;-0.000104;0.001497;-0.000462;-86.960808;0.001533;
1166;1652;-0.038231;85.984919;1.000000;0.000174;-0.001108;0.002441;0.000131;0.002446;-0.001113;87.895954;0.002449;
1106;1767;0.015313;86.201771;1.000000;0.000069;-0.000570;0.001569;-0.000031;0.001569;-0.000571;-89.164889;0.001588;
1131;1717;0.001389;86.120256;1.000000;0.000061;-0.000803;0.001772;-0.000006;0.001772;-0.000803;-89.871171;0.001775;
1126;1737;0.004830;86.154483;1.000000;0.000052;-0.000698;0.001648;-0.000013;0.001648;-0.000698;-89.679714;0.001654;
1151;1902;-0.000665;86.394794;0.999999;0.000329;-0.000046;0.001305;0.000039;0.001306;-0.000048;88.362918;0.001482;
1096;1757;0.022380;86.185498;1.000000;0.000086;-0.000605;0.001591;-0.000047;0.001592;-0.000606;-88.762148;0.001607;
1131;1752;0.001344;86.178696;1.000000;0.000068;-0.000633;0.001600;-0.000003;0.001600;-0.000633;-89.927582;0.001612;
1141;1822;-0.002851;86.285951;1.000000;0.000150;-0.000360;0.001458;0.000011;0.001458;-0.000360;89.657863;0.001519;
1206;1677;-0.071189;86.044461;1.000000;0.000153;-0.000852;0.001980;0.000212;0.001996;-0.000868;85.733588;0.002001;
1126;1747;0.004497;86.170746;1.000000;0.000068;-0.000654;0.001615;-0.000010;0.001615;-0.000654;-89.739071;0.001625;
1181;1222;-3.216816;69.407378;0.998474;0.013556;-0.067008;0.170823;0.006814;0.171018;-0.067203;88.360336;0.172319;
991;1807;0.062559;86.250649;1.000000;0.000141;-0.000461;0.001496;-0.000110;0.001502;-0.000467;-86.782279;0.001537;
1146;1827;-0.004296;86.293019;1.000000;0.000152;-0.000342;0.001449;0.000018;0.001449;-0.000343;89.414255;0.001515;
1131;1767;0.000960;86.202513;1.000000;0.000072;-0.000569;0.001565;-0.000002;0.001565;-0.000569;-89.936758;0.001584;
1151;1737;-0.012729;86.154286;1.000000;0.000086;-0.000703;0.001654;0.000028;0.001654;-0.000703;89.320695;0.001661;
1151;1647;-0.021649;85.971937;1.000000;0.000133;-0.001161;0.002536;0.000076;0.002538;-0.001162;88.820544;0.002541;
1136;1757;-0.001780;86.186671;1.000000;0.000079;-0.000611;0.001586;0.000005;0.001586;-0.000611;89.879176;0.001600;
1101;1752;0.019871;86.178146;1.000000;0.000057;-0.000626;0.001599;-0.000043;0.001600;-0.000626;-88.904215;0.001612;
1181;1597;-0.072882;85.829294;0.999999;0.000210;-0.001524;0.003708;0.000411;0.003740;-0.001556;85.540423;0.003757;
1086;1672;0.047342;86.032781;1.000000;0.000176;-0.000964;0.002131;-0.000158;0.002139;-0.000972;-87.091539;0.002142;
1211;1677;-0.075840;86.044711;1.000000;0.000157;-0.000828;0.001951;0.000223;0.001969;-0.000846;85.446891;0.001975;
1131;1747;0.001332;86.170836;1.000000;0.000060;-0.000655;0.001616;-0.000004;0.001616;-0.000655;-89.901764;0.001626;
1186;1222;-3.571682;69.319214;0.998958;0.012970;-0.067673;0.172317;0.007653;0.172561;-0.067917;88.175466;0.173858;
996;1807;0.060250;86.251975;1.000000;0.000147;-0.000461;0.001501;-0.000115;0.001508;-0.000468;-86.659783;0.001544;
1101;1767;0.018109;86.201448;1.000000;0.000078;-0.000570;0.001571;-0.000039;0.001571;-0.000570;-88.969716;0.001591;
1126;1822;0.002536;86.285699;1.000000;0.000119;-0.000360;0.001459;-0.000009;0.001459;-0.000360;-89.709036;0.001520;
1106;1737;0.018639;86.153909;1.000000;0.000062;-0.000691;0.001636;-0.000042;0.001637;-0.000692;-88.965774;0.001644;
1151;1652;-0.021107;85.984315;1.000000;0.000123;-0.001135;0.002472;0.000070;0.002473;-0.001137;88.882486;0.002476;
1141;1752;-0.005169;86.178667;1.000000;0.000086;-0.000634;0.001600;0.000010;0.001600;-0.000634;89.739467;0.001612;
1156;1742;-0.015594;86.161859;1.000000;0.000082;-0.000677;0.001633;0.000034;0.001633;-0.000677;89.148467;0.001641;
1131;1822;0.000806;86.286118;1.000000;0.000106;-0.000361;0.001459;-0.000003;0.001459;-0.000361;-89.919020;0.001519;
1221;1632;-0.102819;85.949467;0.999999;0.000211;-0.001017;0.002570;0.000445;0.002624;-0.001071;83.036577;0.002639;
1201;1662;-0.071949;86.013457;1.000000;0.000132;-0.000937;0.002171;0.000234;0.002188;-0.000955;85.723169;0.002194;
1051;1812;0.033248;86.267691;1.000000;0.000147;-0.000426;0.001505;-0.000108;0.001511;-0.000432;-86.798736;0.001557;
1131;1217;0.085504;69.170085;0.998813;0.009213;-0.066548;0.171427;0.000154;0.171427;-0.066548;89.962807;0.172850;
1286;1682;-0.121036;86.059869;1.000000;0.000201;-0.000423;0.001558;0.000302;0.001603;-0.000468;81.525072;0.001649;
1126;1827;0.002384;86.292558;1.000000;0.000109;-0.000341;0.001448;-0.000010;0.001448;-0.000341;-89.685846;0.001515;
1161;1742;-0.018964;86.161697;1.000000;0.000092;-0.000673;0.001632;0.000042;0.001632;-0.000674;88.946957;0.001641;
1111;1737;0.015074;86.154147;1.000000;0.000064;-0.000692;0.001639;-0.000035;0.001640;-0.000693;-89.136261;0.001646;
1091;1642;0.048475;85.962709;1.000000;0.000126;-0.001118;0.002517;-0.000192;0.002527;-0.001128;-86.983720;0.002532;
1046;1812;0.035435;86.267262;1.000000;0.000191;-0.000428;0.001508;-0.000114;0.001515;-0.000435;-86.633122;0.001560;
1136;1822;-0.000938;86.286220;1.000000;0.000111;-0.000361;0.001458;0.000004;0.001458;-0.000361;89.876287;0.001519;
1226;1632;-0.107489;85.951094;0.999999;0.000229;-0.000996;0.002554;0.000470;0.002615;-0.001058;82.580239;0.002631;
1046;1717;0.065062;86.116237;1.000000;0.000127;-0.000671;0.001666;-0.000145;0.001675;-0.000680;-86.460989;0.001685;
1206;1662;-0.076685;86.013620;1.000000;0.000134;-0.000914;0.002143;0.000248;0.002163;-0.000934;85.386975;0.002169;
1146;1232;-0.760797;71.235132;0.998587;0.008356;-0.058823;0.146916;0.001514;0.146927;-0.058834;89.578473;0.147895;
1056;1812;0.031343;86.268364;1.000000;0.000125;-0.000423;0.001504;-0.000103;0.001509;-0.000428;-86.942727;0.001555;
1131;1832;0.000675;86.299428;1.000000;0.000122;-0.000322;0.001436;-0.000004;0.001436;-0.000322;-89.854206;0.001507;
1161;1747;-0.018215;86.169910;1.000000;0.000075;-0.000650;0.001616;0.000039;0.001617;-0.000650;89.006796;0.001627;
1121;1852;0.002945;86.328620;1.000000;0.000159;-0.000242;0.001393;-0.000021;0.001393;-0.000242;-89.267544;0.001489;
1126;1732;0.005227;86.146303;1.000000;0.000064;-0.000722;0.001670;-0.000014;0.001670;-0.000722;-89.660571;0.001675;
1091;1647;0.047368;85.975647;1.000000;0.000157;-0.001093;0.002448;-0.000184;0.002458;-0.001102;-87.039133;0.002462;
1216;1627;-0.099529;85.933777;0.999999;0.000261;-0.001084;0.002712;0.000459;0.002767;-0.001138;83.208271;0.002782;
1181;1647;-0.055635;85.974643;1.000000;0.000200;-0.001089;0.002463;0.000201;0.002475;-0.001101;86.767246;0.002480;
1211;1787;-0.038626;86.228982;1.000000;0.000125;-0.000507;0.001551;0.000091;0.001555;-0.000511;87.479873;0.001586;
1046;1722;0.063205;86.124462;1.000000;0.000117;-0.000661;0.001653;-0.000136;0.001661;-0.000669;-86.659290;0.001672;
1106;1667;0.028522;86.020259;1.000000;0.000169;-0.001041;0.002253;-0.000099;0.002256;-0.001044;-88.273671;0.002259;
1186;1227;-3.372165;70.132394;0.998883;0.010789;-0.064964;0.163659;0.007549;0.163908;-0.065213;88.110922;0.165044;
1061;1812;0.029157;86.268698;1.000000;0.000127;-0.000417;0.001502;-0.000098;0.001507;-0.000422;-87.094543;0.001555;
1136;1832;-0.001014;86.299887;1.000000;0.000130;-0.000323;0.001436;0.000003;0.001436;-0.000323;89.917985;0.001506;
1146;1752;-0.008306;86.178518;1.000000;0.000074;-0.000634;0.001601;0.000016;0.001601;-0.000634;89.587234;0.001612;
1121;1857;0.002649;86.334474;1.000000;0.000173;-0.000223;0.001377;-0.000023;0.001377;-0.000223;-89.185792;0.001478;
1116;1732;0.012173;86.146175;1.000000;0.000054;-0.000719;0.001665;-0.000030;0.001665;-0.000719;-89.282890;0.001670;
1091;1652;0.046870;85.987972;1.000000;0.000148;-0.001069;0.002388;-0.000175;0.002397;-0.001078;-87.113769;0.002401;
1216;1632;-0.097392;85.947346;1.000000;0.000193;-0.001039;0.002586;0.000420;0.002634;-0.001087;83.473801;0.002647;
1186;1647;-0.061109;85.975571;1.000000;0.000150;-0.001070;0.002443;0.000220;0.002457;-0.001084;86.423102;0.002463;
1046;1727;0.061960;86.132943;1.000000;0.000143;-0.000653;0.001645;-0.000127;0.001652;-0.000660;-86.852752;0.001663;
1216;1687;-0.075674;86.063966;1.000000;0.000151;-0.000768;0.001843;0.000202;0.001859;-0.000783;85.605866;0.001866;
1136;1212;-0.294323;68.301176;0.998740;0.010263;-0.069727;0.182027;0.000874;0.182030;-0.069730;89.801161;0.183681;
1051;1717;0.061734;86.117341;1.000000;0.000105;-0.000681;0.001673;-0.000139;0.001681;-0.000689;-86.640547;0.001690;
1211;1697;-0.067537;86.082076;1.000000;0.000159;-0.000756;0.001792;0.000174;0.001804;-0.000768;86.108418;0.001810;
1141;1832;-0.002465;86.300295;1.000000;0.000160;-0.000322;0.001436;0.000011;0.001436;-0.000322;89.654718;0.001508;
1146;1757;-0.008273;86.186720;1.000000;0.000078;-0.000611;0.001587;0.000016;0.001587;-0.000611;89.575316;0.001601;
1236;1842;-0.030272;86.310069;1.000000;0.000237;-0.000330;0.001472;0.000152;0.001485;-0.000343;85.203543;0.001555;
1121;1732;0.008853;86.146243;1.000000;0.000054;-0.000720;0.001667;-0.000022;0.001668;-0.000720;-89.467994;0.001673;
1091;1637;0.049581;85.949804;1.000000;0.000112;-0.001143;0.002600;-0.000202;0.002611;-0.001154;-86.913577;0.002616;
1216;1637;-0.094884;85.959646;0.999999;0.000172;-0.001000;0.002476;0.000388;0.002518;-0.001042;83.699309;0.002531;
1186;1652;-0.059880;85.987290;1.000000;0.000140;-0.001046;0.002373;0.000209;0.002386;-0.001059;86.517956;0.002391;
1176;1652;-0.049203;85.986101;1.000000;0.000123;-0.001082;0.002412;0.000172;0.002420;-0.001090;87.184911;0.002424;
1141;1212;-0.666154;68.282691;0.998809;0.009276;-0.069777;0.182174;0.001393;0.182182;-0.069785;89.683317;0.183836;
1236;1762;-0.060266;86.187129;1.000000;0.000153;-0.000574;0.001585;0.000115;0.001592;-0.000580;86.972048;0.001611;
1051;1722;0.059721;86.124998;1.000000;0.000103;-0.000670;0.001659;-0.000129;0.001666;-0.000677;-86.846516;0.001676;
1236;1757;-0.061856;86.178968;1.000000;0.000181;-0.000585;0.001594;0.000118;0.001600;-0.000591;86.910439;0.001618;
1196;1667;-0.065911;86.023252;1.000000;0.000140;-0.000939;0.002144;0.000207;0.002157;-0.000953;86.175059;0.002162;
1156;1727;-0.017340;86.137161;1.000000;0.000103;-0.000747;0.001701;0.000043;0.001702;-0.000747;89.003194;0.001706;
1181;1892;-0.004135;86.381060;1.000000;0.000194;-0.000086;0.001344;0.000091;0.001349;-0.000092;86.374598;0.001508;
1106;1722;0.020250;86.129083;1.000000;0.000079;-0.000765;0.001721;-0.000053;0.001722;-0.000766;-88.771234;0.001726;
1091;1632;0.050320;85.936536;1.000000;0.000135;-0.001171;0.002688;-0.000215;0.002700;-0.001183;-86.824852;0.002707;
1221;1627;-0.105295;85.936308;0.999999;0.000258;-0.001064;0.002702;0.000486;0.002763;-0.001126;82.769761;0.002779;
1186;1657;-0.058739;85.999134;1.000000;0.000158;-0.001023;0.002305;0.000199;0.002317;-0.001035;86.582299;0.002322;
1046;1732;0.060089;86.141177;1.000000;0.000151;-0.000644;0.001636;-0.000120;0.001642;-0.000650;-86.995662;0.001654;
1181;1652;-0.054375;85.986739;1.000000;0.000157;-0.001064;0.002394;0.000191;0.002405;-0.001075;86.854821;0.002409;
1146;1212;-1.028590;68.249791;0.998845;0.009317;-0.069930;0.182466;0.001919;0.182481;-0.069945;89.564504;0.184130;
1051;1727;0.058439;86.133389;1.000000;0.000134;-0.000660;0.001649;-0.000120;0.001656;-0.000666;-87.032350;0.001666;
1131;1827;0.000605;86.292786;1.000000;0.000103;-0.000342;0.001449;-0.000004;0.001449;-0.000342;-89.883964;0.001515;
1196;1672;-0.064131;86.033412;1.000000;0.000114;-0.000918;0.002089;0.000197;0.002102;-0.000930;86.261556;0.002107;
1116;1772;0.009390;86.210063;1.000000;0.000074;-0.000550;0.001557;-0.000019;0.001557;-0.000550;-89.486888;0.001579;
1186;1892;-0.004446;86.381384;1.000000;0.000153;-0.000088;0.001348;0.000098;0.001355;-0.000095;86.109458;0.001513;
1186;1642;-0.062719;85.963695;1.000000;0.000163;-0.001096;0.002516;0.000236;0.002532;-0.001111;86.280918;0.002538;
1091;1657;0.045827;85.999289;1.000000;0.000129;-0.001046;0.002328;-0.000167;0.002337;-0.001054;-87.174736;0.002340;
1186;1662;-0.057267;86.010707;1.000000;0.000152;-0.001000;0.002244;0.000188;0.002255;-0.001011;86.686508;0.002259;
1226;1627;-0.109663;85.938501;0.999999;0.000231;-0.001047;0.002691;0.000514;0.002761;-0.001116;82.312420;0.002778;
1181;1657;-0.053309;85.998774;1.000000;0.000126;-0.001041;0.002327;0.000183;0.002337;-0.001050;86.905441;0.002341;
1151;1212;-1.384613;68.192689;0.998559;0.011429;-0.070151;0.182971;0.002515;0.182996;-0.070176;89.430775;0.184645;
1031;1787;0.051391;86.227620;1.000000;0.000174;-0.000512;0.001545;-0.000113;0.001551;-0.000518;-86.873962;0.001579;
1046;1737;0.058645;86.149089;1.000000;0.000152;-0.000634;0.001626;-0.000115;0.001632;-0.000640;-87.097173;0.001645;
1191;1892;-0.004989;86.381376;1.000000;0.000155;-0.000091;0.001351;0.000105;0.001359;-0.000099;85.843882;0.001515;
1166;1692;-0.031402;86.073425;1.000000;0.000090;-0.000911;0.001975;0.000089;0.001978;-0.000914;88.229166;0.001980;
1136;1827;-0.001015;86.293352;1.000000;0.000117;-0.000342;0.001448;0.000003;0.001448;-0.000342;89.909722;0.001514;
1121;1772;0.006647;86.210098;1.000000;0.000086;-0.000550;0.001556;-0.000013;0.001556;-0.000550;-89.648096;0.001578;
1141;1757;-0.005149;86.186710;1.000000;0.000093;-0.000611;0.001586;0.000011;0.001586;-0.000611;89.721917;0.001600;
1011;1502;0.600645;85.154117;0.999980;0.001322;-0.005024;0.011792;-0.003391;0.012450;-0.005682;-79.017209;0.012466;
1136;1712;-0.002670;86.111627;1.000000;0.000070;-0.000831;0.001817;0.000005;0.001817;-0.000831;89.885048;0.001820;
1181;1662;-0.052054;86.010481;1.000000;0.000148;-0.001017;0.002265;0.000173;0.002274;-0.001026;86.991882;0.002277;
1151;1217;-1.299783;69.014420;0.998857;0.009629;-0.067141;0.173085;0.002399;0.173109;-0.067165;89.427882;0.174550;
1271;1647;-0.131450;85.999730;0.999999;0.000170;-0.000656;0.001957;0.000546;0.002067;-0.000766;78.662740;0.002090;
1031;1792;0.049794;86.234763;1.000000;0.000173;-0.000498;0.001536;-0.000114;0.001543;-0.000505;-86.801643;0.001573;
1046;1742;0.056919;86.157299;1.000000;0.000148;-0.000624;0.001619;-0.000110;0.001625;-0.000630;-87.197107;0.001638;
1141;1827;-0.002600;86.293300;1.000000;0.000149;-0.000341;0.001448;0.000010;0.001448;-0.000341;89.676466;0.001514;
1066;1662;0.069443;86.014433;1.000000;0.000133;-0.000929;0.002145;-0.000239;0.002164;-0.000947;-85.589138;0.002169;
1056;1672;0.074954;86.036576;1.000000;0.000104;-0.000839;0.001978;-0.000234;0.001997;-0.000858;-85.280648;0.002004;
1106;1622;0.033763;85.906875;1.000000;0.000171;-0.001269;0.002910;-0.000158;0.002916;-0.001275;-87.840727;0.002923;
1016;1502;0.573632;85.157629;0.999984;0.001449;-0.005030;0.011865;-0.003266;0.012474;-0.005639;-79.431093;0.012493;
1096;1737;0.025622;86.153767;1.000000;0.000078;-0.000685;0.001633;-0.000056;0.001634;-0.000686;-88.615943;0.001641;
1136;1717;-0.002397;86.120107;1.000000;0.000084;-0.000804;0.001773;0.000005;0.001773;-0.000804;89.890676;0.001776;
1151;1222;-1.193123;69.786014;0.998844;0.007871;-0.064371;0.163985;0.002306;0.164009;-0.064394;89.421592;0.165264;
1031;1797;0.047845;86.242171;1.000000;0.000165;-0.000484;0.001527;-0.000116;0.001534;-0.000491;-86.713715;0.001567;
1031;1752;0.062530;86.172171;1.000000;0.000122;-0.000595;0.001596;-0.000120;0.001602;-0.000601;-86.872450;0.001619;
986;1637;0.140984;85.987955;0.999999;0.000177;-0.000668;0.002058;-0.000687;0.002222;-0.000831;-76.618864;0.002245;
1041;1717;0.068533;86.116064;1.000000;0.000123;-0.000661;0.001658;-0.000151;0.001668;-0.000671;-86.283940;0.001679;
1206;1672;-0.072966;86.034052;1.000000;0.000165;-0.000872;0.002033;0.000223;0.002050;-0.000889;85.627688;0.002056;
1081;1672;0.052388;86.033324;1.000000;0.000133;-0.000946;0.002110;-0.000172;0.002120;-0.000956;-86.789416;0.002123;
1056;1677;0.073218;86.046833;1.000000;0.000122;-0.000819;0.001931;-0.000221;0.001948;-0.000837;-85.428993;0.001955;
1216;1652;-0.089265;85.993729;1.000000;0.000150;-0.000908;0.002210;0.000314;0.002241;-0.000939;84.303874;0.002251;
1021;1502;0.550017;85.159694;0.999985;0.001196;-0.005055;0.011898;-0.003150;0.012465;-0.005621;-79.808045;0.012485;
1141;1707;-0.007278;86.102553;1.000000;0.000099;-0.000857;0.001863;0.000017;0.001863;-0.000857;89.637065;0.001865;
1096;1742;0.024525;86.161651;1.000000;0.000087;-0.000664;0.001619;-0.000053;0.001620;-0.000665;-88.664215;0.001629;
1181;1227;-3.038381;70.192584;0.998521;0.012419;-0.064292;0.162219;0.006703;0.162418;-0.064490;88.306512;0.163561;
1161;1887;-0.002934;86.375064;0.999999;0.000205;-0.000107;0.001332;0.000051;0.001334;-0.000109;87.964179;0.001481;
1031;1757;0.061110;86.180038;1.000000;0.000165;-0.000585;0.001589;-0.000117;0.001595;-0.000591;-86.919042;0.001613;
1036;1762;0.056452;86.188560;1.000000;0.000162;-0.000576;0.001588;-0.000109;0.001593;-0.000581;-87.122401;0.001612;
1041;1722;0.066536;86.124346;1.000000;0.000128;-0.000653;0.001647;-0.000142;0.001656;-0.000662;-86.482136;0.001667;
1211;1672;-0.077442;86.034515;1.000000;0.000200;-0.000848;0.002003;0.000235;0.002022;-0.000867;85.314304;0.002029;
1056;1662;0.078310;86.016672;1.000000;0.000134;-0.000879;0.002084;-0.000264;0.002107;-0.000903;-84.947669;0.002114;
1081;1677;0.051448;86.044401;1.000000;0.000140;-0.000924;0.002060;-0.000163;0.002069;-0.000933;-86.878364;0.002072;
986;1812;0.062246;86.257124;1.000000;0.000181;-0.000451;0.001496;-0.000106;0.001502;-0.000457;-86.887469;0.001540;
1141;1712;-0.006723;86.111435;1.000000;0.000095;-0.000830;0.001817;0.000017;0.001817;-0.000830;89.630562;0.001819;
1096;1732;0.026245;86.145532;1.000000;0.000075;-0.000707;0.001655;-0.000060;0.001657;-0.000709;-88.549983;0.001662;
1216;1502;-0.412048;85.150600;0.999978;0.001347;-0.005122;0.012155;0.002388;0.012479;-0.005446;82.272670;0.012513;
1166;1887;-0.003257;86.374983;0.999999;0.000217;-0.000108;0.001335;0.000061;0.001338;-0.000111;87.585064;0.001485;
1131;1212;0.074619;68.340032;0.998775;0.008518;-0.069765;0.182082;0.000359;0.182082;-0.069765;89.918225;0.183732;
1031;1762;0.059207;86.188154;1.000000;0.000152;-0.000575;0.001583;-0.000114;0.001589;-0.000581;-86.982718;0.001609;
1066;1707;0.055046;86.101033;1.000000;0.000123;-0.000748;0.001751;-0.000142;0.001759;-0.000756;-86.756383;0.001765;
1041;1727;0.065108;86.132557;1.000000;0.000146;-0.000646;0.001640;-0.000133;0.001648;-0.000654;-86.679409;0.001659;
1216;1672;-0.081416;86.035352;1.000000;0.000193;-0.000822;0.001971;0.000244;0.001992;-0.000843;85.035442;0.002000;
1056;1682;0.071294;86.056260;1.000000;0.000136;-0.000800;0.001888;-0.000208;0.001904;-0.000816;-85.590356;0.001910;
1061;1667;0.072440;86.025508;1.000000;0.000118;-0.000885;0.002058;-0.000237;0.002077;-0.000904;-85.428076;0.002083;
991;1812;0.060049;86.258205;1.000000;0.000130;-0.000454;0.001500;-0.000113;0.001507;-0.000461;-86.699890;0.001544;
1141;1717;-0.006340;86.120242;1.000000;0.000114;-0.000803;0.001773;0.000016;0.001774;-0.000803;89.646010;0.001776;
1161;1737;-0.019768;86.153572;1.000000;0.000089;-0.000697;0.001651;0.000046;0.001652;-0.000698;88.889588;0.001659;
1031;1502;0.496928;85.160908;0.999987;0.001016;-0.005069;0.011953;-0.002913;0.012437;-0.005553;-80.553777;0.012461;
1151;1232;-1.057158;71.211357;0.998735;0.008507;-0.059090;0.147706;0.002080;0.147727;-0.059111;89.423853;0.148706;
1266;1647;-0.129066;85.998192;0.999999;0.000221;-0.000676;0.001985;0.000520;0.002083;-0.000774;79.328184;0.002105;
1026;1787;0.054373;86.226658;1.000000;0.000189;-0.000514;0.001540;-0.000117;0.001547;-0.000520;-86.744767;0.001574;
1166;1797;-0.015229;86.247645;1.000000;0.000181;-0.000457;0.001514;0.000042;0.001515;-0.000458;88.769009;0.001554;
1216;1677;-0.079862;86.045299;1.000000;0.000164;-0.000803;0.001921;0.000230;0.001940;-0.000823;85.201420;0.001948;
1056;1687;0.069463;86.065281;1.000000;0.000129;-0.000781;0.001848;-0.000196;0.001862;-0.000796;-85.769643;0.001869;
1171;1812;-0.015230;86.270011;0.999999;0.000194;-0.000400;0.001490;0.000050;0.001491;-0.000402;88.474874;0.001543;
1061;1672;0.070847;86.036330;1.000000;0.000119;-0.000865;0.002008;-0.000223;0.002025;-0.000882;-85.579958;0.002030;
996;1812;0.057887;86.259690;1.000000;0.000151;-0.000454;0.001505;-0.000118;0.001512;-0.000461;-86.559615;0.001550;
1026;1497;0.555842;85.096481;0.999982;0.001472;-0.005362;0.012578;-0.003187;0.013127;-0.005911;-80.220191;0.013149;
1146;1717;-0.010561;86.120054;1.000000;0.000089;-0.000802;0.001772;0.000027;0.001772;-0.000802;89.398481;0.001775;
1116;1767;0.009584;86.202059;1.000000;0.000056;-0.000570;0.001567;-0.000018;0.001567;-0.000570;-89.512349;0.001587;
1156;1232;-1.361348;71.178261;0.998837;0.008299;-0.059337;0.148618;0.002735;0.148654;-0.059372;89.246705;0.149653;
1026;1792;0.051937;86.234336;1.000000;0.000166;-0.000500;0.001533;-0.000118;0.001539;-0.000507;-86.686766;0.001569;
1171;1797;-0.017390;86.247644;1.000000;0.000162;-0.000458;0.001516;0.000048;0.001517;-0.000459;88.601792;0.001556;
1216;1682;-0.077672;86.054961;1.000000;0.000150;-0.000785;0.001880;0.000215;0.001897;-0.000802;85.408103;0.001904;
1006;1627;0.137899;85.956467;0.999999;0.000231;-0.000858;0.002548;-0.000719;0.002693;-0.001003;-78.560365;0.002722;
1061;1687;0.065574;86.065214;1.000000;0.000129;-0.000804;0.001874;-0.000189;0.001887;-0.000817;-85.993202;0.001893;
1171;1817;-0.014511;86.277508;0.999999;0.000239;-0.000381;0.001478;0.000051;0.001479;-0.000382;88.424349;0.001536;
1061;1677;0.069354;86.046419;1.000000;0.000114;-0.000844;0.001959;-0.000212;0.001975;-0.000860;-85.700653;0.001981;
1001;1802;0.060487;86.245821;1.000000;0.000191;-0.000469;0.001508;-0.000118;0.001515;-0.000476;-86.596074;0.001550;
1026;1502;0.518698;85.160213;0.999986;0.001467;-0.005059;0.011917;-0.003027;0.012440;-0.005583;-80.186806;0.012462;
1151;1717;-0.014642;86.119902;1.000000;0.000098;-0.000799;0.001768;0.000038;0.001769;-0.000800;89.144134;0.001772;
1121;1767;0.006745;86.202117;1.000000;0.000068;-0.000569;0.001566;-0.000013;0.001566;-0.000569;-89.655616;0.001586;
1121;1222;0.720141;69.914499;0.998785;0.010012;-0.063640;0.162085;-0.001210;0.162092;-0.063647;-89.692874;0.163332;
1026;1797;0.049942;86.241986;1.000000;0.000159;-0.000487;0.001526;-0.000120;0.001533;-0.000494;-86.603886;0.001565;
1176;1797;-0.019464;86.247332;1.000000;0.000124;-0.000458;0.001518;0.000054;0.001520;-0.000460;88.438402;0.001559;
1201;1672;-0.068472;86.033755;1.000000;0.000118;-0.000895;0.002063;0.000210;0.002077;-0.000910;85.950916;0.002083;
1066;1687;0.061591;86.064985;1.000000;0.000137;-0.000823;0.001898;-0.000180;0.001910;-0.000835;-86.230194;0.001915;
1006;1632;0.133052;85.968940;0.999999;0.000241;-0.000795;0.002363;-0.000641;0.002488;-0.000921;-78.948879;0.002516;
1171;1822;-0.013596;86.284537;1.000000;0.000184;-0.000362;0.001463;0.000053;0.001464;-0.000363;88.333443;0.001525;
1061;1662;0.073885;86.015532;1.000000;0.000125;-0.000906;0.002115;-0.000251;0.002135;-0.000927;-85.281388;0.002141;
1001;1807;0.058072;86.253042;1.000000;0.000151;-0.000460;0.001506;-0.000120;0.001513;-0.000467;-86.528810;0.001549;
1031;1497;0.529743;85.099003;0.999985;0.001114;-0.005375;0.012590;-0.003054;0.013095;-0.005880;-80.610114;0.013118;
1121;1707;0.009624;86.103013;1.000000;0.000087;-0.000852;0.001859;-0.000031;0.001860;-0.000852;-89.350990;0.001862;
1126;1767;0.003643;86.202654;1.000000;0.000074;-0.000569;0.001565;-0.000007;0.001565;-0.000569;-89.801718;0.001585;
1196;1202;-5.175707;65.662448;0.998537;0.009937;-0.080601;0.213571;0.009547;0.213881;-0.080910;88.143048;0.215982;
1026;1802;0.047847;86.249385;1.000000;0.000185;-0.000474;0.001522;-0.000121;0.001529;-0.000481;-86.538301;0.001564;
1201;1707;-0.056678;86.100682;1.000000;0.000157;-0.000753;0.001756;0.000142;0.001764;-0.000761;86.761532;0.001770;
1056;1657;0.079940;86.005899;1.000000;0.000170;-0.000900;0.002147;-0.000281;0.002172;-0.000925;-84.782101;0.002180;
1061;1682;0.067341;86.055964;1.000000;0.000106;-0.000824;0.001915;-0.000200;0.001930;-0.000838;-85.836881;0.001936;
1191;1667;-0.060880;86.022300;1.000000;0.000133;-0.000958;0.002168;0.000193;0.002179;-0.000970;86.483482;0.002184;
1211;1632;-0.092272;85.945448;0.999999;0.000223;-0.001058;0.002602;0.000395;0.002645;-0.001100;83.906808;0.002657;
1241;1732;-0.074090;86.138136;1.000000;0.000163;-0.000625;0.001624;0.000150;0.001634;-0.000635;86.202800;0.001648;
1001;1812;0.055845;86.261168;1.000000;0.000169;-0.000452;0.001507;-0.000123;0.001515;-0.000459;-86.407621;0.001553;
1036;1497;0.502505;85.099479;0.999986;0.000985;-0.005357;0.012616;-0.002924;0.013079;-0.005821;-80.988155;0.013106;
1121;1712;0.009477;86.112229;1.000000;0.000072;-0.000825;0.001814;-0.000029;0.001815;-0.000825;-89.381212;0.001817;
1111;1767;0.012443;86.202052;1.000000;0.000062;-0.000570;0.001568;-0.000025;0.001568;-0.000570;-89.340152;0.001588;
1201;1202;-5.605515;65.553685;0.998834;0.008851;-0.080945;0.215084;0.010695;0.215470;-0.081331;87.933525;0.217617;
1031;1802;0.045648;86.250293;1.000000;0.000164;-0.000470;0.001522;-0.000117;0.001529;-0.000477;-86.640341;0.001565;
1201;1712;-0.054881;86.109501;1.000000;0.000151;-0.000735;0.001727;0.000133;0.001734;-0.000742;86.906364;0.001740;
1191;1672;-0.059619;86.032851;1.000000;0.000141;-0.000936;0.002113;0.000184;0.002124;-0.000947;86.558011;0.002128;
1236;1732;-0.070715;86.138469;1.000000;0.000124;-0.000629;0.001628;0.000144;0.001638;-0.000638;86.360844;0.001651;
1066;1682;0.063499;86.055596;1.000000;0.000135;-0.000844;0.001942;-0.000191;0.001955;-0.000857;-86.094664;0.001960;
1211;1637;-0.090266;85.958173;0.999999;0.000186;-0.001021;0.002497;0.000367;0.002535;-0.001059;84.115241;0.002546;
1241;1737;-0.072242;86.146080;1.000000;0.000175;-0.000619;0.001618;0.000143;0.001627;-0.000628;86.347708;0.001641;
981;1802;0.069073;86.241786;1.000000;0.000161;-0.000457;0.001482;-0.000095;0.001487;-0.000461;-87.188184;0.001522;
1036;1502;0.473764;85.162831;0.999986;0.000917;-0.005055;0.011967;-0.002781;0.012410;-0.005498;-80.951410;0.012437;
1121;1717;0.009479;86.120857;1.000000;0.000081;-0.000798;0.001770;-0.000027;0.001770;-0.000798;-89.397633;0.001773;
1051;1697;0.069644;86.083252;1.000000;0.000106;-0.000729;0.001755;-0.000179;0.001768;-0.000742;-85.888317;0.001775;
1206;1202;-6.021533;65.480580;0.998768;0.008156;-0.081345;0.216661;0.011821;0.217129;-0.081813;87.731942;0.219316;
1056;1707;0.061916;86.100490;1.000000;0.000138;-0.000717;0.001721;-0.000152;0.001730;-0.000727;-86.435245;0.001738;
1191;1677;-0.057933;86.043223;1.000000;0.000138;-0.000915;0.002056;0.000177;0.002066;-0.000925;86.607111;0.002070;
1206;1632;-0.087046;85.943364;0.999999;0.000226;-0.001076;0.002620;0.000370;0.002657;-0.001113;84.345079;0.002668;
1176;1647;-0.050087;85.973945;1.000000;0.000147;-0.001106;0.002480;0.000182;0.002489;-0.001116;87.102142;0.002494;
1071;1682;0.058896;86.055125;1.000000;0.000164;-0.000863;0.001968;-0.000181;0.001980;-0.000875;-86.361509;0.001984;
1171;1642;-0.045719;85.961226;1.000000;0.000152;-0.001146;0.002565;0.000173;0.002573;-0.001154;87.341829;0.002577;
981;1807;0.066532;86.248792;1.000000;0.000215;-0.000452;0.001486;-0.000095;0.001490;-0.000457;-87.198248;0.001527;
1256;1512;-0.548913;85.246410;0.999982;0.001198;-0.004681;0.010834;0.003194;0.011465;-0.005313;78.811404;0.011476;
1051;1662;0.082807;86.017651;1.000000;0.000125;-0.000853;0.002050;-0.000277;0.002076;-0.000879;-84.590378;0.002084;
1056;1697;0.066453;86.083425;1.000000;0.000141;-0.000747;0.001775;-0.000174;0.001787;-0.000759;-86.080235;0.001794;
1221;1777;-0.047196;86.212540;1.000000;0.000169;-0.000540;0.001569;0.000097;0.001574;-0.000545;87.370319;0.001598;
1126;1217;0.425769;69.180445;0.998667;0.008909;-0.066553;0.171593;-0.000426;0.171594;-0.066553;-89.897442;0.173027;
1061;1707;0.058546;86.100935;1.000000;0.000135;-0.000734;0.001736;-0.000148;0.001745;-0.000742;-86.580409;0.001751;
1221;1722;-0.064750;86.123487;1.000000;0.000153;-0.000666;0.001659;0.000139;0.001667;-0.000674;86.592627;0.001677;
1076;1682;0.054313;86.054755;1.000000;0.000141;-0.000883;0.001992;-0.000169;0.002002;-0.000892;-86.652561;0.002006;
981;1812;0.064200;86.255659;1.000000;0.000248;-0.000448;0.001490;-0.000098;0.001495;-0.000453;-87.125946;0.001533;
1186;1807;-0.022185;86.261911;1.000000;0.000131;-0.000427;0.001504;0.000070;0.001506;-0.000430;87.916589;0.001552;
1191;1602;-0.083983;85.848347;0.999999;0.000289;-0.001444;0.003530;0.000469;0.003574;-0.001487;84.665196;0.003591;
1066;1812;0.027380;86.268490;1.000000;0.000152;-0.000411;0.001500;-0.000090;0.001504;-0.000416;-87.302533;0.001554;
1061;1697;0.062579;86.083515;1.000000;0.000129;-0.000767;0.001797;-0.000168;0.001807;-0.000778;-86.267215;0.001813;
1226;1777;-0.049728;86.212341;1.000000;0.000142;-0.000541;0.001569;0.000101;0.001574;-0.000546;87.265302;0.001599;
1091;1477;0.270916;84.832664;0.999982;0.001351;-0.006687;0.015762;-0.001444;0.015855;-0.006779;-86.335578;0.015910;
1151;1827;-0.006124;86.292888;1.000000;0.000173;-0.000343;0.001450;0.000027;0.001450;-0.000343;89.144655;0.001516;
1126;1222;0.415864;69.928123;0.998813;0.009284;-0.063525;0.161876;-0.000590;0.161877;-0.063527;-89.850123;0.163121;
1226;1722;-0.068213;86.123190;1.000000;0.000154;-0.000658;0.001653;0.000145;0.001662;-0.000667;86.421479;0.001672;
1191;1607;-0.080886;85.865327;0.999999;0.000262;-0.001375;0.003343;0.000432;0.003382;-0.001414;84.814114;0.003397;
1291;1692;-0.119890;86.075320;1.000000;0.000130;-0.000439;0.001508;0.000265;0.001544;-0.000474;82.388317;0.001582;
1056;1692;0.067955;86.074404;1.000000;0.000141;-0.000764;0.001813;-0.000184;0.001826;-0.000777;-85.936883;0.001832;
1191;1797;-0.026325;86.246567;1.000000;0.000127;-0.000466;0.001523;0.000072;0.001526;-0.000468;87.942470;0.001563;
1051;1667;0.081002;86.027351;1.000000;0.000125;-0.000833;0.001995;-0.000260;0.002019;-0.000857;-84.782536;0.002027;
1051;1702;0.067352;86.091856;1.000000;0.000116;-0.000715;0.001727;-0.000169;0.001739;-0.000727;-86.061446;0.001747;
1046;1687;0.077258;86.065720;1.000000;0.000142;-0.000738;0.001794;-0.000209;0.001811;-0.000755;-85.308822;0.001820;
1061;1657;0.075444;86.004748;1.000000;0.000154;-0.000926;0.002177;-0.000266;0.002200;-0.000949;-85.131861;0.002207;
1201;1472;-0.476602;84.724691;0.999984;0.000904;-0.007106;0.016525;0.002476;0.016782;-0.007362;84.081964;0.016823;
1041;1667;0.088860;86.029046;1.000000;0.000183;-0.000774;0.001924;-0.000279;0.001953;-0.000803;-84.161454;0.001963;
1116;1217;1.084836;69.140094;0.998792;0.010515;-0.067073;0.172644;-0.001631;0.172655;-0.067084;-89.610297;0.174079;
1061;1692;0.064050;86.074302;1.000000;0.000151;-0.000785;0.001836;-0.000178;0.001848;-0.000797;-86.141021;0.001854;
1291;1697;-0.117489;86.083044;1.000000;0.000143;-0.000449;0.001500;0.000249;0.001532;-0.000481;82.838409;0.001567;
1091;1602;0.056779;85.848078;0.999999;0.000265;-0.001436;0.003483;-0.000345;0.003507;-0.001460;-86.010125;0.003523;
1046;1692;0.075238;86.074220;1.000000;0.000129;-0.000723;0.001765;-0.000197;0.001781;-0.000739;-85.500334;0.001789;
1051;1672;0.079047;86.037131;1.000000;0.000124;-0.000813;0.001946;-0.000244;0.001967;-0.000835;-84.977531;0.001975;
1056;1702;0.064102;86.091977;1.000000;0.000142;-0.000732;0.001744;-0.000163;0.001755;-0.000743;-86.239678;0.001761;
1191;1642;-0.067413;85.965018;1.000000;0.000168;-0.001076;0.002498;0.000257;0.002516;-0.001095;85.913320;0.002523;
1101;1727;0.023381;86.137285;1.000000;0.000070;-0.000735;0.001684;-0.000057;0.001686;-0.000737;-88.646600;0.001690;
1136;1662;-0.003628;86.007394;1.000000;0.000164;-0.001095;0.002355;0.000006;0.002355;-0.001095;89.892419;0.002357;
1041;1672;0.086719;86.037979;1.000000;0.000211;-0.000758;0.001879;-0.000261;0.001905;-0.000783;-84.400287;0.001915;
1121;1217;0.742300;69.158127;0.998751;0.010381;-0.066743;0.172049;-0.001041;0.172054;-0.066748;-89.750129;0.173488;
1156;1827;-0.007485;86.292463;1.000000;0.000172;-0.000342;0.001450;0.000035;0.001451;-0.000343;88.893028;0.001516;
1291;1702;-0.115331;86.090701;1.000000;0.000190;-0.000472;0.001485;0.000246;0.001516;-0.000502;82.953555;0.001544;
1066;1692;0.060194;86.074278;1.000000;0.000137;-0.000803;0.001858;-0.000170;0.001869;-0.000814;-86.365245;0.001874;
1051;1677;0.077265;86.046917;1.000000;0.000126;-0.000795;0.001900;-0.000230;0.001919;-0.000814;-85.157089;0.001927;
1091;1607;0.055673;85.863580;0.999999;0.000223;-0.001381;0.003296;-0.000310;0.003317;-0.001401;-86.225870;0.003330;
1096;1817;0.014258;86.277641;1.000000;0.000155;-0.000383;0.001475;-0.000052;0.001476;-0.000385;-88.394722;0.001531;
1096;1657;0.041082;85.998740;1.000000;0.000188;-0.001060;0.002346;-0.000148;0.002352;-0.001066;-87.512686;0.002355;
1176;1642;-0.051401;85.961978;1.000000;0.000174;-0.001132;0.002551;0.000195;0.002561;-0.001142;86.976691;0.002566;
1101;1732;0.022718;86.145410;1.000000;0.000080;-0.000711;0.001657;-0.000052;0.001658;-0.000712;-88.732763;0.001664;
1081;1817;0.019984;86.277156;1.000000;0.000156;-0.000391;0.001481;-0.000073;0.001484;-0.000394;-87.770252;0.001537;
1221;1227;-5.822276;69.598022;0.998514;0.008510;-0.068425;0.172962;0.014397;0.173818;-0.069281;86.598780;0.175006;
1041;1677;0.085238;86.047803;1.000000;0.000225;-0.000742;0.001837;-0.000245;0.001860;-0.000765;-84.620855;0.001869;
1046;1697;0.073099;86.082474;1.000000;0.000109;-0.000710;0.001736;-0.000186;0.001750;-0.000724;-85.673852;0.001758;
1111;1812;0.008947;86.270474;1.000000;0.000147;-0.000402;0.001483;-0.000031;0.001484;-0.000403;-89.062710;0.001535;
1236;1727;-0.073014;86.129534;1.000000;0.000143;-0.000635;0.001635;0.000151;0.001645;-0.000645;86.204633;0.001657;
1101;1817;0.012314;86.277784;1.000000;0.000146;-0.000383;0.001473;-0.000046;0.001474;-0.000384;-88.593604;0.001529;
986;1817;0.059863;86.264445;1.000000;0.000189;-0.000445;0.001501;-0.000110;0.001507;-0.000451;-86.787960;0.001547;
1101;1657;0.035107;85.998194;1.000000;0.000153;-0.001074;0.002361;-0.000129;0.002366;-0.001079;-87.851375;0.002369;
1161;1877;-0.004099;86.362300;0.999999;0.000249;-0.000146;0.001338;0.000051;0.001340;-0.000148;88.029141;0.001469;
1071;1662;0.064278;86.013390;1.000000;0.000140;-0.000949;0.002174;-0.000226;0.002190;-0.000965;-85.887396;0.002196;
1196;1802;-0.027480;86.253598;1.000000;0.000102;-0.000451;0.001518;0.000080;0.001521;-0.000454;87.679547;0.001561;
1086;1817;0.018195;86.277583;1.000000;0.000180;-0.000388;0.001479;-0.000066;0.001481;-0.000390;-87.984366;0.001536;
1151;1227;-1.114199;70.524199;0.998826;0.008378;-0.061688;0.155612;0.002209;0.155634;-0.061711;89.417605;0.156742;
1026;1782;0.055573;86.218704;1.000000;0.000197;-0.000526;0.001546;-0.000116;0.001552;-0.000532;-86.792151;0.001578;
1046;1702;0.070820;86.091148;1.000000;0.000113;-0.000699;0.001712;-0.000175;0.001724;-0.000712;-85.865021;0.001733;
1231;1722;-0.071643;86.122602;1.000000;0.000141;-0.000650;0.001647;0.000152;0.001657;-0.000660;86.239994;0.001669;
1241;1727;-0.076080;86.129704;1.000000;0.000140;-0.000630;0.001630;0.000157;0.001641;-0.000641;86.041969;0.001654;
991;1817;0.057519;86.265552;1.000000;0.000152;-0.000446;0.001504;-0.000117;0.001511;-0.000453;-86.591046;0.001551;
1176;1637;-0.052735;85.949108;1.000000;0.000195;-0.001159;0.002627;0.000208;0.002638;-0.001170;86.861722;0.002644;
1161;1882;-0.003262;86.368208;0.999999;0.000220;-0.000126;0.001333;0.000051;0.001335;-0.000128;87.981369;0.001473;
1186;1817;-0.020127;86.276435;1.000000;0.000137;-0.000389;0.001481;0.000072;0.001484;-0.000392;87.798599;0.001538;
1071;1667;0.062885;86.023683;1.000000;0.000122;-0.000928;0.002116;-0.000213;0.002131;-0.000943;-86.023737;0.002135;
1196;1807;-0.026228;86.260950;1.000000;0.000095;-0.000433;0.001510;0.000082;0.001513;-0.000437;87.594610;0.001558;
1211;1222;-5.356947;68.937480;0.998562;0.009805;-0.070480;0.179243;0.012146;0.179832;-0.071070;87.221999;0.181144;
1091;1817;0.016432;86.277763;1.000000;0.000177;-0.000385;0.001477;-0.000059;0.001479;-0.000387;-88.195408;0.001534;
1031;1782;0.052341;86.219379;1.000000;0.000154;-0.000525;0.001551;-0.000112;0.001557;-0.000531;-86.933547;0.001583;
1046;1707;0.068911;86.099530;1.000000;0.000139;-0.000689;0.001695;-0.000164;0.001706;-0.000700;-86.081733;0.001716;
1236;1722;-0.075028;86.121929;1.000000;0.000141;-0.000641;0.001642;0.000158;0.001653;-0.000651;86.056733;0.001665;
996;1817;0.055393;86.267158;1.000000;0.000182;-0.000446;0.001508;-0.000122;0.001515;-0.000453;-86.431967;0.001556;
1181;1637;-0.058429;85.950069;1.000000;0.000196;-0.001142;0.002611;0.000231;0.002625;-0.001156;86.497303;0.002631;
1096;1842;0.010742;86.313678;1.000000;0.000172;-0.000289;0.001418;-0.000060;0.001420;-0.000292;-87.982751;0.001500;
1201;1802;-0.029853;86.253158;1.000000;0.000144;-0.000455;0.001520;0.000087;0.001524;-0.000458;87.486515;0.001564;
956;1882;0.032368;86.353480;0.999999;0.000273;-0.000431;0.001659;-0.000249;0.001688;-0.000461;-83.304630;0.001745;
1071;1672;0.061316;86.034922;1.000000;0.000150;-0.000908;0.002063;-0.000200;0.002077;-0.000921;-86.164101;0.002081;
1196;1812;-0.025091;86.268497;1.000000;0.000106;-0.000415;0.001498;0.000083;0.001502;-0.000419;87.520966;0.001550;
1156;1227;-1.444330;70.473732;0.998802;0.009253;-0.061926;0.156477;0.002883;0.156516;-0.061964;89.243791;0.157642;
1216;1692;-0.073483;86.072834;1.000000;0.000159;-0.000752;0.001808;0.000191;0.001822;-0.000766;85.761402;0.001829;
1171;1802;-0.016852;86.255164;1.000000;0.000153;-0.000440;0.001508;0.000050;0.001510;-0.000441;88.516728;0.001553;
1181;1797;-0.021521;86.246862;1.000000;0.000116;-0.000460;0.001519;0.000060;0.001521;-0.000462;88.268677;0.001560;
1241;1722;-0.077998;86.121613;1.000000;0.000135;-0.000634;0.001636;0.000164;0.001648;-0.000646;85.885090;0.001661;
1186;1637;-0.063890;85.951038;1.000000;0.000197;-0.001124;0.002593;0.000253;0.002611;-0.001141;86.126944;0.002617;
976;1807;0.069386;86.247401;1.000000;0.000244;-0.000450;0.001478;-0.000084;0.001482;-0.000454;-87.497815;0.001518;
1101;1842;0.009098;86.313818;1.000000;0.000142;-0.000288;0.001415;-0.000052;0.001417;-0.000290;-88.262266;0.001497;
1196;1797;-0.028720;86.245738;1.000000;0.000134;-0.000469;0.001526;0.000078;0.001529;-0.000472;87.764923;0.001566;
1111;1822;0.008064;86.285134;1.000000;0.000128;-0.000363;0.001458;-0.000031;0.001459;-0.000364;-89.026061;0.001519;
1076;1672;0.056783;86.034385;1.000000;0.000094;-0.000928;0.002088;-0.000187;0.002099;-0.000939;-86.470754;0.002103;
1156;1212;-1.730341;68.164375;0.998695;0.009709;-0.070357;0.183690;0.003174;0.183729;-0.070397;89.284263;0.185394;
1176;1587;-0.071188;85.788576;0.999999;0.000259;-0.001694;0.004139;0.000432;0.004171;-0.001726;85.789461;0.004191;
1231;1772;-0.054182;86.203802;1.000000;0.000135;-0.000554;0.001579;0.000105;0.001584;-0.000559;87.193084;0.001607;
1181;1677;-0.048459;86.042725;1.000000;0.000145;-0.000948;0.002095;0.000149;0.002103;-0.000955;87.197500;0.002106;
1061;1712;0.056750;86.109395;1.000000;0.000125;-0.000718;0.001714;-0.000139;0.001722;-0.000726;-86.750293;0.001729;
1046;1667;0.085252;86.028125;1.000000;0.000161;-0.000804;0.001961;-0.000271;0.001987;-0.000831;-84.462264;0.001996;
1076;1817;0.021784;86.276717;1.000000;0.000141;-0.000391;0.001484;-0.000080;0.001487;-0.000395;-87.556319;0.001541;
976;1812;0.067307;86.254197;1.000000;0.000204;-0.000448;0.001483;-0.000087;0.001487;-0.000451;-87.423313;0.001524;
1106;1842;0.007861;86.314031;1.000000;0.000133;-0.000287;0.001412;-0.000045;0.001413;-0.000288;-88.498673;0.001494;
1106;1817;0.010476;86.277836;1.000000;0.000118;-0.000383;0.001472;-0.000039;0.001473;-0.000384;-88.801707;0.001528;
1091;1837;0.013215;86.306429;1.000000;0.000173;-0.000311;0.001430;-0.000065;0.001432;-0.000314;-87.851728;0.001506;
1196;1642;-0.072890;85.965924;1.000000;0.000184;-0.001056;0.002476;0.000278;0.002498;-0.001078;85.524353;0.002506;
1156;1217;-1.630924;68.951352;0.998869;0.008515;-0.067400;0.173933;0.003105;0.173973;-0.067440;89.262888;0.175431;
1321;1792;-0.095192;86.212034;0.999984;0.001087;-0.000619;0.001431;0.000048;0.001432;-0.000620;88.649625;0.001437;
1036;1767;0.054991;86.196681;1.000000;0.000167;-0.000563;0.001577;-0.000108;0.001582;-0.000568;-87.111971;0.001603;
1181;1667;-0.050892;86.021555;1.000000;0.000136;-0.000995;0.002208;0.000163;0.002216;-0.001003;87.097881;0.002219;
1191;1647;-0.066024;85.976358;1.000000;0.000113;-0.001049;0.002422;0.000240;0.002439;-0.001066;86.059346;0.002445;
1196;1682;-0.060915;86.053933;1.000000;0.000144;-0.000875;0.001981;0.000179;0.001993;-0.000886;86.423353;0.001997;
976;1817;0.064684;86.261688;1.000000;0.000184;-0.000444;0.001489;-0.000090;0.001493;-0.000448;-87.343932;0.001532;
1116;1822;0.006229;86.285284;1.000000;0.000143;-0.000361;0.001459;-0.000024;0.001459;-0.000362;-89.243591;0.001519;
1106;1822;0.009760;86.285261;1.000000;0.000111;-0.000363;0.001459;-0.000038;0.001460;-0.000364;-88.792436;0.001520;
1196;1647;-0.071300;85.977509;1.000000;0.000141;-0.001029;0.002398;0.000261;0.002417;-0.001049;85.672820;0.002424;
1156;1222;-1.534385;69.713612;0.998835;0.008706;-0.064626;0.164873;0.003014;0.164913;-0.064665;89.247769;0.166188;
1166;1877;-0.005059;86.361958;0.999999;0.000231;-0.000147;0.001340;0.000060;0.001342;-0.000149;87.696946;0.001471;
1036;1772;0.053442;86.204764;1.000000;0.000143;-0.000550;0.001567;-0.000108;0.001572;-0.000555;-87.078587;0.001594;
1046;1672;0.083030;86.037779;1.000000;0.000150;-0.000786;0.001913;-0.000253;0.001937;-0.000810;-84.683606;0.001946;
1241;1742;-0.070482;86.154243;1.000000;0.000168;-0.000612;0.001613;0.000138;0.001622;-0.000621;86.463928;0.001637;
1191;1652;-0.064811;85.988278;1.000000;0.000122;-0.001025;0.002351;0.000227;0.002366;-0.001041;86.165298;0.002372;
1076;1687;0.053128;86.064499;1.000000;0.000133;-0.000862;0.001947;-0.000160;0.001956;-0.000871;-86.751012;0.001960;
981;1817;0.062014;86.263514;1.000000;0.000215;-0.000444;0.001495;-0.000101;0.001500;-0.000449;-87.036411;0.001540;
1116;1827;0.005575;86.292266;1.000000;0.000145;-0.000342;0.001448;-0.000024;0.001449;-0.000343;-89.218402;0.001514;
1106;1827;0.009131;86.292199;1.000000;0.000114;-0.000344;0.001450;-0.000038;0.001451;-0.000345;-88.771742;0.001516;
1096;1837;0.011267;86.306589;1.000000;0.000166;-0.000309;0.001428;-0.000058;0.001430;-0.000311;-88.103441;0.001504;
1161;1212;-2.082696;68.084964;0.998588;0.007368;-0.070630;0.184582;0.003881;0.184641;-0.070689;89.128927;0.186323;
1196;1652;-0.070170;85.989754;1.000000;0.000154;-0.001006;0.002325;0.000246;0.002343;-0.001024;85.792054;0.002349;
1166;1882;-0.004052;86.367914;0.999999;0.000194;-0.000127;0.001335;0.000060;0.001338;-0.000129;87.639142;0.001476;
1216;1727;-0.059400;86.132271;1.000000;0.000136;-0.000662;0.001650;0.000127;0.001657;-0.000669;86.860227;0.001667;
1191;1657;-0.063647;86.000304;1.000000;0.000165;-0.001002;0.002283;0.000216;0.002297;-0.001017;86.249514;0.002302;
1176;1802;-0.018721;86.255020;1.000000;0.000138;-0.000440;0.001510;0.000056;0.001512;-0.000442;88.342328;0.001555;
1046;1677;0.081233;86.047447;1.000000;0.000181;-0.000769;0.001869;-0.000238;0.001890;-0.000790;-84.887108;0.001898;
1126;1667;0.007008;86.019470;1.000000;0.000125;-0.001068;0.002289;-0.000029;0.002289;-0.001068;-89.502799;0.002291;
1001;1817;0.053268;86.267994;1.000000;0.000163;-0.000442;0.001509;-0.000127;0.001517;-0.000451;-86.277928;0.001558;
1116;1832;0.005534;86.299630;1.000000;0.000149;-0.000324;0.001436;-0.000027;0.001437;-0.000324;-89.110473;0.001507;
1091;1832;0.013911;86.299547;1.000000;0.000165;-0.000330;0.001447;-0.000062;0.001450;-0.000332;-87.995871;0.001519;
1161;1217;-1.968942;68.899601;0.998813;0.008254;-0.067721;0.174912;0.003861;0.174974;-0.067782;89.088659;0.176447;
1101;1837;0.009803;86.306903;1.000000;0.000127;-0.000308;0.001425;-0.000050;0.001427;-0.000309;-88.354880;0.001501;
1196;1657;-0.068719;86.001419;1.000000;0.000163;-0.000983;0.002257;0.000233;0.002274;-0.000999;85.908087;0.002279;
1256;1637;-0.130266;85.972513;0.999999;0.000245;-0.000799;0.002299;0.000578;0.002404;-0.000903;79.764575;0.002428;
1081;1682;0.049891;86.054812;1.000000;0.000162;-0.000901;0.002014;-0.000155;0.002023;-0.000909;-86.964675;0.002026;
1191;1662;-0.062212;86.011556;1.000000;0.000148;-0.000980;0.002222;0.000204;0.002235;-0.000993;86.373243;0.002239;
1181;1802;-0.020912;86.254604;1.000000;0.000156;-0.000443;0.001510;0.000063;0.001512;-0.000445;88.167530;0.001554;
1046;1662;0.087057;86.018732;1.000000;0.000172;-0.000823;0.002014;-0.000289;0.002043;-0.000852;-84.249095;0.002052;
1136;1652;-0.003801;85.984096;1.000000;0.000127;-0.001145;0.002478;0.000008;0.002478;-0.001145;89.868328;0.002480;
976;1802;0.071059;86.240328;1.000000;0.000188;-0.000453;0.001474;-0.000085;0.001478;-0.000457;-87.474594;0.001514;
1121;1817;0.004661;86.278102;1.000000;0.000160;-0.000379;0.001470;-0.000017;0.001470;-0.000379;-89.467817;0.001526;
1096;1832;0.011700;86.299425;1.000000;0.000163;-0.000328;0.001445;-0.000054;0.001446;-0.000330;-88.242339;0.001516;
1161;1222;-1.857748;69.659722;0.998748;0.010537;-0.064938;0.165850;0.003769;0.165912;-0.064999;89.064664;0.167202;
1206;1802;-0.032547;86.252690;1.000000;0.000183;-0.000457;0.001522;0.000093;0.001527;-0.000462;87.323876;0.001566;
1066;1667;0.067690;86.024327;1.000000;0.000176;-0.000908;0.002088;-0.000225;0.002105;-0.000925;-85.726968;0.002110;
1241;1897;-0.007640;86.386673;0.999999;0.000221;-0.000084;0.001381;0.000209;0.001410;-0.000113;82.055412;0.001567;
1126;1832;0.002257;86.300068;1.000000;0.000124;-0.000321;0.001436;-0.000011;0.001436;-0.000321;-89.631743;0.001507;
1181;1642;-0.057322;85.962912;1.000000;0.000191;-0.001115;0.002534;0.000216;0.002547;-0.001128;86.631624;0.002553;
1186;1797;-0.023957;86.246834;1.000000;0.000125;-0.000463;0.001520;0.000066;0.001523;-0.000465;88.095185;0.001561;
1051;1687;0.073344;86.065444;1.000000;0.000131;-0.000760;0.001821;-0.000203;0.001836;-0.000776;-85.539164;0.001844;
1136;1657;-0.003849;85.995752;1.000000;0.000148;-0.001121;0.002417;0.000007;0.002417;-0.001121;89.891542;0.002419;
1006;1802;0.058083;86.246689;1.000000;0.000221;-0.000469;0.001512;-0.000121;0.001520;-0.000477;-86.529932;0.001555;
1101;1832;0.010286;86.299205;1.000000;0.000126;-0.000327;0.001442;-0.000047;0.001443;-0.000329;-88.466473;0.001513;
1086;1632;0.055954;85.938246;1.000000;0.000170;-0.001156;0.002674;-0.000240;0.002689;-0.001171;-86.421425;0.002696;
1241;1902;-0.005359;86.394069;0.999999;0.000260;-0.000062;0.001378;0.000209;0.001408;-0.000091;81.914997;0.001575;
1141;1207;-0.709937;67.394554;0.998878;0.010868;-0.073157;0.193322;0.001438;0.193330;-0.073164;89.690915;0.195225;
1206;1807;-0.031127;86.260831;1.000000;0.000155;-0.000441;0.001514;0.000095;0.001519;-0.000445;87.238277;0.001562;
1066;1672;0.066366;86.035542;1.000000;0.000161;-0.000887;0.002036;-0.000212;0.002051;-0.000902;-85.869147;0.002056;
1071;1687;0.057449;86.064726;1.000000;0.000152;-0.000843;0.001923;-0.000171;0.001934;-0.000854;-86.479803;0.001938;
1196;1822;-0.022975;86.283431;1.000000;0.000159;-0.000378;0.001476;0.000088;0.001480;-0.000382;87.277951;0.001536;
1051;1692;0.071750;86.074482;1.000000;0.000121;-0.000743;0.001788;-0.000190;0.001803;-0.000758;-85.724803;0.001810;
1186;1802;-0.023028;86.254351;1.000000;0.000136;-0.000446;0.001511;0.000069;0.001514;-0.000448;87.995406;0.001555;
1171;1807;-0.015936;86.262171;1.000000;0.000137;-0.000421;0.001500;0.000051;0.001502;-0.000422;88.479413;0.001549;
961;1902;0.011496;86.390618;0.999999;0.000288;-0.000190;0.001659;-0.000368;0.001729;-0.000260;-79.158023;0.001865;
1006;1807;0.055714;86.253900;1.000000;0.000213;-0.000458;0.001510;-0.000122;0.001517;-0.000466;-86.455063;0.001554;
1106;1832;0.008798;86.299885;1.000000;0.000124;-0.000326;0.001440;-0.000041;0.001441;-0.000327;-88.657730;0.001511;
1146;1207;-1.101323;67.378507;0.998736;0.010830;-0.073268;0.193426;0.001930;0.193440;-0.073282;89.585433;0.195324;
1071;1812;0.024823;86.268733;1.000000;0.000142;-0.000410;0.001498;-0.000084;0.001502;-0.000414;-87.477866;0.001551;
1206;1812;-0.029509;86.267955;1.000000;0.000132;-0.000424;0.001502;0.000097;0.001506;-0.000429;87.130982;0.001552;
1066;1677;0.065153;86.045989;1.000000;0.000141;-0.000865;0.001987;-0.000202;0.002001;-0.000879;-85.974513;0.002006;
1216;1777;-0.044353;86.213155;1.000000;0.000178;-0.000539;0.001570;0.000093;0.001574;-0.000543;87.471266;0.001599;
1041;1707;0.072583;86.099341;1.000000;0.000131;-0.000676;0.001683;-0.000170;0.001695;-0.000688;-85.895299;0.001705;
1146;1702;-0.011893;86.093025;1.000000;0.000090;-0.000880;0.001903;0.000031;0.001904;-0.000880;89.368507;0.001906;
1181;1807;-0.020223;86.262093;1.000000;0.000160;-0.000424;0.001503;0.000064;0.001505;-0.000426;88.103326;0.001551;
1196;1677;-0.062370;86.043779;1.000000;0.000105;-0.000897;0.002033;0.000189;0.002045;-0.000909;86.324725;0.002050;
1061;1702;0.060734;86.092339;1.000000;0.000127;-0.000750;0.001762;-0.000158;0.001772;-0.000760;-86.405278;0.001778;
1191;1817;-0.021660;86.275544;1.000000;0.000134;-0.000393;0.001483;0.000079;0.001486;-0.000396;87.593479;0.001539;
1151;1207;-1.459448;67.361134;0.998471;0.011894;-0.073424;0.193720;0.002499;0.193743;-0.073447;89.464069;0.195622;
1206;1817;-0.028208;86.275002;1.000000;0.000114;-0.000407;0.001488;0.000100;0.001494;-0.000412;86.992560;0.001543;
1201;1657;-0.073716;86.002453;1.000000;0.000146;-0.000960;0.002230;0.000250;0.002250;-0.000979;85.550694;0.002256;
1026;1717;0.078179;86.114885;1.000000;0.000184;-0.000635;0.001634;-0.000169;0.001646;-0.000648;-85.763619;0.001659;
1196;1472;-0.445089;84.729069;0.999981;0.001252;-0.007083;0.016529;0.002287;0.016749;-0.007302;84.519321;0.016794;
1246;1732;-0.077578;86.138149;1.000000;0.000156;-0.000621;0.001618;0.000155;0.001629;-0.000631;86.054072;0.001643;
1146;1707;-0.011314;86.102269;1.000000;0.000082;-0.000854;0.001860;0.000030;0.001861;-0.000855;89.362172;0.001863;
1201;1667;-0.070138;86.023657;1.000000;0.000126;-0.000916;0.002117;0.000221;0.002133;-0.000932;85.851652;0.002138;
1141;1837;-0.002318;86.306195;1.000000;0.000156;-0.000302;0.001422;0.000012;0.001422;-0.000302;89.597809;0.001498;
1066;1697;0.058644;86.083512;1.000000;0.000120;-0.000784;0.001816;-0.000161;0.001826;-0.000794;-86.471115;0.001832;
1196;1817;-0.023800;86.275297;1.000000;0.000137;-0.000397;0.001485;0.000086;0.001489;-0.000401;87.400498;0.001541;
1176;1227;-2.717996;70.254724;0.998537;0.009561;-0.063604;0.160905;0.005878;0.161058;-0.063758;88.501304;0.162219;
1106;1837;0.008412;86.307147;1.000000;0.000133;-0.000307;0.001423;-0.000043;0.001424;-0.000308;-88.561439;0.001499;
1031;1717;0.074850;86.115016;1.000000;0.000141;-0.000644;0.001642;-0.000162;0.001654;-0.000655;-85.963271;0.001665;
1131;1662;0.002249;86.007817;1.000000;0.000162;-0.001095;0.002354;-0.000012;0.002354;-0.001095;-89.799220;0.002356;
1246;1737;-0.075314;86.145777;1.000000;0.000176;-0.000615;0.001612;0.000149;0.001622;-0.000625;86.194654;0.001636;
1146;1712;-0.010913;86.111201;1.000000;0.000079;-0.000829;0.001814;0.000029;0.001814;-0.000829;89.368392;0.001816;
1206;1667;-0.074820;86.023878;1.000000;0.000150;-0.000893;0.002088;0.000235;0.002106;-0.000911;85.517747;0.002112;
1186;1682;-0.051950;86.053502;1.000000;0.000115;-0.000910;0.002022;0.000156;0.002030;-0.000918;86.957760;0.002033;
1191;1477;-0.386001;84.813077;0.999978;0.001252;-0.006682;0.015737;0.002029;0.015919;-0.006864;84.869845;0.015969;
1201;1807;-0.028511;86.260950;1.000000;0.000128;-0.000437;0.001512;0.000089;0.001516;-0.000441;87.403337;0.001560;
1216;1222;-5.720561;68.834370;0.998386;0.008717;-0.070904;0.180605;0.013150;0.181291;-0.071590;87.015080;0.182622;
1111;1827;0.007446;86.292383;1.000000;0.000139;-0.000344;0.001449;-0.000031;0.001449;-0.000344;-88.999747;0.001514;
1036;1717;0.071680;86.115672;1.000000;0.000103;-0.000653;0.001651;-0.000156;0.001661;-0.000663;-86.131479;0.001672;
1036;1807;0.041974;86.258527;1.000000;0.000152;-0.000448;0.001515;-0.000117;0.001522;-0.000455;-86.616180;0.001563;
1191;1682;-0.056385;86.053554;1.000000;0.000138;-0.000893;0.002002;0.000168;0.002012;-0.000903;86.683905;0.002015;
1211;1667;-0.079355;86.024414;1.000000;0.000176;-0.000868;0.002058;0.000248;0.002079;-0.000889;85.189842;0.002086;
1066;1702;0.056703;86.092565;1.000000;0.000106;-0.000766;0.001780;-0.000152;0.001789;-0.000775;-86.591321;0.001794;
1091;1472;0.286441;84.752195;0.999980;0.001469;-0.007081;0.016598;-0.001507;0.016693;-0.007177;-86.372054;0.016748;
1111;1832;0.007268;86.299776;1.000000;0.000154;-0.000325;0.001438;-0.000034;0.001439;-0.000326;-88.882739;0.001509;
1196;1637;-0.074599;85.953622;0.999999;0.000228;-0.001086;0.002557;0.000298;0.002581;-0.001110;85.357815;0.002590;
1201;1812;-0.027364;86.268462;1.000000;0.000125;-0.000420;0.001500;0.000090;0.001504;-0.000424;87.318949;0.001551;
1196;1197;-5.435235;64.687412;0.998664;0.008739;-0.083592;0.223949;0.009256;0.224228;-0.083870;88.277715;0.226587;
1036;1702;0.077799;86.090813;1.000000;0.000147;-0.000670;0.001683;-0.000187;0.001698;-0.000685;-85.495495;0.001708;
1051;1712;0.063758;86.108534;1.000000;0.000142;-0.000692;0.001691;-0.000147;0.001700;-0.000701;-86.473796;0.001708;
1171;1712;-0.031657;86.110424;1.000000;0.000142;-0.000803;0.001786;0.000086;0.001789;-0.000806;88.108680;0.001792;
1216;1667;-0.083370;86.025266;1.000000;0.000194;-0.000842;0.002025;0.000259;0.002049;-0.000866;84.886413;0.002057;
1036;1687;0.084474;86.065431;1.000000;0.000128;-0.000694;0.001744;-0.000221;0.001764;-0.000714;-84.852782;0.001775;
1231;1717;-0.073663;86.114468;1.000000;0.000166;-0.000656;0.001657;0.000158;0.001668;-0.000667;86.106387;0.001679;
1096;1472;0.251389;84.752463;0.999984;0.001146;-0.007060;0.016595;-0.001314;0.016668;-0.007133;-86.830679;0.016725;
1181;1812;-0.019062;86.269421;1.000000;0.000156;-0.000404;0.001493;0.000063;0.001495;-0.000407;88.100191;0.001547;
1201;1817;-0.026122;86.275931;1.000000;0.000119;-0.000402;0.001487;0.000093;0.001492;-0.000407;87.203026;0.001542;
1216;1782;-0.042838;86.220326;1.000000;0.000184;-0.000524;0.001561;0.000094;0.001565;-0.000528;87.416683;0.001592;
1201;1197;-5.857131;64.555827;0.998847;0.007656;-0.083887;0.225253;0.010386;0.225602;-0.084236;88.077927;0.228000;
1036;1707;0.075904;86.099543;1.000000;0.000123;-0.000664;0.001671;-0.000175;0.001684;-0.000677;-85.731362;0.001695;
1056;1712;0.060303;86.109083;1.000000;0.000119;-0.000704;0.001701;-0.000143;0.001709;-0.000712;-86.618375;0.001717;
1041;1682;0.083226;86.057095;1.000000;0.000163;-0.000729;0.001800;-0.000230;0.001821;-0.000749;-84.847200;0.001830;
1041;1687;0.081262;86.065340;1.000000;0.000137;-0.000715;0.001768;-0.000216;0.001787;-0.000734;-85.070809;0.001796;
1146;1832;-0.004086;86.300270;1.000000;0.000148;-0.000323;0.001438;0.000019;0.001439;-0.000323;89.372805;0.001510;
1236;1717;-0.076888;86.113809;1.000000;0.000167;-0.000646;0.001650;0.000165;0.001662;-0.000658;85.904445;0.001674;
1101;1472;0.215502;84.750009;0.999985;0.001165;-0.007033;0.016582;-0.001137;0.016637;-0.007088;-87.249392;0.016698;
1201;1797;-0.031080;86.245066;1.000000;0.000144;-0.000472;0.001528;0.000085;0.001532;-0.000475;87.565857;0.001568;
1031;1687;0.087223;86.065358;1.000000;0.000182;-0.000674;0.001721;-0.000228;0.001743;-0.000695;-84.614111;0.001755;
1206;1197;-6.288197;64.428910;0.998603;0.010125;-0.084269;0.226619;0.011488;0.227043;-0.084693;87.886707;0.229470;
1216;1787;-0.041181;86.228282;1.000000;0.000160;-0.000509;0.001551;0.000096;0.001556;-0.000514;87.348994;0.001585;
1036;1712;0.073769;86.107410;1.000000;0.000105;-0.000659;0.001662;-0.000165;0.001673;-0.000670;-85.952625;0.001684;
1161;1797;-0.012600;86.247919;1.000000;0.000180;-0.000456;0.001513;0.000035;0.001514;-0.000456;88.977498;0.001553;
1126;1837;0.002416;86.307135;1.000000;0.000143;-0.000301;0.001421;-0.000011;0.001421;-0.000301;-89.633787;0.001497;
1146;1837;-0.003780;86.306415;1.000000;0.000168;-0.000303;0.001423;0.000021;0.001423;-0.000303;89.311395;0.001499;
1101;1667;0.033490;86.020721;1.000000;0.000135;-0.001029;0.002239;-0.000117;0.002243;-0.001033;-87.955663;0.002246;
1241;1717;-0.080219;86.113558;1.000000;0.000145;-0.000638;0.001643;0.000171;0.001656;-0.000650;85.726538;0.001669;
1106;1462;0.196997;84.581729;0.999980;0.000825;-0.007869;0.018326;-0.001053;0.018368;-0.007911;-87.700806;0.018427;
1091;1842;0.012209;86.313099;1.000000;0.000186;-0.000292;0.001420;-0.000068;0.001422;-0.000295;-87.712853;0.001502;
1036;1677;0.088790;86.047807;1.000000;0.000179;-0.000716;0.001805;-0.000251;0.001830;-0.000741;-84.364096;0.001841;
1036;1692;0.081901;86.074119;1.000000;0.000117;-0.000685;0.001723;-0.000209;0.001741;-0.000703;-85.072163;0.001752;
1036;1697;0.079539;86.082389;1.000000;0.000138;-0.000677;0.001701;-0.000198;0.001718;-0.000694;-85.263528;0.001728;
1136;1202;-0.373595;66.492379;0.998810;0.009452;-0.076757;0.205981;0.000754;0.205983;-0.076759;89.847270;0.208198;
1191;1822;-0.020852;86.283197;1.000000;0.000165;-0.000375;0.001472;0.000082;0.001476;-0.000378;87.466962;0.001533;
1146;1842;-0.003738;86.314159;1.000000;0.000157;-0.000283;0.001408;0.000021;0.001408;-0.000284;89.280541;0.001490;
1126;1842;0.002210;86.313935;1.000000;0.000130;-0.000281;0.001407;-0.000010;0.001407;-0.000281;-89.654285;0.001489;
1196;1662;-0.067334;86.012606;1.000000;0.000156;-0.000960;0.002197;0.000219;0.002212;-0.000975;86.058389;0.002217;
1161;1827;-0.009143;86.292332;1.000000;0.000171;-0.000342;0.001451;0.000042;0.001452;-0.000343;88.658669;0.001518;
1121;1672;0.011915;86.031237;1.000000;0.000141;-0.001040;0.002225;-0.000044;0.002226;-0.001041;-89.220279;0.002227;
1031;1722;0.072931;86.123266;1.000000;0.000155;-0.000640;0.001634;-0.000153;0.001644;-0.000650;-86.164806;0.001656;
1021;1802;0.050457;86.248817;1.000000;0.000177;-0.000474;0.001520;-0.000122;0.001527;-0.000482;-86.508745;0.001562;
1041;1697;0.076504;86.082581;1.000000;0.000143;-0.000693;0.001717;-0.000193;0.001733;-0.000708;-85.458664;0.001742;
1136;1207;-0.323456;67.417808;0.998888;0.009247;-0.073163;0.193395;0.000926;0.193398;-0.073167;89.801014;0.195298;
1151;1477;-0.122083;84.820062;0.999981;0.001184;-0.006591;0.015772;0.000595;0.015787;-0.006607;88.476782;0.015857;
1131;1842;0.000637;86.313890;1.000000;0.000140;-0.000282;0.001407;-0.000002;0.001407;-0.000282;-89.917171;0.001488;
1206;1797;-0.033956;86.244761;1.000000;0.000211;-0.000475;0.001531;0.000091;0.001535;-0.000479;87.398490;0.001571;
1076;1832;0.018548;86.298820;1.000000;0.000166;-0.000335;0.001454;-0.000086;0.001458;-0.000339;-87.262365;0.001525;
1241;1712;-0.082247;86.105405;1.000000;0.000154;-0.000642;0.001654;0.000180;0.001668;-0.000656;85.552262;0.001681;
1166;1827;-0.011051;86.291790;1.000000;0.000157;-0.000343;0.001453;0.000049;0.001454;-0.000344;88.441880;0.001520;
1036;1722;0.069703;86.123677;1.000000;0.000121;-0.000647;0.001641;-0.000147;0.001651;-0.000656;-86.332509;0.001662;
1251;1717;-0.086111;86.113319;1.000000;0.000165;-0.000625;0.001625;0.000184;0.001640;-0.000640;85.362539;0.001653;
1041;1662;0.091027;86.019830;1.000000;0.000160;-0.000792;0.001976;-0.000298;0.002007;-0.000824;-83.926045;0.002018;
1141;1202;-0.757935;66.467615;0.998796;0.010375;-0.076708;0.205751;0.001324;0.205758;-0.076714;89.731491;0.207964;
1251;1727;-0.082271;86.129341;1.000000;0.000177;-0.000619;0.001613;0.000169;0.001626;-0.000632;85.706860;0.001639;
1136;1842;-0.000714;86.313801;1.000000;0.000133;-0.000283;0.001407;0.000005;0.001407;-0.000283;89.829970;0.001489;
1206;1657;-0.078510;86.003063;1.000000;0.000137;-0.000936;0.002203;0.000266;0.002225;-0.000959;85.192646;0.002232;
1076;1837;0.017678;86.306450;1.000000;0.000170;-0.000316;0.001436;-0.000088;0.001440;-0.000321;-87.138572;0.001512;
1016;1782;0.060438;86.218138;1.000000;0.000167;-0.000520;0.001533;-0.000119;0.001540;-0.000527;-86.681702;0.001566;
1171;1827;-0.013025;86.292010;1.000000;0.000182;-0.000343;0.001455;0.000056;0.001456;-0.000345;88.231903;0.001522;
1036;1492;0.534201;85.036798;0.999983;0.000979;-0.005686;0.013314;-0.003064;0.013796;-0.006168;-81.061407;0.013822;
1251;1722;-0.083744;86.121100;1.000000;0.000178;-0.000623;0.001618;0.000176;0.001632;-0.000637;85.525972;0.001645;
1041;1692;0.078768;86.073970;1.000000;0.000132;-0.000703;0.001743;-0.000203;0.001760;-0.000720;-85.278137;0.001770;
1211;1662;-0.081100;86.014408;1.000000;0.000150;-0.000890;0.002114;0.000262;0.002137;-0.000912;85.054109;0.002144;
1146;1202;-1.149908;66.459021;0.998479;0.011677;-0.076778;0.205675;0.001889;0.205687;-0.076790;89.616871;0.207876;
1251;1732;-0.080690;86.137588;1.000000;0.000166;-0.000614;0.001609;0.000161;0.001620;-0.000626;85.876329;0.001634;
1016;1787;0.058910;86.225635;1.000000;0.000126;-0.000508;0.001530;-0.000119;0.001536;-0.000515;-86.678790;0.001564;
1016;1677;0.101835;86.049240;1.000000;0.000164;-0.000616;0.001690;-0.000278;0.001723;-0.000649;-83.219507;0.001740;
1016;1692;0.095040;86.073852;1.000000;0.000148;-0.000616;0.001648;-0.000233;0.001672;-0.000640;-84.178564;0.001687;
1156;1642;-0.028008;85.959233;1.000000;0.000165;-0.001179;0.002597;0.000105;0.002599;-0.001182;88.409770;0.002603;
1126;1672;0.006822;86.031321;1.000000;0.000136;-0.001043;0.002230;-0.000028;0.002230;-0.001043;-89.510975;0.002232;
1086;1492;0.252017;85.049450;0.999983;0.001055;-0.005612;0.013405;-0.001473;0.013518;-0.005725;-85.597661;0.013571;
1206;1822;-0.026712;86.282191;1.000000;0.000110;-0.000388;0.001480;0.000102;0.001486;-0.000393;86.871531;0.001540;
1081;1822;0.019098;86.283895;1.000000;0.000165;-0.000373;0.001465;-0.000075;0.001469;-0.000376;-87.669290;0.001526;
1201;1647;-0.076591;85.978461;1.000000;0.000165;-0.001006;0.002372;0.000282;0.002395;-0.001030;85.265273;0.002403;
1251;1737;-0.078576;86.145297;1.000000;0.000141;-0.000608;0.001602;0.000154;0.001613;-0.000618;86.032885;0.001628;
1196;1192;-5.700903;63.711707;0.998560;0.009730;-0.086679;0.235179;0.009101;0.235437;-0.086936;88.381532;0.238104;
1016;1792;0.056291;86.232792;1.000000;0.000157;-0.000496;0.001524;-0.000119;0.001531;-0.000503;-86.642457;0.001561;
1016;1682;0.099483;86.057741;1.000000;0.000148;-0.000614;0.001671;-0.000261;0.001700;-0.000643;-83.562570;0.001717;
1161;1642;-0.033904;85.959623;1.000000;0.000203;-0.001170;0.002587;0.000127;0.002591;-0.001175;88.068596;0.002595;
1016;1697;0.092844;86.082204;1.000000;0.000126;-0.000617;0.001638;-0.000222;0.001660;-0.000638;-84.425144;0.001675;
1051;1707;0.065298;86.100221;1.000000;0.000137;-0.000703;0.001708;-0.000158;0.001718;-0.000713;-86.270729;0.001726;
1081;1492;0.278948;85.049144;0.999981;0.001365;-0.005624;0.013398;-0.001637;0.013538;-0.005764;-85.116676;0.013587;
1031;1692;0.085117;86.073855;1.000000;0.000164;-0.000667;0.001704;-0.000216;0.001723;-0.000686;-84.846133;0.001735;
1081;1827;0.017997;86.291463;1.000000;0.000141;-0.000354;0.001459;-0.000077;0.001463;-0.000358;-87.568003;0.001525;
1021;1697;0.090081;86.082259;1.000000;0.000129;-0.000631;0.001653;-0.000216;0.001674;-0.000651;-84.640917;0.001687;
1046;1682;0.079274;86.056714;1.000000;0.000160;-0.000753;0.001829;-0.000223;0.001848;-0.000772;-85.097482;0.001857;
1201;1192;-6.158969;63.530435;0.998622;0.008087;-0.086914;0.236176;0.010222;0.236499;-0.087237;88.189598;0.239194;
1016;1687;0.097021;86.065774;1.000000;0.000173;-0.000615;0.001658;-0.000246;0.001684;-0.000641;-83.888008;0.001700;
1196;1792;-0.029950;86.238051;1.000000;0.000151;-0.000485;0.001536;0.000076;0.001539;-0.000488;87.854375;0.001573;
1166;1642;-0.039759;85.960305;1.000000;0.000167;-0.001158;0.002577;0.000149;0.002583;-0.001164;87.713914;0.002587;
1016;1702;0.090653;86.090398;1.000000;0.000154;-0.000616;0.001630;-0.000210;0.001650;-0.000635;-84.709381;0.001664;
1071;1822;0.022366;86.283172;1.000000;0.000173;-0.000374;0.001471;-0.000089;0.001475;-0.000378;-87.258531;0.001532;
1181;1482;-0.301135;84.891846;0.999979;0.001022;-0.006279;0.014982;0.001618;0.015104;-0.006401;85.673334;0.015163;
1026;1677;0.095244;86.048820;1.000000;0.000132;-0.000665;0.001745;-0.000264;0.001774;-0.000694;-83.824262;0.001788;
1206;1192;-6.599266;63.394682;0.998613;0.009340;-0.087276;0.237236;0.011284;0.237628;-0.087668;88.010889;0.240334;
1051;1682;0.075533;86.056672;1.000000;0.000139;-0.000777;0.001858;-0.000216;0.001876;-0.000795;-85.345075;0.001883;
1081;1832;0.016763;86.298711;1.000000;0.000148;-0.000335;0.001451;-0.000079;0.001454;-0.000338;-87.480163;0.001522;
1021;1702;0.087676;86.090181;1.000000;0.000132;-0.000628;0.001643;-0.000204;0.001661;-0.000646;-84.914409;0.001675;
1076;1822;0.020706;86.283563;1.000000;0.000163;-0.000373;0.001468;-0.000082;0.001472;-0.000377;-87.447323;0.001529;
1041;1812;0.037716;86.266457;0.999999;0.000194;-0.000428;0.001509;-0.000117;0.001516;-0.000436;-86.548915;0.001561;
1021;1692;0.091939;86.073724;1.000000;0.000176;-0.000632;0.001665;-0.000227;0.001688;-0.000654;-84.409454;0.001702;
1071;1827;0.021465;86.291058;1.000000;0.000148;-0.000355;0.001464;-0.000090;0.001468;-0.000360;-87.166326;0.001531;
1026;1777;0.056810;86.210619;1.000000;0.000171;-0.000538;0.001552;-0.000117;0.001559;-0.000544;-86.795089;0.001583;
1026;1682;0.092549;86.057296;1.000000;0.000160;-0.000658;0.001719;-0.000248;0.001745;-0.000684;-84.113388;0.001758;
1101;1467;0.223242;84.670035;0.999984;0.001119;-0.007453;0.017445;-0.001190;0.017502;-0.007510;-87.268894;0.017560;
1166;1222;-2.196934;69.609088;0.998630;0.010151;-0.065355;0.166911;0.004512;0.166999;-0.065443;88.887638;0.168295;
1081;1837;0.015975;86.306546;1.000000;0.000154;-0.000316;0.001433;-0.000081;0.001436;-0.000320;-87.349807;0.001508;
1181;1817;-0.018089;86.277138;1.000000;0.000154;-0.000386;0.001481;0.000065;0.001483;-0.000388;88.016394;0.001538;
1021;1707;0.085695;86.098589;1.000000;0.000141;-0.000628;0.001637;-0.000193;0.001653;-0.000644;-85.165460;0.001667;
1026;1692;0.088731;86.073647;1.000000;0.000212;-0.000649;0.001685;-0.000221;0.001706;-0.000670;-84.629103;0.001719;
1076;1842;0.016751;86.312386;1.000000;0.000162;-0.000297;0.001427;-0.000091;0.001432;-0.000301;-86.998156;0.001509;
1201;1642;-0.078492;85.966807;1.000000;0.000206;-0.001034;0.002454;0.000300;0.002480;-0.001060;85.116222;0.002488;
1031;1777;0.054258;86.211699;1.000000;0.000170;-0.000537;0.001557;-0.000112;0.001563;-0.000543;-86.951868;0.001587;
1026;1687;0.090748;86.065240;1.000000;0.000216;-0.000653;0.001699;-0.000234;0.001722;-0.000676;-84.384585;0.001735;
1031;1707;0.078945;86.098830;1.000000;0.000136;-0.000651;0.001660;-0.000181;0.001674;-0.000665;-85.550590;0.001686;
1131;1837;0.000677;86.306634;1.000000;0.000120;-0.000302;0.001421;-0.000003;0.001421;-0.000302;-89.891210;0.001497;
1191;1802;-0.025215;86.254260;1.000000;0.000106;-0.000449;0.001514;0.000074;0.001517;-0.000451;87.848866;0.001558;
1106;1212;1.855469;68.223632;0.998628;0.009206;-0.071329;0.185843;-0.003067;0.185879;-0.071366;-89.316889;0.187541;
1006;1812;0.053629;86.261929;1.000000;0.000184;-0.000448;0.001510;-0.000127;0.001518;-0.000456;-86.313974;0.001558;
1066;1657;0.070917;86.003521;1.000000;0.000142;-0.000950;0.002209;-0.000253;0.002229;-0.000970;-85.456803;0.002235;
1086;1602;0.064142;85.849991;0.999999;0.000206;-0.001436;0.003488;-0.000389;0.003519;-0.001467;-85.506881;0.003535;
1231;1707;-0.077683;86.097802;1.000000;0.000142;-0.000670;0.001684;0.000177;0.001697;-0.000683;85.720682;0.001708;
1081;1842;0.014830;86.312589;1.000000;0.000186;-0.000297;0.001423;-0.000084;0.001427;-0.000301;-87.213211;0.001505;
1111;1667;0.023244;86.019675;1.000000;0.000156;-0.001051;0.002266;-0.000081;0.002268;-0.001053;-88.593995;0.002270;
1021;1797;0.052259;86.241296;1.000000;0.000142;-0.000487;0.001523;-0.000121;0.001530;-0.000494;-86.568658;0.001562;
1071;1677;0.060188;86.045210;1.000000;0.000141;-0.000885;0.002014;-0.000190;0.002026;-0.000898;-86.260130;0.002030;
1136;1837;-0.000880;86.306476;1.000000;0.000123;-0.000303;0.001421;0.000004;0.001421;-0.000303;89.866491;0.001497;
1031;1712;0.076836;86.106600;1.000000;0.000129;-0.000648;0.001652;-0.000171;0.001664;-0.000661;-85.781848;0.001676;
1191;1807;-0.024257;86.261573;1.000000;0.000093;-0.000430;0.001506;0.000076;0.001509;-0.000433;87.766587;0.001554;
951;1862;0.049667;86.320018;0.999999;0.000189;-0.000566;0.001599;-0.000095;0.001603;-0.000570;-87.483412;0.001625;
1071;1657;0.066148;86.002523;1.000000;0.000159;-0.000971;0.002237;-0.000239;0.002255;-0.000989;-85.770843;0.002260;
1086;1842;0.013355;86.312775;1.000000;0.000169;-0.000294;0.001421;-0.000076;0.001425;-0.000297;-87.455118;0.001503;
1006;1817;0.051406;86.269362;1.000000;0.000152;-0.000438;0.001511;-0.000131;0.001520;-0.000447;-86.160029;0.001562;
1111;1212;1.494462;68.272928;0.998621;0.010636;-0.070875;0.184883;-0.002292;0.184904;-0.070896;-89.486675;0.186572;
1086;1822;0.017500;86.284023;1.000000;0.000156;-0.000369;0.001464;-0.000067;0.001467;-0.000372;-87.905112;0.001525;
1236;1707;-0.080928;86.096337;1.000000;0.000140;-0.000657;0.001672;0.000184;0.001687;-0.000671;85.501366;0.001699;
1076;1677;0.055823;86.044615;1.000000;0.000119;-0.000905;0.002038;-0.000177;0.002049;-0.000916;-86.561419;0.002052;
1011;1782;0.063299;86.217684;1.000000;0.000188;-0.000516;0.001527;-0.000119;0.001534;-0.000523;-86.664518;0.001559;
1236;1697;-0.085387;86.080474;1.000000;0.000170;-0.000666;0.001701;0.000207;0.001719;-0.000684;85.049690;0.001731;
1256;1727;-0.085776;86.129087;1.000000;0.000203;-0.000610;0.001603;0.000175;0.001617;-0.000623;85.493070;0.001631;
1116;1672;0.017308;86.031206;1.000000;0.000135;-0.001034;0.002218;-0.000061;0.002219;-0.001036;-88.929257;0.002220;
951;1867;0.045801;86.327630;0.999999;0.000175;-0.000548;0.001634;-0.000129;0.001642;-0.000556;-86.626103;0.001670;
1086;1827;0.016536;86.291994;1.000000;0.000128;-0.000351;0.001458;-0.000069;0.001461;-0.000353;-87.817288;0.001524;
1241;1707;-0.084026;86.096658;1.000000;0.000137;-0.000645;0.001662;0.000190;0.001678;-0.000660;85.320626;0.001691;
1116;1212;1.137500;68.297055;0.998655;0.011843;-0.070425;0.183955;-0.001596;0.183965;-0.070436;-89.640586;0.185640;
1011;1787;0.061167;86.224262;1.000000;0.000171;-0.000505;0.001524;-0.000118;0.001531;-0.000512;-86.670242;0.001559;
1011;1697;0.095764;86.082296;1.000000;0.000137;-0.000603;0.001623;-0.000230;0.001646;-0.000627;-84.160946;0.001662;
1161;1792;-0.013482;86.240075;1.000000;0.000200;-0.000474;0.001521;0.000035;0.001522;-0.000475;88.988415;0.001558;
1021;1757;0.067032;86.178965;1.000000;0.000139;-0.000577;0.001577;-0.000133;0.001585;-0.000585;-86.488215;0.001604;
971;1807;0.072009;86.245710;1.000000;0.000240;-0.000512;0.001469;-0.000056;0.001471;-0.000514;-88.376049;0.001493;
1241;1697;-0.088788;86.080434;1.000000;0.000144;-0.000650;0.001684;0.000212;0.001703;-0.000669;84.857984;0.001716;
1256;1732;-0.083462;86.136984;1.000000;0.000184;-0.000604;0.001598;0.000167;0.001611;-0.000617;85.688048;0.001625;
1201;1717;-0.052801;86.117788;1.000000;0.000161;-0.000718;0.001701;0.000124;0.001708;-0.000724;87.063088;0.001714;
1086;1832;0.015523;86.299153;1.000000;0.000114;-0.000332;0.001449;-0.000071;0.001452;-0.000335;-87.732110;0.001521;
1231;1627;-0.114793;85.940477;0.999999;0.000261;-0.001031;0.002682;0.000543;0.002760;-0.001109;81.850409;0.002777;
1011;1792;0.058758;86.231559;1.000000;0.000203;-0.000494;0.001520;-0.000119;0.001527;-0.000501;-86.642724;0.001556;
1011;1702;0.093677;86.090452;1.000000;0.000145;-0.000605;0.001616;-0.000218;0.001637;-0.000626;-84.450755;0.001652;
1121;1822;0.004396;86.285534;1.000000;0.000128;-0.000359;0.001459;-0.000017;0.001459;-0.000359;-89.469044;0.001520;
1021;1762;0.065371;86.186797;1.000000;0.000163;-0.000567;0.001571;-0.000128;0.001579;-0.000574;-86.575545;0.001598;
1166;1212;-2.453242;68.012298;0.998372;0.009455;-0.071059;0.185550;0.004632;0.185634;-0.071143;88.966306;0.187313;
1056;1667;0.076681;86.026623;1.000000;0.000112;-0.000859;0.002028;-0.000249;0.002049;-0.000880;-85.112235;0.002056;
971;1812;0.069357;86.252218;1.000000;0.000163;-0.000511;0.001477;-0.000060;0.001478;-0.000513;-88.267516;0.001501;
1256;1737;-0.081326;86.144581;1.000000;0.000152;-0.000599;0.001591;0.000159;0.001602;-0.000610;85.866290;0.001618;
1026;1752;0.065702;86.171464;1.000000;0.000166;-0.000590;0.001591;-0.000128;0.001598;-0.000598;-86.657579;0.001615;
1091;1822;0.015591;86.284693;1.000000;0.000170;-0.000367;0.001463;-0.000059;0.001465;-0.000369;-88.147340;0.001524;
1176;1807;-0.018002;86.262223;1.000000;0.000143;-0.000421;0.001502;0.000058;0.001504;-0.000423;88.283208;0.001551;
1031;1677;0.091972;86.048405;1.000000;0.000141;-0.000691;0.001774;-0.000258;0.001801;-0.000718;-84.092562;0.001813;
1121;1827;0.004058;86.292440;1.000000;0.000123;-0.000340;0.001448;-0.000017;0.001449;-0.000340;-89.452529;0.001515;
1026;1762;0.062199;86.187932;1.000000;0.000136;-0.000572;0.001578;-0.000122;0.001585;-0.000579;-86.775292;0.001604;
1006;1692;0.100954;86.074398;1.000000;0.000169;-0.000585;0.001613;-0.000250;0.001641;-0.000613;-83.595573;0.001658;
971;1817;0.066961;86.259940;1.000000;0.000169;-0.000515;0.001483;-0.000062;0.001485;-0.000516;-88.224018;0.001508;
1131;1202;0.035327;66.506144;0.998711;0.010113;-0.076795;0.206350;0.000218;0.206350;-0.076795;89.955890;0.208586;
1031;1607;0.134399;85.886859;0.999999;0.000383;-0.001275;0.003416;-0.000827;0.003557;-0.001417;-80.291741;0.003582;
1026;1757;0.063960;86.179845;1.000000;0.000142;-0.000582;0.001584;-0.000125;0.001591;-0.000589;-86.706315;0.001609;
1246;1742;-0.073600;86.153803;1.000000;0.000171;-0.000608;0.001607;0.000143;0.001617;-0.000617;86.309738;0.001632;
1096;1822;0.013313;86.284899;1.000000;0.000151;-0.000365;0.001461;-0.000052;0.001462;-0.000366;-88.371356;0.001522;
1021;1497;0.585251;85.094715;0.999980;0.001326;-0.005351;0.012558;-0.003316;0.013153;-0.005946;-79.839110;0.013173;
1016;1707;0.088681;86.098377;1.000000;0.000174;-0.000617;0.001625;-0.000199;0.001642;-0.000634;-84.965636;0.001656;
1031;1682;0.089637;86.056929;1.000000;0.000159;-0.000682;0.001745;-0.000242;0.001769;-0.000706;-84.357952;0.001781;
1006;1697;0.099074;86.082323;1.000000;0.000150;-0.000588;0.001607;-0.000238;0.001632;-0.000614;-83.873883;0.001649;
1216;1697;-0.071429;86.081715;1.000000;0.000168;-0.000738;0.001772;0.000180;0.001785;-0.000751;85.911283;0.001792;
976;1822;0.061953;86.269002;1.000000;0.000176;-0.000442;0.001492;-0.000091;0.001497;-0.000446;-87.298961;0.001537;
1131;1207;0.060768;67.456533;0.998848;0.009151;-0.073185;0.193644;0.000407;0.193645;-0.073186;89.912640;0.195559;
1221;1667;-0.087589;86.025783;1.000000;0.000140;-0.000813;0.001992;0.000269;0.002017;-0.000839;84.562004;0.002027;
1036;1607;0.127733;85.884865;0.999999;0.000304;-0.001286;0.003400;-0.000778;0.003526;-0.001412;-80.810915;0.003549;
1121;1832;0.003875;86.299916;1.000000;0.000140;-0.000321;0.001436;-0.000019;0.001437;-0.000321;-89.370098;0.001508;
1251;1742;-0.076198;86.153098;1.000000;0.000129;-0.000601;0.001598;0.000149;0.001608;-0.000611;86.152482;0.001623;
1101;1822;0.011584;86.285172;1.000000;0.000126;-0.000364;0.001459;-0.000045;0.001460;-0.000365;-88.586067;0.001520;
1071;1627;0.074640;85.929238;1.000000;0.000165;-0.001144;0.002720;-0.000338;0.002749;-0.001173;-85.044047;0.002759;
1206;1467;-0.539527;84.642321;0.999981;0.001272;-0.007539;0.017365;0.002769;0.017669;-0.007843;83.730804;0.017706;
1241;1747;-0.068532;86.162439;1.000000;0.000134;-0.000604;0.001606;0.000133;0.001614;-0.000611;86.579307;0.001630;
946;1857;0.064664;86.307602;0.999960;0.001816;-0.000632;0.001578;-0.000040;0.001578;-0.000633;-88.959249;0.001589;
1006;1702;0.096582;86.090455;1.000000;0.000139;-0.000592;0.001601;-0.000226;0.001624;-0.000615;-84.165462;0.001640;
981;1822;0.060062;86.270961;1.000000;0.000158;-0.000440;0.001498;-0.000103;0.001504;-0.000445;-86.972766;0.001545;
1221;1672;-0.085718;86.035529;1.000000;0.000144;-0.000794;0.001937;0.000253;0.001960;-0.000817;84.743704;0.001969;
1226;1667;-0.091420;86.026543;1.000000;0.000122;-0.000786;0.001956;0.000280;0.001985;-0.000814;84.221577;0.001995;
1166;1217;-2.332679;68.832604;0.998669;0.010678;-0.068175;0.175982;0.004611;0.176070;-0.068262;88.918445;0.177544;
1256;1742;-0.078872;86.152871;1.000000;0.000182;-0.000592;0.001585;0.000153;0.001596;-0.000603;85.992623;0.001612;
1031;1747;0.064054;86.163737;1.000000;0.000143;-0.000604;0.001603;-0.000122;0.001610;-0.000611;-86.837741;0.001626;
1086;1627;0.056741;85.924740;1.000000;0.000227;-0.001190;0.002766;-0.000257;0.002783;-0.001206;-86.298531;0.002791;
1071;1632;0.073153;85.942297;1.000000;0.000205;-0.001104;0.002619;-0.000315;0.002645;-0.001131;-85.193200;0.002654;
946;1862;0.057675;86.310502;0.999964;0.001972;-0.000624;0.001601;-0.000061;0.001603;-0.000625;-88.440660;0.001616;
1211;1467;-0.577499;84.641646;0.999983;0.001436;-0.007575;0.017370;0.002964;0.017717;-0.007923;83.316780;0.017750;
1016;1797;0.054291;86.240161;1.000000;0.000196;-0.000485;0.001521;-0.000120;0.001528;-0.000492;-86.591056;0.001560;
986;1822;0.057609;86.272092;1.000000;0.000173;-0.000439;0.001503;-0.000112;0.001510;-0.000446;-86.705459;0.001551;
1221;1677;-0.083839;86.045284;1.000000;0.000146;-0.000776;0.001890;0.000238;0.001911;-0.000797;84.946978;0.001919;
1226;1677;-0.087531;86.045745;1.000000;0.000144;-0.000752;0.001859;0.000246;0.001882;-0.000775;84.672872;0.001892;
1231;1712;-0.075582;86.106218;1.000000;0.000167;-0.000663;0.001671;0.000167;0.001683;-0.000675;85.938163;0.001694;
1126;1212;0.424738;68.370744;0.998607;0.008120;-0.069804;0.182445;-0.000236;0.182445;-0.069804;-89.946307;0.184114;
1021;1787;0.056986;86.226032;1.000000;0.000171;-0.000512;0.001534;-0.000120;0.001541;-0.000519;-86.665909;0.001569;
1091;1627;0.050780;85.923546;1.000000;0.000189;-0.001203;0.002780;-0.000230;0.002793;-0.001217;-86.711031;0.002801;
1121;1812;0.004896;86.270644;1.000000;0.000156;-0.000397;0.001481;-0.000017;0.001481;-0.000398;-89.482640;0.001533;
946;1867;0.058260;86.322569;0.999968;0.001548;-0.000607;0.001646;-0.000100;0.001650;-0.000612;-87.467886;0.001668;
1261;1687;-0.105456;86.063965;1.000000;0.000188;-0.000587;0.001635;0.000267;0.001667;-0.000618;83.249426;0.001685;
971;1822;0.063968;86.267078;1.000000;0.000162;-0.000514;0.001481;-0.000071;0.001483;-0.000516;-87.975605;0.001506;
1216;1467;-0.618506;84.641249;0.999979;0.001273;-0.007606;0.017374;0.003156;0.017767;-0.007998;82.909230;0.017796;
1016;1802;0.052582;86.247963;1.000000;0.000174;-0.000473;0.001519;-0.000121;0.001526;-0.000480;-86.533460;0.001561;
1221;1682;-0.081906;86.054874;1.000000;0.000155;-0.000760;0.001852;0.000222;0.001870;-0.000778;85.181721;0.001879;
1231;1667;-0.095540;86.027502;1.000000;0.000149;-0.000756;0.001920;0.000291;0.001951;-0.000788;83.874126;0.001963;
1236;1712;-0.078795;86.105213;1.000000;0.000162;-0.000652;0.001662;0.000174;0.001675;-0.000665;85.728683;0.001687;
1171;1222;-2.532574;69.550967;0.998470;0.009843;-0.065787;0.168111;0.005243;0.168228;-0.065905;88.716615;0.169537;
946;1872;0.050781;86.329165;0.999981;0.001396;-0.000575;0.001671;-0.000147;0.001681;-0.000585;-86.267183;0.001706;
1021;1792;0.054394;86.233566;1.000000;0.000160;-0.000499;0.001528;-0.000120;0.001535;-0.000506;-86.629691;0.001565;
1096;1627;0.045359;85.922553;1.000000;0.000158;-0.001215;0.002792;-0.000204;0.002803;-0.001226;-87.099624;0.002810;
1091;1827;0.014825;86.292525;1.000000;0.000168;-0.000348;0.001456;-0.000060;0.001458;-0.000350;-88.082395;0.001523;
1261;1692;-0.103126;86.072782;1.000000;0.000177;-0.000590;0.001626;0.000251;0.001654;-0.000618;83.605496;0.001671;
991;1822;0.055335;86.273447;1.000000;0.000200;-0.000439;0.001506;-0.000120;0.001514;-0.000446;-86.492602;0.001555;
951;1872;0.041813;86.335495;1.000000;0.000194;-0.000518;0.001653;-0.000170;0.001667;-0.000531;-85.544124;0.001703;
1236;1687;-0.089672;86.063352;1.000000;0.000171;-0.000681;0.001747;0.000232;0.001769;-0.000703;84.599873;0.001781;
1226;1692;-0.080537;86.072306;1.000000;0.000107;-0.000714;0.001765;0.000204;0.001782;-0.000730;85.329439;0.001791;
1011;1687;0.099953;86.065918;1.000000;0.000137;-0.000597;0.001639;-0.000255;0.001667;-0.000626;-83.584279;0.001685;
1236;1767;-0.058493;86.195257;1.000000;0.000136;-0.000563;0.001580;0.000111;0.001585;-0.000569;87.030972;0.001606;
1211;1497;-0.411038;85.086639;0.999984;0.001112;-0.005403;0.012836;0.002338;0.013131;-0.005698;82.810084;0.013169;
1131;1197;0.003908;65.632314;0.998408;0.010604;-0.080586;0.220352;0.000087;0.220352;-0.080586;89.983490;0.222985;
1096;1827;0.012471;86.292635;1.000000;0.000154;-0.000346;0.001454;-0.000053;0.001455;-0.000348;-88.328778;0.001520;
1191;1637;-0.069191;85.952341;1.000000;0.000199;-0.001105;0.002576;0.000275;0.002596;-0.001125;85.748599;0.002604;
1046;1657;0.089122;86.008044;1.000000;0.000166;-0.000844;0.002077;-0.000308;0.002109;-0.000876;-84.051847;0.002119;
1261;1697;-0.100851;86.080480;1.000000;0.000174;-0.000594;0.001618;0.000238;0.001643;-0.000620;83.925694;0.001659;
996;1822;0.053153;86.274443;1.000000;0.000197;-0.000437;0.001509;-0.000126;0.001517;-0.000445;-86.316583;0.001559;
1041;1607;0.122321;85.883177;0.999999;0.000401;-0.001294;0.003384;-0.000732;0.003496;-0.001406;-81.306925;0.003518;
1241;1687;-0.093109;86.063507;1.000000;0.000155;-0.000659;0.001723;0.000238;0.001746;-0.000683;84.352441;0.001760;
1021;1747;0.070552;86.162921;1.000000;0.000194;-0.000592;0.001593;-0.000138;0.001602;-0.000601;-86.400217;0.001618;
1211;1702;-0.065708;86.091159;1.000000;0.000140;-0.000740;0.001757;0.000163;0.001768;-0.000751;86.278922;0.001775;
1116;1837;0.005230;86.307079;1.000000;0.000158;-0.000304;0.001420;-0.000029;0.001420;-0.000304;-89.048789;0.001496;
1136;1197;-0.395497;65.598629;0.998525;0.013951;-0.080506;0.219773;0.000647;0.219774;-0.080508;89.876597;0.222377;
1101;1827;0.010765;86.291980;1.000000;0.000112;-0.000345;0.001451;-0.000045;0.001452;-0.000346;-88.563442;0.001517;
1071;1477;0.404649;84.824954;0.999979;0.001030;-0.006711;0.015723;-0.002234;0.015943;-0.006931;-84.368118;0.015988;
1026;1697;0.086620;86.081845;1.000000;0.000151;-0.000646;0.001670;-0.000211;0.001689;-0.000665;-84.842876;0.001702;
1051;1657;0.084589;86.006964;1.000000;0.000163;-0.000874;0.002113;-0.000295;0.002142;-0.000903;-84.405448;0.002151;
1236;1682;-0.092392;86.055183;1.000000;0.000152;-0.000690;0.001771;0.000246;0.001795;-0.000714;84.356973;0.001808;
1296;1692;-0.121898;86.076363;1.000000;0.000176;-0.000412;0.001486;0.000255;0.001520;-0.000445;82.488096;0.001563;
1246;1687;-0.096589;86.063194;1.000000;0.000153;-0.000641;0.001700;0.000243;0.001725;-0.000666;84.131777;0.001739;
1071;1832;0.020366;86.298822;1.000000;0.000154;-0.000336;0.001455;-0.000092;0.001460;-0.000341;-87.081014;0.001528;
1021;1712;0.083164;86.106711;1.000000;0.000143;-0.000627;0.001633;-0.000184;0.001648;-0.000642;-85.374533;0.001661;
1071;1602;0.085906;85.855413;0.999999;0.000318;-0.001429;0.003516;-0.000523;0.003571;-0.001484;-84.027618;0.003587;
1211;1707;-0.063979;86.099707;1.000000;0.000156;-0.000724;0.001730;0.000152;0.001740;-0.000733;86.460078;0.001747;
1186;1667;-0.055999;86.021679;1.000000;0.000151;-0.000978;0.002189;0.000178;0.002199;-0.000988;86.794124;0.002202;
1186;1812;-0.021185;86.269675;1.000000;0.000115;-0.000408;0.001494;0.000070;0.001497;-0.000411;87.902085;0.001547;
1026;1702;0.084482;86.090154;1.000000;0.000145;-0.000642;0.001657;-0.000198;0.001674;-0.000659;-85.104485;0.001687;
1226;1672;-0.089325;86.036273;1.000000;0.000131;-0.000768;0.001903;0.000263;0.001929;-0.000794;84.436249;0.001939;
1076;1482;0.350278;84.900381;0.999980;0.001187;-0.006350;0.014928;-0.001954;0.015106;-0.006528;-84.796231;0.015152;
1241;1682;-0.095722;86.054956;1.000000;0.000137;-0.000666;0.001743;0.000252;0.001769;-0.000692;84.086339;0.001783;
1081;1622;0.065125;85.912222;1.000000;0.000227;-0.001215;0.002854;-0.000304;0.002877;-0.001238;-85.754339;0.002886;
1296;1697;-0.119858;86.084168;1.000000;0.000187;-0.000427;0.001477;0.000238;0.001506;-0.000457;82.979704;0.001545;
1231;1672;-0.093392;86.037397;1.000000;0.000139;-0.000740;0.001869;0.000272;0.001897;-0.000768;84.118468;0.001909;
1236;1692;-0.087470;86.071972;1.000000;0.000181;-0.000673;0.001723;0.000219;0.001743;-0.000693;84.828606;0.001755;
1231;1702;-0.079644;86.089338;1.000000;0.000132;-0.000676;0.001698;0.000188;0.001713;-0.000691;85.495759;0.001723;
991;1692;0.109274;86.075854;1.000000;0.000140;-0.000539;0.001546;-0.000282;0.001583;-0.000576;-82.443824;0.001603;
1201;1822;-0.024759;86.282800;1.000000;0.000140;-0.000383;0.001478;0.000095;0.001483;-0.000388;87.080591;0.001538;
1076;1602;0.078341;85.854179;0.999999;0.000263;-0.001435;0.003504;-0.000480;0.003550;-0.001481;-84.503291;0.003567;
1021;1782;0.058208;86.218197;1.000000;0.000206;-0.000523;0.001539;-0.000120;0.001546;-0.000530;-86.686041;0.001572;
1246;1682;-0.098784;86.055199;1.000000;0.000165;-0.000645;0.001716;0.000258;0.001744;-0.000673;83.840855;0.001759;
1141;1197;-0.815613;65.572847;0.998657;0.009999;-0.080385;0.219245;0.001250;0.219250;-0.080390;89.761046;0.221834;
1081;1627;0.063397;85.925592;1.000000;0.000224;-0.001173;0.002751;-0.000285;0.002772;-0.001193;-85.871391;0.002781;
1141;1842;-0.002071;86.313882;1.000000;0.000132;-0.000283;0.001408;0.000013;0.001408;-0.000283;89.558247;0.001489;
1026;1707;0.082277;86.098445;1.000000;0.000139;-0.000639;0.001649;-0.000187;0.001664;-0.000654;-85.352608;0.001676;
1231;1677;-0.091420;86.046434;1.000000;0.000136;-0.000726;0.001829;0.000254;0.001854;-0.000751;84.384878;0.001865;
1236;1702;-0.083175;86.088849;1.000000;0.000152;-0.000661;0.001684;0.000195;0.001700;-0.000677;85.268827;0.001712;
1241;1692;-0.090903;86.072323;1.000000;0.000155;-0.000654;0.001703;0.000224;0.001724;-0.000675;84.612867;0.001737;
1081;1602;0.070946;85.852531;0.999999;0.000189;-0.001437;0.003496;-0.000435;0.003534;-0.001475;-84.996110;0.003550;
1201;1652;-0.075043;85.990557;1.000000;0.000145;-0.000982;0.002298;0.000265;0.002319;-0.001004;85.403150;0.002326;
991;1697;0.107014;86.083703;1.000000;0.000153;-0.000540;0.001545;-0.000261;0.001577;-0.000572;-82.965873;0.001597;
1031;1702;0.081115;86.090687;1.000000;0.000158;-0.000656;0.001670;-0.000192;0.001686;-0.000671;-85.303977;0.001698;
1226;1682;-0.085366;86.054944;1.000000;0.000129;-0.000738;0.001824;0.000229;0.001845;-0.000758;84.926292;0.001855;
1081;1637;0.060623;85.952736;1.000000;0.000182;-0.001107;0.002567;-0.000251;0.002584;-0.001124;-86.107595;0.002591;
1146;1197;-1.226739;65.531988;0.998627;0.009755;-0.080402;0.218864;0.001861;0.218876;-0.080413;89.643744;0.221427;
1081;1632;0.062041;85.939425;1.000000;0.000216;-0.001137;0.002657;-0.000266;0.002676;-0.001156;-86.001648;0.002684;
1231;1692;-0.083817;86.071841;1.000000;0.000151;-0.000693;0.001744;0.000211;0.001763;-0.000711;85.088284;0.001774;
1036;1682;0.086812;86.056883;1.000000;0.000153;-0.000705;0.001772;-0.000236;0.001794;-0.000728;-84.611106;0.001805;
1241;1702;-0.086521;86.088478;1.000000;0.000137;-0.000647;0.001671;0.000201;0.001688;-0.000664;85.081732;0.001701;
1246;1692;-0.094131;86.072110;1.000000;0.000150;-0.000639;0.001683;0.000229;0.001706;-0.000661;84.421140;0.001720;
991;1702;0.105392;86.091657;1.000000;0.000197;-0.000548;0.001542;-0.000248;0.001571;-0.000577;-83.325903;0.001589;
1036;1742;0.062887;86.156529;1.000000;0.000132;-0.000618;0.001612;-0.000121;0.001618;-0.000625;-86.911534;0.001632;
1001;1632;0.136463;85.971388;0.999999;0.000249;-0.000782;0.002335;-0.000674;0.002474;-0.000921;-78.306381;0.002501;
1246;1747;-0.071208;86.162043;1.000000;0.000167;-0.000599;0.001600;0.000138;0.001609;-0.000608;86.422860;0.001625;
1191;1827;-0.020043;86.291624;1.000000;0.000147;-0.000355;0.001465;0.000083;0.001468;-0.000359;87.401904;0.001531;
996;1692;0.106616;86.075485;1.000000;0.000115;-0.000551;0.001573;-0.000265;0.001605;-0.000584;-82.993251;0.001625;
1121;1212;0.778505;68.333029;0.998648;0.009111;-0.070063;0.183100;-0.000914;0.183103;-0.070067;-89.793042;0.184776;
1251;1687;-0.099490;86.063381;1.000000;0.000132;-0.000624;0.001678;0.000250;0.001705;-0.000650;83.877374;0.001720;
1076;1622;0.070983;85.914120;1.000000;0.000173;-0.001202;0.002844;-0.000334;0.002871;-0.001229;-85.319036;0.002881;
1026;1807;0.046422;86.257411;1.000000;0.000176;-0.000459;0.001517;-0.000124;0.001525;-0.000467;-86.430119;0.001562;
1246;1697;-0.091732;86.080091;1.000000;0.000131;-0.000638;0.001668;0.000216;0.001688;-0.000658;84.689825;0.001702;
1246;1702;-0.089497;86.087832;1.000000;0.000122;-0.000637;0.001658;0.000205;0.001676;-0.000655;84.929035;0.001689;
1006;1677;0.107249;86.049925;1.000000;0.000115;-0.000573;0.001642;-0.000295;0.001680;-0.000611;-82.547686;0.001701;
1041;1742;0.059885;86.157107;1.000000;0.000154;-0.000621;0.001615;-0.000116;0.001621;-0.000627;-87.047898;0.001635;
1086;1837;0.014404;86.306423;1.000000;0.000119;-0.000313;0.001431;-0.000073;0.001434;-0.000316;-87.592751;0.001507;
1251;1747;-0.074362;86.161299;1.000000;0.000164;-0.000592;0.001591;0.000143;0.001600;-0.000602;86.271833;0.001616;
996;1697;0.104356;86.082982;1.000000;0.000139;-0.000557;0.001568;-0.000251;0.001598;-0.000587;-83.349834;0.001616;
1196;1827;-0.021641;86.290992;1.000000;0.000136;-0.000359;0.001468;0.000089;0.001472;-0.000363;87.213563;0.001534;
1251;1692;-0.097227;86.071851;1.000000;0.000116;-0.000624;0.001664;0.000235;0.001688;-0.000648;84.186766;0.001704;
1191;1202;-4.770455;65.763232;0.998466;0.009957;-0.079811;0.212164;0.008764;0.212427;-0.080073;88.282170;0.214561;
1076;1627;0.069411;85.927326;1.000000;0.000217;-0.001157;0.002735;-0.000311;0.002760;-0.001182;-85.457170;0.002770;
1031;1807;0.044257;86.257831;1.000000;0.000160;-0.000455;0.001516;-0.000120;0.001524;-0.000462;-86.527029;0.001562;
1246;1707;-0.087315;86.096585;1.000000;0.000143;-0.000636;0.001652;0.000195;0.001668;-0.000652;85.170789;0.001681;
1021;1752;0.068817;86.171075;1.000000;0.000166;-0.000584;0.001584;-0.000136;0.001593;-0.000593;-86.436302;0.001610;
1006;1682;0.104905;86.057971;1.000000;0.000127;-0.000575;0.001627;-0.000278;0.001662;-0.000610;-82.918726;0.001682;
1021;1677;0.098531;86.048809;1.000000;0.000155;-0.000640;0.001716;-0.000271;0.001747;-0.000671;-83.523936;0.001763;
1116;1812;0.006936;86.270794;1.000000;0.000144;-0.000400;0.001482;-0.000024;0.001482;-0.000401;-89.270421;0.001534;
1256;1747;-0.077268;86.161019;1.000000;0.000211;-0.000584;0.001578;0.000147;0.001588;-0.000594;86.123014;0.001605;
996;1702;0.102056;86.090628;1.000000;0.000209;-0.000564;0.001565;-0.000239;0.001592;-0.000590;-83.686081;0.001609;
1201;1827;-0.023545;86.290531;1.000000;0.000142;-0.000364;0.001470;0.000096;0.001475;-0.000369;87.024083;0.001535;
1251;1697;-0.095244;86.080274;1.000000;0.000135;-0.000624;0.001652;0.000223;0.001674;-0.000646;84.469494;0.001688;
1076;1632;0.067892;85.940559;1.000000;0.000228;-0.001120;0.002638;-0.000291;0.002660;-0.001142;-85.594798;0.002669;
1101;1212;2.208373;68.215388;0.998613;0.008313;-0.071937;0.187007;-0.003940;0.187067;-0.071997;-89.128580;0.188713;
1071;1837;0.019073;86.306291;1.000000;0.000140;-0.000318;0.001438;-0.000094;0.001443;-0.000323;-86.938333;0.001515;
1246;1712;-0.085257;86.105370;1.000000;0.000138;-0.000635;0.001645;0.000184;0.001659;-0.000650;85.405335;0.001672;
1006;1687;0.102810;86.066121;1.000000;0.000154;-0.000580;0.001619;-0.000263;0.001650;-0.000611;-83.271803;0.001668;
1221;1792;-0.042465;86.236071;1.000000;0.000151;-0.000496;0.001545;0.000101;0.001550;-0.000501;87.162490;0.001581;
1021;1682;0.096005;86.057430;1.000000;0.000135;-0.000635;0.001694;-0.000254;0.001721;-0.000663;-83.842458;0.001736;
1246;1717;-0.083158;86.113526;1.000000;0.000143;-0.000632;0.001635;0.000177;0.001649;-0.000646;85.574785;0.001662;
1111;1837;0.007097;86.307070;1.000000;0.000153;-0.000306;0.001421;-0.000036;0.001422;-0.000306;-88.792742;0.001497;
1071;1617;0.077236;85.902229;1.000000;0.000211;-0.001242;0.002974;-0.000395;0.003010;-0.001279;-84.697809;0.003022;
1126;1847;0.002256;86.321730;1.000000;0.000154;-0.000261;0.001399;-0.000010;0.001399;-0.000261;-89.648453;0.001488;
1201;1832;-0.022018;86.298136;1.000000;0.000141;-0.000345;0.001461;0.000098;0.001466;-0.000350;86.894220;0.001531;
1086;1622;0.058648;85.910965;1.000000;0.000251;-0.001229;0.002865;-0.000273;0.002883;-0.001247;-86.198611;0.002892;
1126;1202;0.425302;66.547685;0.998337;0.012351;-0.076823;0.206941;-0.000381;0.206941;-0.076824;-89.923114;0.209216;
1241;1667;-0.102850;86.028219;1.000000;0.000168;-0.000698;0.001846;0.000309;0.001883;-0.000735;83.172880;0.001898;
1041;1732;0.063505;86.140904;1.000000;0.000140;-0.000638;0.001631;-0.000126;0.001638;-0.000645;-86.829698;0.001650;
1221;1687;-0.079482;86.063922;1.000000;0.000131;-0.000745;0.001818;0.000208;0.001835;-0.000762;85.391115;0.001844;
1021;1687;0.093893;86.065424;1.000000;0.000171;-0.000633;0.001677;-0.000240;0.001702;-0.000658;-84.139882;0.001716;
1246;1722;-0.080919;86.121578;1.000000;0.000122;-0.000630;0.001629;0.000170;0.001641;-0.000642;85.730907;0.001654;
1126;1852;0.002115;86.328573;1.000000;0.000181;-0.000240;0.001392;-0.000012;0.001392;-0.000240;-89.571083;0.001488;
1076;1617;0.071996;85.900063;1.000000;0.000161;-0.001253;0.002974;-0.000360;0.003004;-0.001283;-85.165637;0.003015;
1001;1692;0.104276;86.074858;1.000000;0.000161;-0.000568;0.001594;-0.000257;0.001624;-0.000598;-83.304333;0.001643;
1131;1847;0.000866;86.321335;1.000000;0.000170;-0.000262;0.001398;-0.000003;0.001398;-0.000262;-89.910797;0.001486;
1206;1832;-0.024049;86.297496;1.000000;0.000127;-0.000350;0.001462;0.000106;0.001468;-0.000356;86.653394;0.001532;
1126;1207;0.433919;67.451749;0.998674;0.010986;-0.073220;0.194176;-0.000202;0.194176;-0.073220;-89.956647;0.196122;
1091;1622;0.052285;85.910028;1.000000;0.000212;-0.001240;0.002876;-0.000244;0.002890;-0.001254;-86.622625;0.002899;
1241;1672;-0.100256;86.037897;1.000000;0.000158;-0.000684;0.001799;0.000288;0.001832;-0.000717;83.477050;0.001847;
1041;1737;0.061714;86.149155;1.000000;0.000154;-0.000630;0.001622;-0.000121;0.001628;-0.000636;-86.940066;0.001641;
1226;1687;-0.083026;86.063528;1.000000;0.000109;-0.000725;0.001795;0.000216;0.001813;-0.000744;85.145462;0.001823;
1246;1727;-0.078998;86.129785;1.000000;0.000148;-0.000626;0.001623;0.000162;0.001635;-0.000638;85.896636;0.001648;
1131;1852;0.000689;86.328232;1.000000;0.000163;-0.000241;0.001391;-0.000004;0.001391;-0.000241;-89.854319;0.001486;
1116;1667;0.017710;86.019646;1.000000;0.000135;-0.001059;0.002277;-0.000064;0.002278;-0.001060;-88.909521;0.002280;
1001;1697;0.102029;86.082429;1.000000;0.000137;-0.000573;0.001589;-0.000245;0.001616;-0.000600;-83.616418;0.001634;
1081;1617;0.066263;85.898003;1.000000;0.000201;-0.001263;0.002978;-0.000326;0.003003;-0.001288;-85.633259;0.003013;
1136;1847;-0.000546;86.321378;1.000000;0.000153;-0.000263;0.001399;0.000005;0.001399;-0.000263;89.832927;0.001487;
1211;1832;-0.025536;86.297374;1.000000;0.000105;-0.000352;0.001465;0.000115;0.001472;-0.000359;86.397983;0.001535;
1186;1202;-4.362098;65.845316;0.997956;0.010446;-0.079172;0.210813;0.008030;0.211035;-0.079394;88.414986;0.213180;
1221;1662;-0.089741;86.015937;1.000000;0.000159;-0.000834;0.002048;0.000285;0.002076;-0.000862;84.398070;0.002086;
1241;1677;-0.097933;86.046632;1.000000;0.000146;-0.000674;0.001766;0.000269;0.001795;-0.000703;83.787740;0.001809;
1111;1817;0.008608;86.277923;1.000000;0.000129;-0.000383;0.001471;-0.000031;0.001471;-0.000384;-89.033956;0.001526;
1136;1852;-0.000591;86.328128;1.000000;0.000159;-0.000243;0.001391;0.000004;0.001391;-0.000243;89.856710;0.001486;
1171;1637;-0.046702;85.948047;1.000000;0.000186;-0.001172;0.002641;0.000184;0.002650;-0.001181;87.239296;0.002655;
1121;1667;0.012470;86.019547;1.000000;0.000127;-0.001065;0.002285;-0.000046;0.002285;-0.001065;-89.205972;0.002287;
1001;1822;0.051016;86.276049;1.000000;0.000157;-0.000431;0.001509;-0.000132;0.001518;-0.000440;-86.136288;0.001562;
1071;1652;0.067682;85.991410;1.000000;0.000175;-0.000994;0.002299;-0.000251;0.002318;-0.001013;-85.661464;0.002324;
1001;1702;0.099537;86.090541;1.000000;0.000167;-0.000577;0.001585;-0.000233;0.001610;-0.000602;-83.930029;0.001627;
1101;1627;0.039715;85.921601;1.000000;0.000152;-0.001229;0.002807;-0.000177;0.002814;-0.001237;-87.496385;0.002821;
1211;1197;-6.747253;64.280454;0.998536;0.011349;-0.084660;0.228059;0.012584;0.228565;-0.085166;87.699327;0.231025;
1216;1832;-0.027347;86.296553;1.000000;0.000095;-0.000353;0.001470;0.000122;0.001478;-0.000362;86.188387;0.001541;
1226;1662;-0.093664;86.016794;1.000000;0.000140;-0.000806;0.002013;0.000297;0.002044;-0.000837;84.040447;0.002055;
1126;1652;0.007537;85.984154;1.000000;0.000190;-0.001143;0.002472;-0.000033;0.002472;-0.001143;-89.476291;0.002475;
1116;1817;0.006714;86.278123;1.000000;0.000135;-0.000381;0.001470;-0.000024;0.001470;-0.000381;-89.249248;0.001526;
1206;1827;-0.025500;86.289870;1.000000;0.000118;-0.000368;0.001473;0.000103;0.001478;-0.000374;86.812516;0.001537;
1106;1657;0.029607;85.997866;1.000000;0.000140;-0.001088;0.002376;-0.000109;0.002379;-0.001091;-88.192504;0.002382;
1216;1722;-0.061626;86.123897;1.000000;0.000135;-0.000674;0.001663;0.000133;0.001671;-0.000681;86.753516;0.001680;
1006;1822;0.048873;86.276594;1.000000;0.000154;-0.000426;0.001510;-0.000136;0.001519;-0.000436;-86.001738;0.001565;
1011;1677;0.104660;86.049447;1.000000;0.000162;-0.000594;0.001665;-0.000287;0.001701;-0.000630;-82.880039;0.001720;
1016;1742;0.075044;86.154630;1.000000;0.000227;-0.000595;0.001590;-0.000148;0.001600;-0.000605;-86.140361;0.001616;
1211;1202;-6.441993;65.352327;0.998773;0.008964;-0.081750;0.218296;0.012933;0.218853;-0.082307;87.536402;0.221082;
1131;1657;0.001905;85.996110;1.000000;0.000162;-0.001120;0.002416;-0.000013;0.002416;-0.001121;-89.790016;0.002418;
1101;1847;0.008504;86.320411;1.000000;0.000146;-0.000269;0.001409;-0.000053;0.001411;-0.000271;-88.208506;0.001498;
1231;1662;-0.097743;86.017657;1.000000;0.000173;-0.000776;0.001976;0.000309;0.002011;-0.000810;83.678508;0.002023;
1126;1657;0.007442;85.996122;1.000000;0.000194;-0.001118;0.002412;-0.000032;0.002413;-0.001118;-89.480290;0.002415;
1181;1672;-0.049692;86.032161;1.000000;0.000138;-0.000971;0.002153;0.000155;0.002160;-0.000979;87.166408;0.002163;
1211;1817;-0.029908;86.274437;1.000000;0.000143;-0.000409;0.001491;0.000108;0.001497;-0.000415;86.767973;0.001546;
1036;1737;0.064827;86.148556;1.000000;0.000157;-0.000626;0.001618;-0.000126;0.001625;-0.000633;-86.790739;0.001638;
1211;1207;-6.155426;66.341001;0.998688;0.009016;-0.079070;0.207477;0.012518;0.208022;-0.079616;87.503418;0.209921;
1011;1692;0.098152;86.074044;1.000000;0.000141;-0.000601;0.001631;-0.000241;0.001657;-0.000626;-83.897982;0.001673;
1011;1682;0.102116;86.057547;1.000000;0.000120;-0.000594;0.001649;-0.000270;0.001681;-0.000626;-83.241193;0.001699;
976;1827;0.059864;86.276953;1.000000;0.000168;-0.000438;0.001500;-0.000093;0.001504;-0.000442;-87.260538;0.001546;
1016;1747;0.073284;86.162519;1.000000;0.000227;-0.000587;0.001584;-0.000143;0.001593;-0.000596;-86.245192;0.001610;
1221;1782;-0.045567;86.219870;1.000000;0.000170;-0.000526;0.001561;0.000098;0.001566;-0.000531;87.318103;0.001592;
1191;1812;-0.023034;86.269236;1.000000;0.000090;-0.000412;0.001496;0.000076;0.001499;-0.000415;87.716165;0.001548;
1231;1687;-0.086480;86.063199;1.000000;0.000142;-0.000703;0.001771;0.000223;0.001791;-0.000723;84.883277;0.001802;
1126;1662;0.007248;86.008071;1.000000;0.000140;-0.001093;0.002351;-0.000030;0.002351;-0.001093;-89.494032;0.002353;
1041;1712;0.070440;86.107534;1.000000;0.000126;-0.000669;0.001672;-0.000160;0.001682;-0.000680;-86.113292;0.001693;
1151;1202;-1.543552;66.448997;0.998155;0.012059;-0.076890;0.205747;0.002507;0.205769;-0.076912;89.491926;0.207944;
981;1827;0.057714;86.278435;1.000000;0.000175;-0.000435;0.001505;-0.000105;0.001510;-0.000441;-86.923526;0.001553;
1076;1827;0.019674;86.290906;1.000000;0.000156;-0.000355;0.001462;-0.000084;0.001466;-0.000358;-87.345598;0.001528;
1016;1752;0.071939;86.170861;1.000000;0.000210;-0.000579;0.001574;-0.000140;0.001584;-0.000588;-86.291793;0.001601;
1211;1822;-0.028657;86.282104;1.000000;0.000130;-0.000390;0.001484;0.000110;0.001490;-0.000396;86.650548;0.001543;
1206;1847;-0.019763;86.319541;1.000000;0.000123;-0.000289;0.001435;0.000119;0.001443;-0.000297;86.066655;0.001524;
1221;1787;-0.043924;86.227815;1.000000;0.000170;-0.000511;0.001552;0.000099;0.001557;-0.000516;87.255864;0.001586;
1181;1842;-0.013396;86.313038;1.000000;0.000130;-0.000291;0.001424;0.000074;0.001427;-0.000294;87.540745;0.001507;
1131;1652;0.001966;85.984077;1.000000;0.000156;-0.001145;0.002476;-0.000013;0.002476;-0.001145;-89.800016;0.002478;
1256;1687;-0.102415;86.063556;1.000000;0.000136;-0.000605;0.001656;0.000259;0.001686;-0.000634;83.549076;0.001703;
1026;1747;0.067481;86.163386;1.000000;0.000178;-0.000599;0.001599;-0.000130;0.001607;-0.000607;-86.621033;0.001623;
1221;1222;-6.112909;68.735419;0.998225;0.008533;-0.071404;0.181834;0.014245;0.182632;-0.072203;86.790473;0.183961;
1046;1712;0.067195;86.107761;1.000000;0.000146;-0.000680;0.001681;-0.000154;0.001691;-0.000690;-86.292902;0.001701;
986;1827;0.055253;86.280442;1.000000;0.000176;-0.000433;0.001508;-0.000115;0.001515;-0.000440;-86.626936;0.001559;
1181;1847;-0.012592;86.320185;1.000000;0.000136;-0.000271;0.001414;0.000077;0.001418;-0.000274;87.396283;0.001504;
1201;1842;-0.019547;86.312169;1.000000;0.000120;-0.000305;0.001440;0.000107;0.001447;-0.000312;86.506542;0.001523;
1211;1847;-0.021010;86.318960;1.000000;0.000131;-0.000291;0.001439;0.000127;0.001448;-0.000300;85.815513;0.001529;
1211;1827;-0.027194;86.289777;1.000000;0.000103;-0.000371;0.001476;0.000111;0.001483;-0.000377;86.576938;0.001541;
1236;1667;-0.099175;86.027725;1.000000;0.000167;-0.000728;0.001883;0.000300;0.001917;-0.000762;83.523930;0.001931;
1211;1212;-5.878189;67.187748;0.998494;0.010861;-0.076306;0.197575;0.012107;0.198109;-0.076840;87.473728;0.199763;
1211;1727;-0.056743;86.132702;1.000000;0.000146;-0.000669;0.001654;0.000122;0.001660;-0.000676;87.005858;0.001670;
1256;1692;-0.100013;86.072066;1.000000;0.000134;-0.000607;0.001645;0.000244;0.001671;-0.000633;83.874015;0.001687;
1216;1852;-0.021078;86.325489;1.000000;0.000176;-0.000272;0.001427;0.000139;0.001439;-0.000283;85.356498;0.001524;
1076;1487;0.330560;84.979407;0.999985;0.001448;-0.005989;0.014168;-0.001878;0.014342;-0.006163;-84.721532;0.014389;
1276;1642;-0.138298;85.991187;0.999999;0.000187;-0.000684;0.002041;0.000624;0.002177;-0.000820;77.698090;0.002199;
1206;1702;-0.062013;86.091473;1.000000;0.000137;-0.000756;0.001776;0.000158;0.001785;-0.000766;86.439969;0.001791;
1186;1822;-0.019050;86.283878;1.000000;0.000178;-0.000371;0.001469;0.000075;0.001472;-0.000374;87.660910;0.001530;
1231;1697;-0.081745;86.080663;1.000000;0.000158;-0.000684;0.001718;0.000199;0.001735;-0.000700;85.285222;0.001745;
1031;1697;0.083047;86.082155;1.000000;0.000145;-0.000661;0.001686;-0.000205;0.001704;-0.000679;-85.053197;0.001715;
1206;1842;-0.021088;86.311959;1.000000;0.000101;-0.000309;0.001445;0.000116;0.001452;-0.000317;86.238234;0.001527;
1216;1847;-0.022553;86.318666;1.000000;0.000189;-0.000292;0.001444;0.000135;0.001454;-0.000302;85.585275;0.001534;
1236;1672;-0.096946;86.038193;1.000000;0.000125;-0.000713;0.001834;0.000280;0.001865;-0.000743;83.792055;0.001878;
1256;1697;-0.097947;86.080165;1.000000;0.000165;-0.000609;0.001635;0.000231;0.001658;-0.000633;84.171969;0.001674;
1216;1702;-0.069541;86.090634;1.000000;0.000132;-0.000724;0.001741;0.000169;0.001753;-0.000735;86.097941;0.001760;
1196;1852;-0.015630;86.327319;1.000000;0.000144;-0.000262;0.001407;0.000103;0.001413;-0.000268;86.484877;0.001501;
1011;1897;0.009378;86.387048;0.999999;0.000229;-0.000103;0.001398;-0.000239;0.001435;-0.000141;-81.176385;0.001582;
1041;1702;0.074516;86.090781;1.000000;0.000139;-0.000684;0.001696;-0.000181;0.001710;-0.000698;-85.667532;0.001720;
1206;1652;-0.080120;85.991565;1.000000;0.000151;-0.000959;0.002270;0.000284;0.002295;-0.000983;85.019288;0.002303;
1031;1492;0.563423;85.033670;0.999984;0.001151;-0.005712;0.013273;-0.003192;0.013795;-0.006235;-80.707632;0.013816;
1166;1842;-0.009169;86.313174;1.000000;0.000113;-0.000284;0.001416;0.000051;0.001418;-0.000286;88.291096;0.001499;
1026;1712;0.080117;86.106703;1.000000;0.000149;-0.000638;0.001642;-0.000177;0.001656;-0.000651;-85.576584;0.001669;
1211;1842;-0.022457;86.311406;1.000000;0.000109;-0.000311;0.001450;0.000125;0.001458;-0.000320;85.971634;0.001533;
1196;1847;-0.016605;86.320012;1.000000;0.000150;-0.000281;0.001425;0.000101;0.001431;-0.000287;86.617928;0.001514;
1236;1677;-0.094790;86.046894;1.000000;0.000125;-0.000700;0.001798;0.000262;0.001825;-0.000727;84.077796;0.001837;
946;1877;0.046428;86.341272;0.999987;0.001167;-0.000560;0.001698;-0.000207;0.001717;-0.000578;-84.813650;0.001747;
1216;1707;-0.067463;86.099066;1.000000;0.000142;-0.000709;0.001717;0.000158;0.001727;-0.000720;86.296941;0.001735;
1191;1852;-0.014131;86.327444;1.000000;0.000128;-0.000258;0.001404;0.000094;0.001410;-0.000263;86.778717;0.001499;
1201;1837;-0.020834;86.304474;1.000000;0.000138;-0.000325;0.001452;0.000103;0.001458;-0.000331;86.702704;0.001528;
1166;1847;-0.008549;86.320255;1.000000;0.000120;-0.000264;0.001406;0.000053;0.001407;-0.000266;88.190479;0.001495;
991;1682;0.113272;86.060255;1.000000;0.000177;-0.000519;0.001568;-0.000307;0.001612;-0.000563;-81.807767;0.001636;
1076;1647;0.063395;85.978848;1.000000;0.000139;-0.001036;0.002388;-0.000246;0.002406;-0.001054;-85.907093;0.002412;
1211;1502;-0.385838;85.152926;0.999978;0.001193;-0.005099;0.012151;0.002237;0.012437;-0.005385;82.729865;0.012474;
1191;1832;-0.018831;86.298225;1.000000;0.000123;-0.000336;0.001457;0.000084;0.001461;-0.000340;87.337663;0.001529;
1146;1847;-0.003286;86.321211;1.000000;0.000147;-0.000263;0.001400;0.000021;0.001400;-0.000264;89.265522;0.001488;
951;1877;0.037984;86.343112;0.999999;0.000260;-0.000498;0.001674;-0.000219;0.001695;-0.000520;-84.303744;0.001737;
1186;1832;-0.017059;86.298794;1.000000;0.000143;-0.000333;0.001454;0.000077;0.001458;-0.000336;87.527274;0.001527;
1076;1847;0.015813;86.319638;1.000000;0.000213;-0.000277;0.001422;-0.000093;0.001427;-0.000282;-86.873260;0.001511;
1206;1792;-0.034615;86.237368;1.000000;0.000160;-0.000490;0.001540;0.000089;0.001543;-0.000494;87.506198;0.001576;
1181;1827;-0.016397;86.291840;1.000000;0.000180;-0.000349;0.001459;0.000070;0.001462;-0.000351;87.775671;0.001526;
1016;1672;0.104063;86.040724;1.000000;0.000169;-0.000622;0.001717;-0.000296;0.001754;-0.000659;-82.890561;0.001772;
991;1687;0.111497;86.068449;1.000000;0.000150;-0.000525;0.001560;-0.000290;0.001600;-0.000565;-82.236047;0.001622;
1091;1847;0.011150;86.320122;1.000000;0.000156;-0.000273;0.001414;-0.000071;0.001417;-0.000276;-87.605941;0.001502;
1191;1837;-0.017630;86.304734;1.000000;0.000109;-0.000317;0.001445;0.000086;0.001449;-0.000321;87.197603;0.001522;
1031;1767;0.057919;86.196606;1.000000;0.000154;-0.000562;0.001574;-0.000113;0.001580;-0.000568;-86.986084;0.001600;
1221;1482;-0.553777;84.882203;0.999984;0.001178;-0.006447;0.014992;0.002987;0.015400;-0.006855;82.215184;0.015431;
1186;1837;-0.015985;86.305576;1.000000;0.000143;-0.000313;0.001441;0.000079;0.001444;-0.000317;87.420961;0.001518;
1261;1647;-0.126072;85.996645;0.999999;0.000232;-0.000690;0.002018;0.000489;0.002103;-0.000776;80.077881;0.002127;
1081;1847;0.014079;86.319804;1.000000;0.000248;-0.000277;0.001418;-0.000086;0.001422;-0.000281;-87.090045;0.001506;
1206;1837;-0.022641;86.304609;1.000000;0.000114;-0.000330;0.001456;0.000111;0.001462;-0.000337;86.448950;0.001532;
1186;1827;-0.018127;86.291633;1.000000;0.000168;-0.000352;0.001461;0.000077;0.001464;-0.000355;87.572832;0.001527;
1211;1792;-0.037041;86.236990;1.000000;0.000156;-0.000492;0.001541;0.000094;0.001546;-0.000497;87.358301;0.001578;
1021;1672;0.101007;86.040324;1.000000;0.000168;-0.000648;0.001747;-0.000289;0.001782;-0.000683;-83.219666;0.001798;
1166;1857;-0.007478;86.335688;1.000000;0.000135;-0.000224;0.001381;0.000055;0.001382;-0.000226;88.032745;0.001483;
1096;1847;0.009930;86.320434;1.000000;0.000159;-0.000271;0.001412;-0.000062;0.001414;-0.000273;-87.895384;0.001501;
1191;1842;-0.016442;86.312838;1.000000;0.000130;-0.000298;0.001432;0.000089;0.001437;-0.000302;87.048023;0.001515;
1221;1487;-0.523321;84.949850;0.999984;0.001056;-0.006098;0.014270;0.002869;0.014667;-0.006495;82.134485;0.014699;
1031;1772;0.056314;86.204145;1.000000;0.000147;-0.000550;0.001563;-0.000112;0.001569;-0.000556;-86.967277;0.001591;
1186;1842;-0.014982;86.312703;1.000000;0.000126;-0.000294;0.001428;0.000081;0.001432;-0.000298;87.296610;0.001511;
1086;1847;0.012574;86.319876;1.000000;0.000184;-0.000274;0.001415;-0.000079;0.001419;-0.000278;-87.335060;0.001503;
1211;1837;-0.024060;86.303947;1.000000;0.000103;-0.000332;0.001460;0.000120;0.001468;-0.000340;86.196446;0.001537;
1216;1792;-0.040079;86.236436;1.000000;0.000145;-0.000494;0.001543;0.000099;0.001547;-0.000499;87.235526;0.001579;
1226;1842;-0.027405;86.310580;1.000000;0.000154;-0.000319;0.001463;0.000143;0.001474;-0.000331;85.429402;0.001547;
1106;1572;0.049890;85.721887;0.999999;0.000245;-0.001958;0.004983;-0.000375;0.005003;-0.001978;-86.920169;0.005039;
1026;1672;0.097635;86.039792;1.000000;0.000140;-0.000675;0.001779;-0.000281;0.001811;-0.000707;-83.539764;0.001825;
1171;1857;-0.008696;86.335619;1.000000;0.000156;-0.000226;0.001382;0.000062;0.001385;-0.000228;87.790415;0.001485;
1216;1817;-0.031957;86.274628;1.000000;0.000162;-0.000411;0.001495;0.000114;0.001501;-0.000418;86.590012;0.001550;
1196;1842;-0.017857;86.312297;1.000000;0.000139;-0.000301;0.001436;0.000098;0.001441;-0.000307;86.769686;0.001519;
1221;1492;-0.493512;85.017798;0.999986;0.001355;-0.005764;0.013555;0.002763;0.013942;-0.006151;82.019615;0.013974;
1191;1847;-0.015257;86.319864;1.000000;0.000133;-0.000278;0.001422;0.000092;0.001427;-0.000283;86.898906;0.001511;
1236;1662;-0.101578;86.018227;1.000000;0.000171;-0.000747;0.001939;0.000319;0.001977;-0.000784;83.312417;0.001991;
1296;1702;-0.117745;86.091698;1.000000;0.000254;-0.000462;0.001452;0.000233;0.001480;-0.000489;83.167286;0.001508;
1206;1872;-0.011778;86.354430;1.000000;0.000166;-0.000183;0.001370;0.000132;0.001381;-0.000194;85.182836;0.001495;
1196;1832;-0.020315;86.298188;1.000000;0.000122;-0.000340;0.001459;0.000091;0.001464;-0.000344;87.115387;0.001531;
1201;1857;-0.015472;86.333177;1.000000;0.000198;-0.000245;0.001399;0.000116;0.001407;-0.000253;85.999191;0.001501;
1106;1577;0.047139;85.744655;0.999999;0.000230;-0.001844;0.004643;-0.000349;0.004662;-0.001863;-86.925911;0.004693;
1176;1857;-0.009728;86.335581;1.000000;0.000149;-0.000227;0.001384;0.000070;0.001387;-0.000230;87.504819;0.001487;
1216;1822;-0.030646;86.281975;1.000000;0.000175;-0.000391;0.001488;0.000117;0.001495;-0.000399;86.461901;0.001548;
1261;1517;-0.536999;85.303497;0.999984;0.001151;-0.004385;0.010225;0.003191;0.010891;-0.005051;78.201985;0.010901;
1211;1802;-0.034602;86.252455;1.000000;0.000161;-0.000459;0.001525;0.000099;0.001530;-0.000464;87.154651;0.001569;
1241;1662;-0.105194;86.018440;1.000000;0.000191;-0.000716;0.001903;0.000330;0.001944;-0.000757;82.925104;0.001960;
1221;1842;-0.025865;86.310970;1.000000;0.000150;-0.000315;0.001459;0.000138;0.001469;-0.000326;85.578051;0.001543;
1211;1872;-0.013236;86.354220;1.000000;0.000180;-0.000186;0.001374;0.000141;0.001387;-0.000198;84.881656;0.001500;
1006;1737;0.083675;86.146282;1.000000;0.000204;-0.000585;0.001568;-0.000164;0.001580;-0.000598;-85.663327;0.001596;
1196;1837;-0.019169;86.304139;1.000000;0.000116;-0.000320;0.001448;0.000095;0.001453;-0.000325;86.947619;0.001525;
1206;1857;-0.016777;86.333145;1.000000;0.000176;-0.000248;0.001405;0.000126;0.001415;-0.000257;85.660517;0.001507;
1106;1582;0.043908;85.767760;0.999999;0.000202;-0.001740;0.004326;-0.000322;0.004343;-0.001757;-86.968569;0.004369;
1161;1832;-0.009185;86.299597;1.000000;0.000172;-0.000323;0.001444;0.000044;0.001445;-0.000324;88.585579;0.001516;
1216;1827;-0.028931;86.289103;1.000000;0.000119;-0.000373;0.001481;0.000118;0.001488;-0.000380;86.377248;0.001546;
1126;1197;0.404546;65.666605;0.998005;0.010048;-0.080614;0.221094;-0.000503;0.221095;-0.080615;-89.904568;0.223781;
1026;1492;0.593140;85.030569;0.999980;0.001321;-0.005702;0.013250;-0.003331;0.013818;-0.006271;-80.316359;0.013838;
1216;1802;-0.036846;86.251264;1.000000;0.000178;-0.000461;0.001527;0.000104;0.001533;-0.000467;87.021913;0.001571;
1226;1832;-0.031219;86.295774;1.000000;0.000161;-0.000359;0.001478;0.000134;0.001488;-0.000369;85.842429;0.001550;
1071;1817;0.023719;86.276148;1.000000;0.000158;-0.000391;0.001487;-0.000086;0.001491;-0.000395;-87.381152;0.001544;
1256;1652;-0.119966;86.004658;0.999999;0.000229;-0.000677;0.001949;0.000427;0.002016;-0.000744;80.992263;0.002039;
1211;1807;-0.033386;86.260308;1.000000;0.000131;-0.000443;0.001517;0.000101;0.001522;-0.000448;87.061002;0.001565;
1211;1857;-0.018064;86.333158;1.000000;0.000154;-0.000249;0.001411;0.000135;0.001422;-0.000260;85.370469;0.001514;
1241;1642;-0.115405;85.979045;1.000000;0.000222;-0.000832;0.002234;0.000461;0.002302;-0.000899;81.628578;0.002320;
1141;1847;-0.002034;86.321566;1.000000;0.000126;-0.000263;0.001399;0.000013;0.001400;-0.000263;89.558054;0.001488;
1011;1622;0.138172;85.942147;0.999999;0.000264;-0.000964;0.002765;-0.000763;0.002915;-0.001114;-78.871199;0.002941;
1211;1812;-0.031560;86.267495;1.000000;0.000139;-0.000426;0.001503;0.000104;0.001509;-0.000432;86.922173;0.001554;
1216;1842;-0.024036;86.311077;1.000000;0.000140;-0.000313;0.001455;0.000132;0.001465;-0.000323;85.752829;0.001539;
1201;1467;-0.503218;84.642844;0.999980;0.001012;-0.007503;0.017358;0.002568;0.017620;-0.007766;84.163783;0.017662;
1226;1837;-0.029532;86.303309;1.000000;0.000146;-0.000339;0.001473;0.000138;0.001483;-0.000350;85.666353;0.001551;
1126;1857;0.001245;86.334311;1.000000;0.000174;-0.000221;0.001376;-0.000014;0.001376;-0.000221;-89.512905;0.001478;
1201;1637;-0.079983;85.954829;0.999999;0.000248;-0.001064;0.002538;0.000321;0.002567;-0.001093;84.948812;0.002576;
1171;1607;-0.053517;85.860455;1.000000;0.000182;-0.001402;0.003316;0.000274;0.003332;-0.001418;86.684661;0.003344;
1156;1207;-1.839981;67.328548;0.998554;0.009885;-0.073572;0.194197;0.003126;0.194234;-0.073609;89.331231;0.196121;
1176;1832;-0.013947;86.299110;1.000000;0.000158;-0.000325;0.001451;0.000064;0.001453;-0.000328;87.942678;0.001524;
1246;1642;-0.119243;85.980715;0.999999;0.000202;-0.000802;0.002205;0.000480;0.002280;-0.000876;81.141802;0.002300;
1156;1842;-0.006419;86.314431;1.000000;0.000169;-0.000283;0.001410;0.000037;0.001411;-0.000284;88.732782;0.001492;
1216;1812;-0.033646;86.266817;1.000000;0.000135;-0.000428;0.001506;0.000110;0.001512;-0.000434;86.758125;0.001557;
1221;1832;-0.029227;86.296379;1.000000;0.000117;-0.000355;0.001474;0.000128;0.001483;-0.000364;86.004290;0.001546;
1006;1887;0.015280;86.372706;0.999999;0.000245;-0.000162;0.001433;-0.000238;0.001468;-0.000196;-81.704496;0.001593;
1216;1497;-0.436493;85.087468;0.999982;0.001390;-0.005425;0.012838;0.002494;0.013173;-0.005759;82.360704;0.013208;
1201;1852;-0.017054;86.327096;1.000000;0.000177;-0.000265;0.001411;0.000113;0.001419;-0.000273;86.178490;0.001506;
1131;1857;0.000313;86.334306;1.000000;0.000161;-0.000222;0.001375;-0.000004;0.001375;-0.000222;-89.854185;0.001477;
1026;1642;0.111748;85.983103;1.000000;0.000178;-0.000811;0.002172;-0.000446;0.002237;-0.000876;-81.674765;0.002255;
1171;1612;-0.052337;85.876645;1.000000;0.000169;-0.001351;0.003171;0.000257;0.003185;-0.001366;86.762431;0.003196;
1161;1207;-2.211981;67.231498;0.998397;0.007884;-0.073759;0.194855;0.003789;0.194908;-0.073813;89.192020;0.196811;
1176;1837;-0.012819;86.306828;1.000000;0.000129;-0.000307;0.001435;0.000065;0.001437;-0.000309;87.879124;0.001513;
1156;1847;-0.005999;86.320082;1.000000;0.000188;-0.000264;0.001400;0.000038;0.001401;-0.000265;88.682344;0.001489;
1036;1852;0.024824;86.324727;1.000000;0.000169;-0.000283;0.001434;-0.000155;0.001448;-0.000297;-84.881424;0.001529;
1031;1837;0.032352;86.302411;1.000000;0.000135;-0.000350;0.001471;-0.000146;0.001483;-0.000362;-85.452486;0.001547;
1221;1837;-0.027575;86.303625;1.000000;0.000124;-0.000335;0.001469;0.000133;0.001478;-0.000345;85.809002;0.001547;
1016;1617;0.138581;85.926654;0.999999;0.000315;-0.001069;0.002978;-0.000805;0.003132;-0.001224;-79.155630;0.003157;
1221;1497;-0.463743;85.087165;0.999984;0.001415;-0.005441;0.012843;0.002652;0.013220;-0.005818;81.910448;0.013252;
1206;1852;-0.018475;86.326197;1.000000;0.000157;-0.000268;0.001417;0.000122;0.001425;-0.000277;85.873394;0.001512;
1136;1857;-0.000627;86.334179;1.000000;0.000184;-0.000224;0.001376;0.000005;0.001376;-0.000224;89.822306;0.001476;
1031;1642;0.107577;85.980870;1.000000;0.000164;-0.000841;0.002205;-0.000428;0.002264;-0.000900;-82.145805;0.002280;
1216;1197;-7.217985;64.143160;0.998435;0.009857;-0.084995;0.229559;0.013647;0.230150;-0.085586;87.520395;0.232656;
1216;1807;-0.035499;86.259324;1.000000;0.000153;-0.000445;0.001520;0.000106;0.001525;-0.000450;86.915949;0.001567;
1176;1842;-0.012100;86.313582;1.000000;0.000152;-0.000287;0.001421;0.000066;0.001423;-0.000290;87.784949;0.001504;
1156;1852;-0.005457;86.327560;1.000000;0.000214;-0.000244;0.001391;0.000040;0.001392;-0.000245;88.610525;0.001486;
1191;1632;-0.070701;85.938660;0.999999;0.000178;-0.001135;0.002669;0.000294;0.002692;-0.001157;85.602827;0.002701;
1031;1842;0.030023;86.309941;1.000000;0.000147;-0.000331;0.001463;-0.000152;0.001475;-0.000343;-85.203323;0.001544;
1201;1847;-0.018074;86.320040;1.000000;0.000152;-0.000285;0.001430;0.000110;0.001437;-0.000292;86.339174;0.001519;
1021;1617;0.133827;85.924692;0.999999;0.000301;-0.001084;0.002976;-0.000765;0.003115;-0.001223;-79.677208;0.003139;
1226;1487;-0.552628;84.949715;0.999982;0.001267;-0.006139;0.014276;0.003033;0.014717;-0.006580;81.726361;0.014745;
1211;1852;-0.019590;86.325898;1.000000;0.000141;-0.000270;0.001422;0.000131;0.001432;-0.000280;85.607655;0.001517;
1216;1202;-6.892458;65.219627;0.998710;0.010275;-0.082099;0.219997;0.013990;0.220643;-0.082745;87.354110;0.222929;
1216;1857;-0.019364;86.332966;1.000000;0.000168;-0.000251;0.001418;0.000144;0.001430;-0.000263;85.109978;0.001522;
986;1712;0.104610;86.107947;1.000000;0.000179;-0.000538;0.001510;-0.000232;0.001536;-0.000564;-83.611186;0.001554;
1191;1857;-0.012799;86.333910;1.000000;0.000153;-0.000237;0.001390;0.000096;0.001396;-0.000243;86.636399;0.001492;
1216;1837;-0.025739;86.303969;1.000000;0.000108;-0.000333;0.001465;0.000127;0.001474;-0.000342;85.985696;0.001543;
1156;1837;-0.007131;86.307500;1.000000;0.000172;-0.000303;0.001425;0.000037;0.001426;-0.000304;88.772168;0.001503;
1196;1632;-0.076585;85.940288;0.999999;0.000214;-0.001116;0.002653;0.000319;0.002680;-0.001143;85.197576;0.002690;
946;1752;0.112563;86.161122;0.999974;0.001146;-0.000565;0.001264;-0.000156;0.001278;-0.000579;-85.175810;0.001279;
1031;1847;0.028330;86.317679;1.000000;0.000157;-0.000311;0.001454;-0.000156;0.001468;-0.000324;-84.974371;0.001542;
1226;1492;-0.521347;85.015580;0.999985;0.001294;-0.005802;0.013557;0.002918;0.013988;-0.006233;81.611600;0.014015;
1181;1832;-0.015288;86.299003;1.000000;0.000146;-0.000329;0.001452;0.000071;0.001455;-0.000332;87.733534;0.001525;
1216;1207;-6.590625;66.188317;0.998468;0.011627;-0.079473;0.208824;0.013373;0.209443;-0.080092;87.349895;0.211365;
966;1812;0.071718;86.250891;1.000000;0.000193;-0.000523;0.001469;-0.000052;0.001471;-0.000525;-88.508648;0.001491;
956;1817;0.073446;86.254568;1.000000;0.000199;-0.000573;0.001461;-0.000027;0.001462;-0.000573;-89.241875;0.001473;
1196;1857;-0.014382;86.333389;1.000000;0.000163;-0.000241;0.001394;0.000105;0.001401;-0.000248;86.327409;0.001495;
1201;1722;-0.051122;86.125900;1.000000;0.000165;-0.000701;0.001679;0.000118;0.001685;-0.000707;87.174502;0.001692;
1176;1602;-0.062992;85.844932;0.999999;0.000280;-0.001456;0.003495;0.000337;0.003518;-0.001479;86.122772;0.003532;
1141;1862;-0.001524;86.341627;1.000000;0.000195;-0.000204;0.001365;0.000014;0.001365;-0.000204;89.503443;0.001472;
971;1827;0.061683;86.275373;1.000000;0.000165;-0.000506;0.001484;-0.000075;0.001486;-0.000509;-87.852646;0.001511;
1061;1612;0.092929;85.890548;0.999999;0.000248;-0.001270;0.003144;-0.000512;0.003203;-0.001328;-83.473816;0.003218;
966;1817;0.068874;86.258084;1.000000;0.000179;-0.000529;0.001475;-0.000053;0.001477;-0.000530;-88.473285;0.001496;
1216;1212;-6.287245;67.088178;0.998270;0.011051;-0.076742;0.198915;0.012948;0.199522;-0.077349;87.316716;0.201194;
1106;1662;0.029015;86.008933;1.000000;0.000161;-0.001065;0.002314;-0.000104;0.002318;-0.001068;-88.230881;0.002320;
1226;1497;-0.489389;85.086941;0.999983;0.001256;-0.005478;0.012848;0.002800;0.013266;-0.005896;81.504726;0.013294;
1176;1827;-0.014482;86.292269;1.000000;0.000199;-0.000344;0.001457;0.000063;0.001459;-0.000347;87.987706;0.001524;
1176;1607;-0.061249;85.861353;1.000000;0.000199;-0.001396;0.003321;0.000312;0.003342;-0.001416;86.230907;0.003354;
1146;1862;-0.002501;86.342115;1.000000;0.000205;-0.000204;0.001366;0.000022;0.001366;-0.000205;89.183432;0.001474;
1031;1727;0.071752;86.131374;1.000000;0.000167;-0.000634;0.001628;-0.000145;0.001637;-0.000643;-86.359984;0.001650;
971;1832;0.059112;86.282826;1.000000;0.000181;-0.000503;0.001496;-0.000079;0.001499;-0.000506;-87.754336;0.001525;
961;1807;0.076136;86.242751;1.000000;0.000188;-0.000539;0.001452;-0.000034;0.001453;-0.000540;-89.017041;0.001469;
951;1797;0.085169;86.224009;0.999999;0.000170;-0.000550;0.001436;0.000008;0.001436;-0.000550;89.768947;0.001449;
1121;1202;0.798751;66.545318;0.998477;0.010348;-0.077102;0.207799;-0.001082;0.207803;-0.077106;-89.782334;0.210094;
1231;1682;-0.088848;86.054981;1.000000;0.000150;-0.000714;0.001798;0.000237;0.001820;-0.000736;84.651227;0.001831;
1176;1612;-0.058859;85.877933;1.000000;0.000144;-0.001343;0.003171;0.000291;0.003190;-0.001362;86.320804;0.003201;
1081;1482;0.319486;84.904012;0.999978;0.001363;-0.006340;0.014937;-0.001763;0.015082;-0.006485;-85.294916;0.015131;
966;1672;0.128264;86.053901;1.000000;0.000183;-0.000383;0.001471;-0.000379;0.001545;-0.000457;-78.895716;0.001588;
976;1832;0.056833;86.284262;1.000000;0.000183;-0.000434;0.001509;-0.000099;0.001514;-0.000439;-87.079556;0.001557;
1036;1727;0.068611;86.132148;1.000000;0.000164;-0.000641;0.001635;-0.000138;0.001643;-0.000649;-86.530469;0.001655;
961;1812;0.073449;86.248778;1.000000;0.000183;-0.000540;0.001461;-0.000040;0.001462;-0.000541;-88.865200;0.001478;
991;1737;0.092105;86.145814;1.000000;0.000185;-0.000554;0.001520;-0.000177;0.001535;-0.000569;-85.144509;0.001552;
956;1797;0.083735;86.226077;0.999999;0.000223;-0.000532;0.001440;-0.000014;0.001440;-0.000532;-89.596301;0.001456;
1121;1207;0.798700;67.449820;0.998688;0.009811;-0.073504;0.194997;-0.000921;0.195000;-0.073507;-89.803439;0.196958;
1201;1792;-0.032173;86.237658;1.000000;0.000153;-0.000488;0.001538;0.000083;0.001541;-0.000491;87.669995;0.001575;
1186;1847;-0.014069;86.320385;1.000000;0.000127;-0.000274;0.001418;0.000085;0.001422;-0.000278;87.141198;0.001508;
981;1832;0.054260;86.284813;1.000000;0.000178;-0.000429;0.001511;-0.000110;0.001518;-0.000435;-86.752546;0.001563;
1176;1627;-0.054640;85.921813;1.000000;0.000155;-0.001219;0.002813;0.000234;0.002826;-0.001232;86.683183;0.002834;
981;1712;0.106963;86.108036;0.999999;0.000174;-0.000507;0.001489;-0.000229;0.001515;-0.000533;-83.534316;0.001537;
1026;1722;0.076246;86.123159;1.000000;0.000189;-0.000631;0.001627;-0.000160;0.001638;-0.000643;-85.971013;0.001651;
961;1817;0.071214;86.256308;1.000000;0.000178;-0.000548;0.001468;-0.000041;0.001469;-0.000549;-88.825571;0.001484;
1081;1487;0.297322;84.978595;0.999980;0.001277;-0.005975;0.014175;-0.001701;0.014317;-0.006118;-85.208480;0.014368;
1296;1672;-0.130338;86.047252;1.000000;0.000187;-0.000358;0.001548;0.000354;0.001612;-0.000422;79.816901;0.001671;
996;1737;0.088694;86.146726;1.000000;0.000182;-0.000565;0.001537;-0.000171;0.001551;-0.000579;-85.382754;0.001568;
1171;1212;-2.800434;67.948992;0.998139;0.011977;-0.071534;0.186712;0.005440;0.186826;-0.071648;88.793783;0.188509;
986;1717;0.102648;86.115311;1.000000;0.000174;-0.000542;0.001505;-0.000221;0.001529;-0.000566;-83.907250;0.001546;
981;1717;0.104867;86.115704;1.000000;0.000188;-0.000512;0.001484;-0.000216;0.001507;-0.000535;-83.881551;0.001528;
1021;1742;0.072199;86.155064;1.000000;0.000161;-0.000601;0.001599;-0.000143;0.001608;-0.000611;-86.299756;0.001623;
1181;1617;-0.063735;85.894195;1.000000;0.000169;-0.001285;0.003034;0.000302;0.003055;-0.001306;86.019859;0.003066;
1186;1677;-0.053149;86.043183;1.000000;0.000140;-0.000932;0.002077;0.000163;0.002085;-0.000941;86.899581;0.002089;
1301;1672;-0.132340;86.049527;1.000000;0.000204;-0.000306;0.001539;0.000343;0.001601;-0.000367;79.786995;0.001677;
1231;1497;-0.518737;85.088439;0.999982;0.001063;-0.005483;0.012824;0.002949;0.013287;-0.005946;81.072191;0.013311;
1116;1852;0.004385;86.328415;1.000000;0.000158;-0.000244;0.001394;-0.000031;0.001395;-0.000245;-88.930921;0.001490;
1171;1217;-2.672587;68.769391;0.998513;0.011637;-0.068634;0.177181;0.005384;0.177299;-0.068752;88.745783;0.178782;
986;1722;0.100529;86.123040;0.999999;0.000180;-0.000543;0.001501;-0.000209;0.001523;-0.000565;-84.219216;0.001539;
946;1812;0.087673;86.243181;0.999982;0.000981;-0.000639;0.001436;0.000016;0.001436;-0.000639;89.548668;0.001439;
981;1722;0.103175;86.123450;1.000000;0.000223;-0.000522;0.001477;-0.000210;0.001498;-0.000544;-84.065223;0.001517;
1181;1622;-0.062109;85.909174;1.000000;0.000197;-0.001241;0.002911;0.000280;0.002929;-0.001260;86.162893;0.002939;
1171;1832;-0.012303;86.299499;1.000000;0.000140;-0.000324;0.001449;0.000056;0.001451;-0.000326;88.187883;0.001523;
1201;1727;-0.049850;86.134042;1.000000;0.000152;-0.000684;0.001660;0.000112;0.001665;-0.000689;87.276669;0.001674;
1236;1497;-0.547279;85.082989;0.999978;0.001140;-0.005499;0.012791;0.003091;0.013299;-0.006007;80.661083;0.013320;
1191;1192;-5.235621;63.818215;0.998312;0.011881;-0.086060;0.234243;0.008389;0.234462;-0.086279;88.500675;0.237171;
1241;1787;-0.054152;86.225398;0.999999;0.000182;-0.000512;0.001547;0.000112;0.001553;-0.000518;86.882810;0.001582;
966;1822;0.066377;86.265854;0.999999;0.000170;-0.000529;0.001471;-0.000064;0.001473;-0.000531;-88.157023;0.001492;
1236;1787;-0.051521;86.226217;1.000000;0.000212;-0.000511;0.001551;0.000108;0.001557;-0.000517;86.998669;0.001586;
1181;1627;-0.060809;85.922723;1.000000;0.000225;-0.001203;0.002802;0.000261;0.002819;-0.001220;86.282739;0.002827;
1171;1837;-0.011377;86.307054;1.000000;0.000132;-0.000305;0.001433;0.000056;0.001435;-0.000307;88.142646;0.001511;
1276;1712;-0.103462;86.104864;1.000000;0.000182;-0.000561;0.001551;0.000223;0.001575;-0.000584;84.044124;0.001592;
1001;1737;0.086317;86.146758;1.000000;0.000176;-0.000575;0.001552;-0.000166;0.001565;-0.000588;-85.551294;0.001581;
1071;1637;0.071675;85.955148;1.000000;0.000187;-0.001070;0.002526;-0.000297;0.002550;-0.001095;-85.311647;0.002558;
1191;1197;-5.009725;64.800849;0.998487;0.011938;-0.082889;0.222706;0.008511;0.222942;-0.083126;88.405933;0.225332;
1176;1462;-0.337356;84.570148;0.999979;0.001002;-0.007737;0.018147;0.001649;0.018251;-0.007842;86.369765;0.018311;
1006;1732;0.085127;86.138073;1.000000;0.000182;-0.000590;0.001572;-0.000171;0.001585;-0.000603;-85.502286;0.001600;
971;1802;0.074070;86.238354;0.999999;0.000237;-0.000510;0.001468;-0.000056;0.001469;-0.000511;-88.387421;0.001492;
1171;1842;-0.010708;86.313141;1.000000;0.000136;-0.000285;0.001419;0.000058;0.001421;-0.000287;88.064568;0.001503;
1001;1747;0.082645;86.161842;1.000000;0.000197;-0.000562;0.001544;-0.000152;0.001554;-0.000572;-85.901602;0.001572;
1281;1712;-0.106189;86.104858;1.000000;0.000208;-0.000545;0.001525;0.000230;0.001551;-0.000571;83.736806;0.001569;
1216;1867;-0.015858;86.346972;1.000000;0.000161;-0.000208;0.001397;0.000148;0.001411;-0.000221;84.785446;0.001517;
1076;1637;0.066056;85.954126;1.000000;0.000181;-0.001088;0.002547;-0.000274;0.002567;-0.001109;-85.706682;0.002575;
1136;1192;-0.449257;64.621684;0.998228;0.014100;-0.084422;0.234361;0.000628;0.234362;-0.084423;89.887087;0.237395;
1001;1797;0.062490;86.238126;0.999999;0.000234;-0.000477;0.001509;-0.000117;0.001516;-0.000484;-86.641665;0.001549;
1176;1467;-0.319876;84.653048;0.999980;0.000852;-0.007351;0.017347;0.001600;0.017450;-0.007454;86.309761;0.017511;
966;1677;0.126168;86.061329;1.000000;0.000186;-0.000373;0.001492;-0.000329;0.001548;-0.000429;-80.288469;0.001598;
1011;1732;0.082009;86.138363;1.000000;0.000174;-0.000601;0.001586;-0.000166;0.001599;-0.000613;-85.672274;0.001613;
1171;1847;-0.009944;86.320537;1.000000;0.000165;-0.000266;0.001408;0.000060;0.001410;-0.000268;87.944386;0.001498;
1171;1872;-0.006066;86.355656;0.999999;0.000202;-0.000168;0.001350;0.000067;0.001353;-0.000171;87.469502;0.001474;
971;1687;0.121166;86.072564;1.000000;0.000169;-0.000439;0.001467;-0.000278;0.001506;-0.000479;-81.877118;0.001539;
1226;1717;-0.070043;86.115124;1.000000;0.000160;-0.000666;0.001665;0.000152;0.001675;-0.000676;86.292992;0.001685;
1171;1867;-0.006671;86.347786;0.999999;0.000234;-0.000187;0.001364;0.000065;0.001367;-0.000190;87.593655;0.001481;
966;1682;0.124708;86.067955;1.000000;0.000185;-0.000390;0.001439;-0.000309;0.001490;-0.000441;-80.649887;0.001530;
1141;1192;-0.855942;64.622101;0.998515;0.011378;-0.084209;0.233537;0.001247;0.233542;-0.084214;89.775149;0.236548;
1206;1707;-0.060334;86.100202;1.000000;0.000162;-0.000738;0.001744;0.000148;0.001753;-0.000747;86.595795;0.001759;
1176;1472;-0.303337;84.732697;0.999980;0.000955;-0.006977;0.016537;0.001548;0.016639;-0.007079;86.248857;0.016700;
1266;1742;-0.085476;86.152293;1.000000;0.000167;-0.000575;0.001557;0.000162;0.001569;-0.000587;85.682072;0.001585;
1176;1847;-0.011047;86.320081;1.000000;0.000177;-0.000268;0.001410;0.000069;0.001413;-0.000271;87.661540;0.001500;
1171;1877;-0.005357;86.361964;0.999999;0.000183;-0.000148;0.001343;0.000068;0.001346;-0.000151;87.382645;0.001474;
1171;1622;-0.049929;85.907022;1.000000;0.000206;-0.001267;0.002924;0.000222;0.002936;-0.001279;86.976454;0.002944;
1251;1652;-0.116787;86.003267;0.999999;0.000213;-0.000704;0.001976;0.000411;0.002037;-0.000765;81.469817;0.002058;
1221;1197;-7.684707;64.030356;0.998583;0.008759;-0.085261;0.231149;0.014765;0.231837;-0.085949;87.334124;0.234405;
1251;1702;-0.092789;86.088420;1.000000;0.000173;-0.000625;0.001645;0.000212;0.001664;-0.000645;84.713345;0.001678;
1281;1657;-0.130929;86.019320;1.000000;0.000190;-0.000504;0.001743;0.000485;0.001843;-0.000604;78.333973;0.001879;
1111;1852;0.005579;86.328394;1.000000;0.000184;-0.000245;0.001396;-0.000039;0.001397;-0.000246;-88.625209;0.001492;
1221;1692;-0.077231;86.072851;1.000000;0.000122;-0.000732;0.001786;0.000197;0.001801;-0.000747;85.556632;0.001810;
1016;1737;0.077365;86.146980;1.000000;0.000213;-0.000603;0.001594;-0.000155;0.001605;-0.000614;-85.993859;0.001620;
1301;1677;-0.129986;86.057065;1.000000;0.000184;-0.000299;0.001535;0.000298;0.001582;-0.000346;81.012183;0.001663;
1236;1642;-0.111529;85.977019;0.999999;0.000241;-0.000860;0.002263;0.000441;0.002325;-0.000921;82.117671;0.002341;
1101;1462;0.234688;84.582220;0.999978;0.001201;-0.007882;0.018330;-0.001244;0.018389;-0.007941;-87.288436;0.018445;
1031;1817;0.040426;86.272830;1.000000;0.000197;-0.000422;0.001509;-0.000127;0.001517;-0.000430;-86.263773;0.001564;
1221;1202;-7.343199;65.063413;0.998527;0.009085;-0.082403;0.221699;0.015091;0.222446;-0.083150;87.166059;0.224795;
1256;1702;-0.095851;86.088277;1.000000;0.000163;-0.000611;0.001629;0.000221;0.001651;-0.000633;84.425039;0.001666;
1286;1657;-0.133485;86.020736;1.000000;0.000171;-0.000484;0.001723;0.000502;0.001832;-0.000593;77.778236;0.001869;
1296;1682;-0.125858;86.061900;1.000000;0.000190;-0.000373;0.001534;0.000276;0.001573;-0.000412;81.941233;0.001632;
1306;1672;-0.120390;86.045832;0.999504;0.006652;-0.000219;0.001537;0.000315;0.001591;-0.000273;80.143724;0.001702;
1221;1207;-7.025610;66.051054;0.998257;0.009923;-0.079914;0.210002;0.014225;0.210698;-0.080610;87.197623;0.212626;
1251;1832;-0.040249;86.293195;1.000000;0.000158;-0.000383;0.001501;0.000150;0.001513;-0.000395;85.473446;0.001570;
1021;1737;0.074105;86.147350;1.000000;0.000161;-0.000609;0.001603;-0.000149;0.001613;-0.000619;-86.169926;0.001627;
1171;1617;-0.051150;85.892025;1.000000;0.000197;-0.001307;0.003040;0.000239;0.003054;-0.001321;86.858113;0.003063;
1031;1822;0.038399;86.280149;1.000000;0.000189;-0.000406;0.001499;-0.000131;0.001508;-0.000414;-86.090659;0.001558;
1221;1477;-0.586074;84.808000;0.999981;0.001372;-0.006822;0.015750;0.003109;0.016170;-0.007242;82.299682;0.016199;
1271;1722;-0.097008;86.120240;1.000000;0.000191;-0.000579;0.001560;0.000200;0.001578;-0.000597;84.701406;0.001594;
1306;1677;-0.100057;86.065226;0.999733;0.005085;-0.000219;0.001536;0.000262;0.001574;-0.000258;81.676766;0.001688;
1006;1827;0.046442;86.284138;1.000000;0.000174;-0.000413;0.001509;-0.000141;0.001519;-0.000423;-85.823198;0.001568;
1301;1682;-0.127700;86.064175;1.000000;0.000170;-0.000329;0.001526;0.000250;0.001559;-0.000362;82.443914;0.001632;
966;1807;0.073861;86.244499;1.000000;0.000256;-0.000523;0.001461;-0.000047;0.001463;-0.000524;-88.631262;0.001482;
1116;1202;1.190230;66.556297;0.998172;0.009062;-0.077456;0.208720;-0.001786;0.208731;-0.077467;-89.642441;0.211029;
1026;1737;0.071299;86.147391;1.000000;0.000159;-0.000614;0.001607;-0.000141;0.001616;-0.000623;-86.394314;0.001630;
1176;1617;-0.057859;85.893291;1.000000;0.000161;-0.001297;0.003037;0.000271;0.003054;-0.001314;86.438679;0.003064;
1031;1827;0.037053;86.288134;1.000000;0.000180;-0.000388;0.001488;-0.000136;0.001498;-0.000398;-85.878369;0.001552;
1086;1482;0.287551;84.905407;0.999978;0.001020;-0.006333;0.014951;-0.001578;0.015067;-0.006450;-85.781597;0.015119;
966;1667;0.139407;86.050533;0.999974;0.001367;-0.000395;0.001494;-0.000426;0.001586;-0.000487;-77.864082;0.001625;
1151;1857;-0.003605;86.335007;0.999999;0.000245;-0.000225;0.001378;0.000032;0.001379;-0.000225;88.843995;0.001479;
1036;1817;0.038267;86.273637;0.999999;0.000202;-0.000414;0.001506;-0.000123;0.001514;-0.000422;-86.362733;0.001563;
1116;1207;1.170702;67.430334;0.998522;0.009459;-0.073876;0.195936;-0.001661;0.195946;-0.073886;-89.647366;0.197910;
1171;1887;-0.003955;86.374991;0.999999;0.000228;-0.000109;0.001340;0.000071;0.001344;-0.000112;87.216597;0.001491;
1176;1622;-0.056408;85.907950;1.000000;0.000171;-0.001256;0.002918;0.000251;0.002933;-0.001271;86.571686;0.002942;
1026;1742;0.068869;86.155351;1.000000;0.000164;-0.000608;0.001603;-0.000135;0.001611;-0.000616;-86.522661;0.001626;
1001;1827;0.048884;86.283516;0.999999;0.000181;-0.000420;0.001510;-0.000136;0.001519;-0.000429;-85.983514;0.001566;
1156;1887;-0.002329;86.375262;0.999999;0.000220;-0.000106;0.001329;0.000042;0.001330;-0.000107;88.343205;0.001478;
1086;1487;0.268780;84.981841;0.999983;0.000906;-0.005965;0.014186;-0.001529;0.014301;-0.006080;-85.686746;0.014354;
1051;1627;0.095749;85.937296;0.999999;0.000343;-0.001070;0.002662;-0.000448;0.002715;-0.001123;-83.250861;0.002728;
966;1687;0.122691;86.074668;1.000000;0.000188;-0.000415;0.001438;-0.000263;0.001475;-0.000451;-82.086625;0.001511;
1036;1822;0.036162;86.280708;0.999999;0.000210;-0.000397;0.001495;-0.000126;0.001504;-0.000406;-86.199938;0.001556;
946;1817;0.088331;86.248733;0.999984;0.001001;-0.000657;0.001443;0.000012;0.001443;-0.000657;89.678111;0.001445;
1146;1192;-1.291408;64.561471;0.998397;0.010422;-0.084140;0.232894;0.001882;0.232905;-0.084151;89.659859;0.235873;
991;1742;0.089998;86.153681;1.000000;0.000186;-0.000549;0.001517;-0.000169;0.001531;-0.000563;-85.366517;0.001548;
1001;1677;0.109877;86.050563;1.000000;0.000105;-0.000554;0.001618;-0.000304;0.001660;-0.000596;-82.181744;0.001682;
1026;1832;0.036340;86.295054;1.000000;0.000126;-0.000377;0.001486;-0.000146;0.001497;-0.000388;-85.549558;0.001554;
1056;1842;0.022964;86.312050;0.999999;0.000236;-0.000307;0.001439;-0.000121;0.001448;-0.000315;-86.063101;0.001523;
1251;1632;-0.129878;85.959962;0.999999;0.000229;-0.000882;0.002479;0.000608;0.002586;-0.000989;80.048347;0.002610;
1176;1482;-0.273123;84.892790;0.999980;0.001151;-0.006273;0.014986;0.001450;0.015085;-0.006372;86.116419;0.015145;
956;1807;0.077735;86.240327;1.000000;0.000124;-0.000561;0.001444;-0.000018;0.001444;-0.000561;-89.488356;0.001456;
951;1817;0.075305;86.252297;1.000000;0.000191;-0.000605;0.001454;-0.000010;0.001454;-0.000605;-89.713247;0.001460;
1061;1842;0.020793;86.312057;1.000000;0.000241;-0.000303;0.001436;-0.000114;0.001444;-0.000310;-86.277734;0.001520;
1051;1632;0.093684;85.950152;1.000000;0.000260;-0.001026;0.002541;-0.000413;0.002588;-0.001073;-83.483946;0.002600;
1111;1207;1.542980;67.419429;0.998465;0.011496;-0.074340;0.196904;-0.002424;0.196925;-0.074362;-89.488089;0.198882;
996;1742;0.086780;86.154136;1.000000;0.000201;-0.000560;0.001533;-0.000163;0.001546;-0.000573;-85.576524;0.001563;
1291;1677;-0.125700;86.053396;1.000000;0.000190;-0.000390;0.001554;0.000321;0.001605;-0.000441;80.860382;0.001658;
1001;1682;0.107740;86.058643;1.000000;0.000128;-0.000557;0.001606;-0.000287;0.001643;-0.000595;-82.575725;0.001664;
1256;1507;-0.584748;85.192596;0.999978;0.001398;-0.004975;0.011449;0.003328;0.012098;-0.005624;78.969794;0.012108;
956;1812;0.075325;86.247102;1.000000;0.000148;-0.000562;0.001455;-0.000025;0.001455;-0.000563;-89.297823;0.001467;
1216;1622;-0.102926;85.919745;0.999999;0.000331;-0.001135;0.002860;0.000501;0.002922;-0.001197;82.958416;0.002938;
961;1797;0.081324;86.227858;0.999999;0.000252;-0.000517;0.001447;-0.000033;0.001448;-0.000517;-89.049603;0.001467;
986;1707;0.106455;86.100354;1.000000;0.000175;-0.000544;0.001506;-0.000253;0.001537;-0.000575;-83.067324;0.001553;
1036;1627;0.111395;85.942981;1.000000;0.000315;-0.001002;0.002627;-0.000536;0.002704;-0.001080;-81.763611;0.002722;
1296;1677;-0.127910;86.054771;1.000000;0.000186;-0.000350;0.001543;0.000314;0.001594;-0.000401;80.815726;0.001658;
1211;1217;-5.629377;68.049236;0.998405;0.010907;-0.073380;0.188338;0.011984;0.188886;-0.073928;87.383675;0.190365;
1026;1837;0.034095;86.301794;1.000000;0.000146;-0.000358;0.001477;-0.000151;0.001490;-0.000370;-85.331183;0.001551;
1001;1687;0.106140;86.066826;1.000000;0.000157;-0.000562;0.001599;-0.000271;0.001632;-0.000596;-82.955541;0.001652;
1171;1862;-0.007382;86.340782;1.000000;0.000181;-0.000207;0.001375;0.000064;0.001378;-0.000209;87.696739;0.001485;
1076;1852;0.014676;86.327635;0.999999;0.000222;-0.000256;0.001409;-0.000096;0.001415;-0.000262;-86.702925;0.001505;
1166;1832;-0.010594;86.299555;1.000000;0.000128;-0.000324;0.001447;0.000050;0.001448;-0.000325;88.379085;0.001520;
1181;1837;-0.014564;86.306203;1.000000;0.000131;-0.000310;0.001437;0.000072;0.001440;-0.000313;87.652415;0.001515;
1221;1622;-0.108257;85.921683;0.999999;0.000277;-0.001116;0.002854;0.000532;0.002924;-0.001186;82.496752;0.002941;
1051;1857;0.019424;86.333389;0.999999;0.000201;-0.000246;0.001408;-0.000139;0.001420;-0.000258;-85.221038;0.001513;
1271;1742;-0.088568;86.152008;1.000000;0.000149;-0.000564;0.001539;0.000166;0.001552;-0.000577;85.512973;0.001569;
1026;1842;0.031950;86.309704;1.000000;0.000176;-0.000338;0.001469;-0.000157;0.001483;-0.000352;-85.078922;0.001550;
1106;1207;1.910468;67.405988;0.998261;0.013736;-0.074813;0.197884;-0.003267;0.197923;-0.074852;-89.313662;0.199871;
1166;1837;-0.010006;86.307215;1.000000;0.000118;-0.000304;0.001431;0.000050;0.001432;-0.000306;88.344792;0.001509;
1176;1862;-0.008638;86.340645;1.000000;0.000208;-0.000208;0.001377;0.000072;0.001381;-0.000211;87.403433;0.001487;
1081;1852;0.013111;86.327858;1.000000;0.000229;-0.000257;0.001406;-0.000090;0.001411;-0.000262;-86.927942;0.001501;
1166;1852;-0.008028;86.327743;1.000000;0.000122;-0.000245;0.001392;0.000054;0.001394;-0.000247;88.110332;0.001488;
1246;1792;-0.055219;86.232787;1.000000;0.000191;-0.000498;0.001544;0.000116;0.001551;-0.000505;86.759457;0.001582;
1256;1817;-0.049050;86.269683;1.000000;0.000166;-0.000431;0.001518;0.000136;0.001528;-0.000441;86.025184;0.001573;
1011;1902;0.006687;86.393451;0.999998;0.000283;-0.000077;0.001387;-0.000243;0.001426;-0.000116;-80.812922;0.001583;
1221;1857;-0.020411;86.332801;0.999999;0.000275;-0.000254;0.001423;0.000151;0.001437;-0.000267;84.885168;0.001528;
1296;1687;-0.123899;86.069281;1.000000;0.000182;-0.000387;0.001506;0.000258;0.001541;-0.000422;82.378447;0.001593;
1271;1747;-0.086244;86.159023;1.000000;0.000142;-0.000558;0.001534;0.000160;0.001546;-0.000570;85.659923;0.001564;
1151;1192;-1.727672;64.508013;0.998368;0.010389;-0.084165;0.232374;0.002548;0.232395;-0.084186;89.538894;0.235316;
1181;1852;-0.011960;86.327654;1.000000;0.000140;-0.000250;0.001398;0.000078;0.001402;-0.000254;87.300201;0.001494;
1266;1827;-0.048874;86.282243;1.000000;0.000126;-0.000422;0.001518;0.000137;0.001527;-0.000432;85.972320;0.001575;
1086;1852;0.011734;86.328068;1.000000;0.000207;-0.000255;0.001403;-0.000082;0.001407;-0.000259;-87.189559;0.001498;
1171;1852;-0.009085;86.327969;1.000000;0.000152;-0.000246;0.001394;0.000061;0.001396;-0.000248;87.868189;0.001490;
946;1742;0.123472;86.147034;0.999969;0.001364;-0.000751;0.001391;-0.000255;0.001421;-0.000781;-83.297160;0.001423;
1261;1817;-0.051100;86.268455;1.000000;0.000198;-0.000439;0.001519;0.000132;0.001528;-0.000447;86.154228;0.001571;
1301;1687;-0.125508;86.071169;1.000000;0.000225;-0.000349;0.001490;0.000233;0.001519;-0.000378;82.879940;0.001582;
1251;1792;-0.057557;86.232375;1.000000;0.000150;-0.000496;0.001543;0.000117;0.001550;-0.000502;86.738524;0.001582;
981;1697;0.112482;86.085758;0.999999;0.000200;-0.000478;0.001500;-0.000268;0.001536;-0.000514;-82.424170;0.001563;
1271;1752;-0.084184;86.167092;1.000000;0.000125;-0.000551;0.001530;0.000152;0.001541;-0.000562;85.852348;0.001559;
1151;1197;-1.632853;65.500975;0.998380;0.011238;-0.080483;0.218643;0.002518;0.218664;-0.080504;89.517767;0.221183;
1181;1857;-0.010782;86.334860;1.000000;0.000149;-0.000229;0.001386;0.000080;0.001389;-0.000233;87.185806;0.001488;
1266;1832;-0.046158;86.289759;1.000000;0.000131;-0.000410;0.001517;0.000145;0.001528;-0.000421;85.731266;0.001578;
986;1697;0.109878;86.084926;1.000000;0.000174;-0.000512;0.001521;-0.000268;0.001556;-0.000546;-82.618524;0.001579;
946;1747;0.117356;86.152107;0.999979;0.001160;-0.000626;0.001332;-0.000201;0.001353;-0.000647;-84.213747;0.001353;
1176;1852;-0.010584;86.327917;1.000000;0.000154;-0.000248;0.001396;0.000069;0.001398;-0.000251;87.590020;0.001491;
1306;1682;-0.128180;86.066437;0.999990;0.000866;-0.000263;0.001524;0.000205;0.001547;-0.000286;83.524743;0.001647;
1261;1822;-0.049254;86.276323;1.000000;0.000183;-0.000428;0.001514;0.000136;0.001523;-0.000438;86.019414;0.001569;
1256;1792;-0.059765;86.231023;1.000000;0.000136;-0.000492;0.001542;0.000116;0.001549;-0.000499;86.736964;0.001581;
1241;1792;-0.052753;86.233357;0.999999;0.000201;-0.000498;0.001546;0.000113;0.001552;-0.000505;86.841430;0.001583;
1206;1882;-0.008946;86.367145;1.000000;0.000183;-0.000140;0.001363;0.000133;0.001374;-0.000152;84.973537;0.001507;
1181;1862;-0.009689;86.340502;1.000000;0.000149;-0.000209;0.001380;0.000082;0.001384;-0.000213;87.068909;0.001490;
1306;1687;-0.127756;86.073368;1.000000;0.000180;-0.000292;0.001477;0.000192;0.001498;-0.000312;83.878553;0.001580;
1266;1767;-0.075170;86.191313;1.000000;0.000132;-0.000532;0.001534;0.000128;0.001542;-0.000540;86.464636;0.001565;
1196;1187;-5.964455;62.621069;0.998460;0.010088;-0.089825;0.247167;0.009101;0.247413;-0.090070;88.454126;0.250443;
986;1702;0.108342;86.092547;1.000000;0.000198;-0.000520;0.001516;-0.000254;0.001547;-0.000551;-83.008827;0.001568;
966;1782;0.085432;86.207877;0.999999;0.000238;-0.000495;0.001425;-0.000067;0.001427;-0.000497;-88.014837;0.001449;
996;1677;0.112741;86.051397;1.000000;0.000153;-0.000531;0.001599;-0.000311;0.001643;-0.000576;-81.857142;0.001668;
1261;1827;-0.046885;86.283195;1.000000;0.000143;-0.000416;0.001516;0.000141;0.001526;-0.000427;85.835324;0.001575;
986;1832;0.052541;86.286901;1.000000;0.000160;-0.000425;0.001512;-0.000121;0.001520;-0.000433;-86.438320;0.001566;
1206;1887;-0.007610;86.375263;1.000000;0.000183;-0.000119;0.001358;0.000133;0.001370;-0.000130;84.911890;0.001512;
1226;1647;-0.099900;85.985644;1.000000;0.000150;-0.000877;0.002224;0.000371;0.002268;-0.000921;83.269076;0.002281;
1276;1772;-0.077985;86.196731;1.000000;0.000130;-0.000511;0.001508;0.000126;0.001516;-0.000519;86.444607;0.001541;
1201;1187;-6.443230;62.524417;0.998366;0.008385;-0.090017;0.247710;0.010248;0.248021;-0.090328;88.263620;0.251052;
1271;1767;-0.077829;86.190219;1.000000;0.000107;-0.000526;0.001522;0.000130;0.001530;-0.000534;86.393397;0.001553;
1286;1687;-0.119340;86.067473;1.000000;0.000167;-0.000430;0.001538;0.000284;0.001578;-0.000470;81.937939;0.001621;
1031;1832;0.034612;86.295509;1.000000;0.000145;-0.000369;0.001480;-0.000141;0.001491;-0.000380;-85.673599;0.001550;
966;1787;0.083226;86.215027;0.999999;0.000195;-0.000494;0.001432;-0.000058;0.001434;-0.000495;-88.271756;0.001456;
996;1682;0.110257;86.059392;1.000000;0.000147;-0.000539;0.001584;-0.000297;0.001625;-0.000580;-82.186083;0.001647;
1261;1832;-0.044290;86.290895;1.000000;0.000129;-0.000403;0.001513;0.000148;0.001524;-0.000414;85.595543;0.001576;
981;1787;0.076064;86.219070;1.000000;0.000207;-0.000470;0.001468;-0.000100;0.001473;-0.000476;-87.050609;0.001504;
1031;1637;0.109609;85.970097;1.000000;0.000177;-0.000879;0.002323;-0.000469;0.002390;-0.000946;-81.833627;0.002407;
981;1707;0.108887;86.100631;0.999999;0.000175;-0.000512;0.001484;-0.000252;0.001516;-0.000543;-82.901123;0.001536;
1206;1187;-6.898714;62.380589;0.998236;0.010235;-0.090356;0.248315;0.011285;0.248691;-0.090731;88.093592;0.251702;
1281;1772;-0.080416;86.195214;1.000000;0.000174;-0.000502;0.001493;0.000126;0.001501;-0.000510;86.391486;0.001527;
1291;1687;-0.121706;86.068018;1.000000;0.000152;-0.000420;0.001524;0.000272;0.001561;-0.000457;82.188274;0.001605;
1276;1767;-0.080118;86.189219;1.000000;0.000119;-0.000522;0.001508;0.000132;0.001516;-0.000530;86.296498;0.001539;
981;1782;0.077781;86.211441;1.000000;0.000208;-0.000476;0.001467;-0.000105;0.001472;-0.000482;-86.907027;0.001501;
996;1687;0.108647;86.067614;1.000000;0.000126;-0.000545;0.001577;-0.000280;0.001613;-0.000581;-82.600540;0.001634;
1276;1742;-0.091457;86.151238;1.000000;0.000166;-0.000555;0.001526;0.000170;0.001539;-0.000568;85.370248;0.001557;
1106;1587;0.040715;85.789959;0.999999;0.000227;-0.001650;0.004066;-0.000299;0.004082;-0.001665;-87.015902;0.004105;
976;1777;0.082239;86.202874;1.000000;0.000197;-0.000473;0.001452;-0.000102;0.001457;-0.000479;-86.978064;0.001485;
976;1797;0.073736;86.232902;1.000000;0.000179;-0.000456;0.001467;-0.000087;0.001471;-0.000460;-87.420424;0.001505;
1271;1832;-0.047996;86.288571;1.000000;0.000137;-0.000416;0.001520;0.000139;0.001530;-0.000426;85.907270;0.001579;
1001;1637;0.132189;85.982821;0.999999;0.000254;-0.000719;0.002160;-0.000604;0.002281;-0.000841;-78.620472;0.002308;
1281;1767;-0.082718;86.188305;1.000000;0.000174;-0.000513;0.001493;0.000133;0.001501;-0.000522;86.235039;0.001525;
1036;1632;0.107644;85.956146;1.000000;0.000267;-0.000949;0.002482;-0.000490;0.002550;-0.001018;-82.028866;0.002568;
1251;1707;-0.090645;86.096550;1.000000;0.000181;-0.000626;0.001640;0.000202;0.001658;-0.000644;84.954053;0.001672;
1036;1857;0.022846;86.332320;0.999999;0.000165;-0.000262;0.001425;-0.000160;0.001440;-0.000277;-84.615866;0.001528;
1266;1762;-0.077429;86.183551;1.000000;0.000124;-0.000542;0.001537;0.000135;0.001546;-0.000551;86.301162;0.001567;
1211;1187;-7.388810;62.195378;0.998046;0.011223;-0.090687;0.249061;0.012295;0.249505;-0.091131;87.930153;0.252508;
1111;1587;0.032930;85.789746;0.999999;0.000201;-0.001648;0.004056;-0.000246;0.004066;-0.001658;-87.539804;0.004089;
981;1797;0.071637;86.234354;1.000000;0.000134;-0.000461;0.001476;-0.000096;0.001481;-0.000466;-87.169816;0.001515;
1271;1837;-0.045497;86.297520;1.000000;0.000183;-0.000404;0.001515;0.000148;0.001526;-0.000415;85.622751;0.001578;
1006;1637;0.129005;85.981030;0.999999;0.000250;-0.000736;0.002194;-0.000574;0.002303;-0.000845;-79.306577;0.002330;
1286;1752;-0.091677;86.165305;1.000000;0.000210;-0.000521;0.001480;0.000154;0.001492;-0.000532;85.621465;0.001512;
956;1802;0.081035;86.233001;1.000000;0.000141;-0.000554;0.001443;-0.000015;0.001443;-0.000554;-89.557908;0.001456;
1041;1632;0.102980;85.953898;1.000000;0.000239;-0.000974;0.002503;-0.000465;0.002564;-0.001035;-82.521011;0.002580;
1251;1712;-0.088266;86.105274;1.000000;0.000166;-0.000626;0.001634;0.000192;0.001650;-0.000643;85.183831;0.001664;
1271;1762;-0.079967;86.183121;1.000000;0.000102;-0.000535;0.001524;0.000137;0.001534;-0.000545;86.215105;0.001555;
1116;1902;0.000933;86.394385;0.999999;0.000316;-0.000053;0.001303;-0.000027;0.001303;-0.000054;-88.854597;0.001475;
1211;1192;-7.074241;63.241041;0.998545;0.010526;-0.087648;0.238351;0.012326;0.238816;-0.088113;87.837760;0.241535;
1041;1857;0.022087;86.332847;1.000000;0.000203;-0.000255;0.001420;-0.000154;0.001434;-0.000269;-84.804154;0.001524;
1281;1717;-0.104293;86.113009;0.999999;0.000196;-0.000550;0.001520;0.000219;0.001543;-0.000573;84.019227;0.001559;
1276;1737;-0.093673;86.143819;1.000000;0.000195;-0.000559;0.001529;0.000176;0.001544;-0.000574;85.216654;0.001561;
1011;1637;0.125763;85.978796;0.999999;0.000265;-0.000768;0.002213;-0.000556;0.002314;-0.000868;-79.775701;0.002338;
1286;1757;-0.089955;86.172907;1.000000;0.000198;-0.000514;0.001478;0.000145;0.001489;-0.000525;85.863608;0.001510;
961;1802;0.078679;86.235068;1.000000;0.000179;-0.000534;0.001451;-0.000032;0.001452;-0.000534;-89.067356;0.001469;
1211;1652;-0.084634;85.992472;0.999999;0.000158;-0.000934;0.002241;0.000300;0.002269;-0.000962;84.649980;0.002278;
1046;1632;0.098931;85.952090;1.000000;0.000217;-0.001002;0.002521;-0.000439;0.002574;-0.001055;-83.008215;0.002588;
1276;1762;-0.082317;86.181048;1.000000;0.000123;-0.000530;0.001510;0.000139;0.001519;-0.000539;86.113381;0.001540;
1161;1842;-0.007961;86.313739;1.000000;0.000133;-0.000284;0.001412;0.000044;0.001413;-0.000285;88.514284;0.001495;
1046;1857;0.020921;86.333000;0.999999;0.000216;-0.000250;0.001414;-0.000146;0.001427;-0.000263;-85.028381;0.001519;
1261;1657;-0.120378;86.014329;0.999999;0.000169;-0.000623;0.001841;0.000408;0.001907;-0.000689;80.843072;0.001931;
1176;1212;-3.166016;67.881388;0.998385;0.012676;-0.072116;0.187988;0.006278;0.188139;-0.072267;88.618054;0.189816;
1216;1617;-0.106643;85.905132;0.999999;0.000326;-0.001194;0.003032;0.000545;0.003101;-0.001263;82.769418;0.003119;
966;1802;0.076292;86.237068;1.000000;0.000281;-0.000520;0.001460;-0.000046;0.001461;-0.000521;-88.656200;0.001481;
1281;1737;-0.096224;86.143705;1.000000;0.000164;-0.000548;0.001510;0.000180;0.001526;-0.000563;85.044688;0.001543;
1286;1762;-0.088496;86.179778;1.000000;0.000189;-0.000509;0.001477;0.000137;0.001487;-0.000518;86.072813;0.001509;
1261;1762;-0.074542;86.184409;0.999999;0.000168;-0.000551;0.001548;0.000133;0.001556;-0.000559;86.394504;0.001576;
1291;1682;-0.123510;86.060731;1.000000;0.000184;-0.000408;0.001546;0.000289;0.001588;-0.000449;81.771063;0.001637;
976;1692;0.116812;86.078953;1.000000;0.000169;-0.000480;0.001470;-0.000283;0.001510;-0.000520;-81.915619;0.001534;
1281;1752;-0.089461;86.165796;1.000000;0.000163;-0.000533;0.001501;0.000156;0.001513;-0.000545;85.651214;0.001532;
1296;1647;-0.146954;86.009073;0.999991;0.000872;-0.000596;0.001751;0.000686;0.001936;-0.000782;74.848887;0.001948;
1161;1847;-0.007337;86.319451;1.000000;0.000131;-0.000264;0.001402;0.000045;0.001404;-0.000265;88.444152;0.001491;
1266;1722;-0.093846;86.120462;1.000000;0.000174;-0.000591;0.001578;0.000195;0.001595;-0.000609;84.913366;0.001610;
1176;1217;-3.023395;68.696739;0.998614;0.010938;-0.069215;0.178507;0.006140;0.178660;-0.069367;88.581002;0.180141;
1001;1627;0.141825;85.958499;0.999999;0.000261;-0.000847;0.002524;-0.000754;0.002685;-0.001008;-77.955063;0.002712;
1281;1652;-0.133503;86.011561;1.000000;0.000227;-0.000560;0.001814;0.000555;0.001938;-0.000683;77.471376;0.001966;
1286;1737;-0.098928;86.142919;1.000000;0.000127;-0.000532;0.001485;0.000182;0.001501;-0.000548;84.897045;0.001519;
1261;1767;-0.072138;86.191729;1.000000;0.000196;-0.000539;0.001545;0.000126;0.001552;-0.000547;86.546738;0.001575;
1286;1747;-0.094147;86.158069;1.000000;0.000149;-0.000526;0.001483;0.000164;0.001497;-0.000539;85.362209;0.001516;
1296;1742;-0.102180;86.149557;1.000000;0.000207;-0.000532;0.001423;0.000165;0.001436;-0.000546;85.203065;0.001450;
1231;1642;-0.106849;85.975341;0.999999;0.000235;-0.000886;0.002293;0.000421;0.002348;-0.000941;82.578919;0.002363;
1281;1757;-0.087087;86.172928;1.000000;0.000166;-0.000527;0.001497;0.000147;0.001508;-0.000537;85.869306;0.001528;
1161;1852;-0.006815;86.327291;1.000000;0.000144;-0.000244;0.001391;0.000046;0.001393;-0.000245;88.374457;0.001487;
976;1792;0.076330;86.224849;1.000000;0.000190;-0.000460;0.001462;-0.000089;0.001466;-0.000464;-87.349776;0.001498;
946;1882;0.047081;86.347545;0.999992;0.000879;-0.000539;0.001719;-0.000242;0.001745;-0.000565;-83.945732;0.001781;
1276;1837;-0.047750;86.296508;1.000000;0.000175;-0.000411;0.001519;0.000142;0.001529;-0.000421;85.807016;0.001580;
971;1647;0.142499;86.018438;0.999872;0.002662;-0.000541;0.001690;-0.000619;0.001850;-0.000701;-75.474770;0.001868;
1176;1222;-2.874695;69.483423;0.998456;0.010459;-0.066360;0.169436;0.005989;0.169588;-0.066512;88.546063;0.170897;
1286;1652;-0.136090;86.012923;1.000000;0.000224;-0.000547;0.001790;0.000584;0.001928;-0.000685;76.722557;0.001954;
1286;1772;-0.083181;86.194745;1.000000;0.000213;-0.000493;0.001479;0.000122;0.001486;-0.000501;86.466917;0.001512;
1286;1767;-0.085438;86.187362;0.999999;0.000221;-0.000503;0.001477;0.000129;0.001486;-0.000511;86.280734;0.001510;
1296;1747;-0.099251;86.156733;1.000000;0.000209;-0.000534;0.001428;0.000154;0.001440;-0.000546;85.544194;0.001454;
1276;1717;-0.101874;86.112750;0.999999;0.000187;-0.000565;0.001545;0.000213;0.001566;-0.000586;84.289480;0.001582;
1281;1762;-0.085196;86.180574;1.000000;0.000175;-0.000520;0.001494;0.000140;0.001504;-0.000530;86.054668;0.001526;
951;1882;0.035255;86.351258;0.999999;0.000271;-0.000477;0.001688;-0.000248;0.001716;-0.000505;-83.547912;0.001764;
1161;1837;-0.008590;86.307566;1.000000;0.000139;-0.000304;0.001427;0.000044;0.001428;-0.000305;88.550947;0.001505;
981;1792;0.074105;86.226382;1.000000;0.000161;-0.000466;0.001471;-0.000098;0.001476;-0.000471;-87.120685;0.001508;
976;1647;0.138898;86.009178;1.000000;0.000200;-0.000555;0.001743;-0.000598;0.001890;-0.000701;-76.249429;0.001911;
1281;1782;-0.076526;86.210387;1.000000;0.000166;-0.000488;0.001492;0.000116;0.001499;-0.000495;86.661940;0.001528;
1296;1722;-0.110322;86.121560;1.000000;0.000122;-0.000545;0.001411;0.000232;0.001438;-0.000572;83.324299;0.001448;
1166;1207;-2.586959;67.150675;0.998303;0.009450;-0.074114;0.195646;0.004507;0.195722;-0.074189;89.043136;0.197621;
1291;1737;-0.101285;86.141872;1.000000;0.000140;-0.000519;0.001451;0.000187;0.001468;-0.000537;84.616809;0.001486;
1286;1742;-0.096549;86.150185;1.000000;0.000120;-0.000529;0.001484;0.000173;0.001499;-0.000544;85.119709;0.001518;
1286;1732;-0.100946;86.135875;1.000000;0.000132;-0.000534;0.001488;0.000192;0.001506;-0.000552;84.612926;0.001524;
981;1632;0.148843;85.979198;0.999999;0.000303;-0.000733;0.002247;-0.000801;0.002448;-0.000934;-75.870638;0.002471;
1281;1747;-0.091513;86.157991;1.000000;0.000158;-0.000540;0.001505;0.000165;0.001519;-0.000553;85.416099;0.001537;
1041;1627;0.106443;85.941369;1.000000;0.000281;-0.001023;0.002640;-0.000507;0.002709;-0.001092;-82.259143;0.002726;
981;1647;0.135095;86.006657;0.999999;0.000250;-0.000567;0.001783;-0.000577;0.001917;-0.000701;-76.913452;0.001940;
991;1677;0.115423;86.052289;1.000000;0.000193;-0.000510;0.001583;-0.000321;0.001632;-0.000558;-81.476626;0.001658;
1216;1192;-7.543788;63.076991;0.998524;0.008728;-0.087938;0.239496;0.013332;0.240038;-0.088480;87.672321;0.242785;
1286;1782;-0.078829;86.209814;1.000000;0.000185;-0.000479;0.001480;0.000109;0.001486;-0.000485;86.817214;0.001515;
1071;1622;0.075800;85.916178;1.000000;0.000183;-0.001190;0.002835;-0.000364;0.002867;-0.001223;-84.877981;0.002878;
1001;1742;0.084253;86.153762;1.000000;0.000186;-0.000569;0.001549;-0.000158;0.001561;-0.000581;-85.753896;0.001578;
1291;1742;-0.099309;86.149385;1.000000;0.000141;-0.000511;0.001453;0.000173;0.001468;-0.000526;85.013304;0.001488;
1301;1722;-0.113106;86.120164;1.000000;0.000202;-0.000550;0.001371;0.000236;0.001400;-0.000578;83.094522;0.001407;
1281;1647;-0.136700;86.003037;0.999999;0.000233;-0.000620;0.001892;0.000590;0.002024;-0.000752;77.412487;0.002046;
1166;1482;-0.209126;84.895340;0.999980;0.001349;-0.006247;0.015000;0.001103;0.015057;-0.006304;87.036607;0.015123;
1291;1732;-0.103728;86.135047;1.000000;0.000129;-0.000533;0.001452;0.000206;0.001474;-0.000554;84.145653;0.001489;
1266;1837;-0.043424;86.298245;1.000000;0.000155;-0.000396;0.001511;0.000152;0.001523;-0.000408;85.461805;0.001577;
1291;1652;-0.139168;86.014827;1.000000;0.000207;-0.000537;0.001762;0.000620;0.001919;-0.000694;75.834876;0.001943;
1221;1192;-8.015742;62.977981;0.998541;0.007998;-0.088123;0.240741;0.014464;0.241376;-0.088758;87.486461;0.244175;
1281;1742;-0.093962;86.150670;1.000000;0.000158;-0.000544;0.001508;0.000173;0.001522;-0.000558;85.225554;0.001540;
1046;1627;0.101116;85.939765;1.000000;0.000317;-0.001047;0.002650;-0.000478;0.002711;-0.001108;-82.758097;0.002726;
1286;1712;-0.109172;86.104882;1.000000;0.000200;-0.000513;0.001506;0.000229;0.001532;-0.000539;83.605759;0.001554;
1266;1777;-0.071250;86.206594;1.000000;0.000135;-0.000512;0.001531;0.000121;0.001538;-0.000520;86.627208;0.001565;
1006;1797;0.060095;86.238892;1.000000;0.000216;-0.000479;0.001514;-0.000120;0.001521;-0.000486;-86.578929;0.001553;
1286;1647;-0.139535;86.004618;0.999999;0.000235;-0.000612;0.001858;0.000616;0.002004;-0.000757;76.747379;0.002023;
1291;1657;-0.135711;86.022994;1.000000;0.000184;-0.000464;0.001704;0.000521;0.001823;-0.000582;77.163807;0.001862;
1296;1732;-0.105753;86.135143;1.000000;0.000154;-0.000544;0.001418;0.000206;0.001439;-0.000566;84.080555;0.001450;
1271;1827;-0.050753;86.281348;1.000000;0.000131;-0.000427;0.001519;0.000131;0.001528;-0.000436;86.159431;0.001574;
1256;1837;-0.039915;86.300389;1.000000;0.000130;-0.000375;0.001500;0.000158;0.001514;-0.000388;85.209564;0.001573;
1171;1482;-0.240123;84.893324;0.999981;0.001221;-0.006267;0.014993;0.001279;0.015070;-0.006344;86.570049;0.015133;
1301;1727;-0.110588;86.126287;1.000000;0.000191;-0.000548;0.001374;0.000222;0.001399;-0.000573;83.502941;0.001407;
1311;1772;-0.094788;86.188459;1.000000;0.000153;-0.000548;0.001401;0.000091;0.001405;-0.000552;87.340054;0.001415;
1306;1732;-0.111368;86.134996;0.999999;0.000230;-0.000552;0.001345;0.000214;0.001369;-0.000576;83.637746;0.001375;
1316;1772;-0.097207;86.186295;1.000000;0.000223;-0.000564;0.001387;0.000079;0.001390;-0.000568;87.683448;0.001398;
1291;1647;-0.142968;86.006048;0.999999;0.000190;-0.000606;0.001816;0.000646;0.001978;-0.000768;75.956601;0.001994;
1271;1777;-0.073468;86.206042;1.000000;0.000126;-0.000507;0.001520;0.000121;0.001528;-0.000514;86.598499;0.001554;
1256;1822;-0.046783;86.277153;1.000000;0.000166;-0.000419;0.001513;0.000140;0.001523;-0.000429;85.882110;0.001571;
1276;1652;-0.130842;86.010090;0.999999;0.000181;-0.000599;0.001835;0.000512;0.001939;-0.000702;78.581070;0.001963;
1261;1842;-0.039309;86.306301;1.000000;0.000141;-0.000371;0.001502;0.000163;0.001516;-0.000385;85.054350;0.001576;
1266;1772;-0.073294;86.198719;1.000000;0.000132;-0.000521;0.001534;0.000123;0.001541;-0.000529;86.590616;0.001566;
1261;1837;-0.041768;86.299270;1.000000;0.000119;-0.000388;0.001506;0.000156;0.001519;-0.000401;85.331667;0.001574;
1311;1777;-0.092054;86.195475;1.000000;0.000176;-0.000550;0.001404;0.000084;0.001408;-0.000553;87.539147;0.001418;
1316;1777;-0.094282;86.193430;1.000000;0.000266;-0.000569;0.001391;0.000074;0.001393;-0.000572;87.847796;0.001401;
1156;1482;-0.145096;84.897472;0.999984;0.001153;-0.006235;0.015001;0.000757;0.015028;-0.006262;87.961617;0.015098;
1281;1792;-0.071756;86.226071;1.000000;0.000140;-0.000476;0.001503;0.000107;0.001509;-0.000481;86.921202;0.001541;
1296;1707;-0.116205;86.099292;1.000000;0.000243;-0.000511;0.001458;0.000245;0.001488;-0.000541;83.018989;0.001506;
1276;1777;-0.075856;86.204061;1.000000;0.000143;-0.000503;0.001508;0.000122;0.001515;-0.000510;86.551032;0.001542;
1256;1827;-0.044696;86.284852;1.000000;0.000153;-0.000406;0.001513;0.000145;0.001524;-0.000416;85.705667;0.001576;
1116;1857;0.003801;86.334588;1.000000;0.000150;-0.000224;0.001378;-0.000032;0.001378;-0.000225;-88.841757;0.001479;
1111;1857;0.004869;86.334920;1.000000;0.000179;-0.000225;0.001379;-0.000041;0.001380;-0.000226;-88.542304;0.001480;
986;1632;0.145714;85.977122;0.999999;0.000215;-0.000746;0.002269;-0.000768;0.002454;-0.000931;-76.501336;0.002477;
1266;1782;-0.069255;86.214320;1.000000;0.000155;-0.000504;0.001528;0.000119;0.001535;-0.000511;86.668383;0.001563;
1271;1772;-0.075521;86.197963;1.000000;0.000119;-0.000516;0.001522;0.000124;0.001530;-0.000523;86.540915;0.001555;
1311;1722;-0.117237;86.121613;0.999999;0.000278;-0.000569;0.001270;0.000258;0.001305;-0.000604;82.161290;0.001306;
1271;1787;-0.069410;86.220913;1.000000;0.000171;-0.000493;0.001521;0.000115;0.001528;-0.000500;86.746053;0.001558;
1301;1707;-0.119150;86.099730;1.000000;0.000192;-0.000508;0.001428;0.000240;0.001458;-0.000537;83.050218;0.001474;
1286;1792;-0.073994;86.224808;1.000000;0.000186;-0.000469;0.001493;0.000099;0.001498;-0.000474;87.109203;0.001531;
1281;1777;-0.078529;86.202778;1.000000;0.000164;-0.000494;0.001493;0.000121;0.001500;-0.000501;86.540464;0.001528;
1296;1652;-0.141050;86.016099;0.999999;0.000323;-0.000525;0.001728;0.000667;0.001911;-0.000708;74.684673;0.001932;
1256;1832;-0.042344;86.292224;1.000000;0.000159;-0.000390;0.001508;0.000151;0.001520;-0.000402;85.473286;0.001575;
1096;1467;0.264215;84.670619;0.999984;0.001192;-0.007473;0.017451;-0.001380;0.017527;-0.007549;-86.841567;0.017583;
956;1822;0.070881;86.262313;0.999999;0.000238;-0.000573;0.001449;-0.000047;0.001450;-0.000574;-88.660026;0.001461;
991;1632;0.142518;85.975307;0.999999;0.000198;-0.000758;0.002290;-0.000738;0.002459;-0.000928;-77.075419;0.002484;
1316;1782;-0.092215;86.200418;0.999999;0.000270;-0.000570;0.001388;0.000080;0.001391;-0.000573;87.665967;0.001399;
1271;1782;-0.071487;86.213524;1.000000;0.000137;-0.000500;0.001519;0.000118;0.001526;-0.000507;86.676965;0.001554;
1306;1707;-0.121212;86.100230;1.000000;0.000141;-0.000505;0.001396;0.000234;0.001425;-0.000533;83.080601;0.001440;
1281;1827;-0.055136;86.279048;1.000000;0.000207;-0.000437;0.001520;0.000117;0.001527;-0.000444;86.603033;0.001571;
1256;1842;-0.037505;86.307156;0.999999;0.000135;-0.000358;0.001495;0.000165;0.001510;-0.000373;84.944110;0.001573;
1291;1782;-0.080948;86.208435;1.000000;0.000244;-0.000472;0.001468;0.000099;0.001473;-0.000477;87.073824;0.001504;
1296;1657;-0.137468;86.024756;1.000000;0.000146;-0.000438;0.001687;0.000545;0.001818;-0.000569;76.427509;0.001860;
1291;1747;-0.096392;86.157337;1.000000;0.000179;-0.000509;0.001455;0.000162;0.001468;-0.000522;85.317428;0.001488;
961;1822;0.068878;86.264101;1.000000;0.000192;-0.000548;0.001460;-0.000056;0.001462;-0.000550;-88.400463;0.001477;
1261;1757;-0.076569;86.176492;0.999999;0.000168;-0.000560;0.001552;0.000139;0.001561;-0.000569;86.254977;0.001580;
1311;1702;-0.124515;86.096116;1.000000;0.000186;-0.000401;0.001339;0.000179;0.001357;-0.000419;84.177692;0.001390;
1231;1487;-0.580743;84.946308;0.999983;0.001586;-0.006149;0.014245;0.003196;0.014734;-0.006638;81.298415;0.014759;
1276;1782;-0.074149;86.212002;1.000000;0.000144;-0.000497;0.001507;0.000118;0.001514;-0.000504;86.650031;0.001542;
1296;1662;-0.134749;86.032461;1.000000;0.000148;-0.000408;0.001607;0.000454;0.001705;-0.000506;77.864678;0.001751;
1296;1777;-0.086023;86.199752;1.000000;0.000191;-0.000522;0.001453;0.000098;0.001458;-0.000527;87.177623;0.001476;
1281;1832;-0.052597;86.287205;1.000000;0.000176;-0.000429;0.001525;0.000126;0.001533;-0.000437;86.329281;0.001579;
1181;1572;-0.092855;85.723933;0.999999;0.000288;-0.002022;0.005014;0.000604;0.005065;-0.002073;85.126075;0.005093;
1301;1757;-0.097748;86.170826;1.000000;0.000214;-0.000524;0.001415;0.000124;0.001423;-0.000532;86.347381;0.001438;
1291;1787;-0.078510;86.215908;1.000000;0.000274;-0.000468;0.001476;0.000093;0.001480;-0.000472;87.253847;0.001512;
1296;1667;-0.132523;86.039871;1.000000;0.000152;-0.000384;0.001558;0.000414;0.001642;-0.000468;78.465431;0.001692;
1296;1737;-0.104019;86.142100;1.000000;0.000192;-0.000534;0.001420;0.000184;0.001437;-0.000551;84.680058;0.001449;
1266;1757;-0.079499;86.176224;1.000000;0.000138;-0.000552;0.001541;0.000141;0.001550;-0.000561;86.151773;0.001570;
1291;1777;-0.083525;86.201494;1.000000;0.000222;-0.000477;0.001466;0.000106;0.001472;-0.000482;86.891440;0.001501;
1231;1492;-0.550754;85.015790;0.999986;0.001146;-0.005805;0.013523;0.003077;0.014001;-0.006283;81.170735;0.014026;
951;1802;0.082440;86.230813;1.000000;0.000148;-0.000578;0.001437;0.000005;0.001437;-0.000578;89.864392;0.001446;
1266;1842;-0.041170;86.305432;1.000000;0.000162;-0.000380;0.001509;0.000160;0.001523;-0.000393;85.180813;0.001581;
1306;1757;-0.099892;86.170011;1.000000;0.000168;-0.000526;0.001394;0.000117;0.001401;-0.000534;86.521483;0.001414;
1301;1657;-0.139400;86.016270;0.999842;0.002982;-0.000394;0.001670;0.000568;0.001816;-0.000540;75.586277;0.001866;
1281;1837;-0.049919;86.295461;1.000000;0.000170;-0.000418;0.001523;0.000135;0.001532;-0.000428;86.040377;0.001581;
1301;1777;-0.088665;86.198786;1.000000;0.000146;-0.000530;0.001437;0.000097;0.001442;-0.000534;87.179768;0.001458;
1181;1577;-0.087983;85.746378;0.999999;0.000321;-0.001904;0.004697;0.000562;0.004745;-0.001952;85.166693;0.004769;
1291;1792;-0.076605;86.222907;1.000000;0.000308;-0.000463;0.001485;0.000088;0.001489;-0.000467;87.416947;0.001523;
1271;1757;-0.082034;86.175657;1.000000;0.000112;-0.000543;0.001527;0.000144;0.001537;-0.000553;86.049267;0.001557;
1291;1762;-0.091017;86.179018;1.000000;0.000212;-0.000495;0.001458;0.000131;0.001467;-0.000504;86.165190;0.001490;
1226;1852;-0.023696;86.324432;0.999999;0.000289;-0.000278;0.001439;0.000153;0.001453;-0.000292;84.959502;0.001537;
951;1807;0.079859;86.237955;1.000000;0.000153;-0.000588;0.001433;0.000002;0.001433;-0.000588;89.953411;0.001441;
1236;1487;-0.615680;84.945751;0.999973;0.001654;-0.006177;0.014200;0.003339;0.014733;-0.006710;80.927351;0.014752;
1301;1662;-0.129062;86.029420;0.999943;0.001922;-0.000362;0.001591;0.000456;0.001692;-0.000463;77.483144;0.001749;
1311;1757;-0.102291;86.167954;1.000000;0.000180;-0.000530;0.001371;0.000106;0.001377;-0.000536;86.819925;0.001388;
1271;1842;-0.043215;86.304780;0.999999;0.000216;-0.000388;0.001514;0.000157;0.001527;-0.000401;85.324910;0.001584;
1306;1777;-0.090056;86.197258;1.000000;0.000139;-0.000538;0.001420;0.000093;0.001425;-0.000543;87.299875;0.001438;
1296;1762;-0.093101;86.178306;1.000000;0.000220;-0.000524;0.001448;0.000117;0.001454;-0.000531;86.616557;0.001472;
1181;1582;-0.083278;85.768539;0.999999;0.000316;-0.001797;0.004410;0.000521;0.004453;-0.001841;85.231856;0.004476;
1281;1722;-0.102523;86.120960;0.999999;0.000159;-0.000552;0.001516;0.000210;0.001537;-0.000573;84.267899;0.001553;
1311;1752;-0.104926;86.161300;1.000000;0.000185;-0.000542;0.001365;0.000123;0.001373;-0.000550;86.327274;0.001382;
951;1812;0.077698;86.245430;1.000000;0.000158;-0.000591;0.001446;-0.000007;0.001447;-0.000591;-89.793457;0.001454;
1276;1747;-0.088801;86.158253;1.000000;0.000141;-0.000550;0.001521;0.000163;0.001534;-0.000562;85.530688;0.001552;
1291;1767;-0.087782;86.186494;0.999999;0.000179;-0.000491;0.001461;0.000122;0.001468;-0.000498;86.425612;0.001493;
1301;1667;-0.135725;86.042655;0.999999;0.000360;-0.000338;0.001541;0.000417;0.001629;-0.000426;78.027237;0.001690;
1236;1492;-0.579859;85.014725;0.999979;0.001457;-0.005827;0.013481;0.003219;0.014004;-0.006349;80.781265;0.014024;
1306;1782;-0.087678;86.204227;1.000000;0.000165;-0.000537;0.001421;0.000092;0.001425;-0.000541;87.319874;0.001439;
1286;1777;-0.081251;86.202244;1.000000;0.000183;-0.000485;0.001479;0.000115;0.001486;-0.000492;86.660691;0.001514;
1301;1762;-0.096009;86.178265;1.000000;0.000174;-0.000527;0.001430;0.000114;0.001437;-0.000534;86.673516;0.001452;
1281;1727;-0.100285;86.128602;1.000000;0.000148;-0.000551;0.001514;0.000200;0.001533;-0.000570;84.531875;0.001550;
1301;1752;-0.100147;86.163763;1.000000;0.000181;-0.000534;0.001412;0.000137;0.001421;-0.000544;85.984445;0.001434;
1061;1607;0.096029;85.874789;0.999999;0.000273;-0.001339;0.003334;-0.000562;0.003400;-0.001406;-83.236898;0.003417;
1276;1752;-0.086675;86.166248;1.000000;0.000123;-0.000543;0.001517;0.000154;0.001528;-0.000555;85.742382;0.001547;
1276;1817;-0.057978;86.266325;0.999999;0.000211;-0.000444;0.001516;0.000114;0.001522;-0.000451;86.690869;0.001564;
1301;1692;-0.123842;86.078180;1.000000;0.000256;-0.000382;0.001464;0.000236;0.001494;-0.000412;82.825209;0.001543;
1111;1862;0.004429;86.341272;1.000000;0.000177;-0.000206;0.001365;-0.000042;0.001366;-0.000207;-88.485206;0.001472;
1016;1497;0.611134;85.093987;0.999981;0.001606;-0.005311;0.012522;-0.003436;0.013161;-0.005950;-79.462568;0.013182;
1306;1787;-0.085779;86.212216;1.000000;0.000171;-0.000537;0.001442;0.000083;0.001445;-0.000540;87.604428;0.001461;
1291;1752;-0.093901;86.164778;1.000000;0.000238;-0.000505;0.001455;0.000151;0.001466;-0.000516;85.615936;0.001487;
1176;1817;-0.016178;86.277016;0.999999;0.000205;-0.000381;0.001480;0.000058;0.001481;-0.000383;88.224352;0.001538;
1266;1822;-0.051374;86.275273;1.000000;0.000158;-0.000432;0.001514;0.000131;0.001523;-0.000441;86.163855;0.001567;
1291;1717;-0.110232;86.113628;1.000000;0.000137;-0.000519;0.001467;0.000230;0.001493;-0.000546;83.488618;0.001511;
966;1777;0.087773;86.201292;0.999999;0.000248;-0.000497;0.001408;-0.000075;0.001411;-0.000500;-87.744819;0.001431;
1276;1757;-0.084589;86.174296;1.000000;0.000130;-0.000537;0.001513;0.000146;0.001523;-0.000547;85.937571;0.001543;
1301;1697;-0.122518;86.085705;1.000000;0.000201;-0.000404;0.001453;0.000221;0.001479;-0.000430;83.300920;0.001522;
1056;1637;0.086780;85.960610;1.000000;0.000177;-0.001006;0.002458;-0.000362;0.002496;-0.001044;-84.100523;0.002507;
1251;1837;-0.038126;86.300805;1.000000;0.000147;-0.000366;0.001495;0.000157;0.001508;-0.000379;85.223451;0.001569;
1116;1862;0.003587;86.341345;1.000000;0.000185;-0.000205;0.001365;-0.000033;0.001365;-0.000206;-88.785794;0.001472;
1246;1502;-0.562706;85.141741;0.999978;0.001437;-0.005233;0.012093;0.003215;0.012670;-0.005810;79.819743;0.012685;
1306;1792;-0.083352;86.219445;1.000000;0.000165;-0.000538;0.001453;0.000073;0.001455;-0.000541;87.891191;0.001471;
1286;1727;-0.103337;86.128349;1.000000;0.000147;-0.000533;0.001487;0.000204;0.001507;-0.000554;84.302993;0.001525;
1271;1822;-0.053496;86.274234;1.000000;0.000147;-0.000435;0.001514;0.000125;0.001522;-0.000443;86.357974;0.001566;
1241;1842;-0.031991;86.309258;0.999999;0.000238;-0.000335;0.001478;0.000155;0.001491;-0.000349;85.137431;0.001560;
1261;1812;-0.053583;86.260175;1.000000;0.000157;-0.000449;0.001525;0.000128;0.001534;-0.000457;86.295331;0.001575;
1321;1737;-0.115775;86.135810;0.999991;0.000794;-0.000568;0.001217;0.000183;0.001236;-0.000587;84.209210;0.001236;
1296;1717;-0.112551;86.113775;1.000000;0.000146;-0.000523;0.001426;0.000228;0.001453;-0.000549;83.430155;0.001467;
1301;1702;-0.120833;86.092808;1.000000;0.000180;-0.000447;0.001420;0.000219;0.001445;-0.000472;83.403882;0.001474;
1006;1892;0.012678;86.379479;0.999999;0.000255;-0.000136;0.001424;-0.000244;0.001461;-0.000173;-81.312934;0.001597;
1286;1802;-0.069599;86.240194;0.999999;0.000230;-0.000456;0.001500;0.000094;0.001504;-0.000460;87.265710;0.001541;
1121;1862;0.002611;86.341500;1.000000;0.000189;-0.000204;0.001364;-0.000024;0.001365;-0.000204;-89.120893;0.001472;
1291;1707;-0.113399;86.098221;1.000000;0.000182;-0.000510;0.001488;0.000250;0.001519;-0.000541;82.970029;0.001540;
1091;1462;0.320604;84.579541;0.999981;0.001283;-0.007900;0.018313;-0.001658;0.018418;-0.008005;-86.395873;0.018470;
1291;1727;-0.105999;86.128498;1.000000;0.000133;-0.000535;0.001452;0.000217;0.001476;-0.000558;83.832485;0.001490;
1276;1827;-0.052707;86.280241;1.000000;0.000153;-0.000432;0.001519;0.000124;0.001527;-0.000440;86.368367;0.001573;
1031;1622;0.118429;85.933230;0.999999;0.000264;-0.001043;0.002782;-0.000623;0.002881;-0.001142;-80.974605;0.002902;
1266;1812;-0.055783;86.259556;1.000000;0.000148;-0.000450;0.001525;0.000124;0.001533;-0.000457;86.428375;0.001574;
1306;1737;-0.108813;86.141607;1.000000;0.000250;-0.000536;0.001354;0.000184;0.001371;-0.000554;84.504028;0.001380;
1301;1717;-0.114643;86.113638;1.000000;0.000190;-0.000522;0.001389;0.000226;0.001415;-0.000549;83.342823;0.001427;
946;1797;0.097518;86.213050;0.999974;0.001000;-0.000578;0.001439;0.000042;0.001440;-0.000578;88.796850;0.001449;
1266;1747;-0.083496;86.160229;1.000000;0.000149;-0.000568;0.001550;0.000156;0.001562;-0.000579;85.816149;0.001579;
1311;1707;-0.122919;86.102440;1.000000;0.000182;-0.000503;0.001359;0.000232;0.001387;-0.000532;82.999729;0.001400;
1291;1802;-0.072122;86.238528;1.000000;0.000198;-0.000454;0.001493;0.000083;0.001496;-0.000457;87.565919;0.001534;
1091;1597;0.058436;85.831314;0.999999;0.000215;-0.001500;0.003681;-0.000383;0.003709;-0.001529;-85.800752;0.003729;
1091;1467;0.303997;84.667255;0.999980;0.001537;-0.007486;0.017450;-0.001582;0.017550;-0.007586;-86.383702;0.017604;
1296;1727;-0.108068;86.128612;1.000000;0.000135;-0.000544;0.001412;0.000218;0.001436;-0.000568;83.714006;0.001446;
1276;1832;-0.050175;86.288192;1.000000;0.000152;-0.000422;0.001523;0.000133;0.001532;-0.000432;86.097862;0.001580;
1306;1717;-0.117175;86.114456;1.000000;0.000229;-0.000524;0.001347;0.000227;0.001374;-0.000551;83.174100;0.001383;
1031;1627;0.115723;85.945055;1.000000;0.000272;-0.000980;0.002614;-0.000565;0.002700;-0.001067;-81.273550;0.002720;
1271;1812;-0.058063;86.258976;1.000000;0.000190;-0.000450;0.001524;0.000117;0.001531;-0.000457;86.609912;0.001571;
946;1802;0.094822;86.228024;0.999983;0.000986;-0.000618;0.001433;0.000036;0.001433;-0.000619;88.997777;0.001438;
1311;1712;-0.121062;86.108624;1.000000;0.000184;-0.000518;0.001336;0.000233;0.001365;-0.000547;82.953727;0.001374;
981;1847;0.046560;86.308626;1.000000;0.000197;-0.000401;0.001529;-0.000149;0.001540;-0.000412;-85.624811;0.001594;
1296;1802;-0.074169;86.236602;1.000000;0.000197;-0.000511;0.001482;0.000074;0.001485;-0.000514;87.888573;0.001508;
1091;1592;0.061642;85.812450;0.999999;0.000193;-0.001578;0.003888;-0.000419;0.003920;-0.001610;-85.639110;0.003941;
1181;1202;-3.942260;65.959149;0.997927;0.011701;-0.078587;0.209588;0.007185;0.209767;-0.078766;88.572693;0.211924;
1306;1762;-0.097697;86.177075;1.000000;0.000147;-0.000531;0.001414;0.000107;0.001420;-0.000537;86.872565;0.001433;
1316;1752;-0.106372;86.159481;1.000000;0.000153;-0.000553;0.001337;0.000112;0.001343;-0.000560;86.623568;0.001350;
1311;1782;-0.089872;86.202788;1.000000;0.000201;-0.000549;0.001403;0.000086;0.001407;-0.000552;87.479279;0.001418;
1291;1757;-0.092724;86.172036;1.000000;0.000282;-0.000499;0.001455;0.000141;0.001465;-0.000510;85.895040;0.001488;
981;1852;0.043771;86.316718;1.000000;0.000203;-0.000388;0.001533;-0.000162;0.001546;-0.000402;-85.198500;0.001605;
1306;1722;-0.115845;86.120303;1.000000;0.000280;-0.000557;0.001326;0.000244;0.001357;-0.000589;82.735662;0.001361;
1096;1462;0.282199;84.580886;0.999983;0.001225;-0.007895;0.018324;-0.001446;0.018403;-0.007975;-86.853863;0.018458;
1301;1772;-0.091169;86.192678;1.000000;0.000155;-0.000531;0.001434;0.000105;0.001439;-0.000536;86.948331;0.001455;
986;1847;0.044382;86.310126;1.000000;0.000193;-0.000390;0.001523;-0.000158;0.001536;-0.000403;-85.304311;0.001593;
1216;1217;-6.002957;67.936715;0.998184;0.009743;-0.073809;0.189708;0.012903;0.190338;-0.074439;87.203360;0.191838;
1311;1762;-0.099475;86.174727;1.000000;0.000173;-0.000537;0.001398;0.000094;0.001403;-0.000542;87.221694;0.001415;
1286;1842;-0.049612;86.299014;1.000000;0.000157;-0.000414;0.001529;0.000135;0.001538;-0.000423;86.040704;0.001589;
1321;1752;-0.109533;86.156007;0.999975;0.001057;-0.000572;0.001308;0.000095;0.001313;-0.000576;87.125567;0.001316;
1111;1902;0.001155;86.394164;0.999999;0.000265;-0.000053;0.001306;-0.000042;0.001307;-0.000055;-88.252803;0.001479;
1296;1772;-0.088657;86.193593;1.000000;0.000212;-0.000524;0.001451;0.000106;0.001456;-0.000530;86.947357;0.001474;
1276;1787;-0.071876;86.219246;1.000000;0.000146;-0.000491;0.001510;0.000114;0.001516;-0.000497;86.750501;0.001546;
1306;1727;-0.113370;86.127866;0.999999;0.000237;-0.000554;0.001331;0.000228;0.001358;-0.000582;83.200247;0.001363;
946;1807;0.090182;86.239060;0.999984;0.001024;-0.000634;0.001421;0.000030;0.001422;-0.000634;89.177493;0.001424;
1011;1497;0.639315;85.091838;0.999978;0.001292;-0.005294;0.012445;-0.003562;0.013133;-0.005983;-79.059146;0.013150;
976;1842;0.051070;86.299759;1.000000;0.000241;-0.000423;0.001521;-0.000123;0.001529;-0.000431;-86.390590;0.001577;
991;1847;0.042208;86.311606;1.000000;0.000152;-0.000381;0.001516;-0.000164;0.001530;-0.000395;-85.093972;0.001588;
1321;1757;-0.111172;86.168488;0.999964;0.001455;-0.000552;0.001322;0.000066;0.001325;-0.000554;87.973860;0.001331;
1286;1827;-0.058321;86.277505;1.000000;0.000247;-0.000439;0.001519;0.000107;0.001525;-0.000445;86.880826;0.001568;
1191;1187;-5.468894;62.771190;0.998303;0.010769;-0.089278;0.246626;0.008406;0.246837;-0.089488;88.567304;0.249927;
1211;1877;-0.011620;86.360301;0.999999;0.000237;-0.000164;0.001371;0.000142;0.001384;-0.000177;84.766907;0.001507;
1311;1787;-0.088187;86.210095;0.999999;0.000212;-0.000550;0.001430;0.000078;0.001433;-0.000553;87.756375;0.001445;
1206;1612;-0.096947;85.888070;0.999999;0.000233;-0.001279;0.003199;0.000512;0.003257;-0.001337;83.555029;0.003274;
1281;1787;-0.074045;86.218252;1.000000;0.000144;-0.000483;0.001497;0.000111;0.001503;-0.000489;86.795261;0.001533;
1321;1762;-0.111095;86.171139;0.999961;0.001746;-0.000563;0.001379;0.000052;0.001380;-0.000565;88.469934;0.001388;
976;1847;0.049304;86.307382;1.000000;0.000222;-0.000413;0.001531;-0.000137;0.001541;-0.000423;-85.980554;0.001592;
1061;1637;0.082115;85.958545;1.000000;0.000158;-0.001030;0.002482;-0.000341;0.002515;-0.001063;-84.505012;0.002525;
1016;1857;0.028194;86.329949;1.000000;0.000167;-0.000289;0.001455;-0.000187;0.001475;-0.000309;-83.937697;0.001556;
1156;1477;-0.153103;84.817035;0.999983;0.001212;-0.006580;0.015774;0.000776;0.015801;-0.006607;88.015186;0.015871;
996;1837;0.045700;86.297763;1.000000;0.000157;-0.000403;0.001506;-0.000144;0.001517;-0.000414;-85.702139;0.001568;
1286;1832;-0.055551;86.285017;1.000000;0.000199;-0.000433;0.001525;0.000116;0.001532;-0.000440;86.620928;0.001577;
1156;1202;-1.949478;66.402593;0.998122;0.009595;-0.076984;0.205951;0.003163;0.205986;-0.077019;89.359632;0.208158;
1211;1882;-0.010147;86.367169;1.000000;0.000198;-0.000143;0.001367;0.000143;0.001380;-0.000156;84.632779;0.001511;
1306;1702;-0.123169;86.094559;1.000000;0.000155;-0.000427;0.001383;0.000200;0.001405;-0.000449;83.761975;0.001435;
1281;1637;-0.146854;85.981683;0.999999;0.000261;-0.000730;0.002159;0.000718;0.002327;-0.000899;76.788628;0.002347;
1311;1747;-0.107529;86.154425;1.000000;0.000212;-0.000541;0.001342;0.000142;0.001353;-0.000551;85.719260;0.001360;
1286;1787;-0.076355;86.217245;1.000000;0.000192;-0.000475;0.001485;0.000104;0.001491;-0.000480;86.972238;0.001522;
976;1852;0.046210;86.314592;1.000000;0.000204;-0.000403;0.001537;-0.000151;0.001549;-0.000414;-85.586338;0.001604;
1061;1642;0.080393;85.971055;1.000000;0.000177;-0.000998;0.002387;-0.000321;0.002417;-0.001028;-84.638620;0.002426;
991;1867;0.030046;86.341073;1.000000;0.000196;-0.000302;0.001504;-0.000219;0.001530;-0.000328;-83.178967;0.001611;
1161;1477;-0.188448;84.816664;0.999981;0.001026;-0.006587;0.015774;0.000955;0.015815;-0.006627;87.559949;0.015884;
996;1842;0.042993;86.305618;1.000000;0.000130;-0.000388;0.001506;-0.000155;0.001518;-0.000401;-85.353197;0.001573;
1286;1837;-0.052301;86.293459;0.999999;0.000163;-0.000425;0.001524;0.000125;0.001532;-0.000433;86.347401;0.001579;
1311;1717;-0.119218;86.115310;1.000000;0.000203;-0.000528;0.001295;0.000233;0.001325;-0.000558;82.825729;0.001330;
1211;1887;-0.008459;86.375371;1.000000;0.000191;-0.000121;0.001361;0.000143;0.001374;-0.000135;84.554249;0.001515;
1161;1202;-2.331621;66.317658;0.997994;0.009594;-0.077086;0.206290;0.003808;0.206342;-0.077137;89.230279;0.208520;
1316;1747;-0.109303;86.153181;1.000000;0.000153;-0.000551;0.001304;0.000134;0.001313;-0.000561;85.878192;0.001318;
1286;1637;-0.150714;85.983602;0.999999;0.000289;-0.000726;0.002121;0.000747;0.002305;-0.000910;76.158957;0.002322;
1296;1752;-0.097066;86.164363;1.000000;0.000255;-0.000532;0.001435;0.000140;0.001445;-0.000542;85.961116;0.001460;
1011;1832;0.042084;86.292528;1.000000;0.000165;-0.000393;0.001501;-0.000150;0.001513;-0.000404;-85.487595;0.001567;
1011;1847;0.035280;86.315371;1.000000;0.000136;-0.000340;0.001480;-0.000174;0.001496;-0.000356;-84.599428;0.001563;
1166;1477;-0.221574;84.815880;0.999977;0.001384;-0.006590;0.015774;0.001138;0.015831;-0.006648;87.095014;0.015899;
996;1847;0.040406;86.313119;1.000000;0.000124;-0.000372;0.001507;-0.000168;0.001522;-0.000387;-84.943654;0.001582;
996;1867;0.028409;86.342424;1.000000;0.000182;-0.000290;0.001487;-0.000217;0.001513;-0.000316;-83.141499;0.001596;
1216;1187;-7.867865;62.054398;0.998169;0.009632;-0.090910;0.249866;0.013281;0.250383;-0.091427;87.771524;0.253400;
1301;1742;-0.104736;86.149647;1.000000;0.000229;-0.000532;0.001392;0.000163;0.001406;-0.000546;85.186262;0.001418;
1321;1747;-0.112182;86.152025;0.999977;0.001171;-0.000568;0.001258;0.000123;0.001266;-0.000577;86.169517;0.001268;
1291;1637;-0.154780;85.985155;0.999999;0.000267;-0.000730;0.002068;0.000782;0.002272;-0.000933;75.400089;0.002284;
1266;1817;-0.053781;86.267825;1.000000;0.000159;-0.000441;0.001518;0.000127;0.001527;-0.000449;86.303514;0.001569;
991;1827;0.053179;86.281354;0.999999;0.000197;-0.000431;0.001509;-0.000123;0.001517;-0.000439;-86.387073;0.001561;
1301;1732;-0.108529;86.134759;1.000000;0.000193;-0.000547;0.001383;0.000209;0.001405;-0.000570;83.881456;0.001414;
1011;1837;0.039946;86.300498;0.999999;0.000191;-0.000376;0.001493;-0.000156;0.001506;-0.000389;-85.251159;0.001564;
1221;1187;-8.364346;61.956117;0.998215;0.009816;-0.091031;0.250769;0.014384;0.251373;-0.091635;87.594445;0.254430;
1261;1512;-0.572559;85.246271;0.999981;0.001109;-0.004653;0.010748;0.003321;0.011433;-0.005339;78.336130;0.011442;
1011;1852;0.032673;86.322619;1.000000;0.000162;-0.000320;0.001472;-0.000184;0.001491;-0.000338;-84.196319;0.001564;
1001;1867;0.027479;86.343473;1.000000;0.000149;-0.000276;0.001471;-0.000213;0.001496;-0.000302;-83.135996;0.001583;
1306;1797;-0.079952;86.226017;0.999999;0.000195;-0.000535;0.001452;0.000070;0.001454;-0.000538;87.995600;0.001471;
1016;1832;0.039942;86.293365;1.000000;0.000173;-0.000386;0.001496;-0.000150;0.001508;-0.000398;-85.461918;0.001563;
1306;1747;-0.105275;86.155728;1.000000;0.000219;-0.000537;0.001373;0.000147;0.001384;-0.000548;85.610209;0.001394;
1271;1817;-0.055861;86.267143;1.000000;0.000181;-0.000442;0.001517;0.000120;0.001525;-0.000450;86.499687;0.001567;
996;1827;0.050964;86.282309;0.999999;0.000193;-0.000427;0.001510;-0.000130;0.001519;-0.000436;-86.184670;0.001564;
1256;1632;-0.133949;85.961868;0.999999;0.000229;-0.000860;0.002467;0.000639;0.002585;-0.000979;79.492492;0.002611;
1301;1737;-0.106254;86.142661;1.000000;0.000235;-0.000535;0.001387;0.000184;0.001405;-0.000552;84.578187;0.001415;
991;1857;0.036426;86.326860;1.000000;0.000135;-0.000345;0.001512;-0.000191;0.001531;-0.000364;-84.192115;0.001600;
1051;1202;6.707041;65.485966;0.998310;0.009912;-0.084196;0.226594;-0.014659;0.227284;-0.084886;-87.305553;0.229696;
1306;1752;-0.102530;86.162578;1.000000;0.000199;-0.000537;0.001389;0.000131;0.001398;-0.000546;86.118585;0.001409;
1011;1857;0.029854;86.329362;1.000000;0.000184;-0.000299;0.001466;-0.000190;0.001486;-0.000319;-83.920493;0.001564;
1196;1467;-0.468008;84.646053;0.999975;0.001310;-0.007475;0.017357;0.002370;0.017581;-0.007700;84.596468;0.017626;
1016;1837;0.037690;86.301060;1.000000;0.000182;-0.000369;0.001488;-0.000156;0.001501;-0.000382;-85.227596;0.001560;
1276;1792;-0.069662;86.227007;1.000000;0.000161;-0.000483;0.001514;0.000110;0.001520;-0.000489;86.854846;0.001552;
1016;1862;0.026165;86.337580;1.000000;0.000162;-0.000267;0.001445;-0.000194;0.001467;-0.000289;-83.630710;0.001554;
981;1627;0.156267;85.966059;0.999999;0.000312;-0.000794;0.002417;-0.000891;0.002648;-0.001025;-75.480954;0.002670;
1266;1787;-0.066927;86.221410;1.000000;0.000165;-0.000496;0.001529;0.000117;0.001536;-0.000503;86.713421;0.001566;
1001;1872;0.024642;86.351006;1.000000;0.000143;-0.000252;0.001464;-0.000222;0.001493;-0.000280;-82.734464;0.001587;
1286;1722;-0.105698;86.120862;1.000000;0.000173;-0.000534;0.001485;0.000217;0.001508;-0.000557;83.939506;0.001525;
996;1857;0.034452;86.327384;1.000000;0.000146;-0.000333;0.001499;-0.000192;0.001519;-0.000353;-84.096593;0.001590;
1131;1192;-0.011963;64.647360;0.998082;0.011941;-0.084601;0.235175;0.000057;0.235175;-0.084601;89.989869;0.238240;
986;1627;0.151971;85.964205;0.999999;0.000259;-0.000810;0.002452;-0.000857;0.002663;-0.001022;-76.146551;0.002687;
1301;1767;-0.093459;86.185681;1.000000;0.000163;-0.000530;0.001432;0.000109;0.001438;-0.000536;86.841527;0.001453;
976;1837;0.054229;86.291849;1.000000;0.000199;-0.000429;0.001516;-0.000110;0.001523;-0.000436;-86.766941;0.001568;
991;1862;0.033193;86.333216;1.000000;0.000151;-0.000325;0.001507;-0.000205;0.001530;-0.000347;-83.678132;0.001604;
986;1862;0.035054;86.332187;1.000000;0.000146;-0.000338;0.001521;-0.000202;0.001542;-0.000360;-83.871999;0.001614;
991;1852;0.039399;86.319183;1.000000;0.000148;-0.000364;0.001515;-0.000178;0.001531;-0.000381;-84.628435;0.001594;
1226;1482;-0.585298;84.879764;0.999981;0.001169;-0.006489;0.015004;0.003157;0.015458;-0.006943;81.814109;0.015485;
1026;1872;0.019127;86.352233;1.000000;0.000187;-0.000209;0.001409;-0.000193;0.001431;-0.000231;-83.286031;0.001537;
1291;1722;-0.108239;86.120884;1.000000;0.000135;-0.000536;0.001452;0.000231;0.001479;-0.000563;83.474132;0.001493;
1286;1717;-0.107460;86.112602;1.000000;0.000181;-0.000517;0.001496;0.000218;0.001519;-0.000541;83.890939;0.001540;
1001;1857;0.033416;86.328582;1.000000;0.000158;-0.000320;0.001488;-0.000192;0.001508;-0.000340;-84.011553;0.001582;
991;1627;0.148743;85.962747;0.999999;0.000253;-0.000825;0.002478;-0.000824;0.002672;-0.001019;-76.743964;0.002697;
1306;1767;-0.095316;86.184098;1.000000;0.000125;-0.000535;0.001415;0.000102;0.001421;-0.000541;87.014403;0.001434;
1136;1187;-0.468351;63.526751;0.997659;0.012536;-0.088446;0.249974;0.000607;0.249975;-0.088447;89.897250;0.253511;
996;1862;0.031450;86.334600;1.000000;0.000158;-0.000313;0.001492;-0.000205;0.001515;-0.000336;-83.615257;0.001591;
981;1837;0.051956;86.293311;1.000000;0.000197;-0.000422;0.001517;-0.000121;0.001525;-0.000429;-86.445794;0.001572;
986;1867;0.031852;86.339902;1.000000;0.000173;-0.000315;0.001519;-0.000217;0.001545;-0.000341;-83.347497;0.001623;
996;1852;0.037551;86.320396;1.000000;0.000138;-0.000354;0.001504;-0.000181;0.001521;-0.000371;-84.491528;0.001586;
1161;1482;-0.176883;84.898256;0.999983;0.001253;-0.006242;0.015000;0.000929;0.015041;-0.006282;87.500779;0.015108;
1011;1877;0.019756;86.357528;0.999999;0.000202;-0.000205;0.001427;-0.000218;0.001456;-0.000233;-82.524272;0.001564;
1036;1877;0.014528;86.360325;1.000000;0.000188;-0.000175;0.001383;-0.000177;0.001403;-0.000195;-83.594659;0.001519;
1281;1732;-0.098288;86.136455;1.000000;0.000156;-0.000550;0.001514;0.000189;0.001531;-0.000567;84.801223;0.001549;
976;1627;0.166945;85.977824;0.999548;0.007526;-0.000767;0.002369;-0.000919;0.002618;-0.001017;-74.807919;0.002640;
1311;1767;-0.097344;86.182175;1.000000;0.000152;-0.000543;0.001400;0.000091;0.001404;-0.000547;87.336261;0.001415;
1006;1847;0.036985;86.314952;1.000000;0.000166;-0.000349;0.001489;-0.000174;0.001505;-0.000365;-84.646933;0.001570;
1141;1187;-0.926330;63.569839;0.998061;0.013701;-0.088194;0.248951;0.001237;0.248955;-0.088198;89.789807;0.252455;
986;1837;0.049602;86.294695;1.000000;0.000162;-0.000415;0.001515;-0.000131;0.001524;-0.000424;-86.141138;0.001573;
1001;1862;0.030171;86.335703;1.000000;0.000157;-0.000299;0.001478;-0.000203;0.001501;-0.000322;-83.564176;0.001581;
1006;1867;0.026229;86.344055;1.000000;0.000140;-0.000264;0.001457;-0.000209;0.001482;-0.000289;-83.161514;0.001572;
1001;1842;0.041277;86.306678;1.000000;0.000158;-0.000377;0.001500;-0.000160;0.001513;-0.000391;-85.158880;0.001571;
1176;1452;-0.373531;84.376017;0.999977;0.001190;-0.008596;0.019996;0.001749;0.020103;-0.008702;86.511955;0.020163;
1021;1877;0.017594;86.359293;1.000000;0.000218;-0.000189;0.001405;-0.000205;0.001431;-0.000215;-82.806256;0.001543;
976;1632;0.157651;85.977435;0.999943;0.003014;-0.000715;0.002221;-0.000829;0.002439;-0.000933;-75.275651;0.002462;
1031;1852;0.026196;86.324647;1.000000;0.000141;-0.000290;0.001439;-0.000162;0.001454;-0.000305;-84.688362;0.001534;
1296;1757;-0.094909;86.171407;1.000000;0.000311;-0.000523;0.001437;0.000127;0.001445;-0.000531;86.304307;0.001462;
1296;1767;-0.090924;86.185952;1.000000;0.000206;-0.000525;0.001449;0.000110;0.001455;-0.000531;86.810841;0.001472;
1006;1852;0.034289;86.322346;1.000000;0.000153;-0.000329;0.001483;-0.000185;0.001502;-0.000348;-84.237252;0.001573;
1146;1187;-1.376423;63.573014;0.998171;0.011533;-0.088066;0.248087;0.001866;0.248097;-0.088076;89.681975;0.251551;
1001;1847;0.038613;86.314090;1.000000;0.000149;-0.000360;0.001498;-0.000171;0.001513;-0.000376;-84.771166;0.001576;
1011;1867;0.025119;86.344604;1.000000;0.000156;-0.000254;0.001446;-0.000204;0.001470;-0.000278;-83.240523;0.001562;
1011;1842;0.037449;86.307573;1.000000;0.000146;-0.000358;0.001487;-0.000164;0.001502;-0.000373;-84.948207;0.001564;
1291;1772;-0.086092;86.194750;1.000000;0.000228;-0.000484;0.001464;0.000114;0.001471;-0.000490;86.649861;0.001498;
1026;1877;0.016446;86.359718;1.000000;0.000229;-0.000185;0.001396;-0.000197;0.001420;-0.000209;-83.016540;0.001534;
1116;1457;0.130641;84.493162;0.999978;0.001009;-0.008277;0.019217;-0.000697;0.019235;-0.008294;-88.548743;0.019295;
1031;1857;0.024288;86.331846;1.000000;0.000145;-0.000269;0.001431;-0.000168;0.001447;-0.000286;-84.399205;0.001533;
1186;1597;-0.079763;85.830737;0.999999;0.000228;-0.001524;0.003724;0.000458;0.003764;-0.001564;85.054374;0.003782;
1296;1782;-0.083770;86.207281;1.000000;0.000180;-0.000520;0.001454;0.000094;0.001459;-0.000524;87.271763;0.001478;
1271;1737;-0.090694;86.143931;0.999999;0.000192;-0.000570;0.001545;0.000172;0.001558;-0.000584;85.368670;0.001575;
1006;1857;0.031691;86.329331;1.000000;0.000152;-0.000309;0.001477;-0.000192;0.001497;-0.000329;-83.942272;0.001574;
1176;1207;-3.338073;67.009682;0.998042;0.013446;-0.075043;0.197831;0.006304;0.197977;-0.075189;88.677230;0.199875;
1001;1852;0.035818;86.321629;1.000000;0.000144;-0.000341;0.001493;-0.000183;0.001512;-0.000359;-84.344620;0.001580;
1016;1867;0.023608;86.344907;1.000000;0.000173;-0.000244;0.001436;-0.000199;0.001459;-0.000267;-83.321067;0.001554;
1301;1747;-0.102648;86.156962;1.000000;0.000184;-0.000535;0.001401;0.000152;0.001412;-0.000547;85.537567;0.001424;
1006;1862;0.029078;86.336500;1.000000;0.000153;-0.000287;0.001466;-0.000201;0.001489;-0.000310;-83.541873;0.001571;
1031;1867;0.020130;86.345139;1.000000;0.000176;-0.000226;0.001412;-0.000178;0.001431;-0.000245;-83.853844;0.001531;
1001;1882;0.018881;86.364796;0.999999;0.000188;-0.000198;0.001455;-0.000238;0.001488;-0.000232;-81.963996;0.001601;
1226;1477;-0.619267;84.805359;0.999978;0.001304;-0.006869;0.015761;0.003294;0.016231;-0.007339;81.885074;0.016256;
1316;1767;-0.099219;86.179080;1.000000;0.000219;-0.000556;0.001387;0.000076;0.001390;-0.000559;87.761159;0.001398;
1296;1787;-0.081557;86.214236;1.000000;0.000182;-0.000519;0.001468;0.000087;0.001472;-0.000522;87.500690;0.001492;
1171;1567;-0.077861;85.697785;0.999999;0.000309;-0.002124;0.005295;0.000508;0.005330;-0.002158;86.104008;0.005362;
986;1857;0.038470;86.325758;0.999999;0.000172;-0.000357;0.001523;-0.000186;0.001541;-0.000375;-84.399761;0.001608;
966;1692;0.121462;86.082355;0.999999;0.000203;-0.000478;0.001364;-0.000219;0.001390;-0.000504;-83.326933;0.001407;
1186;1192;-4.780963;63.913701;0.997963;0.011608;-0.085559;0.233524;0.007787;0.233714;-0.085749;88.602785;0.236458;
1026;1882;0.014396;86.367739;1.000000;0.000223;-0.000162;0.001391;-0.000200;0.001416;-0.000187;-82.760002;0.001539;
1311;1742;-0.109176;86.147505;1.000000;0.000241;-0.000536;0.001327;0.000154;0.001339;-0.000549;85.294962;0.001347;
1036;1862;0.020964;86.339724;0.999999;0.000165;-0.000241;0.001415;-0.000165;0.001431;-0.000257;-84.357169;0.001526;
1021;1852;0.029298;86.323660;1.000000;0.000130;-0.000302;0.001454;-0.000176;0.001471;-0.000320;-84.321820;0.001548;
1316;1757;-0.103800;86.166244;1.000000;0.000192;-0.000539;0.001345;0.000091;0.001350;-0.000543;87.240313;0.001358;
1026;1487;0.627997;84.964688;0.999980;0.001187;-0.006062;0.013956;-0.003485;0.014546;-0.006651;-80.400341;0.014564;
1106;1567;0.052208;85.698370;0.999999;0.000244;-0.002082;0.005317;-0.000396;0.005338;-0.002103;-86.941954;0.005378;
1296;1792;-0.079096;86.221606;1.000000;0.000169;-0.000517;0.001477;0.000079;0.001480;-0.000521;87.736481;0.001501;
1031;1632;0.112598;85.957676;1.000000;0.000233;-0.000924;0.002460;-0.000514;0.002536;-0.001000;-81.552302;0.002555;
971;1692;0.119401;86.079904;0.999999;0.000198;-0.000492;0.001412;-0.000243;0.001442;-0.000523;-82.854024;0.001460;
1006;1842;0.039442;86.307307;1.000000;0.000181;-0.000366;0.001494;-0.000164;0.001508;-0.000381;-85.013012;0.001568;
1186;1197;-4.568592;64.892607;0.998130;0.012907;-0.082312;0.221632;0.007846;0.221834;-0.082514;88.522310;0.224246;
1316;1742;-0.111287;86.146821;1.000000;0.000161;-0.000546;0.001285;0.000147;0.001297;-0.000558;85.424916;0.001301;
1031;1882;0.013207;86.367592;1.000000;0.000274;-0.000158;0.001384;-0.000191;0.001407;-0.000181;-83.049952;0.001531;
1316;1762;-0.101564;86.172853;1.000000;0.000232;-0.000549;0.001384;0.000078;0.001387;-0.000552;87.698004;0.001397;
1016;1877;0.018648;86.358709;1.000000;0.000220;-0.000196;0.001415;-0.000211;0.001442;-0.000223;-82.660445;0.001553;
1021;1857;0.026771;86.330073;1.000000;0.000135;-0.000282;0.001446;-0.000183;0.001465;-0.000301;-84.031028;0.001547;
1031;1487;0.598031;84.967243;0.999984;0.001153;-0.006071;0.013992;-0.003340;0.014533;-0.006612;-80.791988;0.014553;
1321;1742;-0.113799;86.141830;0.999989;0.000964;-0.000563;0.001233;0.000137;0.001244;-0.000573;85.649251;0.001245;
1296;1712;-0.114537;86.106604;1.000000;0.000183;-0.000519;0.001446;0.000236;0.001474;-0.000546;83.254712;0.001490;
1036;1622;0.113944;85.931108;0.999999;0.000276;-0.001062;0.002787;-0.000591;0.002876;-0.001150;-81.468801;0.002895;
1021;1837;0.035570;86.301485;1.000000;0.000165;-0.000363;0.001482;-0.000155;0.001495;-0.000376;-85.241787;0.001556;
1066;1642;0.075883;85.969406;1.000000;0.000201;-0.001022;0.002412;-0.000301;0.002439;-0.001048;-85.036245;0.002447;
1261;1642;-0.129836;85.985834;0.999999;0.000237;-0.000731;0.002136;0.000543;0.002235;-0.000830;79.620826;0.002260;
1121;1197;0.821263;65.672164;0.998249;0.010000;-0.080869;0.222094;-0.001166;0.222099;-0.080873;-89.779487;0.224815;
1026;1847;0.029969;86.316926;0.999999;0.000162;-0.000318;0.001460;-0.000163;0.001475;-0.000333;-84.814760;0.001547;
1276;1822;-0.055588;86.273237;1.000000;0.000177;-0.000438;0.001514;0.000118;0.001521;-0.000445;86.560772;0.001564;
1021;1862;0.024753;86.338176;1.000000;0.000153;-0.000260;0.001436;-0.000189;0.001456;-0.000281;-83.729134;0.001545;
981;1867;0.033640;86.339162;1.000000;0.000148;-0.000335;0.001533;-0.000208;0.001556;-0.000358;-83.712305;0.001630;
1306;1742;-0.107273;86.148552;0.999999;0.000258;-0.000534;0.001362;0.000159;0.001375;-0.000547;85.236757;0.001385;
1301;1712;-0.116957;86.106482;1.000000;0.000169;-0.000516;0.001414;0.000232;0.001441;-0.000544;83.230023;0.001456;
1036;1487;0.566316;84.971629;0.999983;0.001035;-0.006041;0.014046;-0.003208;0.014546;-0.006541;-81.142042;0.014571;
1221;1212;-6.714512;66.954028;0.997916;0.009615;-0.077228;0.200056;0.013871;0.200749;-0.077921;87.143327;0.202416;
1041;1622;0.109070;85.929105;0.999999;0.000349;-0.001078;0.002793;-0.000557;0.002872;-0.001156;-81.970744;0.002890;
1001;1837;0.043831;86.298484;1.000000;0.000173;-0.000393;0.001502;-0.000151;0.001514;-0.000405;-85.482975;0.001567;
1066;1647;0.074119;85.981055;0.999999;0.000194;-0.000997;0.002337;-0.000284;0.002361;-0.001021;-85.164358;0.002368;
1236;1627;-0.119656;85.942871;0.999999;0.000237;-0.001014;0.002673;0.000573;0.002759;-0.001101;81.372535;0.002778;
1036;1882;0.012794;86.367384;0.999999;0.000191;-0.000154;0.001377;-0.000181;0.001398;-0.000175;-83.361911;0.001524;
1021;1847;0.031710;86.316433;1.000000;0.000157;-0.000323;0.001466;-0.000168;0.001482;-0.000339;-84.671102;0.001553;
1256;1812;-0.051214;86.261797;1.000000;0.000170;-0.000444;0.001525;0.000131;0.001534;-0.000453;86.200836;0.001576;
1306;1712;-0.119098;86.107945;1.000000;0.000161;-0.000516;0.001378;0.000230;0.001406;-0.000544;83.166516;0.001418;
976;1877;0.028168;86.353643;1.000000;0.000204;-0.000305;0.001548;-0.000235;0.001578;-0.000334;-82.878406;0.001663;
981;1842;0.049006;86.301416;1.000000;0.000222;-0.000413;0.001520;-0.000134;0.001530;-0.000422;-86.056912;0.001580;
1041;1472;0.642592;84.747596;0.999980;0.001342;-0.007179;0.016386;-0.003476;0.016888;-0.007681;-81.781105;0.016911;
1191;1182;-5.724876;61.562413;0.998038;0.012643;-0.092506;0.259532;0.008206;0.259724;-0.092697;88.665352;0.263245;
1241;1627;-0.123976;85.944476;0.999999;0.000259;-0.000993;0.002665;0.000603;0.002761;-0.001090;80.882258;0.002782;
1171;1882;-0.004679;86.367844;0.999999;0.000179;-0.000128;0.001339;0.000069;0.001342;-0.000131;87.314230;0.001480;
1286;1857;-0.040282;86.324414;1.000000;0.000188;-0.000376;0.001544;0.000180;0.001561;-0.000393;84.681429;0.001624;
1096;1617;0.047652;85.894469;0.999999;0.000162;-0.001289;0.002997;-0.000228;0.003009;-0.001301;-86.957627;0.003018;
1281;1822;-0.057493;86.271319;1.000000;0.000222;-0.000441;0.001513;0.000110;0.001519;-0.000447;86.796479;0.001562;
991;1872;0.027028;86.349515;1.000000;0.000189;-0.000276;0.001498;-0.000232;0.001528;-0.000306;-82.678340;0.001617;
976;1882;0.024469;86.361370;1.000000;0.000195;-0.000277;0.001548;-0.000248;0.001582;-0.000311;-82.385893;0.001676;
1291;1712;-0.112059;86.106113;1.000000;0.000160;-0.000516;0.001481;0.000239;0.001509;-0.000544;83.259948;0.001529;
1286;1797;-0.071740;86.232152;0.999999;0.000223;-0.000462;0.001496;0.000095;0.001501;-0.000466;87.217319;0.001537;
986;1842;0.046854;86.302668;1.000000;0.000181;-0.000403;0.001518;-0.000144;0.001528;-0.000414;-85.750692;0.001581;
1046;1472;0.603215;84.748140;0.999981;0.001368;-0.007183;0.016453;-0.003289;0.016902;-0.007632;-82.223494;0.016928;
1196;1182;-6.225188;61.455690;0.998197;0.009746;-0.092999;0.259559;0.008955;0.259786;-0.093226;88.545971;0.263214;
1026;1902;0.005583;86.393988;0.999999;0.000223;-0.000063;0.001361;-0.000215;0.001393;-0.000095;-81.587236;0.001557;
1246;1627;-0.128205;85.946344;0.999999;0.000309;-0.000970;0.002657;0.000635;0.002765;-0.001078;80.352377;0.002787;
1291;1847;-0.048904;86.306121;1.000000;0.000178;-0.000413;0.001543;0.000133;0.001552;-0.000422;86.118684;0.001605;
1286;1822;-0.060453;86.269276;1.000000;0.000207;-0.000442;0.001511;0.000101;0.001516;-0.000447;87.056587;0.001558;
1181;1612;-0.065157;85.878888;0.999999;0.000200;-0.001333;0.003173;0.000326;0.003197;-0.001357;85.878500;0.003209;
976;1887;0.021265;86.370026;1.000000;0.000184;-0.000247;0.001547;-0.000262;0.001585;-0.000285;-81.852980;0.001690;
996;1872;0.025430;86.350348;1.000000;0.000178;-0.000265;0.001481;-0.000228;0.001510;-0.000294;-82.691612;0.001601;
1301;1782;-0.086168;86.205944;1.000000;0.000160;-0.000527;0.001439;0.000095;0.001443;-0.000532;87.250375;0.001460;
1276;1842;-0.045154;86.303610;1.000000;0.000218;-0.000396;0.001520;0.000152;0.001532;-0.000408;85.491298;0.001587;
1031;1902;0.005461;86.392642;0.999999;0.000238;-0.000060;0.001353;-0.000204;0.001382;-0.000089;-81.931152;0.001546;
991;1832;0.050508;86.288613;0.999999;0.000161;-0.000422;0.001511;-0.000129;0.001519;-0.000431;-86.192927;0.001566;
1051;1472;0.568976;84.748694;0.999977;0.001270;-0.007160;0.016478;-0.003108;0.016880;-0.007561;-82.633136;0.016911;
1201;1182;-6.717167;61.362031;0.997825;0.009374;-0.093189;0.259534;0.010162;0.259826;-0.093481;88.351186;0.263210;
1021;1887;0.012718;86.373140;1.000000;0.000201;-0.000143;0.001393;-0.000214;0.001422;-0.000172;-82.227566;0.001552;
1291;1852;-0.046062;86.314907;1.000000;0.000162;-0.000404;0.001549;0.000150;0.001560;-0.000415;85.639869;0.001616;
1006;1622;0.142589;85.944136;0.999999;0.000250;-0.000928;0.002751;-0.000797;0.002916;-0.001093;-78.292364;0.002946;
1196;1892;-0.005441;86.381516;1.000000;0.000182;-0.000095;0.001354;0.000112;0.001363;-0.000103;85.587977;0.001517;
981;1887;0.020161;86.370007;1.000000;0.000170;-0.000222;0.001522;-0.000268;0.001562;-0.000262;-81.468069;0.001673;
1301;1787;-0.084093;86.213107;1.000000;0.000167;-0.000527;0.001456;0.000086;0.001460;-0.000530;87.514674;0.001478;
1301;1847;-0.053646;86.303271;0.999999;0.000206;-0.000457;0.001551;0.000114;0.001557;-0.000463;86.756139;0.001599;
1281;1842;-0.047317;86.301620;1.000000;0.000178;-0.000405;0.001525;0.000145;0.001536;-0.000416;85.722121;0.001589;
1026;1482;0.664945;84.895863;0.999977;0.001257;-0.006410;0.014697;-0.003665;0.015316;-0.007028;-80.423250;0.015333;
1286;1862;-0.037254;86.330948;1.000000;0.000164;-0.000357;0.001543;0.000196;0.001563;-0.000377;84.185865;0.001632;
991;1837;0.047597;86.296477;1.000000;0.000146;-0.000410;0.001511;-0.000138;0.001521;-0.000420;-85.902333;0.001571;
1056;1192;6.885609;63.401464;0.997920;0.011970;-0.091002;0.251925;-0.013123;0.252427;-0.091504;-87.811777;0.255589;
986;1852;0.041468;86.318202;1.000000;0.000196;-0.000374;0.001524;-0.000173;0.001540;-0.000390;-84.842032;0.001601;
1026;1887;0.012197;86.373520;1.000000;0.000219;-0.000138;0.001384;-0.000205;0.001411;-0.000166;-82.460506;0.001543;
1291;1857;-0.042452;86.322510;1.000000;0.000199;-0.000392;0.001551;0.000165;0.001565;-0.000406;85.174385;0.001624;
986;1887;0.018675;86.370320;0.999999;0.000230;-0.000202;0.001501;-0.000269;0.001543;-0.000243;-81.241448;0.001659;
1206;1877;-0.010555;86.360444;0.999999;0.000231;-0.000162;0.001367;0.000132;0.001378;-0.000173;85.093307;0.001501;
1311;1792;-0.085663;86.216852;0.999999;0.000229;-0.000554;0.001442;0.000068;0.001444;-0.000556;88.065213;0.001457;
1301;1792;-0.081270;86.220892;1.000000;0.000129;-0.000527;0.001465;0.000077;0.001468;-0.000530;87.790392;0.001487;
991;1647;0.130873;86.003788;0.999999;0.000173;-0.000594;0.001848;-0.000539;0.001962;-0.000708;-78.082554;0.001987;
1031;1482;0.634209;84.898068;0.999981;0.001081;-0.006421;0.014732;-0.003508;0.015299;-0.006987;-80.824617;0.015318;
1046;1202;7.175170;65.331170;0.998155;0.011573;-0.084584;0.228233;-0.016225;0.229072;-0.085423;-87.038822;0.231526;
1291;1862;-0.039045;86.329740;1.000000;0.000182;-0.000375;0.001553;0.000181;0.001570;-0.000392;84.681296;0.001635;
991;1842;0.044732;86.304062;1.000000;0.000162;-0.000396;0.001512;-0.000150;0.001524;-0.000408;-85.530147;0.001578;
1031;1887;0.011932;86.373915;1.000000;0.000235;-0.000135;0.001377;-0.000195;0.001402;-0.000160;-82.762533;0.001535;
1021;1897;0.008275;86.387369;1.000000;0.000161;-0.000095;0.001378;-0.000221;0.001410;-0.000128;-81.641930;0.001560;
1271;1852;-0.037872;86.319460;1.000000;0.000177;-0.000354;0.001516;0.000181;0.001534;-0.000371;84.532941;0.001600;
976;1872;0.031622;86.346821;1.000000;0.000182;-0.000333;0.001548;-0.000216;0.001572;-0.000357;-83.523588;0.001648;
1261;1752;-0.078693;86.168649;1.000000;0.000178;-0.000568;0.001558;0.000145;0.001568;-0.000578;86.104789;0.001586;
991;1887;0.017592;86.370442;1.000000;0.000206;-0.000189;0.001482;-0.000264;0.001523;-0.000230;-81.219010;0.001642;
1291;1797;-0.074098;86.230528;1.000000;0.000251;-0.000458;0.001488;0.000085;0.001492;-0.000462;87.517022;0.001528;
1036;1482;0.602503;84.899018;0.999980;0.000976;-0.006404;0.014774;-0.003353;0.015292;-0.006922;-81.214019;0.015315;
1251;1807;-0.051587;86.255127;0.999999;0.000201;-0.000458;0.001527;0.000126;0.001535;-0.000466;86.378131;0.001574;
1026;1897;0.007789;86.387514;1.000000;0.000134;-0.000089;0.001370;-0.000213;0.001401;-0.000120;-81.881090;0.001553;
976;1892;0.017712;86.377352;0.999999;0.000202;-0.000214;0.001543;-0.000279;0.001586;-0.000257;-81.180405;0.001703;
1126;1192;0.415050;64.626978;0.997624;0.011252;-0.084646;0.236115;-0.000544;0.236116;-0.084647;-89.902774;0.239247;
1296;1862;-0.040897;86.328096;1.000000;0.000159;-0.000415;0.001567;0.000157;0.001579;-0.000427;85.494429;0.001634;
1056;1642;0.084980;85.972624;1.000000;0.000174;-0.000973;0.002360;-0.000339;0.002394;-0.001007;-84.245436;0.002404;
1041;1862;0.019776;86.339599;1.000000;0.000183;-0.000233;0.001409;-0.000158;0.001424;-0.000248;-84.569130;0.001522;
1006;1877;0.020756;86.357849;1.000000;0.000183;-0.000214;0.001441;-0.000225;0.001470;-0.000244;-82.400454;0.001576;
1266;1752;-0.081688;86.168351;1.000000;0.000147;-0.000560;0.001545;0.000149;0.001555;-0.000570;85.982089;0.001574;
1296;1797;-0.076330;86.229430;1.000000;0.000169;-0.000514;0.001477;0.000075;0.001480;-0.000516;87.832487;0.001502;
1031;1897;0.007517;86.387412;1.000000;0.000182;-0.000086;0.001362;-0.000202;0.001390;-0.000114;-82.200745;0.001544;
976;1712;0.109482;86.108022;0.999999;0.000189;-0.000512;0.001465;-0.000229;0.001491;-0.000538;-83.479878;0.001510;
981;1892;0.016594;86.378016;1.000000;0.000216;-0.000189;0.001515;-0.000282;0.001560;-0.000234;-80.841372;0.001683;
1251;1802;-0.053338;86.247234;0.999999;0.000164;-0.000471;0.001533;0.000122;0.001541;-0.000479;86.538657;0.001577;
1281;1797;-0.069285;86.233819;1.000000;0.000186;-0.000468;0.001506;0.000103;0.001511;-0.000474;87.008761;0.001546;
1031;1872;0.018039;86.352431;1.000000;0.000203;-0.000203;0.001402;-0.000184;0.001423;-0.000224;-83.536546;0.001530;
1011;1862;0.027710;86.337024;1.000000;0.000167;-0.000277;0.001455;-0.000197;0.001478;-0.000299;-83.579435;0.001562;
1221;1472;-0.619207;84.724054;0.999977;0.001227;-0.007218;0.016550;0.003234;0.016982;-0.007650;82.389004;0.017010;
1056;1647;0.083113;85.983944;1.000000;0.000176;-0.000946;0.002280;-0.000319;0.002312;-0.000977;-84.407436;0.002321;
1041;1872;0.016136;86.353541;1.000000;0.000179;-0.000191;0.001389;-0.000166;0.001406;-0.000208;-84.077634;0.001518;
1151;1187;-1.815118;63.488626;0.998208;0.009943;-0.088038;0.247376;0.002486;0.247395;-0.088056;89.575415;0.250795;
976;1867;0.035290;86.338004;1.000000;0.000195;-0.000357;0.001547;-0.000196;0.001567;-0.000377;-84.169971;0.001636;
1186;1627;-0.066768;85.923750;0.999999;0.000241;-0.001187;0.002790;0.000288;0.002810;-0.001207;85.878069;0.002820;
986;1892;0.015785;86.378179;0.999999;0.000253;-0.000170;0.001491;-0.000281;0.001538;-0.000216;-80.664640;0.001665;
1301;1797;-0.078320;86.228240;1.000000;0.000153;-0.000523;0.001466;0.000073;0.001468;-0.000526;87.895849;0.001488;
976;1717;0.107661;86.115588;1.000000;0.000196;-0.000516;0.001460;-0.000218;0.001484;-0.000540;-83.774909;0.001502;
1291;1837;-0.054262;86.291200;1.000000;0.000149;-0.000431;0.001523;0.000110;0.001529;-0.000437;86.794573;0.001575;
1251;1502;-0.594628;85.138104;0.999976;0.001611;-0.005241;0.012050;0.003351;0.012677;-0.005868;79.405691;0.012688;
986;1737;0.094834;86.145597;0.999999;0.000171;-0.000539;0.001499;-0.000180;0.001514;-0.000555;-84.997248;0.001532;
1021;1832;0.037998;86.294489;1.000000;0.000130;-0.000381;0.001491;-0.000149;0.001503;-0.000393;-85.474788;0.001559;
1061;1647;0.078841;85.982398;1.000000;0.000163;-0.000973;0.002309;-0.000302;0.002337;-0.001000;-84.787419;0.002345;
1046;1862;0.018782;86.339763;1.000000;0.000186;-0.000228;0.001403;-0.000149;0.001417;-0.000242;-84.811810;0.001516;
1166;1202;-2.730930;66.244618;0.998156;0.010801;-0.077330;0.206802;0.004497;0.206873;-0.077401;89.093524;0.209046;
1021;1882;0.015592;86.366949;1.000000;0.000217;-0.000166;0.001400;-0.000209;0.001428;-0.000193;-82.541724;0.001549;
1016;1882;0.015904;86.365944;1.000000;0.000217;-0.000172;0.001411;-0.000216;0.001440;-0.000201;-82.376948;0.001560;
976;1722;0.106471;86.123106;0.999999;0.000223;-0.000526;0.001453;-0.000215;0.001476;-0.000549;-83.880689;0.001492;
1066;1882;0.008986;86.367746;1.000000;0.000196;-0.000136;0.001345;-0.000122;0.001355;-0.000146;-85.304552;0.001487;
1091;1857;0.009635;86.334867;0.999999;0.000220;-0.000234;0.001383;-0.000074;0.001386;-0.000238;-87.387366;0.001482;
1311;1737;-0.111023;86.141284;1.000000;0.000234;-0.000539;0.001315;0.000184;0.001333;-0.000557;84.399118;0.001339;
1296;1837;-0.056288;86.289389;1.000000;0.000164;-0.000469;0.001519;0.000100;0.001524;-0.000474;87.115616;0.001559;
1221;1217;-6.407929;67.817731;0.997799;0.008461;-0.074336;0.190922;0.013894;0.191648;-0.075062;87.009739;0.193142;
1046;1867;0.017109;86.346866;1.000000;0.000195;-0.000208;0.001395;-0.000153;0.001409;-0.000222;-84.604784;0.001515;
1261;1847;-0.036669;86.313186;1.000000;0.000167;-0.000353;0.001500;0.000172;0.001516;-0.000368;84.726463;0.001581;
1026;1637;0.114203;85.972707;1.000000;0.000159;-0.000850;0.002293;-0.000490;0.002368;-0.000925;-81.337788;0.002387;
1091;1457;0.339456;84.486664;0.999981;0.000915;-0.008322;0.019187;-0.001728;0.019295;-0.008430;-86.419034;0.019347;
1106;1562;0.054913;85.673607;0.999999;0.000270;-0.002215;0.005634;-0.000417;0.005656;-0.002237;-86.967324;0.005697;
1196;1607;-0.087011;85.867274;0.999999;0.000227;-0.001364;0.003354;0.000473;0.003401;-0.001411;84.329747;0.003418;
1056;1887;0.008585;86.374205;1.000000;0.000150;-0.000116;0.001345;-0.000142;0.001359;-0.000130;-84.484439;0.001500;
1316;1737;-0.113560;86.140839;1.000000;0.000183;-0.000549;0.001271;0.000183;0.001290;-0.000567;84.324754;0.001293;
1246;1797;-0.053472;86.241052;1.000000;0.000199;-0.000485;0.001541;0.000118;0.001548;-0.000492;86.665250;0.001582;
1061;1872;0.012014;86.354504;1.000000;0.000184;-0.000178;0.001366;-0.000129;0.001377;-0.000189;-85.247318;0.001493;
1301;1852;-0.050237;86.310848;0.999999;0.000169;-0.000450;0.001560;0.000124;0.001568;-0.000457;86.491552;0.001613;
1096;1457;0.297602;84.485731;0.999983;0.001306;-0.008320;0.019206;-0.001506;0.019288;-0.008402;-86.878099;0.019342;
1171;1207;-2.954957;67.079328;0.998050;0.013189;-0.074517;0.196681;0.005378;0.196788;-0.074624;88.864472;0.198692;
1266;1847;-0.038580;86.312122;1.000000;0.000167;-0.000362;0.001509;0.000170;0.001525;-0.000377;84.837016;0.001588;
1046;1872;0.015175;86.353766;1.000000;0.000170;-0.000186;0.001383;-0.000156;0.001398;-0.000202;-84.364811;0.001512;
951;1892;0.024841;86.369575;0.999999;0.000265;-0.000384;0.001720;-0.000315;0.001766;-0.000431;-81.660890;0.001842;
1306;1772;-0.092888;86.191086;1.000000;0.000120;-0.000538;0.001416;0.000100;0.001421;-0.000543;87.077784;0.001435;
1286;1632;-0.158283;85.970458;0.999999;0.000305;-0.000812;0.002317;0.000818;0.002518;-0.001013;76.191618;0.002534;
951;1897;0.019183;86.378524;0.999999;0.000213;-0.000321;0.001741;-0.000352;0.001799;-0.000379;-80.584640;0.001897;
1061;1887;0.007932;86.374070;1.000000;0.000174;-0.000114;0.001342;-0.000132;0.001354;-0.000126;-84.877120;0.001496;
1016;1887;0.013540;86.372831;1.000000;0.000186;-0.000148;0.001404;-0.000221;0.001435;-0.000179;-82.051889;0.001564;
1031;1877;0.015512;86.359884;1.000000;0.000275;-0.000180;0.001389;-0.000187;0.001411;-0.000202;-83.295370;0.001526;
1301;1857;-0.046262;86.319120;0.999999;0.000152;-0.000442;0.001568;0.000134;0.001577;-0.000451;86.199361;0.001624;
1286;1847;-0.046671;86.307487;1.000000;0.000194;-0.000402;0.001541;0.000148;0.001552;-0.000413;85.658229;0.001607;
1271;1847;-0.040603;86.311372;1.000000;0.000186;-0.000371;0.001518;0.000168;0.001533;-0.000386;84.960724;0.001595;
1256;1847;-0.035012;86.314614;1.000000;0.000166;-0.000340;0.001492;0.000173;0.001508;-0.000356;84.644758;0.001576;
1156;1192;-2.159944;64.418670;0.998551;0.011969;-0.084169;0.231910;0.003181;0.231942;-0.084201;89.423402;0.234825;
1101;1457;0.248879;84.491153;0.999970;0.001389;-0.008312;0.019223;-0.001293;0.019284;-0.008373;-87.316541;0.019339;
951;1902;0.014072;86.387694;0.999999;0.000266;-0.000231;0.001749;-0.000408;0.001830;-0.000312;-78.813956;0.001958;
1291;1632;-0.161410;85.973683;0.999996;0.000569;-0.000818;0.002265;0.000851;0.002484;-0.001037;75.546173;0.002495;
1066;1887;0.007630;86.374393;1.000000;0.000181;-0.000114;0.001340;-0.000122;0.001350;-0.000124;-85.233835;0.001492;
1276;1847;-0.042671;86.310907;1.000000;0.000215;-0.000380;0.001527;0.000164;0.001541;-0.000394;85.106899;0.001601;
1261;1637;-0.134126;85.974344;0.999999;0.000259;-0.000778;0.002285;0.000602;0.002399;-0.000892;79.276937;0.002425;
986;1882;0.022083;86.362757;1.000000;0.000173;-0.000232;0.001507;-0.000257;0.001545;-0.000269;-81.757237;0.001650;
1301;1862;-0.042373;86.326115;1.000000;0.000185;-0.000427;0.001581;0.000151;0.001593;-0.000438;85.737251;0.001645;
956;1887;0.027652;86.363211;0.999999;0.000239;-0.000392;0.001677;-0.000270;0.001712;-0.000427;-82.675939;0.001782;
1256;1852;-0.032705;86.322203;1.000000;0.000176;-0.000320;0.001486;0.000182;0.001504;-0.000338;84.301033;0.001578;
1181;1602;-0.070376;85.846010;0.999999;0.000226;-0.001453;0.003507;0.000379;0.003536;-0.001482;85.655090;0.003551;
1156;1197;-2.053632;65.417625;0.998364;0.011774;-0.080542;0.218510;0.003172;0.218544;-0.080576;89.392368;0.221042;
1106;1607;0.036356;85.859921;1.000000;0.000234;-0.001396;0.003287;-0.000199;0.003295;-0.001405;-87.566832;0.003307;
1171;1477;-0.253083;84.813509;0.999977;0.001197;-0.006611;0.015767;0.001322;0.015845;-0.006689;86.630301;0.015908;
1211;1612;-0.103432;85.889805;0.999999;0.000265;-0.001271;0.003206;0.000553;0.003273;-0.001338;83.063263;0.003291;
1281;1847;-0.044406;86.309759;1.000000;0.000214;-0.000391;0.001535;0.000158;0.001548;-0.000404;85.326718;0.001605;
1251;1627;-0.133864;85.948439;0.999999;0.000318;-0.000949;0.002650;0.000669;0.002771;-0.001070;79.804051;0.002795;
1221;1862;-0.018576;86.340526;1.000000;0.000184;-0.000232;0.001416;0.000154;0.001430;-0.000246;84.694024;0.001529;
991;1882;0.020605;86.363220;1.000000;0.000166;-0.000218;0.001489;-0.000254;0.001526;-0.000255;-81.715646;0.001635;
1291;1867;-0.035304;86.337902;1.000000;0.000150;-0.000355;0.001556;0.000200;0.001577;-0.000376;84.096126;0.001648;
1021;1892;0.010439;86.379710;1.000000;0.000182;-0.000119;0.001386;-0.000218;0.001417;-0.000150;-81.931725;0.001557;
996;1632;0.139997;85.973335;0.999999;0.000208;-0.000769;0.002311;-0.000707;0.002466;-0.000924;-77.671202;0.002492;
1041;1877;0.013767;86.360280;1.000000;0.000196;-0.000169;0.001375;-0.000168;0.001393;-0.000187;-83.873890;0.001513;
1156;1187;-2.291726;63.389831;0.998341;0.010559;-0.087963;0.246631;0.003084;0.246659;-0.087992;89.472024;0.250012;
1176;1477;-0.287163;84.813524;0.999976;0.001070;-0.006617;0.015756;0.001501;0.015856;-0.006717;86.177734;0.015917;
1106;1612;0.035501;85.875908;1.000000;0.000271;-0.001347;0.003135;-0.000181;0.003142;-0.001355;-87.694186;0.003152;
1101;1587;0.048654;85.790926;0.999999;0.000206;-0.001652;0.004080;-0.000352;0.004101;-0.001674;-86.503814;0.004124;
1216;1612;-0.109144;85.891519;0.999999;0.000256;-0.001262;0.003216;0.000594;0.003294;-0.001339;82.569212;0.003313;
996;1882;0.019746;86.364450;1.000000;0.000142;-0.000208;0.001471;-0.000247;0.001507;-0.000244;-81.821129;0.001617;
1221;1867;-0.016737;86.346765;1.000000;0.000149;-0.000210;0.001402;0.000156;0.001417;-0.000225;84.532846;0.001523;
1081;1592;0.077758;85.815114;0.999999;0.000303;-0.001599;0.003921;-0.000518;0.003969;-0.001647;-84.688220;0.003988;
1026;1892;0.010214;86.380150;1.000000;0.000175;-0.000114;0.001379;-0.000209;0.001407;-0.000143;-82.181294;0.001549;
1296;1867;-0.037140;86.336548;1.000000;0.000161;-0.000397;0.001572;0.000181;0.001589;-0.000414;84.792732;0.001648;
1181;1587;-0.078940;85.789733;0.999999;0.000278;-0.001698;0.004163;0.000484;0.004203;-0.001738;85.314332;0.004224;
966;1757;0.096646;86.173185;1.000000;0.000178;-0.000513;0.001399;-0.000134;0.001408;-0.000523;-86.013581;0.001424;
1206;1182;-7.194197;61.234362;0.997788;0.011865;-0.093536;0.259574;0.011293;0.259935;-0.093897;88.170140;0.263250;
1106;1617;0.034437;85.891875;0.999999;0.000238;-0.001305;0.003012;-0.000167;0.003019;-0.001311;-87.782378;0.003027;
1026;1612;0.133980;85.906013;0.999999;0.000346;-0.001177;0.003195;-0.000798;0.003336;-0.001318;-79.977361;0.003361;
1031;1862;0.022303;86.339122;1.000000;0.000156;-0.000248;0.001421;-0.000173;0.001439;-0.000265;-84.129729;0.001531;
1031;1892;0.009822;86.380859;0.999999;0.000200;-0.000111;0.001372;-0.000198;0.001398;-0.000137;-82.508089;0.001541;
1256;1807;-0.053438;86.253811;1.000000;0.000180;-0.000457;0.001528;0.000126;0.001536;-0.000465;86.378931;0.001575;
1056;1607;0.102050;85.877169;0.999999;0.000198;-0.001328;0.003341;-0.000605;0.003418;-0.001405;-82.734860;0.003436;
1081;1597;0.073585;85.834969;0.999999;0.000221;-0.001511;0.003704;-0.000477;0.003747;-0.001554;-84.818233;0.003765;
1301;1867;-0.038601;86.334698;1.000000;0.000202;-0.000411;0.001588;0.000177;0.001604;-0.000426;84.971551;0.001662;
1246;1897;-0.008026;86.386909;0.999999;0.000243;-0.000087;0.001387;0.000215;0.001418;-0.000118;81.871889;0.001574;
1191;1472;-0.407054;84.728980;0.999974;0.001272;-0.007056;0.016530;0.002100;0.016715;-0.007241;84.952012;0.016765;
1046;1877;0.013125;86.360435;1.000000;0.000163;-0.000165;0.001369;-0.000158;0.001385;-0.000181;-84.188934;0.001506;
1051;1197;7.038527;64.419370;0.998196;0.013013;-0.087731;0.239288;-0.014625;0.239940;-0.088384;-87.444364;0.242697;
956;1892;0.022737;86.371833;0.999999;0.000242;-0.000345;0.001678;-0.000307;0.001724;-0.000390;-81.568654;0.001808;
971;1797;0.076477;86.230615;0.999999;0.000225;-0.000500;0.001463;-0.000057;0.001465;-0.000502;-88.346711;0.001489;
1016;1892;0.011139;86.380112;0.999999;0.000191;-0.000124;0.001397;-0.000226;0.001429;-0.000157;-81.734944;0.001568;
981;1872;0.030223;86.347843;1.000000;0.000150;-0.000310;0.001531;-0.000226;0.001558;-0.000337;-83.106500;0.001639;
996;1622;0.152028;85.947868;0.999999;0.000273;-0.000916;0.002723;-0.000867;0.002919;-0.001111;-77.263272;0.002946;
1246;1902;-0.005880;86.394035;0.999999;0.000279;-0.000064;0.001383;0.000215;0.001414;-0.000095;81.709806;0.001581;
1261;1807;-0.055855;86.252444;1.000000;0.000149;-0.000460;0.001526;0.000123;0.001533;-0.000468;86.459641;0.001572;
1021;1612;0.139267;85.908556;0.999999;0.000301;-0.001171;0.003204;-0.000842;0.003360;-0.001327;-79.474251;0.003385;
1301;1837;-0.058738;86.287905;0.999999;0.000180;-0.000478;0.001516;0.000097;0.001521;-0.000483;87.219000;0.001554;
956;1897;0.017698;86.380102;0.999999;0.000214;-0.000287;0.001691;-0.000339;0.001748;-0.000344;-80.549967;0.001852;
1186;1477;-0.351586;84.812660;0.999977;0.001147;-0.006639;0.015742;0.001848;0.015893;-0.006791;85.311692;0.015949;
1051;1867;0.015738;86.346606;1.000000;0.000193;-0.000203;0.001389;-0.000146;0.001403;-0.000216;-84.811903;0.001510;
966;1662;0.124728;86.028631;0.999766;0.003327;-0.000408;0.001544;-0.000446;0.001641;-0.000505;-77.713888;0.001681;
1186;1187;-5.007152;62.837324;0.998050;0.010440;-0.088832;0.246318;0.007813;0.246500;-0.089014;88.665319;0.249650;
1006;1897;0.009905;86.386489;0.999999;0.000247;-0.000109;0.001412;-0.000249;0.001452;-0.000148;-80.949218;0.001598;
1276;1852;-0.039974;86.319146;1.000000;0.000192;-0.000364;0.001527;0.000179;0.001544;-0.000381;84.635886;0.001609;
981;1877;0.026707;86.355029;1.000000;0.000151;-0.000281;0.001528;-0.000242;0.001560;-0.000313;-82.500652;0.001650;
991;1897;0.011727;86.385798;0.999999;0.000272;-0.000128;0.001459;-0.000283;0.001508;-0.000177;-80.172161;0.001649;
996;1627;0.145864;85.960753;0.999999;0.000247;-0.000838;0.002501;-0.000789;0.002678;-0.001015;-77.352020;0.002705;
956;1902;0.012696;86.389286;0.999999;0.000271;-0.000207;0.001702;-0.000386;0.001777;-0.000282;-78.997300;0.001910;
1266;1807;-0.058149;86.251255;1.000000;0.000135;-0.000460;0.001523;0.000119;0.001531;-0.000467;86.564262;0.001569;
1301;1842;-0.055930;86.295669;0.999999;0.000189;-0.000468;0.001532;0.000105;0.001537;-0.000474;87.008404;0.001574;
1046;1197;7.523413;64.258049;0.998284;0.014462;-0.088106;0.240646;-0.016137;0.241436;-0.088896;-87.196600;0.244216;
1051;1872;0.014125;86.354389;1.000000;0.000177;-0.000182;0.001377;-0.000148;0.001391;-0.000196;-84.622846;0.001506;
1091;1452;0.357553;84.390901;0.999977;0.001141;-0.008764;0.020127;-0.001793;0.020238;-0.008875;-86.462383;0.020289;
1041;1867;0.018049;86.346501;1.000000;0.000188;-0.000213;0.001400;-0.000161;0.001416;-0.000229;-84.344511;0.001521;
1076;1592;0.085996;85.815877;0.999999;0.000339;-0.001604;0.003942;-0.000565;0.003999;-0.001661;-84.240208;0.004018;
1281;1852;-0.041616;86.318415;1.000000;0.000196;-0.000377;0.001538;0.000175;0.001554;-0.000393;84.829936;0.001616;
981;1882;0.023387;86.362073;1.000000;0.000158;-0.000252;0.001526;-0.000255;0.001562;-0.000288;-82.001186;0.001663;
1306;1697;-0.124761;86.087720;0.999999;0.000226;-0.000371;0.001429;0.000197;0.001450;-0.000392;83.837196;0.001500;
1226;1617;-0.117283;85.908823;0.999999;0.000295;-0.001162;0.003032;0.000617;0.003121;-0.001250;81.805682;0.003141;
1086;1592;0.069635;85.814045;0.999999;0.000244;-0.001588;0.003903;-0.000468;0.003942;-0.001628;-85.158853;0.003962;
1266;1642;-0.133153;85.987669;0.999999;0.000238;-0.000716;0.002104;0.000577;0.002217;-0.000829;78.872819;0.002241;
1046;1612;0.110908;85.896564;0.999999;0.000343;-0.001223;0.003160;-0.000631;0.003249;-0.001312;-81.963863;0.003269;
1171;1202;-3.138624;66.160164;0.997925;0.014834;-0.077650;0.207573;0.005337;0.207673;-0.077749;88.928352;0.209846;
1051;1877;0.012184;86.360634;1.000000;0.000150;-0.000162;0.001363;-0.000149;0.001377;-0.000176;-84.460315;0.001499;
1096;1452;0.317359;84.391144;0.999978;0.001568;-0.008763;0.020142;-0.001563;0.020226;-0.008847;-86.914070;0.020279;
1261;1852;-0.034152;86.320729;1.000000;0.000170;-0.000333;0.001494;0.000182;0.001512;-0.000351;84.355095;0.001583;
1076;1597;0.081651;85.835508;0.999999;0.000262;-0.001513;0.003717;-0.000523;0.003769;-0.001564;-84.346821;0.003787;
1286;1852;-0.043622;86.316645;1.000000;0.000183;-0.000390;0.001546;0.000165;0.001560;-0.000404;85.162630;0.001619;
1006;1902;0.007089;86.393373;0.999998;0.000319;-0.000081;0.001404;-0.000254;0.001447;-0.000123;-80.569760;0.001604;
1036;1867;0.018925;86.345565;1.000000;0.000197;-0.000220;0.001406;-0.000169;0.001424;-0.000237;-84.112496;0.001526;
1211;1607;-0.106611;85.873096;0.999999;0.000312;-0.001344;0.003390;0.000603;0.003466;-0.001419;82.854677;0.003485;
1271;1642;-0.135636;85.989305;0.999999;0.000196;-0.000699;0.002077;0.000605;0.002203;-0.000825;78.231071;0.002226;
1086;1597;0.065987;85.833407;0.999999;0.000203;-0.001505;0.003691;-0.000429;0.003727;-0.001540;-85.308921;0.003745;
1096;1572;0.068559;85.724855;0.999999;0.000289;-0.001988;0.005034;-0.000509;0.005070;-0.002024;-85.876692;0.005104;
1186;1182;-5.236620;61.691693;0.997901;0.011170;-0.092106;0.259716;0.007576;0.259879;-0.092269;88.766901;0.263495;
966;1762;0.093920;86.180067;1.000000;0.000193;-0.000509;0.001399;-0.000129;0.001407;-0.000518;-86.157466;0.001424;
1266;1852;-0.035953;86.320158;1.000000;0.000195;-0.000344;0.001506;0.000181;0.001523;-0.000361;84.447030;0.001592;
1101;1452;0.264327;84.395168;0.999964;0.001624;-0.008756;0.020154;-0.001342;0.020216;-0.008818;-87.347910;0.020271;
1191;1597;-0.086628;85.831394;0.999999;0.000346;-0.001520;0.003743;0.000506;0.003791;-0.001568;84.556256;0.003810;
1036;1872;0.016930;86.352931;1.000000;0.000204;-0.000198;0.001395;-0.000175;0.001414;-0.000217;-83.818023;0.001523;
1181;1607;-0.067572;85.862658;0.999999;0.000234;-0.001389;0.003328;0.000351;0.003354;-0.001415;85.769146;0.003367;
1011;1617;0.143184;85.928913;0.999999;0.000274;-0.001045;0.002986;-0.000839;0.003153;-0.001213;-78.705028;0.003181;
1091;1587;0.065986;85.792436;0.999999;0.000191;-0.001670;0.004116;-0.000455;0.004152;-0.001705;-85.533690;0.004174;
1221;1617;-0.111611;85.907169;0.999999;0.000280;-0.001176;0.003033;0.000580;0.003112;-0.001255;82.293176;0.003131;
1096;1577;0.065280;85.747928;0.999999;0.000264;-0.001868;0.004691;-0.000473;0.004725;-0.001902;-85.900172;0.004755;
1181;1567;-0.099002;85.698410;0.999998;0.000353;-0.002155;0.005357;0.000646;0.005412;-0.002210;85.122848;0.005443;
1051;1192;7.399366;63.261514;0.998087;0.015092;-0.091207;0.252677;-0.014553;0.253291;-0.091822;-87.580959;0.256463;
966;1767;0.091696;86.187065;0.999999;0.000196;-0.000501;0.001399;-0.000114;0.001405;-0.000508;-86.590194;0.001423;
1186;1592;-0.083103;85.812270;0.999999;0.000289;-0.001609;0.003951;0.000496;0.003995;-0.001653;84.940343;0.004015;
1231;1482;-0.614822;84.878062;0.999982;0.001230;-0.006506;0.014986;0.003323;0.015488;-0.007008;81.408159;0.015511;
946;1892;0.029174;86.366140;0.999995;0.000513;-0.000439;0.001767;-0.000322;0.001813;-0.000485;-81.861672;0.001877;
1236;1617;-0.128933;85.912949;0.999999;0.000282;-0.001142;0.003031;0.000690;0.003142;-0.001253;80.848871;0.003164;
1026;1607;0.139937;85.889217;0.999999;0.000348;-0.001271;0.003433;-0.000874;0.003590;-0.001428;-79.808518;0.003615;
1056;1602;0.106216;85.860612;0.999999;0.000272;-0.001412;0.003558;-0.000659;0.003644;-0.001498;-82.572694;0.003663;
1096;1587;0.057647;85.791584;0.999999;0.000206;-0.001657;0.004097;-0.000403;0.004125;-0.001686;-86.009439;0.004148;
1266;1652;-0.125802;86.007279;0.999999;0.000182;-0.000643;0.001890;0.000474;0.001976;-0.000728;79.744461;0.001998;
1096;1582;0.061697;85.769578;0.999999;0.000230;-0.001757;0.004368;-0.000436;0.004398;-0.001788;-85.946580;0.004424;
1101;1567;0.061883;85.700115;0.999999;0.000239;-0.002098;0.005343;-0.000470;0.005373;-0.002127;-86.398299;0.005411;
1211;1182;-7.686035;61.087285;0.997533;0.012619;-0.093824;0.259748;0.012336;0.260178;-0.094254;88.004210;0.263448;
946;1897;0.022579;86.375549;0.999996;0.000433;-0.000370;0.001797;-0.000363;0.001856;-0.000429;-80.745275;0.001943;
1236;1612;-0.133906;85.898246;0.999999;0.000354;-0.001224;0.003248;0.000758;0.003373;-0.001349;80.639170;0.003396;
1046;1602;0.119955;85.864150;0.999999;0.000334;-0.001393;0.003599;-0.000753;0.003710;-0.001504;-81.610014;0.003732;
1236;1482;-0.650891;84.873753;0.999975;0.001502;-0.006537;0.014948;0.003468;0.015494;-0.007083;81.054513;0.015513;
1286;1612;-0.186772;85.914837;0.999992;0.000965;-0.001157;0.003212;0.001156;0.003499;-0.001444;76.054817;0.003517;
1241;1617;-0.134434;85.915486;0.999999;0.000280;-0.001127;0.003032;0.000727;0.003156;-0.001251;80.369683;0.003178;
946;1902;0.017986;86.383452;0.999996;0.000480;-0.000268;0.001797;-0.000429;0.001882;-0.000354;-78.725545;0.002001;
1221;1607;-0.118765;85.877322;0.999999;0.000286;-0.001323;0.003422;0.000692;0.003521;-0.001422;81.874844;0.003543;
1061;1602;0.099259;85.858675;0.999999;0.000288;-0.001420;0.003544;-0.000612;0.003618;-0.001494;-83.068963;0.003637;
1271;1652;-0.128304;86.008623;0.999999;0.000149;-0.000621;0.001861;0.000497;0.001957;-0.000717;79.082682;0.001980;
1231;1622;-0.118223;85.926740;0.999999;0.000313;-0.001088;0.002843;0.000596;0.002931;-0.001176;81.561893;0.002950;
1161;1187;-2.761829;63.301960;0.998253;0.015758;-0.087805;0.246065;0.003706;0.246106;-0.087846;89.364176;0.249441;
1171;1562;-0.083345;85.670990;0.999998;0.000355;-0.002265;0.005664;0.000538;0.005700;-0.002301;86.136367;0.005735;
1241;1612;-0.139634;85.900009;0.999999;0.000350;-0.001213;0.003257;0.000800;0.003396;-0.001351;80.154835;0.003420;
1046;1607;0.115379;85.880921;0.999999;0.000321;-0.001304;0.003370;-0.000690;0.003469;-0.001404;-81.777646;0.003490;
1206;1462;-0.568986;84.561996;0.999975;0.001570;-0.007965;0.018233;0.002874;0.018545;-0.008277;83.812208;0.018580;
1246;1617;-0.139932;85.917370;0.999999;0.000394;-0.001113;0.003032;0.000766;0.003169;-0.001250;79.856644;0.003192;
1091;1567;0.080648;85.702249;0.999998;0.000457;-0.002138;0.005397;-0.000616;0.005447;-0.002188;-85.355948;0.005482;
1226;1607;-0.125369;85.879401;0.999999;0.000368;-0.001317;0.003438;0.000735;0.003549;-0.001428;81.414706;0.003572;
1211;1597;-0.117834;85.835948;0.999999;0.000459;-0.001511;0.003833;0.000711;0.003926;-0.001603;82.553555;0.003948;
1066;1602;0.093405;85.856156;0.999999;0.000323;-0.001424;0.003530;-0.000568;0.003594;-0.001489;-83.544523;0.003612;
1266;1637;-0.137746;85.976271;0.999999;0.000231;-0.000764;0.002257;0.000638;0.002386;-0.000893;78.552333;0.002411;
1161;1192;-2.582318;64.330882;0.998373;0.014815;-0.084118;0.231684;0.003820;0.231731;-0.084164;89.306995;0.234604;
1251;1617;-0.145132;85.919491;0.999999;0.000444;-0.001101;0.003031;0.000806;0.003183;-0.001253;79.342445;0.003207;
1156;1862;-0.004408;86.341858;0.999999;0.000236;-0.000204;0.001369;0.000041;0.001370;-0.000205;88.505029;0.001478;
1211;1462;-0.608032;84.559713;0.999979;0.001659;-0.008001;0.018244;0.003076;0.018599;-0.008357;83.403361;0.018631;
1221;1647;-0.095606;85.983822;1.000000;0.000140;-0.000903;0.002257;0.000354;0.002296;-0.000942;83.685719;0.002308;
1016;1612;0.144050;85.911226;0.999998;0.000295;-0.001160;0.003212;-0.000887;0.003385;-0.001333;-78.960835;0.003411;
1246;1612;-0.145569;85.901650;0.999998;0.000378;-0.001202;0.003264;0.000843;0.003418;-0.001356;79.653124;0.003443;
1161;1197;-2.465282;65.346879;0.998195;0.012561;-0.080583;0.218532;0.003814;0.218581;-0.080631;89.269500;0.221072;
1271;1637;-0.140680;85.977863;0.999999;0.000246;-0.000751;0.002233;0.000667;0.002376;-0.000894;77.962804;0.002400;
981;1622;0.165390;85.952774;0.999999;0.000339;-0.000856;0.002649;-0.000959;0.002895;-0.001102;-75.651775;0.002922;
1316;1732;-0.115781;86.135126;1.000000;0.000235;-0.000574;0.001252;0.000231;0.001280;-0.000603;82.909777;0.001281;
1251;1797;-0.055356;86.240482;1.000000;0.000140;-0.000484;0.001541;0.000119;0.001548;-0.000491;86.652548;0.001582;
1251;1622;-0.138497;85.934970;0.999999;0.000411;-0.001022;0.002830;0.000735;0.002966;-0.001157;79.562586;0.002989;
1006;1872;0.023476;86.351297;1.000000;0.000140;-0.000240;0.001450;-0.000217;0.001478;-0.000267;-82.800255;0.001575;
1101;1562;0.065419;85.674621;0.999999;0.000292;-0.002233;0.005659;-0.000497;0.005690;-0.002265;-86.407824;0.005729;
1201;1607;-0.093079;85.868724;0.999999;0.000297;-0.001353;0.003366;0.000517;0.003422;-0.001409;83.825366;0.003439;
1321;1732;-0.119068;86.135424;0.999986;0.001141;-0.000600;0.001190;0.000247;0.001223;-0.000633;82.284216;0.001223;
986;1622;0.159365;85.951458;0.999999;0.000359;-0.000878;0.002683;-0.000930;0.002912;-0.001106;-76.207060;0.002940;
1216;1602;-0.117786;85.857357;0.999999;0.000315;-0.001417;0.003615;0.000706;0.003713;-0.001515;82.163206;0.003733;
981;1617;0.174079;85.937522;0.999978;0.001587;-0.000945;0.002909;-0.001035;0.003169;-0.001205;-75.882106;0.003199;
1151;1182;-1.911966;62.366304;0.998112;0.011154;-0.092001;0.263858;0.002469;0.263875;-0.092018;89.602578;0.267871;
996;1902;0.008218;86.392651;0.999998;0.000330;-0.000092;0.001440;-0.000279;0.001489;-0.000141;-79.976407;0.001645;
1041;1882;0.011921;86.367370;1.000000;0.000206;-0.000147;0.001370;-0.000171;0.001389;-0.000166;-83.651365;0.001517;
1181;1592;-0.075449;85.810423;0.999999;0.000241;-0.001606;0.003929;0.000446;0.003965;-0.001642;85.424687;0.003984;
991;1902;0.008427;86.392494;0.999999;0.000276;-0.000095;0.001460;-0.000293;0.001513;-0.000148;-79.688143;0.001668;
1011;1872;0.022445;86.351155;1.000000;0.000174;-0.000230;0.001438;-0.000211;0.001464;-0.000256;-82.893502;0.001564;
986;1617;0.168969;85.938512;0.999999;0.000456;-0.000967;0.002938;-0.001009;0.003184;-0.001212;-76.339061;0.003214;
991;1622;0.155782;85.950189;0.999999;0.000302;-0.000897;0.002705;-0.000901;0.002918;-0.001110;-76.713991;0.002946;
1221;1602;-0.123958;85.859566;0.999999;0.000331;-0.001408;0.003635;0.000754;0.003745;-0.001518;81.679526;0.003767;
1216;1462;-0.652001;84.556598;0.999978;0.001377;-0.008027;0.018255;0.003281;0.018658;-0.008430;82.991080;0.018687;
1276;1797;-0.067276;86.235100;0.999999;0.000162;-0.000475;0.001515;0.000108;0.001521;-0.000481;86.904589;0.001555;
1156;1182;-2.414088;62.285967;0.998279;0.011012;-0.091834;0.262902;0.003003;0.262928;-0.091859;89.514980;0.266875;
1046;1882;0.011196;86.367307;1.000000;0.000179;-0.000143;0.001365;-0.000161;0.001382;-0.000160;-83.980474;0.001511;
1081;1587;0.082740;85.793857;0.999999;0.000319;-0.001700;0.004161;-0.000560;0.004214;-0.001753;-84.589015;0.004234;
1076;1587;0.090949;85.794849;0.999999;0.000359;-0.001707;0.004189;-0.000611;0.004251;-0.001769;-84.148590;0.004271;
1001;1622;0.147600;85.945851;0.999999;0.000308;-0.000921;0.002734;-0.000832;0.002914;-0.001102;-77.761566;0.002943;
1256;1627;-0.138455;85.950068;0.999999;0.000274;-0.000931;0.002647;0.000704;0.002780;-0.001064;79.259981;0.002806;
991;1617;0.163050;85.937350;0.999999;0.000348;-0.000986;0.002954;-0.000981;0.003184;-0.001217;-76.766784;0.003214;
1016;1872;0.021195;86.351866;1.000000;0.000186;-0.000220;0.001427;-0.000206;0.001452;-0.000246;-82.980582;0.001554;
1276;1637;-0.143748;85.979776;0.999999;0.000238;-0.000738;0.002191;0.000689;0.002345;-0.000892;77.395213;0.002367;
1291;1842;-0.051475;86.297578;1.000000;0.000174;-0.000422;0.001530;0.000120;0.001537;-0.000430;86.488246;0.001586;
1051;1882;0.010682;86.367150;1.000000;0.000140;-0.000140;0.001358;-0.000152;0.001373;-0.000156;-84.269928;0.001504;
1161;1182;-2.909966;62.199055;0.998496;0.012984;-0.091564;0.261965;0.003539;0.262000;-0.091600;89.426566;0.265921;
1241;1497;-0.572682;85.081101;0.999970;0.001642;-0.005500;0.012772;0.003235;0.013328;-0.006056;80.250562;0.013347;
1086;1582;0.079298;85.771295;0.999999;0.000235;-0.001793;0.004415;-0.000552;0.004464;-0.001841;-84.961635;0.004486;
1186;1572;-0.103273;85.723407;0.999998;0.000366;-0.002036;0.005045;0.000670;0.005108;-0.002099;84.643428;0.005135;
1086;1587;0.074549;85.792985;0.999999;0.000230;-0.001685;0.004136;-0.000508;0.004180;-0.001729;-85.049658;0.004201;
1091;1582;0.070321;85.770118;0.999999;0.000206;-0.001774;0.004390;-0.000493;0.004429;-0.001813;-85.454781;0.004453;
1091;1577;0.074477;85.748800;0.999999;0.000269;-0.001888;0.004717;-0.000535;0.004760;-0.001931;-85.401924;0.004788;
1021;1867;0.022396;86.345435;1.000000;0.000159;-0.000237;0.001427;-0.000194;0.001449;-0.000259;-83.432158;0.001546;
1101;1572;0.059085;85.722976;0.999999;0.000218;-0.001972;0.005008;-0.000442;0.005036;-0.001999;-86.391173;0.005071;
1046;1192;7.881481;63.125462;0.998159;0.013427;-0.091600;0.253614;-0.016009;0.254354;-0.092341;-87.350475;0.257516;
1296;1842;-0.053774;86.296426;1.000000;0.000183;-0.000459;0.001531;0.000109;0.001537;-0.000465;86.885207;0.001576;
1281;1627;-0.160698;85.957046;0.999999;0.000272;-0.000877;0.002562;0.000878;0.002773;-0.001088;76.474988;0.002794;
1056;1872;0.013015;86.354499;1.000000;0.000174;-0.000180;0.001371;-0.000139;0.001384;-0.000192;-84.910995;0.001499;
1086;1477;0.302955;84.828798;0.999981;0.001369;-0.006710;0.015754;-0.001636;0.015872;-0.006828;-85.856020;0.015924;
996;1897;0.010923;86.386191;0.999999;0.000355;-0.000122;0.001441;-0.000272;0.001487;-0.000168;-80.405023;0.001629;
1186;1577;-0.097082;85.747180;0.999999;0.000317;-0.001915;0.004725;0.000624;0.004783;-0.001973;84.676420;0.004808;
1081;1577;0.091079;85.751653;0.999999;0.000359;-0.001924;0.004776;-0.000661;0.004840;-0.001988;-84.420038;0.004866;
1231;1612;-0.127708;85.896147;0.999998;0.000370;-0.001231;0.003241;0.000717;0.003353;-0.001343;81.115791;0.003375;
1101;1577;0.056026;85.745509;0.999999;0.000224;-0.001855;0.004667;-0.000411;0.004693;-0.001881;-86.405114;0.004723;
1016;1842;0.035679;86.308452;1.000000;0.000174;-0.000350;0.001481;-0.000163;0.001495;-0.000364;-84.940515;0.001559;
1286;1627;-0.165283;85.958488;0.999999;0.000292;-0.000875;0.002532;0.000910;0.002759;-0.001103;75.950466;0.002778;
1296;1847;-0.051298;86.304957;1.000000;0.000198;-0.000447;0.001547;0.000119;0.001554;-0.000455;86.601433;0.001598;
1131;1187;0.006164;63.522260;0.997329;0.012504;-0.088654;0.250979;-0.000001;0.250979;-0.088654;-89.999816;0.254558;
1056;1877;0.011342;86.361446;1.000000;0.000150;-0.000159;0.001356;-0.000140;0.001369;-0.000172;-84.770616;0.001491;
1276;1612;-0.179005;85.914046;0.999998;0.000330;-0.001168;0.003253;0.001089;0.003507;-0.001422;76.891003;0.003528;
1186;1582;-0.091660;85.769958;0.999998;0.000433;-0.001805;0.004439;0.000581;0.004492;-0.001859;84.730720;0.004514;
1111;1457;0.168476;84.494277;0.999976;0.000951;-0.008297;0.019226;-0.000894;0.019255;-0.008326;-88.141139;0.019313;
1046;1597;0.125799;85.845926;0.999999;0.000316;-0.001490;0.003849;-0.000822;0.003973;-0.001613;-81.443151;0.003996;
1291;1627;-0.177391;85.970556;0.999858;0.003155;-0.000876;0.002480;0.000944;0.002727;-0.001123;75.323500;0.002742;
1091;1572;0.078151;85.726276;0.999999;0.000412;-0.002008;0.005061;-0.000576;0.005108;-0.002055;-85.370378;0.005140;
1101;1582;0.052756;85.768189;0.999999;0.000233;-0.001747;0.004345;-0.000379;0.004369;-0.001771;-86.449350;0.004395;
991;1877;0.023682;86.358309;1.000000;0.000163;-0.000248;0.001491;-0.000243;0.001524;-0.000281;-82.179218;0.001622;
1296;1852;-0.048244;86.313055;1.000000;0.000178;-0.000440;0.001554;0.000130;0.001563;-0.000448;86.289109;0.001609;
1176;1202;-3.529895;66.069725;0.997793;0.013872;-0.078121;0.208487;0.006233;0.208622;-0.078257;88.754733;0.210781;
1056;1882;0.009901;86.367692;1.000000;0.000147;-0.000138;0.001351;-0.000142;0.001365;-0.000151;-84.589442;0.001496;
1266;1627;-0.146648;85.954068;0.999998;0.000268;-0.000899;0.002621;0.000778;0.002785;-0.001063;78.083538;0.002811;
1001;1617;0.154293;85.933499;0.999998;0.000338;-0.001012;0.002972;-0.000910;0.003170;-0.001211;-77.720021;0.003199;
1271;1617;-0.164294;85.929400;0.999999;0.000300;-0.001083;0.002997;0.000960;0.003211;-0.001298;77.403035;0.003231;
1021;1492;0.621549;85.028556;0.999982;0.001194;-0.005691;0.013215;-0.003468;0.013831;-0.006307;-79.927735;0.013849;
981;1902;0.009291;86.392473;0.999999;0.000253;-0.000111;0.001513;-0.000319;0.001573;-0.000171;-79.279955;0.001726;
1216;1607;-0.112973;85.875380;0.999999;0.000228;-0.001336;0.003407;0.000648;0.003494;-0.001423;82.358806;0.003513;
1196;1602;-0.090563;85.849898;0.999999;0.000274;-0.001435;0.003545;0.000515;0.003598;-0.001487;84.159372;0.003616;
996;1877;0.022421;86.358177;1.000000;0.000137;-0.000237;0.001473;-0.000237;0.001505;-0.000269;-82.241173;0.001605;
1296;1857;-0.044733;86.320817;1.000000;0.000169;-0.000430;0.001559;0.000141;0.001569;-0.000440;85.960984;0.001618;
1216;1182;-8.188157;60.929922;0.997552;0.011112;-0.093963;0.259992;0.013328;0.260493;-0.094465;87.846553;0.263749;
1056;1867;0.014596;86.346898;1.000000;0.000201;-0.000200;0.001384;-0.000138;0.001396;-0.000212;-85.055381;0.001504;
986;1902;0.008644;86.392730;0.999999;0.000285;-0.000099;0.001485;-0.000306;0.001542;-0.000157;-79.439285;0.001697;
1016;1487;0.689241;84.960272;0.999983;0.001470;-0.006005;0.013833;-0.003756;0.014520;-0.006693;-79.629492;0.014535;
1016;1602;0.160377;85.875598;0.999998;0.000522;-0.001372;0.003732;-0.001064;0.003944;-0.001585;-78.686773;0.003970;
1271;1622;-0.157103;85.943184;0.999999;0.000270;-0.000985;0.002794;0.000881;0.002989;-0.001181;77.497742;0.003011;
1096;1562;0.075844;85.675391;0.999999;0.000314;-0.002252;0.005684;-0.000576;0.005726;-0.002293;-85.866883;0.005763;
1261;1632;-0.138149;85.963092;0.999999;0.000235;-0.000840;0.002458;0.000667;0.002588;-0.000969;78.994409;0.002615;
1021;1902;0.006045;86.393574;0.999999;0.000229;-0.000069;0.001367;-0.000225;0.001402;-0.000104;-81.310081;0.001562;
1221;1182;-8.696684;60.779415;0.997640;0.012852;-0.093974;0.260290;0.014407;0.260875;-0.094559;87.675043;0.264144;
1051;1602;0.112812;85.862270;0.999999;0.000287;-0.001406;0.003578;-0.000706;0.003676;-0.001505;-82.086444;0.003696;
1001;1877;0.021522;86.357956;1.000000;0.000157;-0.000225;0.001456;-0.000231;0.001487;-0.000256;-82.329103;0.001590;
1016;1492;0.649226;85.026431;0.999984;0.001543;-0.005643;0.013157;-0.003592;0.013820;-0.006306;-79.543739;0.013838;
1256;1797;-0.057624;86.239173;1.000000;0.000138;-0.000481;0.001540;0.000118;0.001547;-0.000488;86.668033;0.001582;
1276;1617;-0.169854;85.929886;0.999999;0.000276;-0.001076;0.002984;0.000997;0.003215;-0.001308;76.918715;0.003234;
1001;1902;0.007278;86.393040;0.999998;0.000349;-0.000088;0.001423;-0.000264;0.001468;-0.000133;-80.364021;0.001623;
1226;1622;-0.113341;85.923922;0.999999;0.000239;-0.001100;0.002848;0.000564;0.002927;-0.001179;82.028573;0.002945;
1271;1627;-0.151048;85.954657;0.999998;0.000270;-0.000897;0.002602;0.000809;0.002780;-0.001075;77.584593;0.002804;
1021;1602;0.153337;85.873557;0.999998;0.000399;-0.001374;0.003709;-0.001008;0.003902;-0.001567;-79.177778;0.003927;
1146;1182;-1.431158;62.401762;0.997915;0.013448;-0.092063;0.264857;0.001873;0.264867;-0.092073;89.699401;0.268936;
1226;1597;-0.139197;85.841464;0.999997;0.000412;-0.001505;0.003901;0.000866;0.004036;-0.001640;81.120096;0.004060;
1051;1607;0.107770;85.879677;0.999999;0.000230;-0.001319;0.003355;-0.000648;0.003443;-0.001407;-82.247025;0.003462;
1026;1852;0.027865;86.324446;1.000000;0.000125;-0.000298;0.001446;-0.000169;0.001462;-0.000314;-84.504046;0.001539;
1021;1487;0.660383;84.963716;0.999981;0.001182;-0.006051;0.013906;-0.003629;0.014545;-0.006690;-80.008017;0.014561;
1281;1622;-0.167385;85.945210;0.999999;0.000303;-0.000965;0.002758;0.000954;0.002988;-0.001195;76.434538;0.003008;
1186;1617;-0.070024;85.895928;0.999999;0.000213;-0.001273;0.003033;0.000334;0.003059;-0.001299;85.594708;0.003070;
1031;1602;0.139871;85.870278;0.999998;0.000343;-0.001373;0.003661;-0.000904;0.003819;-0.001530;-80.122475;0.003844;
1056;1612;0.098756;85.892664;0.999999;0.000218;-0.001253;0.003146;-0.000552;0.003214;-0.001321;-82.957612;0.003231;
1096;1557;0.082101;85.644971;0.999998;0.000300;-0.002400;0.006029;-0.000612;0.006073;-0.002444;-85.865964;0.006111;
1026;1602;0.146950;85.872080;0.999998;0.000360;-0.001372;0.003685;-0.000955;0.003859;-0.001547;-79.658919;0.003885;
1156;1177;-2.525723;61.026577;0.997523;0.011779;-0.095749;0.280237;0.003034;0.280262;-0.095773;89.537629;0.284903;
1186;1587;-0.086988;85.791703;0.999998;0.000362;-0.001704;0.004191;0.000539;0.004239;-0.001753;84.820270;0.004261;
1026;1857;0.025586;86.330714;1.000000;0.000125;-0.000277;0.001437;-0.000176;0.001455;-0.000294;-84.209296;0.001539;
1181;1562;-0.105939;85.669511;0.999998;0.000427;-0.002300;0.005734;0.000688;0.005792;-0.002359;85.137389;0.005825;
1286;1622;-0.172384;85.945633;0.999999;0.000344;-0.000963;0.002724;0.000987;0.002972;-0.001210;75.920258;0.002989;
1231;1477;-0.652286;84.803619;0.999981;0.001068;-0.006892;0.015746;0.003465;0.016264;-0.007411;81.490877;0.016285;
1036;1602;0.133374;85.868671;0.999999;0.000335;-0.001379;0.003640;-0.000851;0.003780;-0.001519;-80.635002;0.003804;
1186;1622;-0.068237;85.910438;1.000000;0.000196;-0.001227;0.002904;0.000309;0.002927;-0.001250;85.743755;0.002937;
1236;1622;-0.123809;85.929109;0.999999;0.000245;-0.001074;0.002838;0.000629;0.002937;-0.001172;81.091573;0.002957;
1236;1607;-0.139168;85.883227;0.999999;0.000414;-0.001315;0.003474;0.000827;0.003613;-0.001454;80.476254;0.003636;
1201;1597;-0.102723;85.833599;0.999999;0.000303;-0.001509;0.003788;0.000607;0.003856;-0.001578;83.540421;0.003878;
1161;1177;-3.008392;60.985163;0.997606;0.010569;-0.095406;0.278933;0.003531;0.278967;-0.095439;89.459655;0.283564;
1206;1592;-0.115692;85.815509;0.999999;0.000317;-0.001606;0.004068;0.000712;0.004156;-0.001695;82.953421;0.004180;
1211;1587;-0.128934;85.797688;0.999998;0.000413;-0.001715;0.004372;0.000832;0.004483;-0.001826;82.358755;0.004509;
1026;1862;0.023270;86.338362;1.000000;0.000147;-0.000255;0.001427;-0.000181;0.001447;-0.000274;-83.922020;0.001537;
1096;1567;0.071476;85.701698;0.999999;0.000303;-0.002115;0.005369;-0.000544;0.005408;-0.002154;-85.867095;0.005445;
1236;1477;-0.689101;84.798691;0.999977;0.001175;-0.006921;0.015717;0.003624;0.016283;-0.007487;81.123224;0.016300;
981;1612;0.176663;85.921909;0.999848;0.003728;-0.001009;0.003117;-0.001129;0.003406;-0.001298;-75.650552;0.003438;
1231;1607;-0.132104;85.880772;0.999998;0.000401;-0.001318;0.003456;0.000780;0.003581;-0.001442;80.948624;0.003603;
1241;1622;-0.128839;85.931026;0.999999;0.000244;-0.001057;0.002836;0.000661;0.002945;-0.001166;80.618461;0.002966;
1076;1572;0.105839;85.729581;0.999998;0.000381;-0.002055;0.005151;-0.000776;0.005233;-0.002137;-83.924284;0.005263;
1241;1607;-0.145555;85.884408;0.999998;0.000476;-0.001307;0.003493;0.000874;0.003648;-0.001461;80.001051;0.003671;
1166;1177;-3.515792;60.934334;0.997796;0.012844;-0.095152;0.277751;0.004158;0.277798;-0.095198;89.361265;0.282343;
1261;1507;-0.612216;85.192896;0.999956;0.001732;-0.004940;0.011357;0.003454;0.012059;-0.005642;78.515309;0.012067;
1211;1592;-0.122384;85.817192;0.999998;0.000461;-0.001609;0.004098;0.000769;0.004200;-0.001711;82.456183;0.004224;
986;1872;0.028907;86.348523;1.000000;0.000177;-0.000290;0.001515;-0.000232;0.001544;-0.000319;-82.793399;0.001630;
1191;1572;-0.113753;85.723877;0.999998;0.000394;-0.002050;0.005080;0.000734;0.005154;-0.002125;84.181837;0.005181;
1166;1542;-0.094217;85.543292;0.999998;0.000369;-0.002952;0.007364;0.000598;0.007399;-0.002987;86.696314;0.007445;
986;1612;0.178183;85.923404;0.999998;0.000463;-0.001041;0.003161;-0.001109;0.003436;-0.001316;-76.082594;0.003467;
1176;1562;-0.094614;85.671056;0.999998;0.000398;-0.002282;0.005695;0.000611;0.005742;-0.002328;85.645739;0.005776;
1086;1567;0.091456;85.702660;0.999998;0.000447;-0.002162;0.005429;-0.000690;0.005491;-0.002224;-84.849726;0.005524;
1246;1622;-0.132986;85.932377;0.999999;0.000382;-0.001038;0.002832;0.000697;0.002954;-0.001160;80.091943;0.002976;
1226;1602;-0.131410;85.862188;0.999999;0.000354;-0.001406;0.003656;0.000800;0.003780;-0.001530;81.233399;0.003803;
1166;1182;-3.374459;62.114944;0.998326;0.015448;-0.091413;0.261310;0.004230;0.261360;-0.091464;89.312987;0.265254;
1086;1472;0.321502;84.748859;0.999982;0.001513;-0.007099;0.016592;-0.001706;0.016714;-0.007222;-85.902740;0.016765;
986;1877;0.025215;86.357145;1.000000;0.000152;-0.000261;0.001509;-0.000246;0.001543;-0.000295;-82.239155;0.001638;
1216;1592;-0.130414;85.817443;0.999998;0.000365;-0.001608;0.004126;0.000827;0.004243;-0.001725;81.952918;0.004268;
1191;1577;-0.107181;85.747776;0.999998;0.000396;-0.001923;0.004757;0.000686;0.004826;-0.001993;84.196476;0.004851;
991;1612;0.171237;85.922352;0.999998;0.000373;-0.001068;0.003184;-0.001083;0.003444;-0.001328;-76.503247;0.003474;
946;1887;0.037703;86.357566;0.999995;0.000634;-0.000495;0.001764;-0.000269;0.001795;-0.000527;-83.296520;0.001846;
1056;1587;0.124405;85.802997;0.999998;0.000380;-0.001713;0.004328;-0.000833;0.004440;-0.001825;-82.291412;0.004464;
1081;1567;0.103416;85.704037;0.999998;0.000366;-0.002178;0.005460;-0.000760;0.005535;-0.002253;-84.369956;0.005567;
1236;1602;-0.145479;85.865122;0.999998;0.000429;-0.001414;0.003705;0.000898;0.003858;-0.001566;80.335840;0.003880;
1071;1587;0.098880;85.796588;0.999998;0.000319;-0.001710;0.004220;-0.000661;0.004293;-0.001783;-83.715366;0.004313;
951;1887;0.030524;86.359966;0.999999;0.000238;-0.000436;0.001717;-0.000272;0.001751;-0.000469;-82.914162;0.001812;
1086;1452;0.398322;84.388760;0.999976;0.000987;-0.008768;0.020121;-0.002026;0.020263;-0.008910;-86.007598;0.020312;
996;1612;0.166057;85.920425;0.999998;0.000319;-0.001095;0.003198;-0.001046;0.003439;-0.001336;-77.004503;0.003468;
1016;1847;0.033412;86.315800;1.000000;0.000157;-0.000330;0.001472;-0.000172;0.001489;-0.000347;-84.608419;0.001558;
1061;1877;0.010238;86.361754;1.000000;0.000190;-0.000157;0.001352;-0.000130;0.001363;-0.000168;-85.120868;0.001486;
1021;1872;0.020134;86.352256;1.000000;0.000188;-0.000213;0.001417;-0.000200;0.001442;-0.000237;-83.094266;0.001546;
1191;1582;-0.100562;85.771109;0.999998;0.000390;-0.001809;0.004471;0.000640;0.004536;-0.001874;84.237589;0.004559;
1166;1187;-3.183628;63.232793;0.998342;0.017804;-0.087774;0.245879;0.004450;0.245938;-0.087833;89.235961;0.249262;
1061;1587;0.114301;85.801664;0.999998;0.000384;-0.001715;0.004291;-0.000774;0.004389;-0.001813;-82.775521;0.004411;
1061;1592;0.109613;85.821329;0.999998;0.000372;-0.001609;0.004023;-0.000718;0.004113;-0.001699;-82.847045;0.004134;
1216;1597;-0.124435;85.838374;0.999998;0.000408;-0.001507;0.003856;0.000763;0.003963;-0.001614;82.056257;0.003986;
996;1617;0.158727;85.935228;0.999999;0.000287;-0.001007;0.002964;-0.000946;0.003177;-0.001220;-77.262006;0.003206;
1311;1732;-0.113363;86.134754;1.000000;0.000253;-0.000559;0.001301;0.000222;0.001327;-0.000585;83.299881;0.001330;
1061;1882;0.009264;86.368020;1.000000;0.000175;-0.000136;0.001348;-0.000132;0.001359;-0.000148;-84.958637;0.001492;
1096;1547;0.096633;85.575866;0.999998;0.000403;-0.002752;0.006888;-0.000689;0.006937;-0.002801;-85.929941;0.006980;
1076;1577;0.099790;85.752903;0.999998;0.000342;-0.001931;0.004806;-0.000720;0.004882;-0.002007;-83.969468;0.004908;
1026;1867;0.021338;86.345491;1.000000;0.000152;-0.000232;0.001419;-0.000187;0.001440;-0.000253;-83.623210;0.001537;
1016;1852;0.030613;86.323122;1.000000;0.000161;-0.000310;0.001463;-0.000181;0.001481;-0.000328;-84.221595;0.001556;
1091;1557;0.094243;85.642992;0.999998;0.000320;-0.002427;0.006059;-0.000691;0.006115;-0.002483;-85.372340;0.006151;
1166;1192;-3.028045;64.278561;0.998257;0.014919;-0.084201;0.231792;0.004547;0.231857;-0.084266;89.175825;0.234722;
1066;1587;0.106292;85.799167;0.999998;0.000338;-0.001713;0.004255;-0.000717;0.004340;-0.001798;-83.247542;0.004361;
1196;1587;-0.104020;85.793496;0.999998;0.000319;-0.001704;0.004259;0.000651;0.004329;-0.001774;83.839410;0.004352;
1006;1617;0.148368;85.931218;0.999999;0.000306;-0.001013;0.002979;-0.000876;0.003162;-0.001197;-78.152504;0.003193;
1221;1597;-0.131556;85.840015;0.999998;0.000399;-0.001502;0.003878;0.000816;0.003999;-0.001623;81.565187;0.004022;
1276;1857;-0.036620;86.326946;1.000000;0.000162;-0.000346;0.001522;0.000193;0.001542;-0.000366;84.157405;0.001611;
1266;1612;-0.167676;85.910206;0.999998;0.000299;-0.001181;0.003264;0.001007;0.003482;-0.001399;77.809081;0.003504;
1051;1862;0.017591;86.340179;1.000000;0.000183;-0.000224;0.001397;-0.000143;0.001409;-0.000236;-84.998805;0.001509;
1066;1582;0.111670;85.777087;0.999998;0.000441;-0.001823;0.004547;-0.000780;0.004641;-0.001917;-83.119982;0.004665;
1081;1562;0.110753;85.675663;0.999998;0.000388;-0.002317;0.005781;-0.000806;0.005861;-0.002397;-84.368904;0.005893;
1246;1607;-0.151941;85.885611;0.999998;0.000381;-0.001300;0.003511;0.000922;0.003682;-0.001471;79.513118;0.003706;
1166;1197;-2.871437;65.272561;0.998228;0.012358;-0.080741;0.218808;0.004505;0.218875;-0.080808;89.138658;0.221358;
1091;1552;0.102128;85.609584;0.999998;0.000355;-0.002597;0.006468;-0.000733;0.006527;-0.002656;-85.407856;0.006564;
1016;1597;0.169370;85.857601;0.999998;0.000437;-0.001490;0.004014;-0.001157;0.004248;-0.001723;-78.602052;0.004273;
1196;1592;-0.099354;85.813894;0.999999;0.000333;-0.001605;0.004006;0.000601;0.004069;-0.001668;83.956130;0.004091;
1086;1572;0.087503;85.727187;0.999998;0.000377;-0.002031;0.005091;-0.000646;0.005149;-0.002089;-84.861735;0.005179;
1021;1607;0.145301;85.891295;0.999999;0.000333;-0.001268;0.003449;-0.000923;0.003623;-0.001442;-79.312141;0.003648;
1281;1857;-0.038437;86.325828;1.000000;0.000175;-0.000360;0.001534;0.000190;0.001553;-0.000379;84.342993;0.001620;
1266;1617;-0.159732;85.927070;0.999998;0.000271;-0.001080;0.003014;0.000926;0.003214;-0.001279;77.833878;0.003236;
1276;1602;-0.201325;85.877184;0.999997;0.000418;-0.001365;0.003785;0.001290;0.004090;-0.001670;76.695407;0.004113;
1076;1567;0.113186;85.704529;0.999998;0.000364;-0.002186;0.005490;-0.000829;0.005579;-0.002275;-83.902692;0.005610;
1056;1862;0.016510;86.339712;1.000000;0.000185;-0.000221;0.001390;-0.000135;0.001401;-0.000232;-85.231066;0.001502;
1261;1612;-0.163120;85.907819;0.999998;0.000320;-0.001168;0.003270;0.000970;0.003473;-0.001370;78.195215;0.003498;
1151;1177;-1.999239;61.088275;0.997362;0.013872;-0.095948;0.281542;0.002472;0.281558;-0.095964;89.624746;0.286274;
1021;1597;0.160446;85.855661;0.999998;0.000372;-0.001484;0.003985;-0.001098;0.004197;-0.001696;-79.056092;0.004223;
1066;1567;0.137599;85.703793;0.999998;0.000571;-0.002201;0.005556;-0.000974;0.005676;-0.002321;-82.952797;0.005707;
1001;1612;0.160632;85.918562;0.999998;0.000379;-0.001105;0.003205;-0.001004;0.003427;-0.001327;-77.506578;0.003456;
1276;1632;-0.149574;85.968089;0.999999;0.000287;-0.000816;0.002381;0.000760;0.002552;-0.000987;77.283078;0.002574;
1086;1577;0.082795;85.749750;0.999999;0.000301;-0.001908;0.004745;-0.000599;0.004798;-0.001962;-84.894384;0.004825;
1281;1607;-0.196673;85.897091;0.999998;0.000359;-0.001232;0.003463;0.001218;0.003760;-0.001529;76.291482;0.003782;
1266;1622;-0.152297;85.942227;0.999998;0.000284;-0.000983;0.002811;0.000849;0.002992;-0.001165;77.942965;0.003017;
1201;1572;-0.133624;85.722679;0.999998;0.000444;-0.002076;0.005159;0.000866;0.005261;-0.002178;83.271151;0.005287;
1061;1862;0.015441;86.339890;1.000000;0.000257;-0.000220;0.001385;-0.000127;0.001395;-0.000230;-85.488981;0.001496;
1036;1592;0.147787;85.830745;0.999998;0.000438;-0.001585;0.004179;-0.001008;0.004350;-0.001757;-80.360169;0.004377;
1071;1582;0.102436;85.775400;0.999998;0.000311;-0.001820;0.004509;-0.000719;0.004590;-0.001900;-83.600193;0.004612;
1191;1177;-5.965560;60.418853;0.997542;0.014902;-0.095649;0.273152;0.007799;0.273317;-0.095814;88.789122;0.277356;
1066;1572;0.127366;85.729946;0.999998;0.000541;-0.002064;0.005213;-0.000912;0.005326;-0.002176;-82.965747;0.005355;
1026;1597;0.154705;85.854582;0.999998;0.000351;-0.001478;0.003956;-0.001041;0.004149;-0.001671;-79.514089;0.004175;
1101;1547;0.082944;85.575913;0.999998;0.000357;-0.002724;0.006865;-0.000599;0.006902;-0.002761;-86.439899;0.006948;
1286;1607;-0.201262;85.898333;0.999823;0.004057;-0.001222;0.003407;0.001240;0.003718;-0.001533;75.906044;0.003737;
1066;1592;0.101730;85.819057;0.999998;0.000263;-0.001607;0.003994;-0.000665;0.004072;-0.001685;-83.325661;0.004092;
1256;1617;-0.149813;85.922246;0.999999;0.000378;-0.001094;0.003034;0.000846;0.003201;-0.001260;78.852060;0.003225;
1051;1612;0.104783;85.894479;0.999999;0.000287;-0.001241;0.003152;-0.000592;0.003231;-0.001319;-82.452632;0.003249;
1266;1607;-0.177074;85.892006;0.999998;0.000309;-0.001281;0.003520;0.001101;0.003760;-0.001522;77.683262;0.003783;
1216;1582;-0.145159;85.777549;0.999997;0.000466;-0.001839;0.004675;0.000957;0.004813;-0.001977;81.815361;0.004838;
1061;1867;0.013796;86.347254;1.000000;0.000212;-0.000199;0.001379;-0.000130;0.001390;-0.000210;-85.336388;0.001498;
1046;1592;0.132667;85.824478;0.999998;0.000337;-0.001591;0.004119;-0.000888;0.004254;-0.001726;-81.362381;0.004279;
1196;1177;-6.491827;60.255911;0.997499;0.011436;-0.096084;0.272672;0.008572;0.272871;-0.096283;88.669072;0.276782;
1066;1577;0.118514;85.753987;0.999998;0.000497;-0.001938;0.004874;-0.000847;0.004977;-0.002042;-83.015980;0.005004;
1111;1532;0.069288;85.474434;0.999998;0.000525;-0.003286;0.008257;-0.000486;0.008277;-0.003307;-87.593552;0.008333;
1101;1552;0.076646;85.609728;0.999998;0.000359;-0.002542;0.006412;-0.000563;0.006447;-0.002578;-86.413594;0.006490;
1051;1582;0.140039;85.782180;0.999998;0.000422;-0.001827;0.004664;-0.000966;0.004805;-0.001968;-81.709536;0.004831;
1271;1632;-0.145457;85.966498;0.999998;0.000292;-0.000823;0.002418;0.000736;0.002578;-0.000982;77.780191;0.002602;
1256;1622;-0.143575;85.937300;0.999999;0.000339;-0.001008;0.002832;0.000772;0.002981;-0.001158;79.053713;0.003005;
981;1607;0.194161;85.904239;0.999794;0.004321;-0.001095;0.003346;-0.001227;0.003662;-0.001411;-75.540861;0.003694;
1231;1617;-0.123086;85.910783;0.999999;0.000303;-0.001153;0.003031;0.000654;0.003131;-0.001253;81.317766;0.003152;
1266;1602;-0.186915;85.873562;0.999998;0.000351;-0.001395;0.003799;0.001197;0.004061;-0.001657;77.623860;0.004084;
1051;1592;0.125551;85.824032;0.999998;0.000368;-0.001603;0.004086;-0.000831;0.004205;-0.001722;-81.861315;0.004227;
1201;1177;-7.006465;60.134655;0.997015;0.010707;-0.096234;0.272108;0.009805;0.272369;-0.096495;88.476279;0.276198;
1281;1817;-0.060397;86.263985;0.999999;0.000194;-0.000446;0.001514;0.000106;0.001519;-0.000452;86.911362;0.001561;
1191;1567;-0.121457;85.697974;0.999998;0.000395;-0.002191;0.005437;0.000786;0.005517;-0.002271;84.178583;0.005546;
1106;1547;0.069642;85.576201;0.999998;0.000367;-0.002697;0.006841;-0.000506;0.006868;-0.002724;-86.972977;0.006917;
1216;1587;-0.137648;85.798248;0.999998;0.000403;-0.001718;0.004407;0.000895;0.004535;-0.001846;81.857931;0.004561;
1056;1582;0.132347;85.780627;0.999998;0.000400;-0.001826;0.004626;-0.000903;0.004750;-0.001950;-82.177649;0.004775;
1281;1617;-0.175092;85.931568;0.999999;0.000294;-0.001065;0.002962;0.001035;0.003212;-0.001315;76.403444;0.003230;
986;1607;0.187990;85.907101;0.999998;0.000405;-0.001138;0.003405;-0.001212;0.003708;-0.001441;-75.956733;0.003738;
1051;1597;0.118855;85.843840;0.999999;0.000337;-0.001502;0.003823;-0.000770;0.003932;-0.001611;-81.937301;0.003953;
1271;1602;-0.194213;85.876379;0.999998;0.000388;-0.001388;0.003799;0.001246;0.004083;-0.001672;77.164850;0.004105;
1071;1592;0.094143;85.817113;0.999998;0.000275;-0.001605;0.003966;-0.000613;0.004032;-0.001672;-83.796575;0.004052;
1056;1592;0.117916;85.823092;0.999998;0.000364;-0.001607;0.004053;-0.000774;0.004157;-0.001710;-82.352344;0.004178;
1286;1817;-0.063001;86.262082;1.000000;0.000184;-0.000446;0.001509;0.000097;0.001514;-0.000450;87.164573;0.001555;
1196;1567;-0.132492;85.697465;0.999998;0.000332;-0.002209;0.005479;0.000855;0.005573;-0.002303;83.732577;0.005601;
1286;1617;-0.180708;85.932943;0.999999;0.000410;-0.001069;0.002924;0.001071;0.003193;-0.001338;75.897348;0.003207;
1256;1612;-0.157430;85.905317;0.999998;0.000368;-0.001185;0.003278;0.000929;0.003463;-0.001371;78.702675;0.003488;
991;1607;0.182028;85.904567;0.999998;0.000479;-0.001170;0.003435;-0.001188;0.003723;-0.001459;-76.351720;0.003752;
1261;1602;-0.180292;85.873108;0.999998;0.000353;-0.001382;0.003791;0.001154;0.004037;-0.001628;77.981743;0.004062;
1061;1582;0.122214;85.780050;0.999998;0.000400;-0.001826;0.004586;-0.000841;0.004694;-0.001935;-82.651530;0.004718;
1056;1597;0.111647;85.842107;0.999999;0.000340;-0.001506;0.003797;-0.000717;0.003892;-0.001601;-82.432019;0.003912;
1271;1607;-0.183861;85.893388;0.999998;0.000372;-0.001277;0.003513;0.001146;0.003773;-0.001537;77.213021;0.003795;
1071;1597;0.089913;85.836510;0.999999;0.000273;-0.001510;0.003734;-0.000568;0.003795;-0.001571;-83.886842;0.003813;
1241;1602;-0.152341;85.867597;0.999998;0.000394;-0.001409;0.003733;0.000950;0.003902;-0.001579;79.863561;0.003926;
1041;1592;0.139457;85.827402;0.999998;0.000495;-0.001584;0.004150;-0.000947;0.004302;-0.001736;-80.862359;0.004329;
1291;1817;-0.064886;86.260910;1.000000;0.000153;-0.000447;0.001504;0.000085;0.001508;-0.000451;87.521270;0.001548;
1271;1612;-0.172857;85.912626;0.999998;0.000367;-0.001179;0.003260;0.001050;0.003496;-0.001415;77.344265;0.003517;
1041;1602;0.127012;85.866927;0.999999;0.000384;-0.001385;0.003619;-0.000800;0.003744;-0.001510;-81.135301;0.003767;
996;1607;0.175965;85.902712;0.999998;0.000423;-0.001203;0.003453;-0.001151;0.003722;-0.001472;-76.846237;0.003749;
1201;1587;-0.112358;85.794923;0.999998;0.000371;-0.001705;0.004298;0.000711;0.004381;-0.001788;83.335856;0.004406;
1016;1592;0.178880;85.837802;0.999997;0.000412;-0.001602;0.004296;-0.001252;0.004551;-0.001857;-78.499824;0.004577;
1276;1607;-0.190115;85.895718;0.999998;0.000412;-0.001258;0.003496;0.001187;0.003776;-0.001538;76.737983;0.003797;
1166;1557;-0.077023;85.641820;0.999998;0.000330;-0.002406;0.006034;0.000502;0.006064;-0.002436;86.605567;0.006103;
1091;1562;0.086593;85.675542;0.999998;0.000387;-0.002276;0.005714;-0.000653;0.005767;-0.002329;-85.358273;0.005802;
1081;1572;0.096788;85.728608;0.999998;0.000361;-0.002047;0.005122;-0.000712;0.005192;-0.002117;-84.383694;0.005221;
1031;1597;0.146860;85.853291;0.999998;0.000331;-0.001475;0.003926;-0.000988;0.004101;-0.001650;-79.954339;0.004127;
1171;1557;-0.089100;85.642214;0.999997;0.000357;-0.002420;0.006063;0.000574;0.006101;-0.002458;86.148677;0.006139;
1291;1822;-0.062534;86.268235;1.000000;0.000177;-0.000444;0.001508;0.000087;0.001511;-0.000448;87.443570;0.001553;
1076;1557;0.132017;85.644132;0.999998;0.000363;-0.002482;0.006170;-0.000934;0.006270;-0.002582;-83.907420;0.006302;
1081;1582;0.087267;85.773120;0.999999;0.000312;-0.001808;0.004445;-0.000608;0.004504;-0.001867;-84.494394;0.004526;
1201;1592;-0.107339;85.815165;0.999999;0.000311;-0.001603;0.004038;0.000657;0.004113;-0.001678;83.445490;0.004136;
1031;1592;0.155072;85.833667;0.999998;0.000396;-0.001588;0.004209;-0.001071;0.004401;-0.001779;-79.861103;0.004428;
1021;1592;0.169610;85.836110;0.999997;0.000437;-0.001600;0.004274;-0.001190;0.004506;-0.001832;-78.971691;0.004533;
1211;1582;-0.136448;85.776267;0.999997;0.000463;-0.001832;0.004634;0.000890;0.004755;-0.001952;82.306911;0.004780;
1196;1597;-0.095195;85.832192;0.999998;0.000361;-0.001514;0.003764;0.000555;0.003822;-0.001571;84.056411;0.003842;
1191;1587;-0.095133;85.792741;0.999999;0.000332;-0.001704;0.004222;0.000594;0.004281;-0.001763;84.329031;0.004304;
1036;1597;0.139333;85.850281;0.999998;0.000363;-0.001478;0.003900;-0.000931;0.004056;-0.001634;-80.453727;0.004082;
1041;1597;0.133004;85.848164;0.999998;0.000404;-0.001481;0.003874;-0.000875;0.004014;-0.001620;-80.956623;0.004038;
1276;1622;-0.162282;85.943729;0.999999;0.000250;-0.000975;0.002780;0.000918;0.002992;-0.001188;76.971242;0.003013;
1291;1827;-0.059522;86.275635;1.000000;0.000200;-0.000442;0.001517;0.000092;0.001521;-0.000446;87.303594;0.001564;
1076;1562;0.121849;85.675926;0.999998;0.000358;-0.002327;0.005816;-0.000881;0.005910;-0.002421;-83.893549;0.005942;
1166;1527;-0.115750;85.426064;0.999997;0.000433;-0.003622;0.008952;0.000710;0.008992;-0.003662;86.780035;0.009044;
1206;1587;-0.120598;85.796452;0.999998;0.000376;-0.001709;0.004336;0.000771;0.004433;-0.001806;82.848877;0.004458;
1006;1607;0.163619;85.897324;0.999998;0.000404;-0.001209;0.003466;-0.001066;0.003698;-0.001440;-77.743836;0.003728;
1026;1592;0.162925;85.834467;0.999997;0.000391;-0.001593;0.004244;-0.001129;0.004455;-0.001804;-79.424321;0.004481;
1186;1562;-0.117682;85.670522;0.999998;0.000418;-0.002321;0.005776;0.000765;0.005848;-0.002393;84.646660;0.005880;
1201;1602;-0.097932;85.851265;0.999999;0.000326;-0.001426;0.003562;0.000563;0.003625;-0.001489;83.640687;0.003644;
1191;1592;-0.091069;85.812863;0.999999;0.000368;-0.001608;0.003977;0.000548;0.004030;-0.001661;84.448585;0.004051;
1231;1597;-0.146029;85.843860;0.999996;0.000486;-0.001514;0.003926;0.000917;0.004076;-0.001664;80.686301;0.004099;
1106;1552;0.064405;85.609483;0.999999;0.000338;-0.002519;0.006387;-0.000474;0.006412;-0.002544;-86.959988;0.006458;
1276;1627;-0.156071;85.956106;0.999999;0.000285;-0.000886;0.002584;0.000844;0.002779;-0.001080;77.023713;0.002802;
1066;1872;0.011456;86.354966;1.000000;0.000248;-0.000178;0.001362;-0.000120;0.001371;-0.000187;-85.564494;0.001487;
1091;1547;0.109154;85.576620;0.999997;0.000377;-0.002781;0.006917;-0.000776;0.006979;-0.002843;-85.451007;0.007018;
1221;1587;-0.145535;85.798954;0.999997;0.000427;-0.001722;0.004442;0.000958;0.004587;-0.001868;81.367457;0.004613;
1266;1597;-0.196374;85.855414;0.999997;0.000448;-0.001511;0.004078;0.001303;0.004367;-0.001799;77.500543;0.004390;
1206;1577;-0.135266;85.749882;0.999997;0.000422;-0.001948;0.004876;0.000876;0.004987;-0.002059;82.799637;0.005012;
1086;1557;0.107345;85.643467;0.999998;0.000405;-0.002454;0.006096;-0.000772;0.006165;-0.002523;-84.884511;0.006198;
1071;1567;0.124731;85.704904;0.999998;0.000410;-0.002191;0.005522;-0.000899;0.005626;-0.002295;-83.439885;0.005657;
1206;1602;-0.105060;85.852751;0.999999;0.000387;-0.001425;0.003578;0.000610;0.003651;-0.001498;83.149579;0.003671;
1101;1557;0.070604;85.643819;0.999998;0.000342;-0.002379;0.006004;-0.000529;0.006037;-0.002412;-86.405607;0.006077;
1196;1582;-0.110056;85.771223;0.999998;0.000344;-0.001812;0.004509;0.000700;0.004586;-0.001888;83.754132;0.004610;
1186;1567;-0.109955;85.698257;0.999998;0.000424;-0.002172;0.005397;0.000717;0.005464;-0.002239;84.635929;0.005494;
1261;1627;-0.142820;85.952281;0.999998;0.000266;-0.000905;0.002636;0.000736;0.002783;-0.001052;78.708492;0.002811;
1066;1877;0.009803;86.361488;1.000000;0.000207;-0.000157;0.001348;-0.000121;0.001358;-0.000167;-85.447809;0.001481;
1081;1547;0.137954;85.575913;0.999998;0.000448;-0.002812;0.006976;-0.000962;0.007069;-0.002905;-84.441453;0.007107;
1246;1597;-0.166744;85.849375;0.999998;0.000324;-0.001516;0.004015;0.001085;0.004220;-0.001721;79.294675;0.004244;
1051;1577;0.147966;85.759136;0.999997;0.000447;-0.001949;0.004985;-0.001046;0.005139;-0.002103;-81.606668;0.005167;
1101;1537;0.094780;85.511442;0.999996;0.000455;-0.003114;0.007781;-0.000665;0.007821;-0.003155;-86.522568;0.007870;
1011;1607;0.157385;85.896311;0.999998;0.000426;-0.001229;0.003469;-0.001022;0.003682;-0.001441;-78.242967;0.003710;
1071;1572;0.115697;85.729786;0.999998;0.000461;-0.002059;0.005181;-0.000841;0.005277;-0.002155;-83.458069;0.005307;
1076;1582;0.095470;85.774369;0.999998;0.000312;-0.001815;0.004476;-0.000663;0.004545;-0.001884;-84.046926;0.004567;
1231;1602;-0.139013;85.863403;0.999998;0.000444;-0.001412;0.003680;0.000848;0.003817;-0.001550;80.787213;0.003840;
1206;1572;-0.142829;85.724689;0.999997;0.000497;-0.002089;0.005205;0.000933;0.005322;-0.002206;82.821496;0.005348;
1261;1617;-0.155099;85.924824;0.999998;0.000305;-0.001072;0.003024;0.000886;0.003207;-0.001255;78.301915;0.003232;
1141;1182;-0.932646;62.407530;0.997424;0.013450;-0.092193;0.265993;0.001234;0.265998;-0.092197;89.802621;0.270138;
1071;1552;0.154873;85.610087;0.999997;0.000470;-0.002663;0.006613;-0.001079;0.006737;-0.002786;-83.453422;0.006770;
1201;1557;-0.160800;85.645073;0.999997;0.000521;-0.002547;0.006304;0.001060;0.006430;-0.002672;83.263199;0.006460;
1191;1562;-0.129881;85.671583;0.999998;0.000411;-0.002344;0.005821;0.000840;0.005906;-0.002430;84.187106;0.005937;
1246;1602;-0.158679;85.868177;0.999998;0.000358;-0.001406;0.003759;0.001003;0.003947;-0.001594;79.388032;0.003972;
1056;1577;0.139506;85.757341;0.999998;0.000391;-0.001945;0.004949;-0.000980;0.005086;-0.002082;-82.064511;0.005114;
1226;1592;-0.146376;85.821075;0.999996;0.000444;-0.001615;0.004180;0.000940;0.004329;-0.001764;81.017465;0.004354;
1261;1607;-0.171073;85.890618;0.999998;0.000346;-0.001269;0.003523;0.001061;0.003748;-0.001493;78.053814;0.003774;
1266;1632;-0.142219;85.964666;0.999999;0.000232;-0.000829;0.002439;0.000706;0.002585;-0.000975;78.313595;0.002610;
1086;1457;0.379467;84.485568;0.999978;0.000944;-0.008325;0.019175;-0.001953;0.019313;-0.008463;-85.957639;0.019362;
1206;1597;-0.110055;85.834710;0.999999;0.000339;-0.001510;0.003811;0.000659;0.003891;-0.001591;83.047529;0.003912;
1001;1587;0.215594;85.819177;0.999996;0.000632;-0.001725;0.004605;-0.001527;0.004954;-0.002074;-77.119951;0.004976;
1261;1622;-0.148341;85.939676;0.999998;0.000320;-0.000983;0.002821;0.000808;0.002986;-0.001148;78.490613;0.003012;
1171;1182;-3.838302;62.012918;0.998196;0.015573;-0.091436;0.260818;0.005050;0.260891;-0.091508;89.178744;0.264737;
1231;1587;-0.164196;85.801186;0.999997;0.000451;-0.001750;0.004514;0.001077;0.004694;-0.001929;80.513311;0.004718;
1196;1562;-0.141272;85.671773;0.999998;0.000406;-0.002365;0.005867;0.000915;0.005968;-0.002466;83.731716;0.005997;
1086;1547;0.123703;85.575670;0.999998;0.000376;-0.002802;0.006947;-0.000867;0.007024;-0.002879;-84.954466;0.007062;
1251;1602;-0.166075;85.869736;0.999998;0.000360;-0.001407;0.003782;0.001057;0.003989;-0.001614;78.919992;0.004013;
1061;1577;0.130396;85.756310;0.999997;0.000479;-0.001943;0.004911;-0.000913;0.005030;-0.002062;-82.540990;0.005057;
1036;1582;0.167718;85.785614;0.999996;0.000660;-0.001837;0.004781;-0.001165;0.004980;-0.002036;-80.303518;0.005007;
1201;1582;-0.118213;85.772742;0.999998;0.000408;-0.001816;0.004552;0.000763;0.004642;-0.001906;83.264262;0.004667;
1061;1597;0.104244;85.840499;0.999998;0.000311;-0.001509;0.003776;-0.000665;0.003858;-0.001592;-82.933242;0.003878;
1006;1612;0.154853;85.916078;0.999998;0.000384;-0.001103;0.003211;-0.000968;0.003418;-0.001310;-77.912085;0.003449;
1086;1462;0.359958;84.576490;0.999979;0.001168;-0.007907;0.018302;-0.001872;0.018435;-0.008040;-85.934249;0.018485;
1006;1587;0.206695;85.819030;0.999997;0.000471;-0.001728;0.004604;-0.001462;0.004925;-0.002049;-77.609461;0.004948;
1016;1587;0.190206;85.813556;0.999996;0.000546;-0.001729;0.004596;-0.001347;0.004871;-0.002004;-78.460367;0.004896;
1271;1597;-0.204379;85.858182;0.999997;0.000446;-0.001504;0.004087;0.001361;0.004401;-0.001817;77.016863;0.004423;
1251;1607;-0.158485;85.887020;0.999999;0.000369;-0.001296;0.003524;0.000972;0.003713;-0.001485;79.020126;0.003737;
1171;1552;-0.095747;85.610698;0.999997;0.000391;-0.002587;0.006467;0.000613;0.006508;-0.002628;86.146507;0.006548;
1076;1547;0.152500;85.576753;0.999997;0.000453;-0.002825;0.007008;-0.001053;0.007119;-0.002937;-83.954283;0.007155;
1171;1537;-0.116357;85.506055;0.999998;0.000330;-0.003170;0.007920;0.000730;0.007968;-0.003218;86.249618;0.008017;
1206;1582;-0.127189;85.774631;0.999998;0.000415;-0.001822;0.004594;0.000825;0.004698;-0.001926;82.789395;0.004724;
1066;1597;0.097273;85.838565;0.999999;0.000294;-0.001509;0.003754;-0.000616;0.003825;-0.001580;-83.410125;0.003844;
1016;1477;0.772718;84.816844;0.999983;0.000945;-0.006699;0.015219;-0.004224;0.016005;-0.007485;-79.459769;0.016016;
1011;1587;0.199348;85.815699;0.999996;0.000511;-0.001718;0.004608;-0.001407;0.004907;-0.002017;-78.010593;0.004933;
1176;1557;-0.101629;85.642171;0.999997;0.000471;-0.002436;0.006095;0.000651;0.006144;-0.002485;85.664141;0.006181;
1261;1592;-0.199874;85.834429;0.999997;0.000565;-0.001656;0.004357;0.001347;0.004645;-0.001944;77.929907;0.004665;
1226;1472;-0.655422;84.721274;0.999973;0.001323;-0.007247;0.016533;0.003440;0.017020;-0.007735;81.932861;0.017044;
1041;1582;0.157492;85.784701;0.999997;0.000533;-0.001823;0.004742;-0.001096;0.004920;-0.002001;-80.767413;0.004948;
1101;1542;0.088741;85.543587;0.999997;0.000392;-0.002915;0.007322;-0.000634;0.007362;-0.002955;-86.468216;0.007409;
1251;1597;-0.173603;85.852338;0.999998;0.000395;-0.001523;0.004044;0.001142;0.004269;-0.001748;78.847191;0.004293;
1201;1567;-0.142258;85.697158;0.999998;0.000450;-0.002224;0.005527;0.000927;0.005637;-0.002334;83.271243;0.005664;
1281;1612;-0.184598;85.916081;0.999998;0.000316;-0.001152;0.003239;0.001124;0.003510;-0.001423;76.451323;0.003531;
1021;1477;0.738933;84.818352;0.999983;0.000941;-0.006737;0.015328;-0.004052;0.016048;-0.007457;-79.916630;0.016061;
1171;1542;-0.108640;85.544368;0.999997;0.000424;-0.002963;0.007402;0.000688;0.007448;-0.003009;86.218694;0.007493;
1086;1562;0.098672;85.675398;0.999998;0.000416;-0.002301;0.005748;-0.000731;0.005814;-0.002367;-84.855998;0.005847;
1091;1542;0.116562;85.542909;0.999997;0.000394;-0.002971;0.007366;-0.000822;0.007431;-0.003036;-85.480263;0.007472;
1231;1592;-0.154260;85.822768;0.999997;0.000458;-0.001627;0.004208;0.000994;0.004373;-0.001791;80.591526;0.004397;
1051;1572;0.157670;85.732349;0.999996;0.000472;-0.002080;0.005320;-0.001123;0.005487;-0.002247;-81.561110;0.005517;
1181;1557;-0.112849;85.641476;0.999997;0.000456;-0.002454;0.006132;0.000732;0.006194;-0.002516;85.159136;0.006230;
1046;1582;0.147527;85.783553;0.999997;0.000410;-0.001820;0.004704;-0.001031;0.004863;-0.001979;-81.231878;0.004891;
1106;1457;0.208259;84.492679;0.999976;0.000930;-0.008305;0.019228;-0.001093;0.019271;-0.008348;-87.730231;0.019329;
1106;1542;0.074542;85.543521;0.999998;0.000397;-0.002886;0.007305;-0.000538;0.007334;-0.002915;-86.987870;0.007385;
1256;1597;-0.181865;85.853605;0.999998;0.000357;-0.001507;0.004057;0.001197;0.004303;-0.001754;78.355772;0.004328;
1106;1532;0.086601;85.474140;0.999996;0.000608;-0.003295;0.008257;-0.000585;0.008287;-0.003325;-87.108237;0.008341;
1171;1547;-0.102475;85.579641;0.999997;0.000480;-0.002769;0.006908;0.000651;0.006951;-0.002813;86.169720;0.006993;
1036;1472;0.680365;84.744049;0.999984;0.001087;-0.007166;0.016308;-0.003652;0.016863;-0.007721;-81.358576;0.016883;
1171;1187;-3.643746;63.150784;0.998130;0.016837;-0.087892;0.245881;0.005276;0.245965;-0.087975;89.094544;0.249264;
991;1597;0.207049;85.864612;0.999997;0.000571;-0.001441;0.004047;-0.001419;0.004392;-0.001787;-76.324234;0.004418;
1281;1602;-0.208185;85.877268;0.999997;0.000422;-0.001332;0.003750;0.001320;0.004072;-0.001655;76.275053;0.004096;
1236;1587;-0.172811;85.802873;0.999998;0.000429;-0.001755;0.004550;0.001139;0.004750;-0.001954;80.065165;0.004775;
1011;1487;0.701085;84.953651;0.999936;0.003044;-0.005979;0.013725;-0.003870;0.014458;-0.006712;-79.276367;0.014470;
1056;1572;0.148297;85.731719;0.999997;0.000372;-0.002075;0.005287;-0.001053;0.005435;-0.002222;-82.016910;0.005465;
1076;1552;0.142302;85.609738;0.999997;0.000379;-0.002649;0.006576;-0.000994;0.006681;-0.002755;-83.921483;0.006716;
1261;1597;-0.189435;85.854446;0.999997;0.000423;-0.001508;0.004063;0.001245;0.004328;-0.001774;77.961763;0.004352;
1196;1572;-0.124682;85.722847;0.999998;0.000360;-0.002063;0.005117;0.000798;0.005204;-0.002151;83.732421;0.005230;
1001;1607;0.170280;85.900426;0.999997;0.000406;-0.001212;0.003462;-0.001105;0.003710;-0.001460;-77.346889;0.003738;
1011;1592;0.186639;85.839820;0.999998;0.000374;-0.001585;0.004309;-0.001308;0.004586;-0.001863;-78.032650;0.004613;
1171;1192;-3.457055;64.221205;0.998064;0.014042;-0.084393;0.232108;0.005351;0.232198;-0.084484;89.031730;0.235051;
1076;1542;0.163091;85.543401;0.999997;0.000503;-0.003010;0.007433;-0.001111;0.007550;-0.003127;-83.992250;0.007587;
1076;1477;0.372261;84.828932;0.999980;0.001114;-0.006718;0.015732;-0.002031;0.015914;-0.006900;-84.872755;0.015961;
1011;1492;0.679169;85.024590;0.999980;0.001691;-0.005619;0.013055;-0.003713;0.013766;-0.006330;-79.155629;0.013781;
1241;1587;-0.179961;85.803676;0.999997;0.000388;-0.001757;0.004583;0.001205;0.004804;-0.001979;79.595172;0.004829;
1106;1537;0.080845;85.512704;0.999997;0.000492;-0.003086;0.007772;-0.000564;0.007801;-0.003115;-87.035906;0.007853;
1046;1462;0.673281;84.575875;0.999977;0.001154;-0.008014;0.018169;-0.003556;0.018643;-0.008489;-82.401335;0.018668;
1201;1577;-0.125881;85.748480;0.999998;0.000416;-0.001939;0.004832;0.000812;0.004928;-0.002035;83.254199;0.004953;
1196;1577;-0.116971;85.747982;0.999998;0.000382;-0.001931;0.004792;0.000748;0.004874;-0.002013;83.729739;0.004899;
1011;1482;0.748032;84.887523;0.999898;0.003142;-0.006348;0.014507;-0.004092;0.015281;-0.007122;-79.286785;0.015292;
1071;1577;0.108596;85.753670;0.999998;0.000408;-0.001935;0.004838;-0.000781;0.004927;-0.002024;-83.507037;0.004953;
1071;1562;0.134565;85.675293;0.999997;0.000429;-0.002335;0.005853;-0.000956;0.005964;-0.002445;-83.428625;0.005996;
1011;1597;0.177717;85.859725;0.999998;0.000417;-0.001467;0.004028;-0.001212;0.004283;-0.001723;-78.098501;0.004310;
1081;1542;0.147124;85.542922;0.999997;0.000519;-0.002996;0.007408;-0.001017;0.007507;-0.003095;-84.468016;0.007545;
1171;1177;-4.013621;60.878758;0.997598;0.013983;-0.095044;0.276669;0.004903;0.276733;-0.095108;89.244437;0.281205;
1081;1462;0.396831;84.575574;0.999980;0.001313;-0.007893;0.018289;-0.002084;0.018453;-0.008057;-85.477955;0.018503;
1096;1552;0.089677;85.609460;0.999998;0.000353;-0.002567;0.006437;-0.000650;0.006483;-0.002614;-85.890341;0.006524;
1071;1557;0.144354;85.644587;0.999998;0.000450;-0.002494;0.006211;-0.001015;0.006328;-0.002611;-83.439593;0.006360;
1256;1502;-0.619028;85.137782;0.999978;0.001330;-0.005231;0.011971;0.003489;0.012652;-0.005912;78.960194;0.012661;
1021;1457;0.921682;84.484182;0.999988;0.001000;-0.008509;0.018680;-0.004741;0.019482;-0.009312;-80.387464;0.019489;
1016;1482;0.728537;84.892329;0.999982;0.001079;-0.006368;0.014584;-0.003967;0.015309;-0.007094;-79.629695;0.015323;
1041;1587;0.146988;85.806445;0.999998;0.000502;-0.001697;0.004439;-0.001018;0.004603;-0.001862;-80.824993;0.004631;
1001;1592;0.201093;85.842985;0.999997;0.000512;-0.001591;0.004313;-0.001416;0.004635;-0.001913;-77.183222;0.004659;
1236;1597;-0.153557;85.845571;0.999998;0.000482;-0.001518;0.003953;0.000970;0.004120;-0.001685;80.235979;0.004143;
1011;1602;0.167771;85.877184;0.999998;0.000488;-0.001342;0.003739;-0.001117;0.003974;-0.001577;-78.136229;0.004002;
1086;1542;0.131029;85.542191;0.999997;0.000406;-0.002989;0.007388;-0.000919;0.007469;-0.003070;-84.976823;0.007508;
1171;1197;-3.286398;65.204135;0.998144;0.014743;-0.080982;0.219340;0.005312;0.219434;-0.081076;88.986933;0.221912;
1016;1457;0.962950;84.477013;0.999968;0.002063;-0.008516;0.018535;-0.004964;0.019417;-0.009398;-79.923325;0.019420;
1191;1467;-0.429673;84.646846;0.999966;0.001392;-0.007445;0.017354;0.002174;0.017543;-0.007634;85.027797;0.017592;
1186;1557;-0.125163;85.641662;0.999997;0.000414;-0.002479;0.006172;0.000815;0.006248;-0.002555;84.666568;0.006282;
1076;1462;0.437649;84.574553;0.999978;0.001458;-0.007897;0.018274;-0.002295;0.018474;-0.008097;-85.025396;0.018520;
1021;1482;0.696130;84.894632;0.999981;0.000984;-0.006405;0.014648;-0.003824;0.015321;-0.007078;-80.016656;0.015336;
1001;1597;0.190931;85.862538;0.999998;0.000455;-0.001467;0.004044;-0.001315;0.004341;-0.001765;-77.247387;0.004367;
1046;1587;0.139785;85.804362;0.999998;0.000414;-0.001700;0.004404;-0.000955;0.004550;-0.001845;-81.315809;0.004577;
1241;1597;-0.160747;85.847271;0.999998;0.000335;-0.001515;0.003983;0.001027;0.004169;-0.001700;79.761299;0.004192;
1171;1532;-0.124605;85.464391;0.999997;0.000394;-0.003390;0.008442;0.000777;0.008493;-0.003441;86.260732;0.008544;
1191;1547;-0.153492;85.576396;0.999997;0.000465;-0.002863;0.007062;0.001005;0.007162;-0.002963;84.275153;0.007198;
1021;1452;0.974977;84.384709;0.999983;0.000970;-0.008978;0.019756;-0.004907;0.020571;-0.009793;-80.571175;0.020579;
1066;1187;6.234539;62.556598;0.997174;0.015791;-0.093907;0.264644;-0.010674;0.264961;-0.094224;-88.296297;0.268618;
1036;1467;0.717118;84.662731;0.999984;0.001115;-0.007577;0.017161;-0.003799;0.017731;-0.008148;-81.462683;0.017750;
1206;1567;-0.152039;85.698090;0.999996;0.000592;-0.002239;0.005577;0.001001;0.005703;-0.002365;82.814002;0.005731;
1191;1557;-0.136063;85.642834;0.999997;0.000417;-0.002506;0.006214;0.000895;0.006305;-0.002597;84.197492;0.006338;
1076;1467;0.413936;84.660865;0.999980;0.001165;-0.007496;0.017425;-0.002201;0.017618;-0.007689;-84.990588;0.017665;
1081;1467;0.377007;84.663007;0.999980;0.001301;-0.007488;0.017434;-0.001993;0.017593;-0.007646;-85.456941;0.017643;
1001;1602;0.180681;85.880744;0.999998;0.000391;-0.001335;0.003747;-0.001208;0.004019;-0.001608;-77.287023;0.004046;
1051;1587;0.132630;85.803571;0.999998;0.000410;-0.001711;0.004366;-0.000893;0.004494;-0.001839;-81.810960;0.004519;
1026;1452;0.928919;84.387510;0.999982;0.001362;-0.008978;0.019838;-0.004687;0.020581;-0.009721;-80.990646;0.020592;
1006;1592;0.193917;85.841682;0.999998;0.000417;-0.001593;0.004307;-0.001356;0.004603;-0.001889;-77.657669;0.004628;
1046;1442;0.832239;84.179666;0.999981;0.001203;-0.009900;0.022131;-0.004174;0.022666;-0.010435;-82.696705;0.022689;
1046;1187;8.260624;61.960708;0.997147;0.012160;-0.094975;0.267012;-0.015863;0.267706;-0.095668;-87.495656;0.271313;
1196;1547;-0.168470;85.576070;0.999997;0.000552;-0.002888;0.007099;0.001096;0.007218;-0.003007;83.812011;0.007251;
1016;1462;0.914698;84.565118;0.999968;0.001968;-0.008009;0.017581;-0.004802;0.018453;-0.008880;-79.714326;0.018457;
996;1592;0.211225;85.844040;0.999997;0.000564;-0.001588;0.004310;-0.001474;0.004657;-0.001936;-76.724818;0.004679;
1196;1557;-0.148181;85.644722;0.999998;0.000463;-0.002528;0.006258;0.000976;0.006365;-0.002635;83.734892;0.006396;
1181;1462;-0.375616;84.568886;0.999977;0.001148;-0.007769;0.018151;0.001844;0.018282;-0.007899;85.951665;0.018338;
1081;1472;0.358153;84.748371;0.999978;0.001357;-0.007094;0.016583;-0.001906;0.016736;-0.007247;-85.427187;0.016786;
1201;1562;-0.151187;85.671675;0.999997;0.000541;-0.002382;0.005918;0.000994;0.006035;-0.002499;83.262359;0.006065;
1031;1452;0.880227;84.389656;0.999982;0.001621;-0.008989;0.019896;-0.004463;0.020569;-0.009663;-81.414505;0.020582;
1051;1187;7.728392;62.145180;0.997052;0.015117;-0.094562;0.266303;-0.014477;0.266883;-0.095142;-87.706358;0.270522;
1256;1602;-0.173620;85.871536;0.999998;0.000343;-0.001389;0.003790;0.001108;0.004017;-0.001616;78.418841;0.004042;
1006;1597;0.184220;85.860794;0.999998;0.000411;-0.001469;0.004030;-0.001256;0.004304;-0.001743;-77.722844;0.004330;
1201;1547;-0.184255;85.575124;0.999996;0.000655;-0.002910;0.007134;0.001190;0.007273;-0.003049;83.334552;0.007305;
1046;1447;0.795791;84.284903;0.999978;0.001235;-0.009399;0.021069;-0.003994;0.021584;-0.009914;-82.654835;0.021607;
1021;1462;0.876562;84.573418;0.999988;0.001051;-0.008010;0.017751;-0.004580;0.018541;-0.008800;-80.213765;0.018549;
996;1597;0.198798;85.863754;0.999998;0.000461;-0.001467;0.004049;-0.001371;0.004371;-0.001789;-76.786075;0.004395;
1251;1592;-0.183637;85.831405;0.999997;0.000468;-0.001655;0.004332;0.001238;0.004578;-0.001901;78.767949;0.004600;
1181;1467;-0.354990;84.651927;0.999974;0.001109;-0.007371;0.017343;0.001788;0.017472;-0.007500;85.882477;0.017530;
1081;1477;0.340557;84.829541;0.999979;0.001461;-0.006710;0.015743;-0.001831;0.015891;-0.006858;-85.368866;0.015941;
1211;1577;-0.144380;85.753040;0.999996;0.000473;-0.001963;0.004918;0.000943;0.005045;-0.002090;82.336009;0.005070;
1256;1607;-0.165934;85.887917;0.999999;0.000382;-0.001281;0.003529;0.001018;0.003735;-0.001488;78.529601;0.003761;
1006;1602;0.173550;85.879083;0.999998;0.000384;-0.001333;0.003739;-0.001162;0.003992;-0.001586;-77.694500;0.004020;
1026;1462;0.834487;84.579255;0.999988;0.001155;-0.008014;0.017870;-0.004370;0.018588;-0.008731;-80.672003;0.018600;
1046;1467;0.636432;84.665387;0.999979;0.001067;-0.007590;0.017319;-0.003422;0.017781;-0.008052;-82.317652;0.017807;
996;1602;0.187402;85.882606;0.999998;0.000440;-0.001328;0.003745;-0.001258;0.004040;-0.001622;-76.813024;0.004066;
1171;1527;-0.133387;85.423852;0.999997;0.000457;-0.003628;0.008981;0.000821;0.009034;-0.003681;86.289723;0.009086;
1036;1452;0.837608;84.386179;0.999981;0.001732;-0.008965;0.019940;-0.004235;0.020548;-0.009573;-81.833668;0.020564;
1036;1587;0.157544;85.807727;0.999997;0.000563;-0.001705;0.004473;-0.001084;0.004658;-0.001890;-80.332452;0.004685;
1256;1592;-0.193790;85.833276;0.999997;0.000537;-0.001645;0.004347;0.001297;0.004616;-0.001914;78.298192;0.004638;
1181;1472;-0.336642;84.732001;0.999976;0.001160;-0.006993;0.016530;0.001730;0.016657;-0.007120;85.816479;0.016715;
1086;1467;0.340289;84.664841;0.999981;0.001506;-0.007498;0.017443;-0.001788;0.017571;-0.007625;-85.919564;0.017622;
1061;1567;0.147634;85.704458;0.999997;0.000484;-0.002210;0.005592;-0.001048;0.005731;-0.002349;-82.483847;0.005762;
1026;1457;0.878388;84.487923;0.999987;0.001147;-0.008504;0.018780;-0.004524;0.019511;-0.009235;-80.826817;0.019520;
1221;1592;-0.138502;85.818800;0.999997;0.000388;-0.001608;0.004153;0.000885;0.004286;-0.001740;81.462418;0.004311;
1056;1452;0.658321;84.389844;0.999975;0.001382;-0.008866;0.020053;-0.003388;0.020444;-0.009257;-83.407174;0.020475;
1051;1467;0.600182;84.666093;0.999975;0.001196;-0.007565;0.017340;-0.003233;0.017753;-0.007978;-82.722048;0.017783;
1206;1562;-0.162358;85.671600;0.999996;0.000646;-0.002399;0.005970;0.001076;0.006106;-0.002535;82.789941;0.006135;
1081;1552;0.130243;85.609201;0.999998;0.000434;-0.002636;0.006539;-0.000906;0.006627;-0.002725;-84.411659;0.006662;
1041;1452;0.793465;84.382862;0.999979;0.001713;-0.008944;0.019972;-0.004017;0.020519;-0.009491;-82.237028;0.020539;
1041;1447;0.838139;84.284271;0.999980;0.001559;-0.009430;0.020999;-0.004194;0.021566;-0.009997;-82.293955;0.021586;
1021;1467;0.829171;84.655131;0.999987;0.000958;-0.007549;0.016860;-0.004406;0.017631;-0.008319;-80.075126;0.017641;
1161;1522;-0.104763;85.379647;0.999997;0.000546;-0.003858;0.009541;0.000624;0.009570;-0.003887;87.341230;0.009626;
986;1602;0.200882;85.886264;0.999997;0.000480;-0.001262;0.003716;-0.001323;0.004046;-0.001592;-76.008998;0.004076;
1231;1472;-0.691147;84.718838;0.999974;0.001171;-0.007272;0.016503;0.003616;0.017041;-0.007810;81.541276;0.017060;
1061;1572;0.138516;85.730417;0.999997;0.000457;-0.002070;0.005249;-0.000982;0.005379;-0.002199;-82.490531;0.005408;
1031;1457;0.833554;84.486646;0.999986;0.001336;-0.008513;0.018852;-0.004306;0.019513;-0.009174;-81.265106;0.019525;
1026;1587;0.173416;85.810775;0.999997;0.000452;-0.001719;0.004546;-0.001215;0.004773;-0.001946;-79.402575;0.004800;
1076;1452;0.485662;84.385983;0.999973;0.001643;-0.008757;0.020111;-0.002481;0.020323;-0.008968;-85.123744;0.020369;
1186;1452;-0.458744;84.373737;0.999975;0.001283;-0.008706;0.020047;0.002188;0.020213;-0.008871;85.673010;0.020263;
1166;1522;-0.123682;85.379418;0.999996;0.000502;-0.003870;0.009561;0.000743;0.009602;-0.003911;86.841485;0.009657;
991;1602;0.193002;85.885319;0.999997;0.000563;-0.001295;0.003736;-0.001298;0.004051;-0.001610;-76.355913;0.004079;
1066;1462;0.516008;84.575003;0.999980;0.001208;-0.007934;0.018241;-0.002727;0.018522;-0.008215;-84.114638;0.018561;
1181;1477;-0.318347;84.811924;0.999976;0.001093;-0.006628;0.015746;0.001675;0.015871;-0.006752;85.741382;0.015930;
1046;1452;0.753224;84.386213;0.999976;0.001341;-0.008921;0.020027;-0.003821;0.020523;-0.009417;-82.606507;0.020546;
1236;1472;-0.728095;84.716904;0.999977;0.001301;-0.007283;0.016487;0.003806;0.017082;-0.007878;81.121288;0.017099;
1086;1447;0.418875;84.290247;0.999973;0.001244;-0.009221;0.021137;-0.002105;0.021282;-0.009366;-86.052904;0.021333;
1036;1457;0.794593;84.484177;0.999985;0.001331;-0.008490;0.018908;-0.004085;0.019505;-0.009087;-81.697168;0.019520;
991;1592;0.219527;85.844475;0.999996;0.000582;-0.001558;0.004296;-0.001519;0.004667;-0.001928;-76.286111;0.004690;
1176;1567;-0.088318;85.698814;0.999999;0.000350;-0.002139;0.005323;0.000576;0.005367;-0.002183;85.614107;0.005398;
1081;1452;0.437286;84.388664;0.999978;0.001159;-0.008752;0.020118;-0.002255;0.020293;-0.008927;-85.561132;0.020342;
1096;1542;0.104032;85.543554;0.999997;0.000396;-0.002944;0.007343;-0.000729;0.007394;-0.002995;-85.966009;0.007438;
1191;1552;-0.143647;85.611495;0.999998;0.000491;-0.002678;0.006616;0.000949;0.006712;-0.002773;84.229773;0.006745;
1201;1462;-0.532307;84.563448;0.999973;0.001253;-0.007929;0.018219;0.002661;0.018487;-0.008197;84.247766;0.018526;
1061;1462;0.553483;84.575410;0.999978;0.001596;-0.007960;0.018219;-0.002939;0.018545;-0.008286;-83.671638;0.018580;
1041;1467;0.676279;84.663413;0.999980;0.001207;-0.007584;0.017250;-0.003618;0.017766;-0.008101;-81.877560;0.017789;
1071;1467;0.451048;84.661266;0.999980;0.001246;-0.007495;0.017416;-0.002416;0.017648;-0.007728;-84.511538;0.017693;
1061;1442;0.685560;84.181310;0.999974;0.001190;-0.009801;0.022165;-0.003425;0.022528;-0.010164;-83.952137;0.022564;
1041;1457;0.752157;84.482258;0.999983;0.001345;-0.008472;0.018979;-0.003887;0.019519;-0.009012;-82.093957;0.019538;
1061;1562;0.158489;85.676731;0.999996;0.000516;-0.002362;0.005927;-0.001111;0.006073;-0.002508;-82.496836;0.006104;
1186;1457;-0.437952;84.473308;0.999974;0.001292;-0.008243;0.019054;0.002109;0.019216;-0.008405;85.608168;0.019266;
1041;1437;0.921402;84.076853;0.999974;0.001551;-0.010472;0.023128;-0.004574;0.023739;-0.011083;-82.384864;0.023756;
1206;1607;-0.099759;85.870799;0.999999;0.000334;-0.001349;0.003377;0.000559;0.003442;-0.001414;83.341870;0.003460;
1066;1562;0.147084;85.676388;0.999997;0.000551;-0.002349;0.005890;-0.001035;0.006018;-0.002477;-82.951491;0.006049;
1026;1477;0.705221;84.820612;0.999983;0.001118;-0.006751;0.015409;-0.003871;0.016066;-0.007407;-80.371773;0.016082;
1236;1467;-0.769045;84.632327;0.999979;0.001216;-0.007685;0.017285;0.003970;0.017901;-0.008301;81.179928;0.017917;
1061;1467;0.527687;84.665343;0.999975;0.001408;-0.007555;0.017385;-0.002827;0.017702;-0.007871;-83.613681;0.017738;
1056;1457;0.625826;84.484030;0.999978;0.001518;-0.008406;0.019064;-0.003270;0.019448;-0.008790;-83.303368;0.019478;
1071;1462;0.475471;84.572149;0.999977;0.001192;-0.007897;0.018258;-0.002514;0.018498;-0.008136;-84.558709;0.018543;
1061;1447;0.650284;84.288332;0.999978;0.001100;-0.009309;0.021108;-0.003286;0.021459;-0.009660;-83.903947;0.021495;
1046;1457;0.710950;84.482624;0.999979;0.001265;-0.008460;0.019036;-0.003690;0.019523;-0.008947;-82.488859;0.019545;
1066;1552;0.168271;85.610797;0.999997;0.000510;-0.002678;0.006645;-0.001164;0.006788;-0.002821;-82.989146;0.006821;
1046;1437;0.870073;84.074985;0.999976;0.001461;-0.010430;0.023207;-0.004351;0.023760;-0.010983;-82.748077;0.023783;
1111;1452;0.179078;84.399272;0.999975;0.001134;-0.008740;0.020150;-0.000922;0.020180;-0.008769;-88.173711;0.020237;
1276;1597;-0.212218;85.858889;0.999996;0.000436;-0.001483;0.004079;0.001417;0.004419;-0.001823;76.496668;0.004442;
1221;1612;-0.115276;85.892666;0.999999;0.000258;-0.001246;0.003225;0.000634;0.003313;-0.001334;82.084940;0.003334;
1031;1477;0.674404;84.821164;0.999983;0.001054;-0.006772;0.015467;-0.003692;0.016063;-0.007369;-80.816595;0.016082;
1241;1467;-0.807374;84.630867;0.999983;0.001477;-0.007684;0.017234;0.004167;0.017912;-0.008363;80.753971;0.017925;
1221;1462;-0.687730;84.553480;0.999976;0.001011;-0.008050;0.018267;0.003497;0.018724;-0.008507;82.559310;0.018750;
1056;1462;0.591576;84.573721;0.999978;0.001718;-0.007974;0.018199;-0.003151;0.018573;-0.008348;-83.230772;0.018604;
1066;1467;0.488742;84.663332;0.999980;0.001320;-0.007532;0.017403;-0.002622;0.017676;-0.007805;-84.062001;0.017716;
1056;1437;0.766076;84.074282;0.999976;0.001347;-0.010375;0.023245;-0.003826;0.023675;-0.010805;-83.588789;0.023705;
1076;1472;0.393012;84.748509;0.999980;0.001125;-0.007102;0.016573;-0.002112;0.016760;-0.007289;-84.941767;0.016807;
1066;1557;0.157448;85.646351;0.999997;0.000492;-0.002510;0.006247;-0.001096;0.006382;-0.002645;-82.973193;0.006413;
1051;1437;0.817387;84.074468;0.999975;0.001477;-0.010429;0.023262;-0.004081;0.023749;-0.010916;-83.190984;0.023775;
1186;1472;-0.370889;84.729698;0.999976;0.001222;-0.007011;0.016528;0.001910;0.016682;-0.007165;85.391548;0.016738;
1226;1612;-0.121287;85.894399;0.999999;0.000331;-0.001235;0.003233;0.000674;0.003332;-0.001334;81.603258;0.003354;
1241;1477;-0.721389;84.799511;0.999981;0.001037;-0.006927;0.015703;0.003792;0.016321;-0.007546;80.736706;0.016337;
1236;1592;-0.162964;85.823976;0.999998;0.000431;-0.001631;0.004238;0.001052;0.004421;-0.001814;80.136235;0.004444;
1036;1477;0.641071;84.819890;0.999980;0.001076;-0.006773;0.015508;-0.003506;0.016047;-0.007312;-81.265751;0.016068;
1221;1467;-0.654122;84.638495;0.999977;0.001046;-0.007628;0.017383;0.003360;0.017826;-0.008072;82.479964;0.017853;
1056;1442;0.732067;84.181415;0.999977;0.001341;-0.009853;0.022179;-0.003680;0.022597;-0.010270;-83.530452;0.022628;
1066;1442;0.634840;84.180440;0.999967;0.001357;-0.009753;0.022165;-0.003175;0.022478;-0.010065;-84.374373;0.022519;
1071;1472;0.427777;84.748930;0.999980;0.001099;-0.007099;0.016563;-0.002323;0.016789;-0.007325;-84.446657;0.016834;
1116;1452;0.136607;84.397603;0.999973;0.001074;-0.008719;0.020141;-0.000719;0.020159;-0.008737;-88.572899;0.020219;
1176;1532;-0.142174;85.463652;0.999997;0.000472;-0.003400;0.008478;0.000885;0.008543;-0.003466;85.764338;0.008594;
1051;1442;0.784075;84.178686;0.999977;0.001450;-0.009899;0.022192;-0.003924;0.022665;-0.010372;-83.129582;0.022692;
1246;1467;-0.844363;84.628327;0.999986;0.001317;-0.007717;0.017160;0.004361;0.017902;-0.008460;80.338979;0.017911;
1001;1897;0.010314;86.386033;0.999999;0.000350;-0.000117;0.001427;-0.000258;0.001469;-0.000159;-80.746234;0.001612;
1241;1592;-0.169534;85.825644;0.999997;0.000378;-0.001631;0.004268;0.001113;0.004471;-0.001834;79.662841;0.004495;
1056;1472;0.534953;84.750108;0.999977;0.001335;-0.007162;0.016508;-0.002913;0.016861;-0.007515;-83.087285;0.016894;
1176;1442;-0.417497;84.171199;0.999976;0.001942;-0.009532;0.022162;0.001862;0.022271;-0.009641;86.650145;0.022338;
1241;1487;-0.646409;84.943008;0.999969;0.001425;-0.006176;0.014173;0.003494;0.014756;-0.006759;80.523994;0.014773;
1021;1447;1.027153;84.279126;0.999981;0.001051;-0.009442;0.020603;-0.005129;0.021455;-0.010294;-80.574846;0.021460;
1251;1472;-0.835846;84.715924;0.999986;0.000913;-0.007317;0.016352;0.004349;0.017126;-0.008091;79.911690;0.017134;
1056;1447;0.694923;84.286670;0.999978;0.001251;-0.009353;0.021115;-0.003528;0.021518;-0.009756;-83.479829;0.021549;
1066;1447;0.605424;84.288200;0.999978;0.001426;-0.009265;0.021110;-0.003049;0.021413;-0.009568;-84.324890;0.021454;
1076;1457;0.461375;84.484299;0.999973;0.001480;-0.008312;0.019145;-0.002389;0.019351;-0.008518;-85.063192;0.019397;
1246;1472;-0.798616;84.716494;0.999983;0.001007;-0.007318;0.016419;0.004172;0.017131;-0.008030;80.316999;0.017142;
1051;1447;0.745120;84.287017;0.999979;0.001319;-0.009391;0.021120;-0.003765;0.021578;-0.009849;-83.069092;0.021605;
1281;1632;-0.153856;85.968946;0.999999;0.000277;-0.000810;0.002352;0.000790;0.002539;-0.000996;76.724756;0.002558;
1246;1592;-0.176587;85.827596;0.999997;0.000349;-0.001636;0.004299;0.001175;0.004523;-0.001860;79.202269;0.004547;
1061;1472;0.499780;84.750895;0.999977;0.001360;-0.007154;0.016534;-0.002718;0.016842;-0.007462;-83.537129;0.016878;
1181;1442;-0.459898;84.166613;0.999975;0.001243;-0.009604;0.022200;0.002110;0.022339;-0.009743;86.221331;0.022400;
1241;1492;-0.609869;85.011514;0.999970;0.001593;-0.005826;0.013456;0.003367;0.014027;-0.006397;80.374961;0.014045;
1026;1447;0.979656;84.282124;0.999980;0.001343;-0.009452;0.020772;-0.004897;0.021545;-0.010226;-81.022390;0.021555;
1236;1462;-0.810646;84.548145;0.999978;0.001563;-0.008098;0.018154;0.004135;0.018790;-0.008734;81.257771;0.018805;
1056;1467;0.563432;84.666904;0.999977;0.001392;-0.007563;0.017363;-0.003029;0.017725;-0.007926;-83.169818;0.017758;
1246;1477;-0.755424;84.798852;0.999983;0.000952;-0.006976;0.015681;0.003959;0.016353;-0.007648;80.367736;0.016364;
1091;1442;0.395454;84.182802;0.999971;0.001425;-0.009683;0.022226;-0.001938;0.022344;-0.009800;-86.536694;0.022400;
1081;1457;0.415987;84.484767;0.999979;0.001202;-0.008308;0.019160;-0.002171;0.019331;-0.008479;-85.507929;0.019379;
1036;1437;0.972948;84.076785;0.999973;0.001515;-0.010493;0.023075;-0.004832;0.023757;-0.011175;-81.969969;0.023770;
1241;1447;-0.998215;84.253445;0.999981;0.001180;-0.009477;0.021086;0.004951;0.021868;-0.010259;81.024091;0.021882;
1231;1457;-0.810182;84.462578;0.999975;0.001316;-0.008513;0.019123;0.004104;0.019720;-0.009110;81.728930;0.019739;
1031;1442;0.976735;84.179766;0.999975;0.001638;-0.009975;0.021926;-0.004868;0.022652;-0.010702;-81.514617;0.022664;
1031;1447;0.929022;84.283910;0.999981;0.001548;-0.009470;0.020879;-0.004662;0.021579;-0.010170;-81.461658;0.021591;
1066;1472;0.463053;84.749567;0.999978;0.001234;-0.007133;0.016551;-0.002521;0.016816;-0.007398;-83.990747;0.016856;
1066;1452;0.572435;84.389849;0.999976;0.001406;-0.008795;0.020078;-0.002933;0.020373;-0.009090;-84.258206;0.020412;
1246;1482;-0.715037;84.872797;0.999978;0.001027;-0.006582;0.014900;0.003784;0.015547;-0.007229;80.297076;0.015559;
1181;1452;-0.415601;84.374039;0.999978;0.001346;-0.008653;0.020019;0.001966;0.020153;-0.008788;86.095240;0.020208;
1096;1442;0.349588;84.180832;0.999970;0.001657;-0.009682;0.022229;-0.001693;0.022319;-0.009772;-86.972109;0.022376;
1071;1442;0.587543;84.181587;0.999960;0.001703;-0.009714;0.022182;-0.002926;0.022448;-0.009981;-84.801763;0.022494;
1041;1422;1.074399;83.693871;0.999974;0.002127;-0.012186;0.026886;-0.005137;0.027550;-0.012850;-82.634516;0.027571;
1206;1457;-0.600850;84.472319;0.999972;0.001490;-0.008411;0.019166;0.003000;0.019488;-0.008734;83.861902;0.019523;
1246;1447;-1.044951;84.251686;0.999979;0.001346;-0.009494;0.020995;0.005164;0.021846;-0.010345;80.643242;0.021856;
1031;1437;1.027303;84.073282;0.999970;0.001746;-0.010505;0.022994;-0.005091;0.023751;-0.011261;-81.546082;0.023761;
1016;1472;0.820627;84.735175;0.999984;0.001057;-0.007093;0.015884;-0.004420;0.016705;-0.007914;-79.477553;0.016713;
1036;1442;0.925604;84.183275;0.999976;0.001584;-0.009959;0.022004;-0.004621;0.022659;-0.010613;-81.935665;0.022674;
1251;1477;-0.788811;84.797624;0.999985;0.001088;-0.006993;0.015641;0.004116;0.016367;-0.007718;80.005883;0.016376;
1036;1447;0.881761;84.283257;0.999982;0.001798;-0.009451;0.020951;-0.004424;0.021582;-0.010082;-81.885791;0.021597;
1091;1447;0.375371;84.291099;0.999975;0.001298;-0.009221;0.021140;-0.001861;0.021253;-0.009334;-86.505379;0.021306;
1181;1457;-0.394096;84.476273;0.999976;0.001318;-0.008195;0.019033;0.001903;0.019166;-0.008327;86.020405;0.019221;
1071;1447;0.557936;84.287474;0.999968;0.001985;-0.009229;0.021124;-0.002812;0.021382;-0.009487;-84.751390;0.021427;
1046;1422;1.011760;83.695736;0.999976;0.001519;-0.012158;0.026885;-0.004840;0.027477;-0.012749;-83.037759;0.027500;
1236;1447;-0.952551;84.255330;0.999979;0.001140;-0.009465;0.021150;0.004722;0.021861;-0.010176;81.428627;0.021879;
1101;1442;0.300929;84.179227;0.999954;0.001626;-0.009677;0.022235;-0.001456;0.022301;-0.009744;-87.392617;0.022360;
1021;1472;0.784557;84.738526;0.999986;0.001009;-0.007120;0.016049;-0.004229;0.016796;-0.007867;-79.972716;0.016807;
1211;1457;-0.642392;84.469457;0.999975;0.001647;-0.008444;0.019182;0.003216;0.019552;-0.008813;83.446299;0.019583;
1251;1482;-0.746092;84.870453;0.999979;0.001087;-0.006589;0.014842;0.003931;0.015540;-0.007288;79.926267;0.015550;
1041;1442;0.880676;84.181516;0.999980;0.001493;-0.009939;0.022054;-0.004380;0.022643;-0.010528;-82.344423;0.022662;
1106;1452;0.222446;84.397190;0.999970;0.001336;-0.008748;0.020154;-0.001132;0.020199;-0.008792;-87.760653;0.020255;
1046;1417;1.061742;83.563998;0.999982;0.001588;-0.012758;0.028141;-0.005032;0.028751;-0.013368;-83.087885;0.028774;
1186;1442;-0.508455;84.166432;0.999972;0.001359;-0.009664;0.022240;0.002370;0.022415;-0.009839;85.775279;0.022471;
1241;1482;-0.681843;84.873968;0.999975;0.001225;-0.006540;0.014930;0.003627;0.015527;-0.007136;80.665249;0.015543;
1246;1497;-0.599628;85.078541;0.999969;0.001389;-0.005521;0.012745;0.003378;0.013349;-0.006126;79.849721;0.013364;
1231;1447;-0.904064;84.258084;0.999973;0.001182;-0.009445;0.021190;0.004487;0.021834;-0.010089;81.835914;0.021855;
1026;1472;0.746969;84.741212;0.999987;0.001032;-0.007138;0.016167;-0.004037;0.016846;-0.007817;-80.445347;0.016861;
1051;1422;0.951887;83.696484;0.999974;0.001637;-0.012138;0.026911;-0.004555;0.027435;-0.012663;-83.433959;0.027463;
1061;1437;0.718031;84.070597;0.999974;0.001252;-0.010315;0.023231;-0.003557;0.023604;-0.010688;-84.013243;0.023639;
1231;1462;-0.769660;84.551960;0.999973;0.001309;-0.008089;0.018189;0.003925;0.018763;-0.008663;81.683606;0.018781;
1026;1442;1.031392;84.176276;0.999974;0.001563;-0.009950;0.021798;-0.005115;0.022602;-0.010754;-81.069384;0.022611;
1216;1457;-0.686694;84.467145;0.999976;0.001387;-0.008465;0.019197;0.003435;0.019617;-0.008885;83.026870;0.019646;
1251;1492;-0.667472;85.008733;0.999973;0.001092;-0.005852;0.013348;0.003665;0.014023;-0.006527;79.552275;0.014034;
1051;1417;1.001598;83.564257;0.999980;0.001778;-0.012734;0.028169;-0.004742;0.028711;-0.013276;-83.472171;0.028738;
1191;1442;-0.555240;84.167951;0.999972;0.001527;-0.009717;0.022278;0.002629;0.022492;-0.009931;85.334078;0.022543;
1231;1467;-0.729515;84.634810;0.999973;0.001137;-0.007676;0.017313;0.003768;0.017868;-0.008232;81.609517;0.017887;
1021;1442;1.081524;84.173929;0.999976;0.001177;-0.009943;0.021592;-0.005358;0.022478;-0.010829;-80.616668;0.022483;
1031;1472;0.714758;84.743136;0.999986;0.001008;-0.007165;0.016249;-0.003848;0.016865;-0.007781;-80.901547;0.016882;
1036;1422;1.135859;83.690817;0.999969;0.001968;-0.012211;0.026873;-0.005425;0.027612;-0.012951;-82.242182;0.027630;
1041;1427;1.019582;83.826725;0.999977;0.001861;-0.011594;0.025563;-0.004958;0.026213;-0.012244;-82.529450;0.026232;
1221;1457;-0.725537;84.466028;0.999976;0.001015;-0.008486;0.019205;0.003660;0.019681;-0.008961;82.597029;0.019707;
1241;1452;-0.945676;84.357829;0.999982;0.001380;-0.008977;0.020065;0.004755;0.020824;-0.009736;80.934123;0.020838;
1226;1452;-0.810544;84.367441;0.999973;0.001190;-0.008953;0.020172;0.004074;0.020731;-0.009512;82.185468;0.020755;
1226;1467;-0.693205;84.637464;0.999974;0.001083;-0.007648;0.017352;0.003585;0.017856;-0.008152;81.998450;0.017879;
1051;1452;0.705528;84.388112;0.999978;0.001321;-0.008897;0.020046;-0.003616;0.020491;-0.009342;-82.985088;0.020518;
1181;1192;-4.350724;64.018896;0.997657;0.014088;-0.085101;0.232965;0.007068;0.233122;-0.085258;88.727710;0.235907;
1086;1442;0.440329;84.182299;0.999968;0.001312;-0.009681;0.022218;-0.002191;0.022368;-0.009831;-86.088551;0.022423;
1191;1447;-0.528006;84.270329;0.999975;0.001395;-0.009228;0.021165;0.002525;0.021373;-0.009436;85.282739;0.021422;
1261;1502;-0.645506;85.133687;0.999828;0.003215;-0.005173;0.011817;0.003620;0.012556;-0.005912;78.460262;0.012563;
1216;1452;-0.722330;84.365853;0.999969;0.001453;-0.008925;0.020214;0.003601;0.020652;-0.009363;83.057837;0.020682;
1246;1452;-0.990981;84.355001;0.999984;0.001281;-0.009000;0.019991;0.004967;0.020819;-0.009828;80.542729;0.020830;
1061;1457;0.581906;84.486779;0.999978;0.001489;-0.008382;0.019081;-0.003048;0.019415;-0.008717;-83.741670;0.019449;
1041;1407;1.236524;83.282162;0.999967;0.001981;-0.014089;0.030793;-0.005676;0.031499;-0.014795;-82.902340;0.031519;
1046;1427;0.960780;83.829579;0.999979;0.001294;-0.011567;0.025571;-0.004667;0.026148;-0.012145;-82.945514;0.026170;
1226;1457;-0.768894;84.465443;0.999974;0.001073;-0.008499;0.019172;0.003899;0.019711;-0.009038;82.130145;0.019733;
1061;1427;0.790496;83.831790;0.999964;0.001540;-0.011410;0.025554;-0.003824;0.025945;-0.011801;-84.155041;0.025981;
1226;1462;-0.729193;84.553085;0.999973;0.000983;-0.008065;0.018237;0.003734;0.018756;-0.008585;82.075382;0.018779;
1196;1442;-0.604408;84.168022;0.999968;0.001326;-0.009767;0.022303;0.002888;0.022561;-0.010025;84.894640;0.022607;
1251;1452;-1.045390;84.353534;0.999827;0.004391;-0.008982;0.019886;0.005180;0.020787;-0.009883;80.129359;0.020796;
1251;1497;-0.629392;85.077012;0.999971;0.001113;-0.005526;0.012691;0.003525;0.013349;-0.006184;79.421615;0.013361;
1191;1452;-0.501481;84.373421;0.999968;0.001321;-0.008757;0.020086;0.002420;0.020288;-0.008959;85.237181;0.020334;
1181;1197;-4.156177;64.995021;0.997867;0.011530;-0.081789;0.220731;0.007072;0.220896;-0.081954;88.661523;0.223333;
1246;1457;-0.940341;84.452654;0.999984;0.001030;-0.008572;0.018924;0.004737;0.019717;-0.009365;80.494249;0.019726;
1221;1452;-0.765410;84.364974;0.999973;0.001385;-0.008939;0.020212;0.003836;0.020708;-0.009436;82.626871;0.020735;
1051;1427;0.903953;83.829974;0.999975;0.001515;-0.011554;0.025605;-0.004382;0.026115;-0.012064;-83.364296;0.026140;
1186;1462;-0.416461;84.566091;0.999973;0.001327;-0.007808;0.018164;0.002040;0.018324;-0.007967;85.536727;0.018375;
1251;1457;-0.981936;84.447741;0.999982;0.001074;-0.008561;0.018779;0.004939;0.019644;-0.009426;80.067760;0.019649;
1236;1452;-0.902185;84.360505;0.999981;0.001329;-0.008966;0.020117;0.004532;0.020807;-0.009656;81.344339;0.020825;
1026;1467;0.790549;84.660700;0.999987;0.001017;-0.007558;0.016996;-0.004206;0.017696;-0.008258;-80.545236;0.017709;
1041;1412;1.179145;83.429579;0.999970;0.001944;-0.013419;0.029422;-0.005510;0.030120;-0.014117;-82.787618;0.030139;
1096;1447;0.331228;84.290336;0.999978;0.001563;-0.009218;0.021144;-0.001624;0.021230;-0.009305;-86.946734;0.021284;
1061;1452;0.615796;84.390986;0.999976;0.001260;-0.008836;0.020060;-0.003158;0.020402;-0.009177;-83.835343;0.020436;
1196;1552;-0.157268;85.611947;0.999998;0.000510;-0.002701;0.006656;0.001034;0.006769;-0.002814;83.768456;0.006801;
1241;1462;-0.849811;84.543973;0.999983;0.001449;-0.008105;0.018091;0.004341;0.018792;-0.008806;80.830992;0.018804;
1146;1177;-1.481255;61.114499;0.997216;0.012653;-0.096016;0.282835;0.001865;0.282844;-0.096025;89.718023;0.287660;
1051;1457;0.670356;84.484568;0.999981;0.001388;-0.008428;0.019052;-0.003490;0.019488;-0.008865;-82.873308;0.019515;
1056;1427;0.845199;83.830739;0.999972;0.001593;-0.011485;0.025581;-0.004109;0.026031;-0.011935;-83.749312;0.026061;
1046;1407;1.162700;83.284150;0.999976;0.001648;-0.014055;0.030802;-0.005354;0.031432;-0.014685;-83.287228;0.031455;
1256;1482;-0.777973;84.865328;0.999911;0.002614;-0.006594;0.014731;0.004082;0.015485;-0.007348;79.525471;0.015492;
1256;1497;-0.656640;85.075704;0.999976;0.001009;-0.005510;0.012591;0.003672;0.013308;-0.006226;78.957674;0.013317;
1246;1462;-0.892047;84.542513;0.999984;0.001149;-0.008141;0.017998;0.004544;0.018765;-0.008909;80.413577;0.018773;
1231;1452;-0.855508;84.365958;0.999976;0.001177;-0.008952;0.020151;0.004306;0.020775;-0.009575;81.758581;0.020796;
1031;1467;0.753760;84.661944;0.999984;0.001072;-0.007582;0.017092;-0.004006;0.017726;-0.008216;-81.005110;0.017742;
1046;1412;1.110977;83.429721;0.999979;0.001508;-0.013388;0.029429;-0.005196;0.030051;-0.014010;-83.178470;0.030074;
1101;1447;0.282761;84.291879;0.999957;0.001739;-0.009211;0.021150;-0.001395;0.021214;-0.009275;-87.373958;0.021269;
1201;1552;-0.171524;85.612485;0.999997;0.000557;-0.002721;0.006696;0.001123;0.006828;-0.002853;83.295335;0.006859;
1051;1462;0.631886;84.576073;0.999979;0.001269;-0.007983;0.018183;-0.003362;0.018608;-0.008408;-82.793315;0.018636;
1061;1187;6.713281;62.433389;0.996920;0.015573;-0.094177;0.265278;-0.011814;0.265666;-0.094565;-88.119603;0.269316;
1051;1407;1.101514;83.281156;0.999972;0.001695;-0.014019;0.030829;-0.005045;0.031389;-0.014580;-83.660466;0.031416;
1241;1457;-0.896061;84.454967;0.999983;0.001314;-0.008536;0.019019;0.004532;0.019745;-0.009263;80.896413;0.019758;
1251;1462;-0.933219;84.540095;0.999989;0.000959;-0.008129;0.017854;0.004738;0.018691;-0.008966;79.982154;0.018696;
1256;1492;-0.695606;85.007252;0.999978;0.001024;-0.005835;0.013220;0.003819;0.013957;-0.006572;79.078758;0.013965;
1016;1467;0.869416;84.652129;0.999984;0.001082;-0.007535;0.016671;-0.004614;0.017521;-0.008384;-79.566598;0.017526;
1181;1447;-0.437669;84.271058;0.999982;0.001213;-0.009126;0.021095;0.002033;0.021231;-0.009262;86.168814;0.021288;
1051;1412;1.051821;83.424584;0.999975;0.002086;-0.013356;0.029455;-0.004900;0.030008;-0.013910;-83.552677;0.030035;
1076;1447;0.510804;84.287431;0.999969;0.001786;-0.009219;0.021135;-0.002578;0.021352;-0.009437;-85.178900;0.021400;
1066;1432;0.699173;83.955199;0.999968;0.001600;-0.010797;0.024341;-0.003408;0.024668;-0.011124;-84.510544;0.024708;
1081;1557;0.120226;85.643761;0.999998;0.000400;-0.002470;0.006131;-0.000853;0.006215;-0.002554;-84.389714;0.006248;
1176;1432;-0.454613;83.950743;0.999968;0.001986;-0.010542;0.024372;0.002004;0.024487;-0.010657;86.726314;0.024555;
1176;1177;-4.515974;60.768216;0.997557;0.009766;-0.095036;0.275599;0.005709;0.275687;-0.095124;89.117738;0.280065;
1236;1457;-0.854522;84.460830;0.999979;0.001495;-0.008524;0.019084;0.004320;0.019744;-0.009184;81.311614;0.019760;
1251;1467;-0.884651;84.627961;0.999988;0.000941;-0.007705;0.017041;0.004551;0.017851;-0.008516;79.903703;0.017857;
1061;1412;0.911894;83.426615;0.999969;0.002109;-0.013205;0.029419;-0.004263;0.029841;-0.013627;-84.344415;0.029878;
1031;1462;0.794315;84.578849;0.999985;0.001207;-0.008028;0.017955;-0.004160;0.018604;-0.008678;-81.123073;0.018618;
1041;1432;0.965997;83.961182;0.999977;0.001667;-0.011024;0.024269;-0.004766;0.024901;-0.011656;-82.442691;0.024918;
1186;1447;-0.484001;84.271654;0.999980;0.001260;-0.009180;0.021127;0.002276;0.021297;-0.009350;85.728977;0.021350;
1056;1412;0.981793;83.427260;0.999971;0.002115;-0.013299;0.029469;-0.004568;0.029952;-0.013782;-83.970780;0.029984;
1081;1447;0.461336;84.288585;0.999974;0.001495;-0.009208;0.021137;-0.002344;0.021317;-0.009388;-85.608563;0.021367;
1066;1437;0.664634;84.069788;0.999965;0.001450;-0.010264;0.023231;-0.003292;0.023552;-0.010585;-84.440340;0.023592;
1246;1487;-0.675528;84.942522;0.999972;0.001126;-0.006209;0.014130;0.003647;0.014764;-0.006843;80.134052;0.014777;
1086;1552;0.116436;85.609510;0.999998;0.000382;-0.002622;0.006504;-0.000818;0.006577;-0.002695;-84.921339;0.006612;
1181;1432;-0.508192;83.948344;0.999970;0.002064;-0.010626;0.024446;0.002278;0.024593;-0.010773;86.299325;0.024656;
1176;1182;-4.313098;61.917558;0.997912;0.013024;-0.091595;0.260393;0.005936;0.260493;-0.091695;89.034198;0.264270;
1061;1417;0.871372;83.566215;0.999971;0.001791;-0.012591;0.028132;-0.004132;0.028547;-0.013006;-84.264517;0.028584;
1221;1437;-0.894519;84.043793;0.999970;0.001366;-0.010436;0.023431;0.004367;0.023985;-0.010991;82.769097;0.024013;
1036;1462;0.754400;84.575009;0.999984;0.001112;-0.008015;0.018019;-0.003945;0.018603;-0.008599;-81.569184;0.018621;
1046;1432;0.910949;83.959542;0.999978;0.001574;-0.010985;0.024333;-0.004514;0.024901;-0.011553;-82.830067;0.024922;
1056;1417;0.934665;83.568596;0.999977;0.001721;-0.012675;0.028176;-0.004432;0.028651;-0.013150;-83.879264;0.028683;
1066;1417;0.807063;83.565463;0.999964;0.002052;-0.012516;0.028093;-0.003827;0.028451;-0.012873;-84.662340;0.028493;
1251;1487;-0.706764;84.939467;0.999972;0.001048;-0.006212;0.014055;0.003798;0.014744;-0.006900;79.725916;0.014754;
1216;1437;-0.842789;84.047607;0.999963;0.001268;-0.010451;0.023497;0.004078;0.023980;-0.010934;83.245301;0.024011;
1056;1407;1.029798;83.281382;0.999966;0.001874;-0.013964;0.030845;-0.004698;0.031332;-0.014451;-84.078494;0.031364;
1071;1432;0.646563;83.953370;0.999960;0.001613;-0.010753;0.024348;-0.003143;0.024627;-0.011032;-84.924012;0.024671;
1176;1187;-4.108050;63.062648;0.997771;0.015341;-0.088176;0.245966;0.006163;0.246079;-0.088290;88.943715;0.249329;
1186;1432;-0.560021;83.942465;0.999971;0.001784;-0.010696;0.024517;0.002566;0.024703;-0.010882;85.854723;0.024761;
1061;1422;0.830935;83.699002;0.999961;0.001608;-0.011992;0.026851;-0.003980;0.027254;-0.012396;-84.209873;0.027291;
1226;1437;-0.947380;84.045474;0.999971;0.001924;-0.010453;0.023346;0.004598;0.023960;-0.011067;82.389449;0.023983;
1041;1462;0.713471;84.574781;0.999981;0.001229;-0.008016;0.018106;-0.003755;0.018635;-0.008545;-81.980921;0.018657;
1051;1432;0.857141;83.959441;0.999977;0.001528;-0.010981;0.024379;-0.004232;0.024878;-0.011480;-83.269832;0.024903;
1256;1487;-0.736797;84.937892;0.999970;0.001178;-0.006200;0.013923;0.003955;0.014672;-0.006950;79.271380;0.014679;
1056;1422;0.891101;83.698453;0.999966;0.001657;-0.012070;0.026882;-0.004272;0.027345;-0.012533;-83.814304;0.027377;
1066;1422;0.770927;83.698220;0.999956;0.001779;-0.011925;0.026830;-0.003683;0.027177;-0.012272;-84.619341;0.027219;
1216;1442;-0.800452;84.154405;0.999961;0.001440;-0.009928;0.022369;0.003915;0.022836;-0.010396;83.186013;0.022867;
1106;1447;0.236161;84.292775;0.999963;0.001586;-0.009206;0.021144;-0.001177;0.021190;-0.009252;-87.783407;0.021246;
1246;1492;-0.637294;85.009175;0.999972;0.001283;-0.005850;0.013418;0.003515;0.014039;-0.006471;79.976659;0.014054;
1071;1437;0.616238;84.068984;0.999958;0.001403;-0.010222;0.023244;-0.003033;0.023516;-0.010494;-84.863215;0.023562;
1176;1192;-3.911418;64.129743;0.997555;0.016513;-0.084758;0.232484;0.006199;0.232605;-0.084879;88.880903;0.235418;
1196;1437;-0.633583;84.057992;0.999958;0.001720;-0.010280;0.023434;0.003011;0.023701;-0.010546;84.936408;0.023749;
1201;1442;-0.653733;84.167140;0.999966;0.001539;-0.009824;0.022331;0.003147;0.022636;-0.010129;84.462883;0.022677;
1196;1462;-0.491955;84.564735;0.999971;0.001280;-0.007899;0.018202;0.002450;0.018430;-0.008127;84.682983;0.018473;
1171;1437;-0.380980;84.070952;0.999967;0.001904;-0.009976;0.023201;0.001685;0.023286;-0.010062;87.099985;0.023357;
1036;1412;1.250502;83.430708;0.999958;0.002553;-0.013446;0.029390;-0.005819;0.030166;-0.014223;-82.399910;0.030182;
1216;1422;-0.981658;83.668404;0.999967;0.001768;-0.012105;0.027074;0.004577;0.027602;-0.012633;83.424354;0.027635;
1221;1432;-0.941669;83.927744;0.999968;0.001304;-0.010966;0.024606;0.004564;0.025182;-0.011542;82.804511;0.025211;
1026;1427;1.198923;83.829209;0.999960;0.001247;-0.011648;0.025452;-0.005826;0.026345;-0.012542;-81.281713;0.026356;
1166;1427;-0.367051;83.824571;0.999956;0.001949;-0.011013;0.025427;0.001561;0.025494;-0.011080;87.550779;0.025566;
1231;1432;-1.049877;83.926285;0.999966;0.001706;-0.010963;0.024428;0.005071;0.025141;-0.011675;82.003962;0.025162;
1111;1447;0.188893;84.293239;0.999973;0.001217;-0.009201;0.021132;-0.000954;0.021162;-0.009231;-88.200859;0.021219;
1031;1427;1.140760;83.824093;0.999965;0.001357;-0.011644;0.025504;-0.005526;0.026309;-0.012449;-81.715826;0.026322;
1176;1197;-3.733306;65.101679;0.997777;0.013282;-0.081394;0.219942;0.006166;0.220068;-0.081520;88.828215;0.222517;
1201;1447;-0.620381;84.268462;0.999967;0.001465;-0.009324;0.021226;0.003028;0.021523;-0.009621;84.394593;0.021564;
1211;1427;-0.878574;83.799705;0.999969;0.001653;-0.011506;0.025834;0.004143;0.026288;-0.011960;83.744514;0.026323;
1176;1437;-0.432039;84.066736;0.999971;0.001874;-0.010023;0.023255;0.001936;0.023367;-0.010135;86.680993;0.023436;
1036;1417;1.191786;83.562786;0.999966;0.002198;-0.012809;0.028107;-0.005638;0.028869;-0.013572;-82.296058;0.028886;
1236;1417;-1.284805;83.531901;0.999955;0.001888;-0.012713;0.028289;0.005956;0.029137;-0.013561;81.899633;0.029160;
1226;1432;-0.996459;83.927164;0.999971;0.001781;-0.010980;0.024508;0.004801;0.025146;-0.011618;82.429929;0.025170;
1236;1432;-1.104248;83.923813;0.999967;0.001333;-0.010962;0.024315;0.005340;0.025105;-0.011752;81.578419;0.025122;
1166;1422;-0.386940;83.689559;0.999952;0.002469;-0.011597;0.026687;0.001639;0.026757;-0.011667;87.552908;0.026830;
1176;1427;-0.478843;83.820840;0.999962;0.001820;-0.011086;0.025531;0.002085;0.025649;-0.011205;86.751371;0.025717;
1076;1442;0.537332;84.180505;0.999962;0.001832;-0.009695;0.022198;-0.002686;0.022422;-0.009920;-85.218873;0.022472;
1056;1187;7.214161;62.291963;0.996793;0.016551;-0.094380;0.265820;-0.013048;0.266292;-0.094852;-87.928103;0.269938;
1171;1432;-0.404131;83.953508;0.999960;0.001734;-0.010494;0.024304;0.001742;0.024391;-0.010581;87.141952;0.024462;
1201;1452;-0.587941;84.370370;0.999969;0.001369;-0.008840;0.020155;0.002899;0.020442;-0.009127;84.346513;0.020481;
1236;1422;-1.226832;83.661526;0.999963;0.001949;-0.012087;0.026978;0.005788;0.027817;-0.012926;81.747510;0.027840;
1201;1422;-0.799690;83.676039;0.999968;0.001675;-0.011976;0.026991;0.003670;0.027334;-0.012318;84.665818;0.027378;
1181;1437;-0.482310;84.064295;0.999973;0.001543;-0.010101;0.023311;0.002199;0.023455;-0.010245;86.251479;0.023518;
1196;1447;-0.574370;84.270416;0.999976;0.001270;-0.009275;0.021194;0.002776;0.021445;-0.009525;84.836617;0.021490;
1031;1432;1.083055;83.959662;0.999968;0.001474;-0.011061;0.024141;-0.005309;0.024924;-0.011844;-81.606845;0.024934;
1156;1417;-0.283087;83.573443;0.999963;0.002158;-0.012149;0.027983;0.001188;0.028018;-0.012184;88.305773;0.028097;
1221;1422;-1.044248;83.666618;0.999969;0.002056;-0.012107;0.027043;0.004886;0.027644;-0.012708;82.992826;0.027673;
1186;1417;-0.651875;83.548800;0.999962;0.001746;-0.012366;0.028160;0.002881;0.028364;-0.012569;85.953542;0.028425;
1081;1442;0.487057;84.181429;0.999967;0.001793;-0.009673;0.022206;-0.002442;0.022392;-0.009859;-85.644486;0.022445;
1206;1447;-0.667808;84.265250;0.999962;0.001585;-0.009361;0.021246;0.003281;0.021593;-0.009709;83.949718;0.021630;
1126;1187;0.471743;63.493389;0.997297;0.015660;-0.088655;0.252021;-0.000700;0.252023;-0.088656;-89.882295;0.255687;
1236;1427;-1.162297;83.796752;0.999958;0.001910;-0.011517;0.025561;0.005555;0.026375;-0.012332;81.660355;0.026394;
1201;1457;-0.558605;84.473845;0.999971;0.001343;-0.008377;0.019143;0.002772;0.019420;-0.008653;84.304253;0.019458;
1206;1437;-0.742414;84.051630;0.999965;0.001872;-0.010385;0.023474;0.003548;0.023841;-0.010753;84.081500;0.023880;
1201;1427;-0.762979;83.799593;0.999969;0.001618;-0.011425;0.025797;0.003550;0.026132;-0.011761;84.600016;0.026176;
1196;1452;-0.544537;84.371748;0.999974;0.001505;-0.008799;0.020120;0.002658;0.020362;-0.009041;84.791924;0.020405;
1216;1447;-0.760007;84.260268;0.999963;0.001475;-0.009417;0.021273;0.003767;0.021728;-0.009873;83.103882;0.021758;
1161;1417;-0.347101;83.564829;0.999962;0.002320;-0.012174;0.028006;0.001440;0.028057;-0.012226;87.949407;0.028134;
1226;1422;-1.105528;83.663478;0.999972;0.001876;-0.012103;0.027033;0.005180;0.027707;-0.012777;82.587052;0.027735;
1191;1417;-0.709945;83.547344;0.999965;0.001619;-0.012417;0.028183;0.003189;0.028432;-0.012666;85.535494;0.028488;
1196;1457;-0.518326;84.473385;0.999970;0.001374;-0.008340;0.019114;0.002547;0.019348;-0.008574;84.745132;0.019390;
1211;1447;-0.713301;84.262597;0.999966;0.001422;-0.009394;0.021262;0.003527;0.021663;-0.009795;83.521708;0.021696;
1136;1182;-0.471361;62.355243;0.996979;0.013496;-0.092447;0.267307;0.000567;0.267308;-0.092447;89.909723;0.271509;
1191;1462;-0.451770;84.563793;0.999965;0.001281;-0.007862;0.018184;0.002244;0.018376;-0.008054;85.111768;0.018423;
1101;1432;0.328332;83.951635;0.999958;0.001303;-0.010645;0.024411;-0.001607;0.024485;-0.010718;-87.381576;0.024548;
1211;1437;-0.795141;84.050163;0.999971;0.001424;-0.010425;0.023487;0.003817;0.023912;-0.010849;83.656097;0.023946;
1096;1417;0.438660;83.561346;0.999957;0.001688;-0.012261;0.027921;-0.002080;0.028029;-0.012368;-87.045157;0.028093;
1206;1452;-0.633858;84.367883;0.999969;0.001333;-0.008873;0.020181;0.003141;0.020517;-0.009209;83.900459;0.020553;
1226;1442;-0.900278;84.152625;0.999972;0.001918;-0.009940;0.022248;0.004416;0.022843;-0.010535;82.327495;0.022866;
1186;1467;-0.393407;84.649040;0.999972;0.001311;-0.007396;0.017347;0.001977;0.017504;-0.007553;85.459221;0.017558;
1101;1437;0.314417;84.063822;0.999959;0.001259;-0.010153;0.023321;-0.001530;0.023390;-0.010223;-87.388294;0.023452;
1041;1397;1.366354;82.951568;0.999955;0.002624;-0.015478;0.033898;-0.006065;0.034633;-0.016212;-83.098969;0.034656;
1196;1417;-0.770506;83.545737;0.999964;0.001799;-0.012480;0.028208;0.003494;0.028506;-0.012778;85.127410;0.028557;
1086;1437;0.463495;84.068734;0.999962;0.001614;-0.010152;0.023290;-0.002279;0.023445;-0.010307;-86.120080;0.023502;
1186;1437;-0.530682;84.063345;0.999969;0.001661;-0.010166;0.023365;0.002471;0.023546;-0.010347;85.807440;0.023603;
1181;1182;-4.774628;61.807018;0.997684;0.010815;-0.091736;0.260008;0.006834;0.260141;-0.091869;88.887390;0.263855;
1201;1437;-0.685583;84.056748;0.999957;0.001996;-0.010344;0.023461;0.003277;0.023775;-0.010659;84.514558;0.023818;
1201;1412;-0.878805;83.404358;0.999962;0.001720;-0.013141;0.029569;0.003928;0.029927;-0.013499;84.788276;0.029975;
1206;1417;-0.899747;83.545216;0.999968;0.001536;-0.012595;0.028264;0.004106;0.028673;-0.013004;84.317901;0.028714;
1191;1457;-0.476397;84.473839;0.999964;0.001156;-0.008299;0.019085;0.002324;0.019281;-0.008495;85.182809;0.019327;
1106;1442;0.252250;84.177736;0.999959;0.001479;-0.009677;0.022224;-0.001228;0.022271;-0.009724;-87.798418;0.022330;
1071;1452;0.528988;84.388246;0.999970;0.001962;-0.008760;0.020097;-0.002708;0.020349;-0.009012;-84.685618;0.020393;
1196;1432;-0.667130;83.929589;0.999967;0.001738;-0.010816;0.024604;0.003136;0.024880;-0.011091;84.978668;0.024928;
1046;1397;1.286710;82.955009;0.999968;0.002090;-0.015444;0.033874;-0.005723;0.034529;-0.016099;-83.467366;0.034556;
1061;1397;1.055665;82.957831;0.999959;0.001952;-0.015266;0.033768;-0.004680;0.034210;-0.015708;-84.596956;0.034248;
1091;1437;0.415030;84.068619;0.999965;0.001495;-0.010155;0.023302;-0.002021;0.023424;-0.010277;-86.555471;0.023482;
1041;1402;1.296766;83.122592;0.999967;0.002487;-0.014767;0.032251;-0.005861;0.032971;-0.015487;-83.000098;0.032991;
1181;1187;-4.544578;62.945323;0.997793;0.013141;-0.088418;0.246129;0.007069;0.246279;-0.088567;88.790031;0.249493;
1231;1407;-1.338725;83.244428;0.999949;0.002080;-0.013955;0.030871;0.006027;0.031667;-0.014751;82.474418;0.031692;
1026;1417;1.321341;83.558803;0.999961;0.001271;-0.012851;0.027919;-0.006237;0.028852;-0.013784;-81.493949;0.028862;
1076;1437;0.565188;84.067000;0.999961;0.001520;-0.010191;0.023261;-0.002788;0.023491;-0.010422;-85.268778;0.023541;
1206;1422;-0.863709;83.674520;0.999973;0.001759;-0.012026;0.027022;0.003975;0.027423;-0.012426;84.246767;0.027463;
1056;1432;0.801390;83.958943;0.999977;0.001467;-0.010924;0.024363;-0.003966;0.024803;-0.011364;-83.665726;0.024832;
1051;1397;1.208958;82.956638;0.999965;0.001634;-0.015409;0.033828;-0.005367;0.034406;-0.015987;-83.851019;0.034435;
1111;1442;0.201248;84.179179;0.999966;0.001526;-0.009675;0.022204;-0.000991;0.022234;-0.009706;-88.221653;0.022294;
1066;1457;0.544752;84.484264;0.999977;0.001329;-0.008348;0.019104;-0.002831;0.019393;-0.008637;-84.173657;0.019432;
1046;1402;1.221652;83.124496;0.999976;0.002108;-0.014735;0.032264;-0.005529;0.032906;-0.015377;-83.380101;0.032929;
1026;1422;1.259811;83.691910;0.999963;0.001319;-0.012255;0.026798;-0.005999;0.027699;-0.013156;-81.460819;0.027711;
1231;1422;-1.165291;83.664325;0.999968;0.001865;-0.012088;0.027013;0.005484;0.027767;-0.012842;82.165351;0.027793;
1096;1422;0.416841;83.700122;0.999960;0.001701;-0.011711;0.026739;-0.002005;0.026843;-0.011815;-87.022500;0.026907;
1201;1417;-0.834738;83.546080;0.999964;0.001898;-0.012544;0.028239;0.003796;0.028589;-0.012895;84.727264;0.028635;
1251;1612;-0.151124;85.903660;0.999998;0.000411;-0.001194;0.003269;0.000888;0.003439;-0.001364;79.150872;0.003464;
1206;1427;-0.823358;83.800510;0.999973;0.001850;-0.011468;0.025820;0.003847;0.026212;-0.011861;84.170100;0.026252;
1241;1432;-1.156638;83.922241;0.999965;0.001482;-0.010951;0.024142;0.005593;0.025012;-0.011820;81.159882;0.025025;
1221;1582;-0.153810;85.778668;0.999996;0.000475;-0.001849;0.004719;0.001026;0.004875;-0.002005;81.325949;0.004901;
1036;1427;1.079007;83.824028;0.999968;0.002030;-0.011617;0.025539;-0.005243;0.026264;-0.012343;-82.120746;0.026280;
1221;1442;-0.849675;84.154245;0.999970;0.001512;-0.009923;0.022316;0.004185;0.022850;-0.010458;82.722397;0.022878;
1071;1457;0.502615;84.482435;0.999971;0.001377;-0.008312;0.019128;-0.002612;0.019374;-0.008558;-84.611254;0.019418;
1031;1412;1.323471;83.428639;0.999953;0.001958;-0.013477;0.029308;-0.006126;0.030167;-0.014336;-82.010297;0.030180;
1051;1402;1.149506;83.121910;0.999973;0.001616;-0.014702;0.032288;-0.005204;0.032858;-0.015271;-83.756084;0.032885;
1041;1392;1.427584;82.786581;0.999956;0.002333;-0.016217;0.035499;-0.006243;0.036242;-0.016960;-83.212863;0.036267;
1196;1427;-0.703816;83.802928;0.999967;0.001521;-0.011359;0.025759;0.003257;0.026042;-0.011643;85.023407;0.026091;
1246;1432;-1.214972;83.923362;0.999947;0.002122;-0.010941;0.023876;0.005824;0.024825;-0.011889;80.751083;0.024832;
1221;1412;-1.149990;83.394729;0.999967;0.001697;-0.013311;0.029620;0.005191;0.030239;-0.013930;83.203090;0.030270;
1096;1427;0.397443;83.829684;0.999953;0.001560;-0.011168;0.025543;-0.001929;0.025644;-0.011269;-87.001120;0.025706;
1036;1432;1.023255;83.957556;0.999972;0.001717;-0.011047;0.024217;-0.005038;0.024922;-0.011753;-82.026827;0.024936;
1241;1472;-0.762878;84.715806;0.999981;0.001206;-0.007282;0.016460;0.003989;0.017112;-0.007935;80.713920;0.017127;
1011;1612;0.149518;85.914016;0.999998;0.000313;-0.001130;0.003216;-0.000928;0.003405;-0.001320;-78.442421;0.003434;
1031;1587;0.164729;85.810722;0.999997;0.000500;-0.001713;0.004509;-0.001152;0.004715;-0.001920;-79.840440;0.004742;
1056;1397;1.134462;82.957729;0.999963;0.001742;-0.015356;0.033822;-0.005015;0.034328;-0.015862;-84.235960;0.034361;
1091;1432;0.436024;83.953412;0.999956;0.001844;-0.010650;0.024389;-0.002103;0.024515;-0.010776;-86.577004;0.024575;
1021;1432;1.186121;83.960090;0.999638;0.005724;-0.011091;0.023842;-0.005870;0.024802;-0.012051;-80.711446;0.024805;
1066;1427;0.734549;83.831563;0.999954;0.001604;-0.011344;0.025542;-0.003538;0.025878;-0.011681;-84.570372;0.025919;
1046;1392;1.344584;82.785924;0.999955;0.002398;-0.016173;0.035459;-0.005894;0.036124;-0.016837;-83.570054;0.036151;
1186;1422;-0.622191;83.680004;0.999967;0.001715;-0.011787;0.026865;0.002764;0.027061;-0.011984;85.929661;0.027120;
1036;1397;1.442872;82.952202;0.999952;0.001891;-0.015506;0.033910;-0.006399;0.034726;-0.016321;-82.740373;0.034746;
1226;1412;-1.213519;83.393026;0.999968;0.001482;-0.013324;0.029638;0.005496;0.030330;-0.014016;82.824865;0.030359;
1116;1442;0.150414;84.179644;0.999969;0.001411;-0.009655;0.022182;-0.000761;0.022200;-0.009673;-88.632093;0.022261;
1016;1607;0.151804;85.892105;0.999998;0.000426;-0.001261;0.003465;-0.000974;0.003658;-0.001454;-78.797554;0.003683;
1191;1402;-0.829045;83.100833;0.999967;0.001572;-0.014287;0.032160;0.003490;0.032421;-0.014548;85.726486;0.032478;
1056;1402;1.079686;83.120429;0.999970;0.001654;-0.014652;0.032298;-0.004847;0.032794;-0.015147;-84.166699;0.032825;
1166;1412;-0.430428;83.419730;0.999950;0.001883;-0.012814;0.029420;0.001774;0.029494;-0.012888;87.598632;0.029572;
1026;1432;1.138307;83.956425;0.999966;0.001495;-0.011048;0.024021;-0.005591;0.024891;-0.011918;-81.157403;0.024899;
1096;1432;0.380657;83.950649;0.999960;0.001517;-0.010647;0.024395;-0.001852;0.024492;-0.010745;-86.982426;0.024554;
1051;1392;1.263104;82.795257;0.999955;0.001793;-0.016134;0.035402;-0.005528;0.035988;-0.016720;-83.946398;0.036018;
1086;1417;0.562734;83.563607;0.999961;0.002035;-0.012305;0.027967;-0.002650;0.028140;-0.012478;-86.251531;0.028200;
1036;1402;1.375201;83.117480;0.999959;0.001801;-0.014793;0.032216;-0.006189;0.033017;-0.015594;-82.624503;0.033034;
1231;1412;-1.276138;83.394573;0.999964;0.001558;-0.013333;0.029644;0.005817;0.030418;-0.014106;82.426267;0.030444;
1191;1422;-0.679743;83.678276;0.999971;0.001435;-0.011844;0.026906;0.003071;0.027148;-0.012086;85.497192;0.027202;
1236;1442;-1.002293;84.147874;0.999979;0.001175;-0.009942;0.022122;0.004913;0.022858;-0.010677;81.481179;0.022874;
1196;1402;-0.899426;83.096045;0.999967;0.001306;-0.014357;0.032192;0.003824;0.032504;-0.014669;85.334870;0.032556;
1211;1602;-0.111347;85.854885;0.999999;0.000360;-0.001423;0.003595;0.000657;0.003680;-0.001508;82.658555;0.003700;
1191;1437;-0.582834;84.060445;0.999970;0.001788;-0.010223;0.023407;0.002742;0.023629;-0.010445;85.368750;0.023682;
1166;1417;-0.404476;83.556555;0.999959;0.002247;-0.012200;0.028039;0.001711;0.028111;-0.012273;87.569488;0.028187;
1221;1447;-0.806459;84.262085;0.999970;0.001621;-0.009428;0.021261;0.004015;0.021777;-0.009945;82.668076;0.021805;
1066;1397;0.979977;82.959777;0.999950;0.001866;-0.015173;0.033698;-0.004348;0.034082;-0.015556;-84.955555;0.034125;
1086;1422;0.539224;83.700862;0.999943;0.002079;-0.011740;0.026770;-0.002549;0.026938;-0.011908;-86.229529;0.026998;
1171;1427;-0.425130;83.821565;0.999956;0.001491;-0.011045;0.025469;0.001815;0.025559;-0.011135;87.160525;0.025629;
1216;1412;-1.082142;83.396025;0.999968;0.002125;-0.013282;0.029632;0.004898;0.030184;-0.013834;83.571111;0.030219;
1196;1422;-0.738249;83.677367;0.999967;0.001713;-0.011909;0.026948;0.003372;0.027238;-0.012200;85.077432;0.027287;
1096;1412;0.460055;83.428694;0.999956;0.001769;-0.012833;0.029141;-0.002147;0.029251;-0.012943;-87.080105;0.029315;
1241;1442;-1.051857;84.148077;0.999980;0.001062;-0.009946;0.022003;0.005155;0.022814;-0.010757;81.057927;0.022826;
1201;1402;-0.967986;83.093616;0.999958;0.001761;-0.014423;0.032229;0.004158;0.032597;-0.014791;84.946640;0.032643;
1181;1412;-0.618030;83.412916;0.999950;0.001867;-0.012928;0.029512;0.002685;0.029681;-0.013098;86.393881;0.029749;
1106;1432;0.276106;83.952393;0.999962;0.001580;-0.010649;0.024424;-0.001363;0.024477;-0.010702;-87.777271;0.024541;
1081;1402;0.720937;83.129904;0.999948;0.002285;-0.014234;0.032055;-0.003229;0.032279;-0.014459;-86.028712;0.032337;
1066;1402;0.932184;83.122559;0.999950;0.002253;-0.014468;0.032197;-0.004208;0.032574;-0.014845;-84.888491;0.032616;
1156;1407;-0.318644;83.297789;0.999947;0.001799;-0.013369;0.030643;0.001240;0.030678;-0.013404;88.387826;0.030759;
1246;1442;-1.100448;84.145787;0.999979;0.001242;-0.009944;0.021824;0.005373;0.022708;-0.010828;80.656052;0.022716;
1081;1437;0.515048;84.068233;0.999961;0.001881;-0.010155;0.023272;-0.002537;0.023464;-0.010346;-85.684876;0.023518;
1211;1412;-1.011129;83.399364;0.999969;0.001761;-0.013233;0.029607;0.004578;0.030091;-0.013716;83.968438;0.030130;
1221;1427;-0.992591;83.797740;0.999966;0.001659;-0.011526;0.025799;0.004743;0.026393;-0.012119;82.870318;0.026422;
1186;1392;-0.830009;82.780822;0.999949;0.001816;-0.015554;0.035002;0.003328;0.035220;-0.015772;86.249601;0.035284;
1206;1442;-0.703565;84.164515;0.999964;0.001739;-0.009865;0.022345;0.003409;0.022702;-0.010222;84.023635;0.022739;
1026;1412;1.385978;83.426313;0.999940;0.001598;-0.013491;0.029139;-0.006449;0.030093;-0.014445;-81.583489;0.030101;
1081;1412;0.655789;83.431497;0.999956;0.001830;-0.012945;0.029229;-0.003042;0.029447;-0.013163;-85.895500;0.029502;
1086;1402;0.646973;83.131263;0.999956;0.001899;-0.014154;0.032009;-0.002911;0.032192;-0.014337;-86.406574;0.032256;
1051;1387;1.316078;82.621813;0.999953;0.002102;-0.016900;0.037038;-0.005696;0.037632;-0.017495;-84.037455;0.037663;
1096;1402;0.506273;83.125150;0.999948;0.002011;-0.014057;0.031941;-0.002288;0.032055;-0.014171;-87.159294;0.032126;
1086;1427;0.508429;83.829459;0.999933;0.002118;-0.011183;0.025549;-0.002452;0.025712;-0.011346;-86.198478;0.025771;
1231;1442;-0.950244;84.147461;0.999971;0.001547;-0.009930;0.022197;0.004666;0.022862;-0.010594;81.900730;0.022882;
1226;1427;-1.051259;83.797764;0.999968;0.001813;-0.011539;0.025720;0.004995;0.026378;-0.012197;82.495363;0.026403;
1211;1417;-0.964628;83.543177;0.999969;0.001401;-0.012643;0.028284;0.004419;0.028756;-0.013114;83.906596;0.028793;
1221;1417;-1.094391;83.535549;0.999972;0.001907;-0.012703;0.028297;0.005026;0.028904;-0.013310;83.112598;0.028935;
1186;1177;-5.479442;60.557645;0.997164;0.013125;-0.095323;0.273828;0.007186;0.273968;-0.095463;88.885182;0.278132;
1096;1407;0.481884;83.281840;0.999956;0.001558;-0.013428;0.030508;-0.002214;0.030619;-0.013539;-87.122916;0.030687;
1186;1412;-0.682771;83.409688;0.999953;0.001880;-0.012973;0.029525;0.002994;0.029735;-0.013183;85.989533;0.029798;
1241;1412;-1.413647;83.388891;0.999953;0.001902;-0.013362;0.029605;0.006458;0.030555;-0.014312;81.635089;0.030575;
1081;1417;0.625173;83.562933;0.999961;0.001575;-0.012349;0.027990;-0.002943;0.028203;-0.012562;-85.848520;0.028259;
1036;1387;1.570435;82.611846;0.999953;0.002112;-0.017055;0.037155;-0.006792;0.037993;-0.017893;-82.966330;0.038014;
1091;1402;0.578113;83.128187;0.999951;0.001709;-0.014101;0.031972;-0.002603;0.032119;-0.014247;-86.776533;0.032187;
1236;1402;-1.480410;83.083712;0.999928;0.002291;-0.014642;0.032122;0.006552;0.033023;-0.015542;82.172945;0.033042;
1081;1432;0.541393;83.953202;0.999954;0.001916;-0.010665;0.024366;-0.002629;0.024563;-0.010861;-85.732624;0.024617;
1231;1427;-1.105905;83.797184;0.999966;0.001889;-0.011521;0.025655;0.005277;0.026389;-0.012256;82.076030;0.026412;
1241;1427;-1.219795;83.793930;0.999955;0.001684;-0.011506;0.025415;0.005814;0.026309;-0.012400;81.259240;0.026323;
1226;1417;-1.157187;83.531698;0.999974;0.001581;-0.012708;0.028305;0.005325;0.028985;-0.013388;82.721489;0.029013;
1211;1422;-0.921520;83.671175;0.999971;0.001479;-0.012069;0.027045;0.004280;0.027508;-0.012532;83.827587;0.027545;
1141;1177;-0.971644;61.132631;0.997478;0.012221;-0.096136;0.284239;0.001198;0.284242;-0.096140;89.819590;0.289159;
1241;1402;-1.556307;83.077306;0.999951;0.002309;-0.014630;0.031947;0.006912;0.032951;-0.015634;81.734562;0.032965;
1036;1392;1.507390;82.783657;0.999956;0.002378;-0.016255;0.035528;-0.006585;0.036352;-0.017079;-82.864686;0.036374;
1191;1412;-0.746305;83.408262;0.999958;0.001962;-0.013021;0.029535;0.003309;0.029791;-0.013276;85.579896;0.029850;
1081;1422;0.595595;83.699135;0.999942;0.001906;-0.011770;0.026780;-0.002833;0.026987;-0.011978;-85.819588;0.027044;
1181;1397;-0.721194;82.956663;0.999925;0.001702;-0.014834;0.033466;0.002890;0.033639;-0.015006;86.587811;0.033704;
1196;1387;-1.033122;82.595038;0.999948;0.001674;-0.016425;0.036722;0.004138;0.037043;-0.016745;85.574702;0.037099;
1231;1417;-1.219933;83.533022;0.999970;0.001753;-0.012704;0.028303;0.005640;0.029065;-0.013465;82.309896;0.029091;
1236;1412;-1.347845;83.393419;0.999947;0.001814;-0.013353;0.029635;0.006140;0.030495;-0.014213;82.028988;0.030518;
1216;1432;-0.887504;83.926098;0.999962;0.001233;-0.010982;0.024672;0.004259;0.025174;-0.011483;83.281000;0.025206;
1211;1442;-0.753420;84.159633;0.999968;0.001449;-0.009902;0.022359;0.003666;0.022770;-0.010313;83.597563;0.022804;
1096;1437;0.363740;84.066819;0.999966;0.001602;-0.010155;0.023311;-0.001772;0.023405;-0.010249;-86.977672;0.023465;
1036;1382;1.648733;82.417308;0.999937;0.002608;-0.017808;0.038830;-0.006952;0.039670;-0.018649;-83.103840;0.039694;
1041;1387;1.488105;82.613081;0.999951;0.001889;-0.017004;0.037125;-0.006440;0.037880;-0.017760;-83.307642;0.037905;
1181;1177;-4.999391;60.674004;0.997420;0.010298;-0.095037;0.274637;0.006527;0.274752;-0.095153;88.988791;0.279044;
1246;1422;-1.343462;83.669882;0.999707;0.004055;-0.012068;0.026794;0.006373;0.027812;-0.013087;80.920364;0.027828;
1196;1412;-0.812226;83.403742;0.999963;0.001690;-0.013080;0.029552;0.003619;0.029857;-0.013385;85.182249;0.029910;
1076;1407;0.749983;83.286172;0.999955;0.001966;-0.013639;0.030646;-0.003453;0.030913;-0.013907;-85.567911;0.030965;
1181;1402;-0.686479;83.109074;0.999940;0.001807;-0.014195;0.032124;0.002814;0.032294;-0.014365;86.535773;0.032359;
1216;1417;-1.030122;83.537689;0.999970;0.001791;-0.012687;0.028315;0.004726;0.028853;-0.013224;83.509728;0.028886;
1196;1382;-1.076139;82.410865;0.999932;0.002404;-0.017149;0.038429;0.004243;0.038751;-0.017471;85.659561;0.038813;
1181;1417;-0.589238;83.552815;0.999957;0.001924;-0.012311;0.028135;0.002582;0.028300;-0.012475;86.362051;0.028365;
1066;1382;1.115113;82.435398;0.999936;0.002181;-0.017386;0.038628;-0.004773;0.039032;-0.017790;-85.164314;0.039083;
1061;1407;0.958161;83.277681;0.999963;0.002253;-0.013866;0.030798;-0.004385;0.031224;-0.014292;-84.445401;0.031262;
1041;1382;1.559830;82.420637;0.999938;0.002577;-0.017762;0.038821;-0.006606;0.039582;-0.018523;-83.428422;0.039609;
1031;1397;1.518168;82.950395;0.999948;0.002102;-0.015523;0.033886;-0.006733;0.034787;-0.016424;-82.377727;0.034805;
1046;1387;1.402635;82.618099;0.999953;0.002293;-0.016945;0.037088;-0.006077;0.037763;-0.017620;-83.661933;0.037791;
1116;1167;1.777806;58.316085;0.997220;0.016454;-0.103999;0.326145;-0.001917;0.326154;-0.104007;-89.744688;0.333209;
1086;1432;0.486735;83.953365;0.999953;0.001998;-0.010651;0.024382;-0.002362;0.024540;-0.010810;-86.159661;0.024598;
1211;1402;-1.115194;83.088363;0.999958;0.002049;-0.014528;0.032334;0.004862;0.032833;-0.015027;84.138272;0.032872;
1181;1407;-0.649018;83.262929;0.999945;0.001859;-0.013560;0.030821;0.002761;0.030992;-0.013731;86.453979;0.031059;
1206;1432;-0.783025;83.928876;0.999970;0.001942;-0.010920;0.024648;0.003700;0.025029;-0.011301;84.123562;0.025068;
1221;1382;-1.510433;82.394294;0.999942;0.002214;-0.017467;0.038631;0.006222;0.039313;-0.018149;83.746760;0.039351;
1226;1397;-1.392770;82.921190;0.999933;0.002020;-0.015321;0.033717;0.006029;0.034448;-0.016051;83.092521;0.034474;
1181;1422;-0.561882;83.682346;0.999961;0.001947;-0.011724;0.026815;0.002469;0.026972;-0.011882;86.348870;0.027036;
1181;1427;-0.536108;83.818942;0.999961;0.001970;-0.011165;0.025598;0.002366;0.025750;-0.011317;86.333141;0.025812;
1221;1397;-1.318997;82.927278;0.999940;0.002175;-0.015301;0.033716;0.005688;0.034367;-0.015953;83.466563;0.034396;
1246;1427;-1.272667;83.801915;0.999877;0.003137;-0.011498;0.025171;0.006059;0.026147;-0.012474;80.855971;0.026156;
1171;1412;-0.496337;83.413406;0.999954;0.002441;-0.012839;0.029456;0.002073;0.029557;-0.012941;87.201273;0.029633;
1081;1397;0.752860;82.964060;0.999940;0.001984;-0.014926;0.033510;-0.003326;0.033738;-0.015153;-86.089560;0.033796;
1206;1177;-7.501910;60.018290;0.997381;0.012521;-0.096601;0.271592;0.010940;0.271917;-0.096926;88.299620;0.275627;
1216;1402;-1.189889;83.089738;0.999953;0.001908;-0.014559;0.032299;0.005228;0.032876;-0.015136;83.710012;0.032910;
1191;1392;-0.906622;82.777128;0.999959;0.001665;-0.015626;0.035039;0.003680;0.035305;-0.015892;85.867249;0.035363;
1221;1387;-1.438739;82.578136;0.999951;0.001703;-0.016714;0.036943;0.006075;0.037622;-0.017393;83.620416;0.037658;
1211;1432;-0.836159;83.927814;0.999971;0.001515;-0.010956;0.024661;0.003984;0.025102;-0.011396;83.694465;0.025137;
1021;1427;1.235600;83.834555;0.999140;0.007993;-0.011698;0.025376;-0.006128;0.026363;-0.012685;-80.854268;0.026369;
1071;1392;0.943680;82.798955;0.999936;0.002260;-0.015813;0.035153;-0.004131;0.035486;-0.016145;-85.395616;0.035534;
1186;1427;-0.593820;83.811427;0.999966;0.001891;-0.011235;0.025666;0.002662;0.025857;-0.011426;85.895254;0.025915;
1181;1392;-0.752988;82.780576;0.999923;0.001994;-0.015502;0.034971;0.002966;0.035145;-0.015676;86.648575;0.035213;
1171;1417;-0.471702;83.553630;0.999960;0.002219;-0.012221;0.028070;0.001992;0.028168;-0.012319;87.176383;0.028242;
1056;1392;1.182573;82.797777;0.999954;0.001860;-0.016072;0.035384;-0.005181;0.035900;-0.016589;-84.306719;0.035935;
1086;1397;0.677338;82.964879;0.999947;0.001857;-0.014832;0.033449;-0.002999;0.033634;-0.015018;-86.458811;0.033698;
1161;1172;-3.119856;59.704631;0.997171;0.011763;-0.099204;0.296837;0.003561;0.296870;-0.099236;89.484888;0.302256;
1221;1402;-1.262324;83.086698;0.999951;0.002113;-0.014595;0.032263;0.005535;0.032908;-0.015239;83.354107;0.032938;
1221;1392;-1.377236;82.762548;0.999946;0.001841;-0.016000;0.035341;0.005898;0.036010;-0.016668;83.530478;0.036043;
1196;1392;-0.984785;82.778987;0.999957;0.001430;-0.015718;0.035087;0.004029;0.035404;-0.016036;85.493646;0.035456;
1206;1412;-0.944074;83.403026;0.999964;0.001881;-0.013186;0.029589;0.004250;0.030008;-0.013604;84.380456;0.030051;
1226;1377;-1.668505;82.199894;0.999934;0.002208;-0.018309;0.040543;0.006716;0.041300;-0.019065;83.571938;0.041340;
1181;1387;-0.784770;82.603240;0.999916;0.002484;-0.016222;0.036618;0.003042;0.036792;-0.016396;86.716328;0.036865;
1191;1427;-0.649388;83.807817;0.999971;0.001553;-0.011295;0.025718;0.002962;0.025953;-0.011531;85.453376;0.026007;
1206;1392;-1.138476;82.771613;0.999946;0.002141;-0.015857;0.035215;0.004776;0.035658;-0.016300;84.702696;0.035702;
1071;1412;0.781743;83.428818;0.999963;0.001943;-0.013065;0.029319;-0.003654;0.029632;-0.013378;-85.108021;0.029678;
1071;1397;0.904657;82.960374;0.999949;0.001922;-0.015095;0.033631;-0.004014;0.033959;-0.015424;-85.322090;0.034006;
1066;1392;1.024455;82.800981;0.999941;0.001866;-0.015892;0.035238;-0.004486;0.035628;-0.016283;-85.023587;0.035672;
1161;1407;-0.384171;83.288143;0.999933;0.001913;-0.013395;0.030690;0.001520;0.030742;-0.013447;88.027599;0.030822;
1186;1402;-0.757525;83.108013;0.999962;0.001714;-0.014237;0.032140;0.003154;0.032354;-0.014450;86.127197;0.032415;
1166;1172;-3.624566;59.694578;0.997731;0.012746;-0.098888;0.295158;0.004185;0.295203;-0.098932;89.391510;0.300504;
1061;1402;1.007779;83.121109;0.999966;0.002073;-0.014559;0.032254;-0.004525;0.032687;-0.014993;-84.528804;0.032724;
1231;1382;-1.684447;82.388677;0.999937;0.002435;-0.017587;0.038679;0.007017;0.039541;-0.018449;82.997087;0.039570;
1201;1392;-1.062256;82.777574;0.999944;0.001671;-0.015801;0.035143;0.004394;0.035519;-0.016177;85.106768;0.035566;
1201;1432;-0.724068;83.930873;0.999967;0.001960;-0.010882;0.024633;0.003415;0.024958;-0.011207;84.557675;0.025002;
1071;1422;0.711566;83.700417;0.999951;0.002083;-0.011875;0.026812;-0.003397;0.027108;-0.012171;-85.019670;0.027155;
1061;1382;1.201286;82.436560;0.999938;0.002514;-0.017490;0.038711;-0.005143;0.039177;-0.017957;-84.814533;0.039223;
1191;1432;-0.614125;83.934748;0.999975;0.001752;-0.010755;0.024571;0.002854;0.024800;-0.010984;85.411381;0.024853;
1036;1407;1.313448;83.282853;0.999964;0.002304;-0.014117;0.030760;-0.005996;0.031547;-0.014904;-82.518922;0.031563;
1236;1382;-1.775480;82.387286;0.999929;0.002170;-0.017644;0.038646;0.007425;0.039609;-0.018606;82.610993;0.039633;
1206;1397;-1.090250;82.935445;0.999952;0.002363;-0.015162;0.033682;0.004636;0.034118;-0.015598;84.625810;0.034160;
1056;1387;1.231587;82.623747;0.999952;0.002206;-0.016825;0.037030;-0.005352;0.037557;-0.017352;-84.379233;0.037593;
1071;1417;0.746235;83.564570;0.999964;0.002031;-0.012461;0.028058;-0.003533;0.028363;-0.012767;-85.054483;0.028410;
1171;1172;-4.164422;59.625695;0.997802;0.012942;-0.098723;0.293433;0.004888;0.293494;-0.098784;89.285925;0.298674;
1031;1402;1.448940;83.114095;0.999948;0.001994;-0.014802;0.032134;-0.006514;0.033021;-0.015689;-82.243744;0.033034;
1206;1407;-0.992546;83.242666;0.999957;0.002607;-0.013809;0.030915;0.004388;0.031341;-0.014235;84.449325;0.031385;
1171;1422;-0.447473;83.685835;0.999952;0.001893;-0.011622;0.026717;0.001902;0.026811;-0.011716;87.166354;0.026882;
1186;1407;-0.720078;83.259651;0.999955;0.002040;-0.013598;0.030830;0.003081;0.031043;-0.013810;86.051240;0.031105;
1066;1412;0.847567;83.428078;0.999956;0.002248;-0.013124;0.029369;-0.003955;0.029734;-0.013489;-84.727919;0.029777;
1091;1387;0.659022;82.634430;0.999939;0.002216;-0.016205;0.036467;-0.002790;0.036615;-0.016352;-86.976445;0.036684;
1066;1407;0.889794;83.279932;0.999949;0.002144;-0.013776;0.030746;-0.004075;0.031116;-0.014146;-84.813932;0.031159;
1086;1382;0.772959;82.440589;0.999923;0.002224;-0.017045;0.038239;-0.003223;0.038426;-0.017232;-86.674811;0.038494;
1211;1177;-8.015133;59.873092;0.997111;0.015194;-0.096920;0.271205;0.012027;0.271597;-0.097313;88.130755;0.275209;
1036;1372;1.809614;82.020300;0.999928;0.002304;-0.019305;0.042060;-0.007505;0.042965;-0.020209;-83.127375;0.042990;
1211;1397;-1.162857;82.932250;0.999946;0.002294;-0.015225;0.033756;0.004995;0.034260;-0.015729;84.235751;0.034298;
1096;1387;0.580145;82.632860;0.999940;0.002358;-0.016123;0.036416;-0.002464;0.036531;-0.016238;-87.321030;0.036606;
1031;1407;1.387786;83.278644;0.999955;0.002041;-0.014136;0.030676;-0.006316;0.031549;-0.015010;-82.128688;0.031562;
1211;1407;-1.064011;83.241312;0.999961;0.002175;-0.013859;0.030943;0.004732;0.031437;-0.014353;84.035944;0.031477;
1176;1422;-0.504081;83.683238;0.999955;0.001844;-0.011654;0.026763;0.002184;0.026887;-0.011778;86.756952;0.026955;
1191;1397;-0.866677;82.945394;0.999961;0.001532;-0.014945;0.033516;0.003587;0.033780;-0.015209;85.789956;0.033836;
1091;1392;0.632855;82.802428;0.999945;0.002038;-0.015469;0.034866;-0.002738;0.035014;-0.015618;-86.895959;0.035082;
1071;1377;1.083500;82.240189;0.999916;0.002856;-0.018083;0.040335;-0.004540;0.040685;-0.018434;-85.582562;0.040745;
1051;1377;1.451217;82.231855;0.999945;0.002121;-0.018393;0.040460;-0.006078;0.041082;-0.019014;-84.164918;0.041119;
1106;1437;0.265103;84.063236;0.999961;0.001380;-0.010156;0.023318;-0.001293;0.023368;-0.010206;-87.791204;0.023430;
1216;1397;-1.242574;82.931799;0.999940;0.002162;-0.015259;0.033735;0.005371;0.034316;-0.015841;83.817036;0.034350;
1096;1392;0.554442;82.799505;0.999952;0.002085;-0.015396;0.034833;-0.002413;0.034948;-0.015512;-87.255796;0.035022;
1216;1372;-1.550398;82.011207;0.999933;0.003179;-0.019023;0.042163;0.006161;0.042777;-0.019637;84.306378;0.042825;
1071;1182;5.983898;61.552523;0.997702;0.011306;-0.097086;0.277752;-0.009548;0.277995;-0.097329;-88.541809;0.282128;
1201;1407;-0.924531;83.243738;0.999959;0.001689;-0.013765;0.030886;0.004050;0.031251;-0.014130;84.858463;0.031299;
1216;1407;-1.137695;83.241467;0.999962;0.002164;-0.013896;0.030923;0.005078;0.031492;-0.014464;83.616227;0.031526;
1206;1402;-1.040568;83.090900;0.999954;0.002760;-0.014471;0.032283;0.004508;0.032714;-0.014902;84.542980;0.032757;
1196;1397;-0.941422;82.943615;0.999966;0.001328;-0.015030;0.033559;0.003928;0.033875;-0.015346;85.407818;0.033925;
1031;1417;1.259705;83.558427;0.999965;0.001529;-0.012837;0.028044;-0.005929;0.028887;-0.013679;-81.911656;0.028900;
1076;1382;0.944952;82.439835;0.999934;0.002405;-0.017214;0.038435;-0.003996;0.038720;-0.017500;-85.913255;0.038780;
1211;1392;-1.215542;82.769372;0.999936;0.002387;-0.015924;0.035294;0.005152;0.035807;-0.016437;84.312485;0.035847;
1056;1377;1.358867;82.232716;0.999942;0.002546;-0.018320;0.040511;-0.005734;0.041065;-0.018874;-84.484860;0.041109;
1221;1372;-1.651755;82.005921;0.999932;0.002863;-0.019066;0.042177;0.006553;0.042871;-0.019759;83.959995;0.042914;
1176;1412;-0.554379;83.412324;0.999947;0.001997;-0.012871;0.029487;0.002382;0.029621;-0.013005;86.791305;0.029694;
1076;1412;0.717177;83.430725;0.999960;0.001631;-0.013011;0.029274;-0.003351;0.029538;-0.013275;-85.496663;0.029588;
1231;1392;-1.535679;82.756738;0.999928;0.002262;-0.016047;0.035385;0.006656;0.036232;-0.016895;82.744516;0.036260;
1116;1152;2.038147;53.670378;0.997073;0.017401;-0.112982;0.376968;-0.001480;0.376972;-0.112987;-89.826975;0.386921;
1221;1407;-1.203263;83.244333;0.999958;0.001703;-0.013925;0.030897;0.005376;0.031533;-0.014561;83.255346;0.031564;
1026;1397;1.590744;82.948985;0.999480;0.006854;-0.015533;0.033811;-0.007060;0.034801;-0.016523;-82.015546;0.034816;
1076;1432;0.594098;83.951903;0.999956;0.001656;-0.010716;0.024361;-0.002889;0.024598;-0.010952;-85.322671;0.024647;
1201;1397;-1.014206;82.943063;0.999952;0.001813;-0.015106;0.033610;0.004275;0.033982;-0.015478;85.023208;0.034027;
1226;1372;-1.747507;82.002681;0.999927;0.002502;-0.019096;0.042170;0.006953;0.042949;-0.019875;83.606246;0.042989;
1061;1377;1.263901;82.233810;0.999940;0.002168;-0.018267;0.040513;-0.005319;0.040990;-0.018745;-84.871256;0.041040;
1201;1377;-1.209666;82.219231;0.999923;0.002350;-0.017998;0.040272;0.004778;0.040661;-0.018387;85.343065;0.040723;
1216;1392;-1.296837;82.762199;0.999937;0.002099;-0.015968;0.035291;0.005533;0.035882;-0.016558;83.908994;0.035917;
1201;1387;-1.114830;82.591787;0.999944;0.001752;-0.016500;0.036776;0.004520;0.037157;-0.016881;85.184848;0.037208;
1076;1417;0.684351;83.562927;0.999963;0.001814;-0.012412;0.028025;-0.003241;0.028283;-0.012670;-85.447095;0.028334;
1071;1387;0.984893;82.625571;0.999935;0.002533;-0.016549;0.036799;-0.004248;0.037135;-0.016885;-85.476120;0.037185;
1116;1157;1.968892;55.257104;0.997243;0.018398;-0.110282;0.361266;-0.001777;0.361273;-0.110289;-89.784038;0.370293;
1236;1397;-1.551038;82.917844;0.999941;0.002453;-0.015350;0.033601;0.006745;0.034513;-0.016262;82.296535;0.034532;
1226;1407;-1.270603;83.243333;0.999960;0.001936;-0.013939;0.030898;0.005694;0.031610;-0.014650;82.874600;0.031638;
1086;1412;0.588085;83.429071;0.999962;0.001986;-0.012892;0.029197;-0.002740;0.029374;-0.013070;-86.291363;0.029434;
1186;1397;-0.793925;82.948535;0.999953;0.001674;-0.014882;0.033488;0.003242;0.033704;-0.015099;86.182116;0.033765;
1031;1422;1.201889;83.690483;0.999966;0.001436;-0.012239;0.026847;-0.005706;0.027663;-0.013055;-81.861606;0.027677;
1051;1367;1.579995;81.829511;0.999922;0.002543;-0.019973;0.044279;-0.006559;0.044942;-0.020636;-84.230556;0.044992;
1066;1377;1.174922;82.234901;0.999925;0.002390;-0.018167;0.040429;-0.004941;0.040842;-0.018581;-85.213705;0.040898;
1206;1377;-1.302026;82.216428;0.999932;0.002551;-0.018062;0.040348;0.005196;0.040807;-0.018521;84.955655;0.040864;
1241;1397;-1.629103;82.910680;0.999955;0.002573;-0.015327;0.033408;0.007115;0.034425;-0.016345;81.861331;0.034440;
1071;1402;0.859453;83.123872;0.999957;0.001751;-0.014394;0.032140;-0.003890;0.032463;-0.014717;-85.254212;0.032511;
1116;1162;1.898410;56.822096;0.997218;0.015545;-0.107234;0.343916;-0.001812;0.343923;-0.107242;-89.769882;0.351949;
1181;1382;-0.816007;82.422409;0.999907;0.002924;-0.016972;0.038327;0.003129;0.038504;-0.017148;86.772211;0.038580;
1156;1172;-2.602191;59.742297;0.996544;0.014912;-0.099584;0.298567;0.003010;0.298590;-0.099607;89.566913;0.304052;
1136;1172;-0.474409;59.877811;0.996949;0.014298;-0.100195;0.304831;0.000425;0.304831;-0.100195;89.939904;0.310738;
1131;1172;0.053361;59.831403;0.997187;0.012984;-0.100314;0.306177;-0.000214;0.306178;-0.100315;-89.969809;0.312183;
1216;1427;-0.934176;83.798249;0.999963;0.001557;-0.011535;0.025853;0.004432;0.026371;-0.012053;83.331914;0.026403;
1056;1367;1.478691;81.829013;0.999929;0.002301;-0.019932;0.044245;-0.006136;0.044827;-0.020513;-84.587529;0.044880;
1046;1372;1.612481;82.027542;0.999936;0.002247;-0.019216;0.042267;-0.006717;0.042993;-0.019942;-83.836941;0.043030;
1211;1377;-1.393921;82.213736;0.999931;0.002978;-0.018150;0.040421;0.005601;0.040952;-0.018681;84.586413;0.041004;
1176;1417;-0.528378;83.551395;0.999956;0.001994;-0.012248;0.028103;0.002288;0.028232;-0.012377;86.765265;0.028304;
1186;1382;-0.904636;82.414998;0.999914;0.002839;-0.017012;0.038358;0.003515;0.038581;-0.017234;86.381819;0.038654;
1076;1402;0.787512;83.127894;0.999951;0.002127;-0.014317;0.032098;-0.003562;0.032370;-0.014589;-85.637291;0.032422;
1226;1392;-1.455254;82.759125;0.999939;0.001960;-0.016019;0.035380;0.006267;0.036133;-0.016772;83.147415;0.036164;
1131;1182;0.026852;62.348750;0.996809;0.015704;-0.092630;0.268531;-0.000147;0.268531;-0.092630;-89.976749;0.272801;
1181;1172;-5.214145;59.436022;0.997415;0.012573;-0.098486;0.290200;0.006286;0.290302;-0.098588;89.073780;0.295239;
1136;1177;-0.474775;61.144383;0.997115;0.014397;-0.096351;0.285779;0.000504;0.285779;-0.096352;89.924422;0.290788;
1131;1177;0.034272;61.137833;0.997203;0.015558;-0.096524;0.287144;-0.000226;0.287144;-0.096525;-89.966290;0.292238;
1071;1427;0.678448;83.832162;0.999948;0.001849;-0.011298;0.025543;-0.003263;0.025830;-0.011585;-84.977900;0.025876;
1046;1377;1.544734;82.232518;0.999931;0.002171;-0.018433;0.040450;-0.006478;0.041154;-0.019137;-83.795593;0.041188;
1061;1367;1.376338;81.834005;0.999931;0.002708;-0.019896;0.044265;-0.005693;0.044767;-0.020397;-84.968793;0.044825;
1166;1397;-0.500644;82.969189;0.999907;0.002498;-0.014685;0.033446;0.001905;0.033521;-0.014761;87.737069;0.033601;
1081;1407;0.683345;83.287564;0.999956;0.002201;-0.013565;0.030607;-0.003132;0.030828;-0.013786;-85.963987;0.030885;
1191;1382;-0.987758;82.411094;0.999929;0.002173;-0.017065;0.038391;0.003877;0.038660;-0.017334;86.020107;0.038729;
1176;1397;-0.651198;82.964206;0.999916;0.002097;-0.014775;0.033447;0.002552;0.033581;-0.014910;86.979112;0.033651;
1126;1167;0.646729;58.370786;0.996618;0.012221;-0.103878;0.325569;-0.000550;0.325570;-0.103879;-89.926565;0.332599;
1166;1167;-3.750724;58.358352;0.997371;0.012754;-0.102510;0.313133;0.004102;0.313173;-0.102550;89.434614;0.319329;
1126;1172;0.576446;59.790033;0.996923;0.011867;-0.100226;0.307147;-0.000876;0.307149;-0.100228;-89.876753;0.313265;
1141;1172;-0.998460;59.881139;0.996932;0.013128;-0.100002;0.303278;0.001062;0.303281;-0.100004;89.849141;0.309087;
1046;1367;1.679910;81.828658;0.999903;0.002880;-0.020024;0.044287;-0.006995;0.045039;-0.020776;-83.863665;0.045083;
1051;1372;1.515855;82.030323;0.999943;0.002468;-0.019174;0.042287;-0.006302;0.042927;-0.019814;-84.205195;0.042969;
1211;1152;-9.464806;53.238525;0.997250;0.014797;-0.112016;0.334088;0.008656;0.334256;-0.112184;88.888835;0.340223;
1061;1162;8.246805;55.876952;0.996424;0.015828;-0.109936;0.334151;-0.009799;0.334367;-0.110152;-88.736557;0.340791;
1171;1397;-0.573874;82.967349;0.999910;0.002498;-0.014717;0.033446;0.002218;0.033548;-0.014819;87.369242;0.033624;
1086;1407;0.616037;83.288373;0.999966;0.002092;-0.013503;0.030570;-0.002822;0.030750;-0.013683;-86.350688;0.030812;
1171;1167;-4.288409;58.292324;0.996838;0.014318;-0.102360;0.310891;0.004774;0.310946;-0.102415;89.338216;0.316925;
1091;1382;0.692374;82.443022;0.999929;0.002147;-0.016977;0.038158;-0.002862;0.038307;-0.017125;-87.036947;0.038378;
1126;1162;0.749221;56.908717;0.996753;0.013472;-0.107293;0.343693;-0.000404;0.343693;-0.107293;-89.948692;0.351683;
1216;1152;-10.068795;53.134163;0.997155;0.012537;-0.111987;0.330022;0.009745;0.330236;-0.112202;88.737658;0.335842;
1076;1397;0.825700;82.962484;0.999941;0.002120;-0.015014;0.033569;-0.003671;0.033845;-0.015290;-85.702942;0.033897;
1061;1167;7.940567;57.255766;0.997171;0.013908;-0.107049;0.320006;-0.010371;0.320258;-0.107301;-88.609615;0.326015;
1056;1372;1.419332;82.033622;0.999945;0.002391;-0.019116;0.042328;-0.005932;0.042895;-0.019684;-84.535952;0.042944;
1146;1172;-1.526513;59.842147;0.996629;0.014497;-0.099865;0.301753;0.001719;0.301760;-0.099873;89.754810;0.307455;
1181;1167;-5.413696;58.141845;0.996630;0.013111;-0.102032;0.306508;0.006060;0.306598;-0.102121;89.150407;0.312241;
1176;1402;-0.619039;83.118161;0.999931;0.001923;-0.014134;0.032098;0.002486;0.032231;-0.014267;86.931136;0.032302;
1231;1372;-1.842977;81.996661;0.999918;0.002051;-0.019187;0.042125;0.007362;0.042997;-0.020058;83.248259;0.043029;
1091;1407;0.551586;83.286882;0.999961;0.001714;-0.013459;0.030538;-0.002522;0.030682;-0.013603;-86.730528;0.030748;
1231;1387;-1.608256;82.579880;0.999941;0.002815;-0.016789;0.036980;0.006857;0.037841;-0.017650;82.845931;0.037869;
1176;1167;-4.879817;58.223722;0.996757;0.014567;-0.102237;0.308630;0.005450;0.308703;-0.102310;89.240222;0.314497;
1221;1152;-10.681882;53.032579;0.997082;0.013644;-0.111729;0.325932;0.010875;0.326202;-0.111999;88.577438;0.331496;
1131;1167;0.110604;58.448914;0.996902;0.013724;-0.104006;0.324756;0.000024;0.324756;-0.104006;89.996798;0.331676;
1031;1387;1.660312;82.610990;0.999951;0.002288;-0.017093;0.037151;-0.007141;0.038076;-0.018017;-82.624897;0.038094;
1061;1172;7.638959;58.594455;0.997155;0.013013;-0.103997;0.305873;-0.011064;0.306171;-0.104295;-88.454858;0.311311;
1061;1372;1.324340;82.038389;0.999942;0.002201;-0.019079;0.042347;-0.005496;0.042835;-0.019567;-84.927518;0.042888;
1186;1167;-5.946913;58.046183;0.996487;0.013923;-0.102133;0.304497;0.006538;0.304602;-0.102238;89.079085;0.310039;
1126;1177;0.540161;61.160658;0.997283;0.014144;-0.096458;0.288179;-0.001013;0.288181;-0.096461;-89.849119;0.293382;
1096;1382;0.607438;82.446218;0.999924;0.002451;-0.016897;0.038086;-0.002521;0.038201;-0.017012;-87.380296;0.038277;
1081;1382;0.860158;82.443197;0.999921;0.002135;-0.017136;0.038339;-0.003603;0.038572;-0.017369;-86.299837;0.038636;
1091;1412;0.523348;83.429711;0.999960;0.002167;-0.012857;0.029169;-0.002447;0.029311;-0.012999;-86.678977;0.029374;
1236;1387;-1.692451;82.576314;0.999936;0.002445;-0.016809;0.036938;0.007256;0.037901;-0.017771;82.445479;0.037925;
1031;1392;1.590260;82.782447;0.999952;0.002166;-0.016278;0.035524;-0.006922;0.036433;-0.017187;-82.518829;0.036453;
1176;1172;-4.706561;59.529096;0.997645;0.011836;-0.098618;0.291747;0.005606;0.291827;-0.098698;89.177457;0.296876;
1201;1152;-8.256848;53.452884;0.997428;0.011710;-0.111722;0.341958;0.006746;0.342058;-0.111823;89.148320;0.348823;
1206;1157;-8.637088;54.843900;0.997596;0.012551;-0.109078;0.323798;0.008873;0.323980;-0.109260;88.826237;0.329652;
1121;1167;1.208122;58.354198;0.997211;0.014645;-0.103945;0.326023;-0.001155;0.326026;-0.103948;-89.846082;0.333083;
1241;1387;-1.782795;82.575036;0.999868;0.002966;-0.016836;0.036809;0.007681;0.037887;-0.017914;82.009895;0.037906;
1206;1172;-7.818996;58.803750;0.997461;0.013026;-0.099634;0.284355;0.010214;0.284626;-0.099906;88.477361;0.288808;
1066;1372;1.227302;82.038447;0.999923;0.002292;-0.018981;0.042255;-0.005106;0.042678;-0.019404;-85.266433;0.042736;
1126;1182;0.508037;62.341273;0.996901;0.016009;-0.092577;0.269551;-0.000951;0.269554;-0.092580;-89.849570;0.273922;
1206;1382;-1.248786;82.401673;0.999935;0.002236;-0.017275;0.038539;0.005054;0.038993;-0.017729;84.867345;0.039046;
1211;1372;-1.454181;82.018726;0.999937;0.003323;-0.018943;0.042199;0.005810;0.042746;-0.019490;84.619184;0.042801;
1091;1417;0.501541;83.563015;0.999955;0.002273;-0.012278;0.027944;-0.002369;0.028083;-0.012417;-86.640717;0.028146;
1211;1157;-9.219213;54.737898;0.997915;0.011988;-0.109199;0.320606;0.009943;0.320836;-0.109429;88.675457;0.326194;
1091;1397;0.603367;82.962745;0.999948;0.002069;-0.014768;0.033408;-0.002682;0.033557;-0.014917;-86.823831;0.033626;
1161;1167;-3.211282;58.361439;0.996984;0.014331;-0.102839;0.315214;0.003467;0.315243;-0.102868;89.524836;0.321520;
1191;1157;-6.861577;55.106209;0.996592;0.020520;-0.108771;0.333599;0.006107;0.333683;-0.108856;89.209165;0.340335;
1211;1172;-8.347325;58.645623;0.997885;0.012697;-0.099925;0.283427;0.011263;0.283758;-0.100256;88.318540;0.287799;
1226;1382;-1.595663;82.391417;0.999939;0.002208;-0.017499;0.038666;0.006611;0.039434;-0.018267;83.376934;0.039470;
1231;1377;-1.763655;82.188403;0.999926;0.002167;-0.018403;0.040589;0.007110;0.041434;-0.019248;83.223292;0.041468;
1121;1152;1.460268;53.730979;0.996862;0.012612;-0.113100;0.377252;-0.000846;0.377254;-0.113101;-89.901168;0.387203;
1051;1177;8.423820;59.738491;0.996613;0.016844;-0.101177;0.292294;-0.014250;0.292809;-0.101692;-87.928625;0.297326;
1066;1167;7.384759;57.359277;0.997258;0.013864;-0.106829;0.320861;-0.009466;0.321071;-0.107038;-88.732683;0.326959;
1081;1427;0.568545;83.831785;0.999938;0.001761;-0.011203;0.025544;-0.002726;0.025745;-0.011404;-85.780543;0.025800;
1211;1382;-1.334761;82.400964;0.999935;0.002530;-0.017361;0.038592;0.005463;0.039120;-0.017889;84.475179;0.039168;
1066;1177;6.810284;60.164878;0.996607;0.015243;-0.100597;0.291912;-0.010513;0.292194;-0.100878;-88.466851;0.296822;
1091;1422;0.476948;83.700887;0.999948;0.002101;-0.011720;0.026754;-0.002278;0.026889;-0.011855;-86.623141;0.026951;
1191;1162;-6.695439;56.591212;0.996641;0.017765;-0.105604;0.317850;0.006752;0.317958;-0.105712;89.086778;0.323852;
1061;1432;0.751316;83.956968;0.999975;0.001447;-0.010856;0.024344;-0.003686;0.024726;-0.011238;-84.085940;0.024760;
1076;1422;0.652956;83.699792;0.999946;0.002163;-0.011827;0.026801;-0.003117;0.027051;-0.012077;-85.415637;0.027103;
1096;1397;0.531806;82.963255;0.999951;0.002164;-0.014710;0.033379;-0.002360;0.033494;-0.014826;-87.197394;0.033568;
1031;1372;1.905561;82.017536;0.999922;0.002132;-0.019293;0.041799;-0.007897;0.042804;-0.020297;-82.752465;0.042823;
1076;1392;0.862644;82.800886;0.999932;0.002001;-0.015731;0.035072;-0.003770;0.035350;-0.016009;-85.779300;0.035402;
1206;1162;-8.393289;56.233658;0.997705;0.012332;-0.105955;0.310290;0.009538;0.310509;-0.106173;88.688009;0.315638;
1026;1402;1.524973;83.111564;0.999885;0.003289;-0.014797;0.031969;-0.006842;0.032950;-0.015778;-81.844978;0.032959;
1066;1172;7.127918;58.754169;0.997073;0.014876;-0.103769;0.306158;-0.010077;0.306406;-0.104016;-88.592604;0.311625;
1236;1407;-1.409905;83.245323;0.999941;0.001928;-0.013971;0.030809;0.006362;0.031695;-0.014857;82.068388;0.031716;
1066;1182;6.521684;61.407277;0.997170;0.014058;-0.097294;0.278264;-0.010660;0.278566;-0.097596;-88.375483;0.282695;
1216;1382;-1.419997;82.396664;0.999934;0.002750;-0.017429;0.038588;0.005834;0.039189;-0.018030;84.116615;0.039231;
1091;1427;0.454801;83.831460;0.999943;0.001929;-0.011172;0.025547;-0.002188;0.025676;-0.011302;-86.601406;0.025738;
1191;1167;-6.492948;57.952705;0.996655;0.014547;-0.102237;0.302546;0.007037;0.302668;-0.102359;89.004403;0.307906;
1166;1407;-0.453261;83.276681;0.999937;0.002113;-0.013423;0.030734;0.001816;0.030808;-0.013497;87.649238;0.030887;
1116;1447;0.143327;84.293134;0.999972;0.001167;-0.009177;0.021119;-0.000738;0.021137;-0.009195;-88.604493;0.021197;
1186;1157;-6.268942;55.157141;0.996642;0.017264;-0.108724;0.336774;0.005590;0.336844;-0.108794;89.281253;0.343809;
1026;1407;1.453170;83.280456;0.999943;0.001798;-0.014130;0.030504;-0.006643;0.031472;-0.015098;-81.711759;0.031480;
1211;1162;-8.960631;56.109205;0.998040;0.010865;-0.106057;0.307950;0.010559;0.308219;-0.106326;88.539957;0.313119;
1201;1382;-1.165025;82.405922;0.999922;0.002230;-0.017217;0.038480;0.004637;0.038864;-0.017600;85.273301;0.038921;
1186;1172;-5.730406;59.335566;0.996738;0.013657;-0.098674;0.288822;0.006818;0.288942;-0.098794;88.992239;0.293716;
1216;1177;-8.529424;59.708488;0.996776;0.015163;-0.097059;0.270860;0.013049;0.271323;-0.097521;87.971316;0.274874;
1156;1412;-0.301784;83.437970;0.999955;0.002048;-0.012758;0.029329;0.001217;0.029364;-0.012793;88.345142;0.029445;
1216;1387;-1.358696;82.581755;0.999947;0.002368;-0.016681;0.036899;0.005695;0.037497;-0.017280;83.999016;0.037536;
1076;1427;0.624343;83.831949;0.999942;0.001760;-0.011255;0.025548;-0.002998;0.025791;-0.011498;-85.373920;0.025841;
1171;1407;-0.520860;83.269714;0.999941;0.002218;-0.013457;0.030766;0.002125;0.030868;-0.013559;87.254681;0.030943;
1191;1152;-7.054701;53.607477;0.997023;0.018637;-0.111706;0.349599;0.005207;0.349658;-0.111765;89.353392;0.357160;
1226;1447;-0.854679;84.261625;0.999973;0.001644;-0.009447;0.021215;0.004248;0.021793;-0.010025;82.255650;0.021816;
1156;1162;-2.787358;57.033231;0.996265;0.015780;-0.106645;0.335673;0.002720;0.335690;-0.106662;89.647661;0.343044;
1216;1162;-9.509904;55.983724;0.997646;0.012536;-0.106001;0.305676;0.011539;0.305999;-0.106324;88.395778;0.310709;
1176;1162;-5.017293;56.737140;0.996508;0.014007;-0.105682;0.325725;0.005115;0.325785;-0.105743;89.320746;0.332402;
1221;1177;-9.059790;59.541973;0.996890;0.015644;-0.097079;0.270522;0.014140;0.271065;-0.097622;87.800373;0.274577;
1086;1392;0.706717;82.801530;0.999941;0.002043;-0.015544;0.034916;-0.003067;0.035101;-0.015729;-86.534039;0.035164;
1191;1172;-6.243800;59.197963;0.996532;0.015042;-0.098889;0.287583;0.007338;0.287722;-0.099028;88.912605;0.292342;
1161;1412;-0.365407;83.429562;0.999954;0.001683;-0.012785;0.029374;0.001487;0.029427;-0.012837;87.982354;0.029506;
1226;1402;-1.333062;83.085124;0.999948;0.002189;-0.014613;0.032251;0.005863;0.032973;-0.015335;82.976329;0.033000;
1236;1437;-1.050554;84.038304;0.999973;0.001192;-0.010445;0.023182;0.005120;0.023945;-0.011207;81.531205;0.023961;
1101;1382;0.526139;82.447273;0.999919;0.002990;-0.016808;0.038018;-0.002175;0.038104;-0.016894;-87.731532;0.038185;
1176;1407;-0.583362;83.266681;0.999937;0.002099;-0.013503;0.030795;0.002446;0.030929;-0.013638;86.849123;0.031001;
1196;1152;-7.669687;53.507347;0.997419;0.013171;-0.111780;0.345817;0.005735;0.345889;-0.111852;89.282099;0.353010;
1131;1162;0.182132;56.936800;0.997325;0.014526;-0.107470;0.343113;0.000155;0.343113;-0.107470;89.980290;0.351003;
1216;1142;-10.512942;50.243658;0.995311;0.014933;-0.116848;0.358009;0.007102;0.358115;-0.116955;89.143316;0.365224;
1066;1367;1.279397;81.837301;0.999922;0.002322;-0.019798;0.044186;-0.005288;0.044620;-0.020232;-85.307446;0.044684;
1146;1157;-1.598878;55.478294;0.995639;0.016788;-0.110226;0.357383;0.001620;0.357388;-0.110231;89.801502;0.366027;
1196;1172;-6.757286;59.063280;0.996933;0.014054;-0.099209;0.286535;0.008028;0.286702;-0.099376;88.808205;0.291164;
1231;1402;-1.405471;83.084936;0.999940;0.002178;-0.014631;0.032209;0.006206;0.033018;-0.015439;82.579259;0.033041;
1241;1437;-1.101465;84.039324;0.999973;0.001386;-0.010438;0.023029;0.005371;0.023870;-0.011278;81.102918;0.023882;
1191;1407;-0.789147;83.255068;0.999962;0.001792;-0.013644;0.030841;0.003406;0.031100;-0.013903;85.647604;0.031158;
1106;1382;0.437643;82.449441;0.999901;0.002867;-0.016744;0.037968;-0.001824;0.038029;-0.016804;-88.092862;0.038114;
1221;1167;-9.766751;57.095944;0.997501;0.013745;-0.102728;0.292140;0.012923;0.292563;-0.103150;88.127556;0.296772;
1171;1157;-4.589175;55.377368;0.996754;0.014946;-0.108922;0.345924;0.004005;0.345959;-0.108958;89.495555;0.353769;
1221;1142;-11.139972;50.161402;0.995783;0.012811;-0.116697;0.352859;0.008224;0.353003;-0.116841;88.996961;0.359662;
1061;1387;1.150454;82.628104;0.999946;0.002317;-0.016734;0.036971;-0.004981;0.037429;-0.017192;-84.745778;0.037471;
1041;1377;1.635235;82.231236;0.999937;0.002387;-0.018499;0.040401;-0.006856;0.041189;-0.019286;-83.447432;0.041216;
1136;1162;-0.396994;57.036866;0.997143;0.015430;-0.107431;0.342109;0.000636;0.342109;-0.107432;89.918986;0.349909;
1146;1162;-1.601196;57.110516;0.996415;0.018204;-0.107071;0.339355;0.001660;0.339361;-0.107077;89.786987;0.346974;
1246;1437;-1.158557;84.037848;0.999973;0.001544;-0.010424;0.022791;0.005593;0.023707;-0.011341;80.693516;0.023715;
1151;1172;-2.061582;59.797197;0.996562;0.015880;-0.099803;0.300220;0.002360;0.300233;-0.099817;89.662054;0.305800;
1186;1387;-0.866530;82.597798;0.999941;0.002442;-0.016270;0.036648;0.003418;0.036868;-0.016490;86.320068;0.036936;
1196;1407;-0.855574;83.248012;0.999966;0.001441;-0.013703;0.030865;0.003728;0.031174;-0.014013;85.250941;0.031227;
1221;1172;-9.418638;58.294960;0.997552;0.013700;-0.099945;0.281589;0.013373;0.282058;-0.100413;87.995100;0.285930;
1241;1407;-1.482709;83.241257;0.999953;0.001734;-0.013966;0.030686;0.006702;0.031671;-0.014950;81.645536;0.031687;
1061;1182;7.023221;61.311559;0.996747;0.014712;-0.097526;0.278714;-0.011727;0.279079;-0.097891;-88.216397;0.283193;
1061;1157;8.558405;54.454542;0.996231;0.014771;-0.112525;0.347115;-0.009237;0.347300;-0.112711;-88.849222;0.354357;
1086;1387;0.739417;82.629370;0.999933;0.002192;-0.016279;0.036531;-0.003135;0.036716;-0.016464;-86.614860;0.036781;
1141;1162;-1.012084;57.101579;0.996811;0.017275;-0.107276;0.340834;0.001140;0.340836;-0.107279;89.854279;0.348547;
1161;1397;-0.423175;82.968322;0.999907;0.001945;-0.014673;0.033442;0.001603;0.033496;-0.014726;88.093683;0.033577;
1201;1142;-8.654447;50.421753;0.996039;0.018056;-0.116701;0.371421;0.004581;0.371464;-0.116744;89.462389;0.379910;
1231;1437;-0.998414;84.043492;0.999967;0.001709;-0.010440;0.023280;0.004860;0.023967;-0.011126;81.959447;0.023987;
1221;1162;-10.092455;55.823230;0.997202;0.015624;-0.105736;0.303484;0.012596;0.303872;-0.106124;88.238683;0.308442;
1191;1387;-0.949442;82.596060;0.999951;0.001811;-0.016334;0.036683;0.003776;0.036950;-0.016602;85.946576;0.037013;
1046;1382;1.474406;82.432108;0.999932;0.002201;-0.017696;0.038800;-0.006241;0.039481;-0.018378;-83.770546;0.039512;
1101;1147;3.976275;51.820875;0.995981;0.018616;-0.115111;0.386718;-0.002724;0.386733;-0.115126;-89.688964;0.397146;
1061;1392;1.104047;82.798069;0.999946;0.002157;-0.015991;0.035318;-0.004835;0.035770;-0.016442;-84.663715;0.035808;
1031;1377;1.822822;82.219126;0.999938;0.002173;-0.018531;0.040101;-0.007576;0.041064;-0.019494;-82.754763;0.041081;
1196;1147;-7.868733;52.043230;0.996573;0.016890;-0.114396;0.361042;0.004744;0.361089;-0.114443;89.428373;0.369068;
1236;1377;-1.857783;82.186915;0.999898;0.002230;-0.018449;0.040604;0.007483;0.041538;-0.019382;82.889335;0.041568;
1141;1147;-0.998919;52.133750;0.996833;0.014092;-0.115560;0.390283;0.001212;0.390286;-0.115563;89.862716;0.400958;
1021;1437;1.134173;84.066186;0.999973;0.001418;-0.010493;0.022657;-0.005610;0.023581;-0.011417;-80.650734;0.023585;
1141;1167;-1.024791;58.550525;0.996780;0.015906;-0.103738;0.322154;0.001081;0.322156;-0.103740;89.854584;0.328890;
1206;1142;-9.259754;50.335733;0.996171;0.017635;-0.116834;0.367285;0.005273;0.367342;-0.116892;89.376057;0.375348;
1201;1162;-7.841466;56.359635;0.997461;0.013002;-0.105721;0.312748;0.008516;0.312921;-0.105895;88.834640;0.318322;
1241;1417;-1.346571;83.525404;0.999954;0.001983;-0.012709;0.028258;0.006263;0.029194;-0.013645;81.498907;0.029215;
1036;1377;1.727663;82.219791;0.999936;0.002418;-0.018525;0.040299;-0.007219;0.041172;-0.019398;-83.104527;0.041195;
1051;1382;1.382987;82.434768;0.999937;0.002150;-0.017652;0.038761;-0.005856;0.039363;-0.018253;-84.136062;0.039397;
1196;1142;-8.038520;50.475865;0.995851;0.016686;-0.116761;0.375457;0.003900;0.375488;-0.116791;89.546041;0.384322;
1106;1147;3.346647;51.906417;0.996662;0.017703;-0.115039;0.388175;-0.002251;0.388185;-0.115049;-89.743653;0.398770;
1201;1147;-8.470021;51.932184;0.996692;0.014994;-0.114329;0.356987;0.005597;0.357053;-0.114395;89.319677;0.364652;
1026;1437;1.080289;84.069671;0.999968;0.001677;-0.010481;0.022862;-0.005353;0.023700;-0.011319;-81.098631;0.023708;
1146;1147;-1.614633;52.147726;0.996293;0.018921;-0.115378;0.389287;0.001515;0.389291;-0.115382;89.828025;0.399906;
1071;1382;1.029916;82.435468;0.999928;0.002532;-0.017302;0.038534;-0.004386;0.038877;-0.017645;-85.535552;0.038932;
1211;1142;-9.896646;50.264894;0.995476;0.019858;-0.116884;0.362862;0.006129;0.362941;-0.116962;89.268189;0.370506;
1161;1142;-3.526814;50.503996;0.996310;0.015265;-0.116961;0.397649;0.002209;0.397659;-0.116970;89.754068;0.408739;
1241;1422;-1.284820;83.659250;0.999959;0.001922;-0.012072;0.026921;0.006078;0.027846;-0.012997;81.342661;0.027867;
1121;1157;1.376083;55.329627;0.997072;0.014168;-0.110380;0.361345;-0.001037;0.361347;-0.110382;-89.874078;0.370351;
1166;1402;-0.477457;83.130074;0.999931;0.002521;-0.014041;0.032051;0.001845;0.032125;-0.014115;87.711688;0.032203;
1056;1382;1.289241;82.433180;0.999939;0.002668;-0.017572;0.038771;-0.005522;0.039307;-0.018109;-84.455323;0.039348;
1206;1147;-9.069651;51.815217;0.996801;0.015393;-0.114502;0.352819;0.006420;0.352907;-0.114590;89.213078;0.360065;
1106;1142;3.468095;50.147912;0.996274;0.016382;-0.116857;0.400180;-0.001740;0.400186;-0.116863;-89.807158;0.411564;
1111;1147;2.753271;51.962807;0.996599;0.020507;-0.115186;0.389489;-0.001588;0.389494;-0.115191;-89.819749;0.400180;
1211;1452;-0.677084;84.364868;0.999971;0.001466;-0.008904;0.020201;0.003372;0.020586;-0.009289;83.477217;0.020619;
1076;1387;0.904709;82.630771;0.999933;0.002078;-0.016463;0.036707;-0.003870;0.036987;-0.016743;-85.858366;0.037042;
1146;1152;-1.631488;53.803073;0.996508;0.017900;-0.112979;0.374161;0.001515;0.374166;-0.112984;89.821837;0.383824;
1161;1137;-3.552076;48.745449;0.995862;0.015013;-0.118703;0.408083;0.001973;0.408090;-0.118710;89.785384;0.419818;
1166;1142;-4.162417;50.511030;0.996790;0.016276;-0.116779;0.395357;0.002378;0.395368;-0.116790;89.733957;0.406253;
1071;1407;0.818368;83.286226;0.999957;0.001899;-0.013708;0.030689;-0.003769;0.031007;-0.014026;-85.181549;0.031054;
1031;1382;1.738224;82.421764;0.999942;0.002220;-0.017838;0.038796;-0.007287;0.039718;-0.018761;-82.784484;0.039738;
1121;1162;1.309529;56.885492;0.997217;0.013943;-0.107306;0.343970;-0.001021;0.343972;-0.107308;-89.870314;0.351986;
1171;1402;-0.545765;83.127201;0.999935;0.002134;-0.014079;0.032078;0.002158;0.032178;-0.014180;87.329170;0.032254;
1191;1147;-7.242291;52.109030;0.996056;0.017602;-0.114344;0.365107;0.004275;0.365145;-0.114382;89.489171;0.373538;
1201;1172;-7.292283;58.950946;0.996496;0.013879;-0.099289;0.285395;0.009173;0.285614;-0.099507;88.634726;0.289957;
1111;1142;2.849843;50.206315;0.996491;0.017435;-0.117035;0.401507;-0.001152;0.401510;-0.117038;-89.872767;0.412983;
1041;1417;1.126176;83.567162;0.999978;0.002093;-0.012785;0.028135;-0.005338;0.028819;-0.013470;-82.688376;0.028840;
1041;1367;1.781542;81.826051;0.999903;0.002737;-0.020109;0.044259;-0.007421;0.045103;-0.020953;-83.507380;0.045141;
1136;1142;-0.338437;50.437982;0.996428;0.017632;-0.117584;0.403606;0.000946;0.403608;-0.117586;89.896000;0.415158;
1171;1142;-4.788566;50.524163;0.996182;0.017285;-0.116747;0.392756;0.002513;0.392768;-0.116759;89.717461;0.403386;
1131;1147;0.260814;52.121827;0.996888;0.016137;-0.115625;0.391324;0.000499;0.391324;-0.115625;89.943641;0.402089;
1176;1147;-5.433926;52.241302;0.996193;0.017393;-0.114390;0.375710;0.003370;0.375733;-0.114413;89.606064;0.385187;
1181;1142;-6.092213;50.581294;0.995581;0.019432;-0.116593;0.386682;0.002838;0.386698;-0.116609;89.676947;0.396721;
1206;1107;-9.238975;38.285511;0.995715;0.018090;-0.121518;0.392561;-0.003845;0.392590;-0.121547;-89.571476;0.401966;
1211;1147;-9.699283;51.738100;0.996775;0.018420;-0.114565;0.348417;0.007376;0.348534;-0.114683;89.087528;0.355260;
1081;1387;0.822084;82.631018;0.999932;0.001656;-0.016378;0.036619;-0.003495;0.036848;-0.016607;-86.243275;0.036908;
1041;1372;1.708492;82.028192;0.999933;0.002239;-0.019284;0.042200;-0.007116;0.043013;-0.020097;-83.483150;0.043044;
1186;1162;-6.133707;56.668969;0.996483;0.015668;-0.105534;0.320449;0.006222;0.320540;-0.105625;89.163312;0.326692;
1126;1132;1.046521;46.772374;0.995093;0.017834;-0.119796;0.421786;0.000318;0.421786;-0.119796;89.966322;0.434705;
1181;1137;-6.118602;48.781702;0.994639;0.020075;-0.118546;0.397904;0.002128;0.397913;-0.118555;89.763976;0.408600;
1141;1142;-1.006123;50.463862;0.996549;0.020528;-0.117580;0.403216;0.001263;0.403219;-0.117583;89.861063;0.414729;
1136;1147;-0.380365;52.137769;0.996907;0.015008;-0.115622;0.390899;0.000833;0.390901;-0.115624;89.905738;0.401622;
1146;1167;-1.588243;58.550541;0.996558;0.016398;-0.103561;0.320691;0.001659;0.320697;-0.103568;89.775915;0.327331;
1211;1107;-9.907773;38.378859;0.995998;0.016614;-0.121617;0.389104;-0.004207;0.389139;-0.121651;-89.528027;0.398144;
1176;1137;-5.480389;48.793969;0.995242;0.020567;-0.118612;0.400894;0.002138;0.400903;-0.118621;89.764161;0.411887;
1066;1142;8.587496;49.670629;0.995839;0.015309;-0.118315;0.381116;-0.005113;0.381168;-0.118368;-89.413490;0.390183;
1176;1117;-5.423795;41.561744;0.997207;0.010789;-0.121835;0.418657;-0.000149;0.418657;-0.121835;-89.984183;0.430674;
1211;1112;-10.092893;40.069130;0.995574;0.016234;-0.122429;0.394368;-0.003115;0.394386;-0.122448;-89.654692;0.403720;
1181;1132;-6.154253;47.019938;0.994991;0.017958;-0.120128;0.407010;0.001345;0.407014;-0.120132;89.853793;0.418245;
1056;1112;10.308739;39.410354;0.995622;0.018953;-0.119051;0.375864;0.003666;0.375891;-0.119078;89.575570;0.384210;
1181;1152;-5.915514;53.760039;0.996066;0.014314;-0.111617;0.356622;0.004437;0.356664;-0.111659;89.457170;0.364878;
1151;1132;-2.242314;46.926653;0.994751;0.016083;-0.120056;0.419576;0.001377;0.419580;-0.120060;89.853814;0.432183;
1181;1162;-5.568510;56.715445;0.996432;0.014391;-0.105479;0.323076;0.005732;0.323152;-0.105555;89.233846;0.329563;
1231;1397;-1.472014;82.920492;0.999925;0.002052;-0.015346;0.033685;0.006388;0.034503;-0.016164;82.697120;0.034526;
1136;1152;-0.399346;53.783959;0.996895;0.015779;-0.113258;0.376396;0.000580;0.376396;-0.113258;89.932138;0.386215;
1156;1142;-2.878329;50.480722;0.995512;0.016553;-0.117174;0.399623;0.002030;0.399631;-0.117181;89.774898;0.410864;
1201;1137;-8.779120;48.835172;0.995598;0.019387;-0.118833;0.382987;0.003588;0.383013;-0.118858;89.590379;0.392092;
1066;1152;8.198035;52.955333;0.995860;0.017611;-0.114688;0.360591;-0.007500;0.360709;-0.114806;-89.096150;0.368565;
1216;1112;-10.752452;40.139263;0.995663;0.020355;-0.122484;0.390665;-0.003274;0.390686;-0.122505;-89.634467;0.399637;
1176;1122;-5.465933;43.424982;0.996755;0.014758;-0.121851;0.419050;0.000430;0.419051;-0.121851;89.954436;0.431106;
1186;1132;-6.804603;47.028456;0.994939;0.015073;-0.120242;0.403808;0.001409;0.403812;-0.120246;89.845985;0.414675;
1181;1157;-5.710465;55.203629;0.996808;0.014136;-0.108671;0.339892;0.005127;0.339951;-0.108729;89.345210;0.347229;
1196;1132;-8.113200;47.026024;0.995045;0.019365;-0.120447;0.396155;0.001908;0.396162;-0.120454;89.788364;0.406176;
1236;1392;-1.619591;82.753934;0.999940;0.002496;-0.016050;0.035343;0.007047;0.036292;-0.016999;82.331968;0.036316;
1141;1117;-0.808474;41.321213;0.995413;0.020565;-0.120522;0.427557;0.000657;0.427558;-0.120523;89.931321;0.440910;
1121;1142;1.605518;50.330774;0.996469;0.015301;-0.117378;0.403343;-0.000096;0.403343;-0.117378;-89.989391;0.414921;
1131;1157;0.201323;55.388991;0.996743;0.014840;-0.110570;0.360834;0.000119;0.360834;-0.110570;89.985596;0.369738;
1176;1152;-5.339780;53.794161;0.996468;0.016855;-0.111769;0.359855;0.004070;0.359890;-0.111804;89.505596;0.368391;
1126;1137;1.000884;48.551967;0.995468;0.015549;-0.118777;0.414067;0.000327;0.414067;-0.118777;89.964803;0.426424;
1216;1157;-9.796348;54.641176;0.997630;0.013039;-0.109171;0.317471;0.011021;0.317755;-0.109456;88.521293;0.322839;
1196;1107;-7.912281;38.204619;0.996330;0.018710;-0.121315;0.398819;-0.002839;0.398835;-0.121331;-89.687293;0.408900;
1241;1392;-1.704469;82.750354;0.999897;0.002852;-0.016031;0.035221;0.007455;0.036284;-0.017094;81.889589;0.036304;
1181;1127;-6.142162;45.232039;0.995748;0.019859;-0.121266;0.413123;0.000644;0.413124;-0.121267;89.930946;0.424702;
1046;1157;10.407432;54.000837;0.995872;0.018933;-0.112890;0.340785;-0.012076;0.341106;-0.113211;-88.476391;0.347473;
1206;1137;-9.450836;48.763864;0.996196;0.020589;-0.118950;0.378968;0.004120;0.379003;-0.118984;89.525960;0.387651;
1181;1097;-5.686639;34.529311;0.995565;0.020105;-0.117492;0.387866;-0.003606;0.387892;-0.117518;-89.591155;0.397805;
1166;1102;-3.854132;36.122472;0.995038;0.016251;-0.118318;0.404069;-0.001776;0.404075;-0.118324;-89.805215;0.415477;
1216;1147;-10.291501;51.640240;0.996497;0.013859;-0.114532;0.343664;0.008433;0.343819;-0.114687;88.945996;0.350110;
1216;1102;-10.350088;36.870483;0.995811;0.013386;-0.120107;0.377584;-0.005700;0.377650;-0.120172;-89.343951;0.385880;
1181;1112;-6.012892;39.858474;0.996725;0.013529;-0.121529;0.413082;-0.001244;0.413085;-0.121532;-89.866643;0.424588;
1161;1162;-3.329871;56.950386;0.996589;0.015794;-0.106256;0.333494;0.003197;0.333517;-0.106279;89.583454;0.340750;
1051;1157;9.807375;54.149407;0.996447;0.017445;-0.112691;0.342890;-0.011298;0.343170;-0.112971;-88.580271;0.349780;
1121;1147;1.525367;52.095276;0.996713;0.013680;-0.115457;0.391050;-0.000368;0.391051;-0.115458;-89.958336;0.401831;
1126;1142;0.958111;50.371855;0.996259;0.014244;-0.117352;0.403753;0.000251;0.403753;-0.117352;89.972388;0.415382;
1176;1157;-5.156712;55.321097;0.996589;0.015082;-0.108834;0.342919;0.004590;0.342965;-0.108881;89.417900;0.350500;
1156;1402;-0.335272;83.133995;0.999937;0.001719;-0.013999;0.031992;0.001265;0.032026;-0.014034;88.425674;0.032108;
1211;1137;-10.070581;48.709946;0.995519;0.020774;-0.118984;0.374701;0.004824;0.374748;-0.119031;89.440243;0.382967;
1156;1092;-2.380218;32.541289;0.994888;0.016409;-0.113312;0.378138;-0.001673;0.378144;-0.113318;-89.804986;0.388129;
1056;1162;8.851556;55.715426;0.996617;0.014890;-0.110063;0.332641;-0.010827;0.332906;-0.110327;-88.599810;0.339156;
1216;1107;-10.570944;38.465651;0.995841;0.017201;-0.121683;0.385671;-0.004473;0.385710;-0.121722;-89.494938;0.394359;
1161;1112;-3.373166;39.671792;0.994399;0.020656;-0.120528;0.420843;-0.000254;0.420843;-0.120528;-89.973124;0.433455;
1056;1157;9.185421;54.311124;0.996438;0.017072;-0.112665;0.345042;-0.010186;0.345269;-0.112892;-88.725768;0.352093;
1181;1117;-6.115416;41.624231;0.997441;0.014435;-0.121967;0.416229;-0.000495;0.416229;-0.121967;-89.947346;0.427951;
1131;1142;0.296377;50.408643;0.996286;0.015319;-0.117540;0.403832;0.000650;0.403833;-0.117541;89.928588;0.415419;
1166;1162;-3.884707;56.914090;0.997185;0.011986;-0.105908;0.331125;0.003794;0.331158;-0.105941;89.502705;0.338242;
1126;1152;0.831229;53.795430;0.996586;0.013254;-0.113112;0.377289;-0.000343;0.377289;-0.113112;-89.959913;0.387239;
1151;1147;-2.216326;52.179245;0.996090;0.019497;-0.115320;0.387871;0.001836;0.387878;-0.115327;89.790986;0.398358;
1161;1402;-0.407572;83.133459;0.999931;0.002014;-0.014015;0.032023;0.001546;0.032074;-0.014067;88.079236;0.032155;
1161;1132;-3.545995;46.950119;0.995486;0.014081;-0.119979;0.416080;0.001689;0.416085;-0.119985;89.819431;0.428329;
1056;1167;8.515503;57.116983;0.997319;0.012817;-0.107213;0.319104;-0.011481;0.319413;-0.107522;-88.458422;0.325047;
1201;1132;-8.798834;47.048860;0.995005;0.020013;-0.120464;0.392277;0.002296;0.392287;-0.120474;89.743441;0.401900;
1161;1117;-3.441159;41.498603;0.994618;0.018618;-0.121124;0.424347;0.000341;0.424347;-0.121124;89.964171;0.437177;
1151;1167;-2.140744;58.474470;0.996613;0.014847;-0.103471;0.319078;0.002263;0.319091;-0.103483;89.693139;0.325591;
1181;1122;-6.111696;43.459709;0.997018;0.017501;-0.121910;0.416512;0.000098;0.416512;-0.121910;89.989535;0.428280;
1166;1137;-4.191097;48.785064;0.995974;0.015484;-0.118597;0.405946;0.002046;0.405954;-0.118605;89.776542;0.417481;
1151;1152;-2.241547;53.858019;0.996602;0.018165;-0.112906;0.372564;0.001936;0.372572;-0.112913;89.771489;0.382083;
1161;1147;-3.522352;52.253173;0.996915;0.015030;-0.114789;0.384021;0.002515;0.384033;-0.114802;89.711070;0.394247;
1081;1392;0.787554;82.799854;0.999936;0.002021;-0.015642;0.034995;-0.003410;0.035224;-0.015871;-86.164587;0.035281;
1186;1127;-6.795652;45.280572;0.996135;0.015586;-0.121362;0.409963;0.000575;0.409964;-0.121363;89.938040;0.421181;
1136;1157;-0.394544;55.413239;0.996787;0.014610;-0.110537;0.359996;0.000606;0.359997;-0.110538;89.926213;0.368824;
1166;1132;-4.189819;46.991633;0.995306;0.014780;-0.119991;0.414160;0.001658;0.414166;-0.119996;89.822137;0.426199;
1206;1132;-9.490129;47.025585;0.995038;0.021503;-0.120551;0.388236;0.002733;0.388250;-0.120565;89.692294;0.397433;
1201;1157;-8.066644;54.935994;0.997159;0.011712;-0.108864;0.327048;0.007855;0.327189;-0.109005;88.967982;0.333206;
1161;1122;-3.483657;43.342639;0.995144;0.016772;-0.121246;0.424703;0.000861;0.424704;-0.121248;89.909690;0.437539;
1151;1162;-2.192903;57.086371;0.996485;0.014454;-0.106948;0.337631;0.002180;0.337641;-0.106958;89.719015;0.345115;
1186;1122;-6.783301;43.442443;0.997101;0.017964;-0.122017;0.413554;-0.000044;0.413554;-0.122017;-89.995250;0.424977;
1171;1137;-4.802103;48.791183;0.995585;0.017777;-0.118614;0.403569;0.002064;0.403577;-0.118622;89.773543;0.414846;
1151;1157;-2.225908;55.457652;0.996116;0.015641;-0.110113;0.355660;0.002092;0.355670;-0.110123;89.742605;0.364162;
1166;1147;-4.151312;52.250142;0.996967;0.019088;-0.114543;0.381555;0.002783;0.381570;-0.114558;89.678621;0.391591;
1191;1127;-7.464540;45.243145;0.995880;0.017296;-0.121478;0.406360;0.000626;0.406361;-0.121479;89.932042;0.417168;
1206;1387;-1.193107;82.586644;0.999950;0.001840;-0.016556;0.036836;0.004924;0.037286;-0.017006;84.775069;0.037334;
1141;1157;-1.001457;55.477106;0.996116;0.015686;-0.110414;0.358824;0.001116;0.358827;-0.110417;89.863710;0.367565;
1221;1157;-10.406333;54.513266;0.997208;0.015871;-0.108896;0.314349;0.012104;0.314695;-0.109242;88.363271;0.319560;
1186;1107;-6.590357;38.137350;0.996304;0.014200;-0.120832;0.404553;-0.002351;0.404563;-0.120843;-89.743657;0.415348;
1161;1107;-3.291253;37.812341;0.993967;0.018807;-0.119456;0.414107;-0.000827;0.414108;-0.119457;-89.911191;0.426282;
1191;1142;-7.383910;50.527459;0.995393;0.018261;-0.116711;0.379501;0.003466;0.379525;-0.116735;89.599859;0.388780;
1191;1122;-7.464517;43.402069;0.996489;0.018003;-0.122143;0.410213;-0.000097;0.410213;-0.122143;-89.989535;0.421250;
1141;1152;-1.006156;53.786019;0.997045;0.012110;-0.113165;0.375433;0.001072;0.375436;-0.113168;89.874328;0.385178;
1116;1142;2.247522;50.283885;0.996497;0.016168;-0.117225;0.402572;-0.000570;0.402573;-0.117225;-89.937155;0.414109;
1176;1142;-5.465157;50.555427;0.995960;0.018489;-0.116705;0.389834;0.002709;0.389848;-0.116720;89.693625;0.400170;
1171;1147;-4.777126;52.237333;0.996458;0.021223;-0.114456;0.378777;0.003040;0.378796;-0.114475;89.646874;0.388550;
1176;1127;-5.494509;45.188257;0.995232;0.019786;-0.121246;0.415795;0.000927;0.415797;-0.121247;89.901134;0.427666;
1211;1387;-1.274987;82.585160;0.999948;0.002257;-0.016627;0.036901;0.005316;0.037424;-0.017150;84.382604;0.037467;
1126;1147;0.901082;52.140221;0.996810;0.013654;-0.115453;0.391357;0.000046;0.391357;-0.115453;89.994819;0.402171;
1196;1157;-7.488561;55.036724;0.997323;0.015526;-0.108895;0.330334;0.006727;0.330437;-0.108998;89.122824;0.336754;
1186;1112;-6.708533;39.948732;0.996988;0.013337;-0.121732;0.410481;-0.001520;0.410485;-0.121736;-89.836410;0.421659;
1161;1127;-3.521721;45.138972;0.995158;0.014766;-0.120846;0.421689;0.001264;0.421692;-0.120849;89.866463;0.434308;
1216;1137;-10.716868;48.658249;0.995438;0.018329;-0.118985;0.369992;0.005713;0.370059;-0.119052;89.330696;0.377820;
1046;1177;8.960589;59.576428;0.996421;0.019875;-0.101568;0.292509;-0.015506;0.293118;-0.102177;-87.750219;0.297564;
1046;1152;10.717948;52.496118;0.993646;0.028760;-0.115156;0.350073;-0.010716;0.350320;-0.115403;-88.681200;0.357051;
1136;1137;-0.291421;48.661003;0.996142;0.020380;-0.119064;0.413887;0.001031;0.413889;-0.119066;89.889190;0.426147;
1196;1122;-8.102098;43.419768;0.996182;0.017149;-0.122189;0.406510;-0.000183;0.406510;-0.122189;-89.980204;0.417148;
1146;1142;-1.620241;50.472867;0.996050;0.020920;-0.117435;0.402458;0.001452;0.402462;-0.117439;89.839953;0.413929;
1176;1107;-5.226703;38.007357;0.995909;0.018132;-0.120426;0.409409;-0.001625;0.409414;-0.120431;-89.824309;0.420821;
1066;1387;1.066054;82.626176;0.999937;0.002248;-0.016633;0.036887;-0.004620;0.037283;-0.017029;-85.102573;0.037330;
1131;1152;0.207861;53.807597;0.996871;0.016628;-0.113286;0.377056;0.000166;0.377056;-0.113286;89.980566;0.386936;
1196;1162;-7.282553;56.485618;0.997514;0.014489;-0.105747;0.315317;0.007374;0.315446;-0.105876;88.996997;0.321077;
1186;1117;-6.788549;41.637179;0.997591;0.015543;-0.122127;0.413489;-0.000711;0.413490;-0.122128;-89.923976;0.424877;
1156;1132;-2.893937;46.918034;0.995067;0.014110;-0.119970;0.417971;0.001607;0.417976;-0.119975;89.828793;0.430428;
1221;1137;-11.370651;48.591673;0.995787;0.017054;-0.118872;0.364784;0.006784;0.364879;-0.118967;89.196552;0.372167;
1051;1152;10.077137;52.627209;0.994820;0.023579;-0.114996;0.352819;-0.010069;0.353035;-0.115213;-88.767618;0.360062;
1156;1147;-2.885356;52.216865;0.996247;0.015551;-0.115078;0.386133;0.002234;0.386143;-0.115088;89.744615;0.396503;
1141;1137;-0.973701;48.707902;0.996278;0.023866;-0.119113;0.413516;0.001282;0.413519;-0.119116;89.862122;0.425723;
1216;1117;-10.799886;41.775472;0.995910;0.019840;-0.122583;0.391884;-0.001572;0.391889;-0.122588;-89.824925;0.400939;
1201;1122;-8.744050;43.454506;0.996108;0.020759;-0.122158;0.402759;-0.000255;0.402759;-0.122158;-89.972161;0.413016;
1046;1147;10.932705;50.905745;0.993683;0.030263;-0.117069;0.358127;-0.009038;0.358299;-0.117241;-88.910751;0.365361;
1196;1127;-8.132075;45.214189;0.995632;0.021561;-0.121548;0.402415;0.000693;0.402416;-0.121549;89.924242;0.412795;
1156;1097;-2.479596;34.280312;0.995170;0.016627;-0.115665;0.392744;-0.001380;0.392748;-0.115669;-89.844521;0.403653;
1196;1167;-7.045178;57.812664;0.997318;0.015614;-0.102435;0.300716;0.007676;0.300862;-0.102581;88.909619;0.305894;
1191;1117;-7.446114;41.670818;0.997067;0.016718;-0.122315;0.410500;-0.000829;0.410502;-0.122316;-89.910884;0.421524;
1056;1152;9.434408;52.746713;0.995664;0.018886;-0.115025;0.355459;-0.009069;0.355634;-0.115200;-88.896120;0.362910;
1191;1137;-7.462592;48.816357;0.994695;0.017304;-0.118768;0.390901;0.002685;0.390915;-0.118782;89.698116;0.400816;
1221;1117;-11.455366;41.823169;0.994754;0.019017;-0.122773;0.387416;-0.001330;0.387420;-0.122776;-89.850684;0.395983;
1186;1097;-6.320718;34.623493;0.995694;0.021199;-0.117670;0.385714;-0.003983;0.385746;-0.117701;-89.546684;0.395391;
1051;1142;10.517026;49.424659;0.995162;0.024262;-0.118505;0.370227;-0.006902;0.370325;-0.118602;-89.191100;0.378216;
1206;1122;-9.427224;43.499128;0.995024;0.023642;-0.122156;0.398578;-0.000297;0.398578;-0.122156;-89.967350;0.408409;
1156;1152;-2.891219;53.898318;0.996715;0.018520;-0.112647;0.370690;0.002433;0.370702;-0.112659;89.711628;0.380087;
1146;1137;-1.635741;48.729916;0.995958;0.022614;-0.119026;0.412811;0.001404;0.412815;-0.119029;89.848720;0.424966;
1176;1102;-5.132796;36.234579;0.994566;0.021378;-0.119141;0.401079;-0.002434;0.401090;-0.119153;-89.731885;0.411954;
1136;1122;-0.211376;43.126405;0.994631;0.019119;-0.120788;0.428905;0.000840;0.428906;-0.120790;89.912495;0.442332;
1126;1157;0.790187;55.414946;0.996854;0.013338;-0.110386;0.361205;-0.000449;0.361206;-0.110387;-89.945485;0.370194;
1221;1102;-11.016965;36.926897;0.995702;0.018899;-0.120280;0.374162;-0.006176;0.374239;-0.120357;-89.284455;0.382096;
1196;1117;-8.108544;41.662370;0.996836;0.017825;-0.122435;0.407155;-0.001002;0.407157;-0.122437;-89.891640;0.417798;
1061;1152;8.803860;52.862784;0.995565;0.017719;-0.114871;0.358058;-0.008224;0.358201;-0.115014;-89.004079;0.365764;
1056;1142;9.883156;49.507813;0.995278;0.022042;-0.118630;0.374060;-0.006171;0.374138;-0.118707;-89.282507;0.382374;
1176;1132;-5.494143;46.983106;0.994960;0.021145;-0.120152;0.409729;0.001521;0.409733;-0.120156;89.835513;0.421247;
1146;1107;-1.362800;37.749611;0.994946;0.015397;-0.118601;0.415720;-0.000085;0.415720;-0.118601;-89.990921;0.428306;
1156;1157;-2.868584;55.480761;0.996511;0.018881;-0.109830;0.353674;0.002606;0.353689;-0.109844;89.677835;0.362051;
1181;1147;-6.035511;52.264599;0.995802;0.016049;-0.114249;0.372404;0.003606;0.372431;-0.114276;89.575479;0.381582;
1181;1107;-5.901292;38.069170;0.996461;0.016717;-0.120610;0.407086;-0.002043;0.407094;-0.120618;-89.778170;0.418205;
1201;1127;-8.777400;45.269567;0.995732;0.022134;-0.121520;0.398495;0.000871;0.398496;-0.121521;89.903991;0.408478;
1221;1107;-11.228081;38.530876;0.994902;0.018644;-0.121875;0.382298;-0.004772;0.382343;-0.121920;-89.457719;0.390615;
1141;1122;-0.861134;43.180780;0.995193;0.018275;-0.120904;0.428676;0.000906;0.428678;-0.120906;89.905521;0.442046;
1201;1117;-8.753294;41.656397;0.997012;0.016958;-0.122457;0.403767;-0.001282;0.403771;-0.122460;-89.860380;0.414055;
1136;1167;-0.475980;58.539106;0.996977;0.015439;-0.103917;0.323556;0.000551;0.323557;-0.103918;89.926202;0.330383;
1131;1137;0.348650;48.607045;0.995999;0.015457;-0.118948;0.414079;0.000715;0.414080;-0.118949;89.923183;0.426391;
1211;1127;-10.140750;45.285016;0.994792;0.020318;-0.121563;0.389751;0.001519;0.389755;-0.121567;89.829840;0.398842;
1046;1162;10.078096;55.447759;0.996622;0.014366;-0.110369;0.329414;-0.012940;0.329794;-0.110750;-88.316039;0.335669;
1146;1112;-1.425155;39.562055;0.994992;0.016684;-0.119827;0.423232;0.000268;0.423232;-0.119827;89.971699;0.436301;
1186;1092;-6.102551;32.999876;0.995462;0.020180;-0.115399;0.372792;-0.004781;0.372838;-0.115446;-89.438905;0.381739;
1221;1112;-11.401074;40.174036;0.994961;0.018798;-0.122681;0.386735;-0.003370;0.386758;-0.122704;-89.620951;0.395274;
1206;1127;-9.448191;45.270286;0.994449;0.022865;-0.121564;0.394279;0.001089;0.394281;-0.121566;89.879086;0.403823;
1151;1122;-2.160063;43.227501;0.994864;0.016435;-0.120985;0.427310;0.000898;0.427312;-0.120987;89.906171;0.440506;
1181;1102;-5.793790;36.296640;0.995115;0.017531;-0.119297;0.399013;-0.002845;0.399028;-0.119312;-89.685541;0.409634;
1206;1117;-9.464707;41.654155;0.995498;0.015517;-0.122496;0.400055;-0.001544;0.400059;-0.122501;-89.830682;0.409953;
1146;1122;-1.512497;43.212649;0.994831;0.019764;-0.120902;0.428123;0.000891;0.428124;-0.120904;89.906990;0.441432;
1216;1127;-10.799146;45.322924;0.995471;0.017809;-0.121617;0.384878;0.002109;0.384887;-0.121626;89.761413;0.393478;
1161;1157;-3.445327;55.499745;0.996847;0.016272;-0.109446;0.351407;0.003023;0.351427;-0.109466;89.624238;0.359656;
1046;1167;9.699554;56.811822;0.997167;0.012148;-0.107592;0.317058;-0.013852;0.317510;-0.108043;-88.133708;0.322864;
1156;1137;-2.883899;48.725006;0.994671;0.015888;-0.118812;0.410019;0.001847;0.410026;-0.118818;89.799920;0.421933;
1056;1117;10.310100;41.108912;0.994751;0.023301;-0.120059;0.381584;0.001993;0.381592;-0.120067;89.772417;0.390233;
1146;1117;-1.466445;41.354556;0.994693;0.019331;-0.120583;0.427219;0.000603;0.427220;-0.120583;89.936921;0.440517;
1046;1137;11.404121;47.731736;0.992412;0.027686;-0.119805;0.372478;-0.005579;0.372541;-0.119868;-89.350798;0.380349;
1061;1112;9.642194;39.409949;0.995387;0.017632;-0.119028;0.380706;0.003163;0.380727;-0.119048;89.637406;0.389530;
1171;1112;-4.699402;39.750552;0.996428;0.012987;-0.121086;0.417557;-0.000707;0.417558;-0.121086;-89.924747;0.429660;
1221;1127;-11.445189;45.292908;0.995274;0.020668;-0.121681;0.379639;0.002775;0.379654;-0.121696;89.682836;0.387719;
1141;1092;-0.532791;32.382517;0.995390;0.017991;-0.112128;0.375775;-0.000215;0.375775;-0.112128;-89.974758;0.385824;
1046;1172;9.343423;58.174038;0.996905;0.015837;-0.104679;0.304965;-0.014752;0.305496;-0.105210;-87.940284;0.310388;
1186;1102;-6.447830;36.353497;0.995090;0.018420;-0.119487;0.396627;-0.003172;0.396646;-0.119506;-89.647899;0.406954;
1126;1127;1.096432;44.969019;0.994756;0.018330;-0.120382;0.426577;0.000327;0.426577;-0.120382;89.965713;0.439860;
1166;1157;-4.011628;55.461230;0.997099;0.012839;-0.109084;0.348816;0.003503;0.348843;-0.109110;89.561652;0.356901;
1066;1147;8.383394;51.327071;0.995908;0.017813;-0.116655;0.370757;-0.006374;0.370841;-0.116739;-89.250941;0.379226;
1046;1122;11.626988;42.828289;0.995121;0.015470;-0.120452;0.374662;0.000383;0.374662;-0.120452;89.955696;0.382538;
1161;1102;-3.206137;36.051321;0.994341;0.018807;-0.117952;0.404790;-0.001402;0.404793;-0.117955;-89.846284;0.416371;
1161;1097;-3.128249;34.337938;0.995132;0.017245;-0.116039;0.392804;-0.001872;0.392811;-0.116046;-89.789188;0.403621;
1156;1122;-2.813366;43.304842;0.995061;0.015191;-0.121069;0.426163;0.000937;0.426165;-0.121071;89.901888;0.439209;
1171;1117;-4.774864;41.482898;0.996989;0.011528;-0.121611;0.420802;-0.000019;0.420802;-0.121611;-89.997974;0.433111;
1056;1182;7.536952;61.137073;0.996646;0.014276;-0.097706;0.279107;-0.012944;0.279551;-0.098150;-88.034849;0.283653;
1061;1127;9.643621;44.563967;0.995066;0.016751;-0.120922;0.391213;-0.001797;0.391220;-0.120929;-89.798952;0.400611;
1136;1127;-0.230923;44.987075;0.994839;0.015105;-0.120664;0.426872;0.000893;0.426874;-0.120665;89.906583;0.440110;
1171;1132;-4.840332;46.990122;0.995294;0.019054;-0.120080;0.412081;0.001570;0.412086;-0.120084;89.830922;0.423871;
1051;1122;10.952574;42.832345;0.994735;0.020322;-0.120358;0.379958;0.000154;0.379958;-0.120358;89.982351;0.388369;
1206;1152;-8.855710;53.347595;0.997222;0.015741;-0.111916;0.338050;0.007656;0.338180;-0.112046;89.025566;0.344535;
1131;1127;0.431446;44.972949;0.995019;0.020448;-0.120502;0.426823;0.000634;0.426824;-0.120503;89.933610;0.440100;
1151;1142;-2.219805;50.478672;0.995474;0.019137;-0.117376;0.401241;0.001688;0.401247;-0.117382;89.813570;0.412599;
1171;1122;-4.804396;43.356896;0.996546;0.012870;-0.121663;0.421204;0.000567;0.421204;-0.121664;89.940171;0.433543;
1146;1092;-1.135162;32.432846;0.995448;0.015685;-0.112409;0.376859;-0.000752;0.376860;-0.112410;-89.911967;0.386948;
1156;1117;-2.765836;41.452216;0.994951;0.016219;-0.120909;0.425639;0.000481;0.425640;-0.120910;89.949580;0.438671;
1196;1097;-7.600269;34.802403;0.996020;0.020818;-0.118091;0.380531;-0.004766;0.380576;-0.118137;-89.452362;0.389589;
1186;1147;-6.642521;52.181828;0.995834;0.019063;-0.114310;0.368863;0.003881;0.368894;-0.114342;89.539880;0.377671;
1081;1127;6.968016;44.716850;0.995147;0.021480;-0.120227;0.408080;-0.001728;0.408086;-0.120233;-89.812618;0.419404;
1176;1112;-5.337246;39.775854;0.996410;0.013611;-0.121355;0.415467;-0.000847;0.415468;-0.121356;-89.909639;0.427273;
1211;1132;-10.146250;47.022172;0.994946;0.020155;-0.120562;0.383975;0.003326;0.383997;-0.120584;89.622353;0.392751;
1171;1162;-4.438030;56.846273;0.996751;0.013858;-0.105782;0.328475;0.004422;0.328520;-0.105827;89.416699;0.335377;
1141;1127;-0.884445;45.020602;0.995267;0.014915;-0.120770;0.426551;0.001045;0.426553;-0.120772;89.890614;0.439724;
1046;1127;11.637730;44.474457;0.995044;0.018433;-0.120768;0.375929;-0.001980;0.375937;-0.120776;-89.771638;0.383860;
1226;1387;-1.521143;82.579523;0.999943;0.002081;-0.016738;0.036977;0.006458;0.037742;-0.017504;83.239523;0.037775;
1191;1132;-7.437988;47.027285;0.994751;0.017377;-0.120366;0.400160;0.001656;0.400166;-0.120372;89.817681;0.410615;
1146;1097;-1.229197;34.159912;0.995621;0.017684;-0.114876;0.392130;-0.000549;0.392130;-0.114877;-89.937960;0.403181;
1196;1102;-7.749108;36.506426;0.995910;0.015726;-0.119903;0.391028;-0.003708;0.391055;-0.119930;-89.584172;0.400679;
1151;1137;-2.235903;48.733301;0.994484;0.018138;-0.118974;0.411639;0.001556;0.411644;-0.118979;89.831975;0.423682;
1211;1122;-10.120197;43.539206;0.995340;0.023077;-0.122112;0.394046;-0.000141;0.394046;-0.122112;-89.984354;0.403428;
1066;1117;9.007839;41.091969;0.994657;0.018801;-0.119901;0.391013;0.001270;0.391016;-0.119905;89.857601;0.400643;
1116;1147;2.152821;52.014853;0.996498;0.016689;-0.115331;0.390458;-0.000913;0.390460;-0.115332;-89.896576;0.401211;
1146;1102;-1.311446;35.949349;0.995069;0.017833;-0.116943;0.405215;-0.000373;0.405215;-0.116944;-89.959070;0.417114;
1186;1152;-6.469407;53.666764;0.996544;0.017779;-0.111682;0.353203;0.004773;0.353252;-0.111731;89.411810;0.361113;
1196;1137;-8.132729;48.813683;0.995073;0.017740;-0.118837;0.386899;0.003039;0.386917;-0.118855;89.655670;0.396391;
1061;1122;9.630047;42.849883;0.995012;0.020638;-0.120671;0.389756;-0.000026;0.389756;-0.120671;-89.997130;0.399064;
1216;1122;-10.790177;43.565425;0.995693;0.019843;-0.122175;0.389232;0.000230;0.389232;-0.122175;89.974194;0.398119;
1206;1167;-8.123058;57.544582;0.997453;0.014107;-0.102724;0.297099;0.009778;0.297338;-0.102963;88.599910;0.301986;
1061;1132;9.594008;46.287229;0.995272;0.014602;-0.120648;0.390884;-0.003195;0.390904;-0.120668;-89.642192;0.400328;
1171;1127;-4.820822;45.173152;0.995350;0.015888;-0.121100;0.418033;0.001028;0.418035;-0.121102;89.890717;0.430185;
1151;1092;-1.736436;32.476336;0.995139;0.017034;-0.112793;0.377575;-0.001225;0.377578;-0.112796;-89.856889;0.387640;
1221;1122;-11.459004;43.591167;0.994948;0.019777;-0.122292;0.384049;0.000711;0.384050;-0.122293;89.919521;0.392400;
1136;1132;-0.282835;46.805747;0.995142;0.016640;-0.120067;0.421690;0.000975;0.421691;-0.120069;89.896934;0.434524;
1056;1172;8.203060;58.492858;0.997090;0.013731;-0.104159;0.305595;-0.012236;0.305960;-0.104524;-88.291092;0.311034;
1146;1127;-1.560314;45.059567;0.995188;0.018558;-0.120729;0.425857;0.001096;0.425859;-0.120731;89.885136;0.438965;
1051;1127;10.966237;44.516963;0.994653;0.021252;-0.120655;0.381256;-0.002018;0.381264;-0.120663;-89.769607;0.389730;
1191;1102;-7.108383;36.445314;0.995761;0.017904;-0.119716;0.393975;-0.003407;0.393998;-0.119738;-89.620053;0.403972;
1066;1122;9.005203;42.860121;0.995320;0.020325;-0.120512;0.394261;-0.000262;0.394261;-0.120512;-89.970851;0.404065;
1211;1167;-8.668818;57.379725;0.997915;0.012170;-0.102906;0.295473;0.010801;0.295766;-0.103198;88.448040;0.300233;
1216;1377;-1.481512;82.210485;0.999933;0.003470;-0.018229;0.040423;0.005952;0.041021;-0.018827;84.263800;0.041067;
1151;1107;-1.993636;37.770902;0.994407;0.019426;-0.118856;0.415347;-0.000315;0.415347;-0.118856;-89.966196;0.427822;
1156;1167;-2.677466;58.421202;0.996618;0.015893;-0.103210;0.317233;0.002906;0.317254;-0.103230;89.603965;0.323638;
1141;1132;-0.927949;46.835154;0.995590;0.015397;-0.120143;0.421390;0.001173;0.421393;-0.120146;89.875908;0.434171;
1066;1112;9.003353;39.360194;0.995219;0.017294;-0.118821;0.385300;0.002613;0.385314;-0.118834;89.702975;0.394631;
1071;1122;8.324012;42.862342;0.994635;0.022455;-0.120270;0.398497;-0.000499;0.398498;-0.120270;-89.944857;0.408800;
1171;1107;-4.595722;37.946064;0.995829;0.017122;-0.120117;0.411384;-0.001421;0.411388;-0.120121;-89.846868;0.423088;
1216;1167;-9.199335;57.241381;0.997614;0.011216;-0.102929;0.293820;0.011802;0.294171;-0.103280;88.297598;0.298488;
1196;1112;-8.033583;39.963969;0.996595;0.022016;-0.122191;0.404461;-0.001959;0.404469;-0.122198;-89.786873;0.414892;
1201;1102;-8.379937;36.637040;0.996495;0.014784;-0.119978;0.388038;-0.004334;0.388075;-0.120015;-89.511268;0.397376;
1061;1177;7.350555;60.050130;0.996539;0.012835;-0.100827;0.292064;-0.011560;0.292404;-0.101166;-88.316167;0.296992;
1216;1132;-10.810208;47.000493;0.995265;0.018888;-0.120570;0.379252;0.004115;0.379286;-0.120604;89.528340;0.387573;
1081;1122;6.961432;42.895324;0.994969;0.026996;-0.120054;0.406754;-0.000611;0.406754;-0.120055;-89.933550;0.417978;
1126;1122;1.129765;43.109678;0.994603;0.015592;-0.120445;0.428228;0.000326;0.428229;-0.120445;89.965913;0.441677;
1221;1377;-1.580234;82.204106;0.999938;0.002750;-0.018272;0.040484;0.006333;0.041159;-0.018947;83.917085;0.041203;
1061;1137;9.439061;47.998865;0.995488;0.015484;-0.119832;0.386167;-0.004304;0.386204;-0.119869;-89.512654;0.395353;
1216;1172;-8.873322;58.478351;0.997704;0.013641;-0.100013;0.282497;0.012271;0.282890;-0.100406;88.164398;0.286832;
1221;1147;-10.901678;51.538870;0.996787;0.012019;-0.114383;0.338759;0.009514;0.338959;-0.114582;88.797739;0.344835;
1221;1132;-11.478208;46.997657;0.994812;0.020214;-0.120518;0.374044;0.005002;0.374095;-0.120569;89.420645;0.381890;
1201;1112;-8.700366;39.995219;0.996791;0.016173;-0.122275;0.401325;-0.002369;0.401335;-0.122285;-89.740745;0.411414;
1186;1137;-6.780214;48.806112;0.994149;0.020934;-0.118668;0.394549;0.002328;0.394559;-0.118679;89.740063;0.404864;
1146;1132;-1.617802;46.927404;0.995541;0.018745;-0.120084;0.420687;0.001268;0.420690;-0.120087;89.865671;0.433407;
1061;1117;9.642122;41.105863;0.994780;0.019987;-0.120068;0.386444;0.001674;0.386449;-0.120073;89.810629;0.395573;
1066;1127;9.003834;44.602004;0.995377;0.017201;-0.120747;0.395779;-0.001847;0.395786;-0.120753;-89.795168;0.405685;
1051;1162;9.457532;55.580942;0.996636;0.014050;-0.110121;0.330989;-0.012078;0.331319;-0.110452;-88.432815;0.337396;
1206;1112;-9.395487;39.990803;0.995566;0.016178;-0.122361;0.397957;-0.002795;0.397972;-0.122376;-89.692281;0.407685;
1151;1097;-1.853271;34.229958;0.995330;0.016898;-0.115219;0.392473;-0.000982;0.392475;-0.115221;-89.889142;0.403470;
1151;1117;-2.104189;41.404800;0.994683;0.017251;-0.120737;0.426581;0.000549;0.426581;-0.120737;89.942477;0.439765;
1071;1127;8.313039;44.662264;0.995276;0.022247;-0.120490;0.400021;-0.001877;0.400028;-0.120496;-89.793384;0.410431;
1151;1127;-2.200185;45.069080;0.994811;0.015980;-0.120750;0.424802;0.001128;0.424805;-0.120752;89.881576;0.437788;
1156;1102;-2.554067;36.027620;0.994528;0.019553;-0.117624;0.405047;-0.001028;0.405049;-0.117626;-89.887258;0.416744;
1201;1167;-7.592494;57.681023;0.997103;0.015044;-0.102449;0.298842;0.008782;0.299034;-0.102641;88.746852;0.303893;
1191;1107;-7.265811;38.132607;0.996387;0.017399;-0.121103;0.401818;-0.002582;0.401831;-0.121115;-89.717115;0.412261;
1131;1122;0.457978;43.117860;0.994880;0.018344;-0.120576;0.428712;0.000617;0.428713;-0.120577;89.935680;0.442177;
1206;1102;-9.027019;36.699416;0.996595;0.015206;-0.120052;0.384754;-0.004911;0.384802;-0.120100;-89.442718;0.393754;
1056;1132;10.261703;46.225595;0.994102;0.017795;-0.120686;0.386063;-0.003450;0.386086;-0.120709;-89.610001;0.395018;
1166;1112;-4.029221;39.696724;0.996043;0.015720;-0.120768;0.419379;-0.000468;0.419379;-0.120769;-89.950405;0.431766;
1151;1102;-1.940478;35.986370;0.994178;0.017844;-0.117250;0.405168;-0.000735;0.405169;-0.117251;-89.919401;0.416978;
1076;1122;7.655699;42.870634;0.994984;0.023432;-0.120103;0.402739;-0.000507;0.402740;-0.120104;-89.944391;0.413527;
1046;1132;11.586761;46.130755;0.994557;0.022892;-0.120553;0.375749;-0.003926;0.375780;-0.120584;-89.546775;0.383732;
1046;1142;11.161233;49.349080;0.994172;0.026857;-0.118646;0.366084;-0.007316;0.366195;-0.118757;-89.135514;0.373655;
1191;1112;-7.371743;39.982967;0.996953;0.016673;-0.121990;0.407639;-0.001723;0.407645;-0.121996;-89.813572;0.418452;
1051;1167;9.117899;56.978843;0.997104;0.012239;-0.107319;0.318071;-0.012819;0.318457;-0.107705;-88.275449;0.323966;
1056;1137;10.109776;47.889971;0.995030;0.019770;-0.119878;0.381854;-0.004751;0.381899;-0.119923;-89.457518;0.390606;
1051;1147;10.269073;51.032545;0.995614;0.023088;-0.116951;0.361513;-0.008558;0.361666;-0.117104;-88.975669;0.369077;
1131;1132;0.390469;46.770087;0.995410;0.017654;-0.119926;0.421792;0.000670;0.421793;-0.119927;89.929160;0.434676;
1056;1122;10.300302;42.822012;0.994348;0.020246;-0.120668;0.384929;0.000086;0.384929;-0.120668;89.990304;0.393755;
1166;1117;-4.114325;41.514453;0.996174;0.017610;-0.121327;0.422706;0.000184;0.422706;-0.121327;89.980630;0.435300;
1056;1147;9.648321;51.138082;0.995350;0.023391;-0.117033;0.364687;-0.007711;0.364810;-0.117156;-89.083183;0.372509;
1051;1137;10.764231;47.792631;0.993458;0.024905;-0.119676;0.377323;-0.005322;0.377380;-0.119733;-89.386556;0.385689;
1051;1172;8.786974;58.346514;0.996736;0.014476;-0.104318;0.305228;-0.013616;0.305680;-0.104770;-88.097891;0.310679;
1071;1112;8.359677;39.297352;0.994860;0.018304;-0.118574;0.389736;0.002053;0.389744;-0.118583;89.768605;0.399575;
1211;1102;-9.691694;36.806720;0.996250;0.013682;-0.120123;0.381174;-0.005339;0.381231;-0.120180;-89.389847;0.389810;
1211;1117;-10.154508;41.736914;0.995525;0.017640;-0.122501;0.396056;-0.001675;0.396061;-0.122506;-89.814957;0.405548;
1056;1127;10.312937;44.542104;0.994336;0.018502;-0.120937;0.386305;-0.001850;0.386312;-0.120944;-89.790996;0.395209;
1166;1122;-4.136835;43.343631;0.995954;0.015745;-0.121422;0.423019;0.000742;0.423020;-0.121423;89.921919;0.435622;
1156;1127;-2.861893;45.106243;0.994932;0.014691;-0.120746;0.423393;0.001259;0.423396;-0.120748;89.867463;0.436226;
1056;1177;7.887409;59.894336;0.996738;0.012596;-0.100991;0.292200;-0.012780;0.292615;-0.101406;-88.140250;0.297173;
1191;1097;-6.950789;34.735859;0.995739;0.019803;-0.117896;0.383275;-0.004332;0.383312;-0.117933;-89.504838;0.392651;
1046;1182;8.607432;60.868924;0.997118;0.016879;-0.098274;0.280015;-0.015677;0.280664;-0.098923;-87.630955;0.284708;
1166;1127;-4.175320;45.180725;0.995184;0.015439;-0.120947;0.419920;0.001189;0.419923;-0.120950;89.874027;0.432318;
1071;1117;8.351252;41.048625;0.993710;0.023530;-0.119665;0.395357;0.000860;0.395359;-0.119666;89.904366;0.405491;
1181;1087;-5.318856;31.300859;0.995607;0.015239;-0.112461;0.360199;-0.004598;0.360244;-0.112506;-89.442733;0.368608;
1051;1182;8.078660;60.987845;0.997010;0.015652;-0.097902;0.279453;-0.014375;0.280000;-0.098449;-87.821539;0.284081;
1166;1107;-3.951683;37.861551;0.995684;0.015559;-0.119742;0.412994;-0.001095;0.412997;-0.119744;-89.882214;0.424972;
1181;1092;-5.507338;32.898552;0.995549;0.018167;-0.115225;0.374572;-0.004234;0.374608;-0.115261;-89.504765;0.383734;
1161;1152;-3.507969;53.919738;0.997115;0.015894;-0.112304;0.368452;0.002830;0.368468;-0.112321;89.662728;0.377709;
1171;1102;-4.468427;36.190058;0.994899;0.017812;-0.118807;0.402739;-0.002172;0.402748;-0.118816;-89.761438;0.413877;
1186;1142;-6.758130;50.565613;0.994933;0.019932;-0.116673;0.383199;0.003084;0.383218;-0.116692;89.646567;0.392861;
1166;1152;-4.115807;53.928475;0.997197;0.015374;-0.111973;0.365861;0.003253;0.365883;-0.111996;89.610015;0.374942;
1061;1142;9.216388;49.603032;0.995408;0.019260;-0.118527;0.377710;-0.005579;0.377772;-0.118590;-89.355952;0.386394;
1171;1152;-4.702114;53.875044;0.996540;0.018620;-0.111844;0.362972;0.003628;0.363000;-0.111872;89.562213;0.371797;
1201;1107;-8.583638;38.242171;0.996618;0.014904;-0.121418;0.395805;-0.003339;0.395827;-0.121439;-89.630145;0.405557;
1061;1147;8.994674;51.245210;0.995462;0.022871;-0.116876;0.367767;-0.006981;0.367867;-0.116977;-89.174872;0.375904;
1076;1127;7.662199;44.685663;0.995317;0.019869;-0.120312;0.404246;-0.001741;0.404251;-0.120318;-89.809801;0.415142;
