MinPrincipalStrain,MaxPrincipalStrain,EqPlasticStrain,MinPrincipalStress,MaxPrincipalStress,ElemVolume,IntegrationPoint_CoordX,IntegrationPoint_CoordY,Stress_xx,Stress_yy,Stress_xy,StressTriaxility,MisesStress,ThirdInvStress
-0.051347,   0.022962,   0.054081,   -623.229187,   28.145613,   0.582331,   0.371144,   57.738537,   -339.248718,   -255.834885,   323.005920,   -0.311024,   637.768005,   -636.368408
-0.060963,   0.027574,   0.064656,   -642.177185,   30.223265,   0.582334,   0.371144,   56.757896,   -353.598206,   -258.355743,   332.810486,   -0.310097,   657.809814,   -656.244873
-0.070653,   0.031332,   0.075126,   -664.066467,   17.480667,   0.582334,   0.371144,   55.777256,   -383.418182,   -263.167633,   335.427460,   -0.320261,   672.977112,   -672.466003
-0.079269,   0.033280,   0.084205,   -687.422546,   0.000000,   0.582333,   0.371144,   54.796619,   -426.209564,   -272.599243,   329.176605,   -0.341649,   681.800720,   -681.586731
-0.085802,   0.033128,   0.090921,   -708.856201,   0.000000,   0.582333,   0.371144,   53.815979,   -476.120697,   -285.406860,   313.929413,   -0.371091,   684.043091,   -679.458191
-0.089813,   0.031267,   0.094961,   -725.564880,   0.000000,   0.582333,   0.371144,   52.835342,   -526.754333,   -299.784851,   290.945953,   -0.404739,   680.717834,   -663.554749
-0.091237,   0.028243,   0.096359,   -735.945312,   0.000000,   0.582334,   0.371144,   51.854702,   -572.728333,   -314.132385,   262.387177,   -0.439065,   673.294495,   -633.541077
-0.090182,   0.024689,   0.095240,   -739.265198,   0.000000,   0.582334,   0.371144,   50.874062,   -609.904175,   -326.100372,   231.187012,   -0.470479,   663.156738,   -591.958374
-0.086805,   0.021032,   0.091713,   -735.914062,   0.000000,   0.582331,   0.371144,   49.893421,   -636.020874,   -334.078613,   200.351227,   -0.496564,   651.208069,   -543.573730
-0.081031,   0.017543,   0.085597,   -725.947021,   0.000000,   0.582334,   0.371144,   48.912785,   -649.626587,   -334.638306,   172.814484,   -0.514778,   637.339844,   -497.250183
-0.072313,   0.014366,   0.076178,   -710.081055,   0.000000,   0.582334,   0.371144,   47.932144,   -647.692749,   -331.867340,   153.610306,   -0.525905,   620.872070,   -458.587128
-0.059866,   0.011791,   0.062450,   -682.837585,   0.000000,   0.582333,   0.371144,   46.951504,   -595.589600,   -296.853760,   183.511078,   -0.491001,   605.867188,   -514.250061
-0.045070,   0.010017,   0.046957,   -587.044250,   80.363556,   0.582333,   0.371144,   45.970867,   -247.288467,   -259.392212,   333.649017,   -0.267628,   631.075439,   -619.406494
-0.034876,   0.010640,   0.038757,   -427.513031,   279.628174,   0.582333,   0.371144,   44.990227,   18.455877,   -166.340714,   341.283936,   -0.079914,   616.850037,   -435.837158
-0.030338,   0.013117,   0.033504,   -463.959869,   217.518372,   0.582334,   0.371144,   44.009590,   -123.529755,   -122.911736,   340.738983,   -0.136253,   602.903625,   -502.502045
-0.028639,   0.017147,   0.031872,   -404.008728,   285.359253,   0.582334,   0.371144,   43.028946,   -24.424202,   -94.225258,   342.912537,   -0.065922,   599.950500,   -398.378815
-0.029325,   0.021521,   0.032843,   -407.303589,   285.585175,   0.582331,   0.371144,   42.048309,   -49.563511,   -72.154892,   346.260193,   -0.067270,   603.137634,   -403.132751
-0.031098,   0.025413,   0.035578,   -390.919983,   313.816956,   0.582334,   0.371144,   41.067673,   -17.086098,   -60.016949,   351.714050,   -0.042027,   611.536438,   -350.402130
-0.032842,   0.028458,   0.038446,   -390.486359,   324.068604,   0.582333,   0.371144,   40.087032,   -15.734347,   -50.683434,   356.849884,   -0.035725,   619.713196,   -336.535095
-0.034562,   0.031529,   0.041443,   -381.401581,   343.021484,   0.582334,   0.371144,   39.106392,   4.288865,   -42.668938,   361.449768,   -0.020383,   627.662231,   -282.945282
-0.036420,   0.034317,   0.044446,   -378.116547,   355.299683,   0.582333,   0.371144,   38.125751,   12.426430,   -35.243290,   365.932709,   -0.011972,   635.259583,   -239.894867
-0.038178,   0.036575,   0.047078,   -376.184326,   364.586884,   0.582333,   0.371144,   37.145115,   20.434258,   -32.031693,   369.455444,   -0.006026,   641.552917,   -192.733353
-0.039588,   0.038541,   0.049296,   -374.170990,   372.589447,   0.582334,   0.371144,   36.164474,   24.946901,   -26.528427,   372.492096,   -0.000815,   646.713989,   -99.738663
-0.040610,   0.040032,   0.050952,   -371.429016,   379.584381,   0.582333,   0.371144,   35.183834,   30.542219,   -22.386875,   374.572968,   0.004180,   650.409485,   172.966263
-0.041343,   0.041161,   0.052183,   -369.118011,   384.996490,   0.582333,   0.371144,   34.203197,   33.723595,   -17.845114,   376.174622,   0.008104,   653.130615,   216.573288
-0.041652,   0.041838,   0.052837,   -365.258453,   390.359802,   0.582334,   0.371144,   33.222557,   38.547722,   -13.446353,   376.913635,   0.012784,   654.504944,   252.619690
-0.041705,   0.042234,   0.053137,   -362.474457,   393.847717,   0.582333,   0.371144,   32.241917,   39.797050,   -8.423790,   377.391693,   0.015962,   655.182007,   272.279083
-0.041262,   0.042127,   0.052777,   -355.373871,   399.676147,   0.582333,   0.371144,   31.261278,   47.376057,   -3.073771,   376.681335,   0.022571,   654.267578,   305.108734
-0.040709,   0.041858,   0.052236,   -353.834137,   399.981354,   0.582333,   0.371144,   30.280640,   43.389416,   2.757807,   376.359833,   0.023548,   653.231018,   308.945923
-0.039489,   0.041021,   0.050887,   -338.594818,   410.594513,   0.582333,   0.371144,   29.300001,   61.596096,   10.403592,   373.719147,   0.036933,   649.815002,   356.785187
-0.038372,   0.040176,   0.049593,   -342.223694,   404.452148,   0.582333,   0.371144,   28.319361,   43.982601,   18.245853,   373.116089,   0.032041,   647.388367,   339.122650
-0.036316,   0.038593,   0.047214,   -309.715271,   426.951599,   0.582333,   0.371144,   27.338722,   86.568062,   30.668268,   367.271454,   0.060998,   640.659546,   414.805359
-0.034561,   0.037259,   0.045195,   -315.304565,   417.579010,   0.582333,   0.371144,   26.358082,   59.232738,   43.041702,   366.352356,   0.053540,   636.752563,   395.078094
-0.031967,   0.035071,   0.042064,   -284.582794,   435.510529,   0.582333,   0.371144,   25.377443,   86.747108,   64.180634,   359.869812,   0.080089,   628.168457,   444.144958
-0.027991,   0.033243,   0.038967,   -89.979614,   545.991638,   0.582333,   0.371144,   24.396805,   336.951447,   119.060570,   298.740265,   0.254999,   596.096741,   580.522583
-0.024453,   0.033616,   0.038648,   0.000000,   591.904724,   0.582333,   0.371144,   23.416164,   445.219177,   177.892776,   246.433701,   0.360013,   576.934448,   575.030884
-0.021646,   0.035596,   0.039894,   0.000000,   608.105286,   0.582333,   0.371144,   22.435526,   465.767090,   208.933243,   238.364044,   0.389307,   577.693787,   568.961914
-0.019638,   0.038859,   0.042327,   0.000000,   618.882263,   0.582333,   0.371144,   21.454885,   472.104828,   224.332199,   240.647171,   0.397523,   583.980103,   572.222046
-0.018512,   0.043107,   0.045655,   0.000000,   627.927246,   0.582333,   0.371144,   20.474247,   475.528107,   231.078369,   245.925644,   0.397516,   592.518555,   580.591492
-0.018231,   0.048093,   0.049933,   0.000000,   637.715454,   0.582333,   0.371144,   19.493608,   478.751648,   236.046585,   252.687164,   0.395212,   602.881287,   591.642334
-0.018444,   0.052802,   0.054429,   0.000000,   646.442444,   0.582334,   0.371144,   18.512968,   480.278839,   238.844177,   260.246033,   0.390823,   613.340454,   603.538025
-0.018730,   0.056842,   0.058589,   0.000000,   653.697754,   0.582333,   0.371144,   17.532330,   480.636353,   240.712646,   267.342041,   0.386181,   622.634705,   614.284424
-0.019042,   0.060812,   0.062892,   0.000000,   660.906555,   0.582333,   0.371144,   16.551691,   482.212860,   242.419449,   273.461182,   0.382517,   631.459961,   624.164062
-0.019620,   0.064982,   0.067459,   0.000000,   668.466187,   0.582333,   0.371144,   15.571051,   485.712006,   244.242966,   278.439545,   0.380220,   639.941223,   633.243958
-0.020495,   0.069048,   0.071888,   0.000000,   675.498413,   0.582333,   0.371144,   14.590412,   489.872528,   245.703079,   282.455536,   0.378644,   647.553284,   641.238403
-0.021581,   0.072625,   0.075755,   0.000000,   681.141663,   0.582333,   0.371144,   13.609773,   493.066956,   246.363235,   285.955994,   0.376905,   653.948608,   648.065491
-0.022791,   0.075469,   0.078811,   0.000000,   685.001892,   0.582333,   0.371144,   12.629134,   494.243439,   246.132278,   289.340790,   0.374459,   659.061951,   653.797546
-0.024014,   0.077430,   0.080913,   0.000000,   686.936523,   0.582333,   0.371144,   11.648495,   492.886963,   245.076248,   292.818695,   0.371079,   662.897705,   658.457520
-0.025188,   0.078431,   0.081989,   0.000000,   686.844116,   0.582333,   0.371144,   10.667855,   488.808868,   243.088379,   296.444397,   0.366611,   665.462402,   662.018066
-0.026237,   0.078429,   0.082004,   0.000000,   684.693237,   0.582333,   0.371144,   9.687216,   481.915649,   240.214767,   300.217010,   0.361013,   666.763306,   664.392456
-0.027097,   0.077369,   0.080911,   0.000000,   680.351807,   0.582333,   0.371144,   8.706576,   471.969086,   236.469635,   304.133789,   0.354174,   666.752136,   665.419189
-0.027637,   0.075171,   0.078637,   0.000000,   673.667725,   0.582333,   0.371144,   7.725937,   458.689606,   232.068542,   308.113861,   0.346095,   665.287109,   664.792908
-0.027775,   0.071752,   0.075093,   0.000000,   664.340149,   0.582333,   0.371144,   6.745298,   441.756134,   227.087173,   311.970367,   0.336728,   662.100037,   662.065552
-0.027390,   0.067043,   0.070201,   -9.062691,   652.197510,   0.582333,   0.371144,   5.764659,   421.129456,   222.005341,   315.283447,   0.326410,   656.775696,   656.635071
-0.026254,   0.061117,   0.064013,   -21.827816,   637.617188,   0.582333,   0.371144,   4.784020,   397.769684,   218.019684,   317.237152,   0.316370,   648.806519,   647.979614
-0.024168,   0.054049,   0.056567,   -32.373154,   620.725159,   0.582333,   0.371144,   3.803381,   372.148438,   216.203537,   317.103516,   0.307621,   637.528442,   635.675232
-0.021101,   0.046203,   0.048173,   -37.524323,   602.554443,   0.582333,   0.371144,   2.822742,   347.417053,   217.613068,   313.389435,   0.302722,   622.165894,   619.612183
-0.017286,   0.038067,   0.039349,   -34.363602,   584.482849,   0.582333,   0.371144,   1.842103,   326.500183,   223.619034,   305.117340,   0.304404,   602.400146,   600.189026
-0.013363,   0.030296,   0.030833,   -23.034546,   566.767212,   0.582333,   0.371144,   0.861463,   312.529114,   231.203568,   292.084015,   0.313231,   578.628479,   577.595581
-0.065452,   0.027744,   0.070132,   -666.031921,   8.222919,   0.567391,   1.113431,   57.008831,   -341.468414,   -316.340576,   336.893219,   -0.327180,   670.181213,   -670.067688
-0.073006,   0.030640,   0.078281,   -678.608826,   4.145508,   0.567391,   1.113431,   56.053352,   -371.446014,   -303.017273,   339.658264,   -0.330284,   680.690979,   -680.662598
-0.080846,   0.032826,   0.086454,   -692.914368,   0.000000,   0.567391,   1.113431,   55.097878,   -416.608765,   -287.675934,   334.618652,   -0.341571,   687.299744,   -687.088074
-0.088172,   0.033849,   0.093839,   -707.775635,   0.000000,   0.567391,   1.113431,   54.142399,   -469.822662,   -276.489624,   320.352570,   -0.360895,   689.315674,   -686.885803
-0.094419,   0.033772,   0.099964,   -721.617126,   0.000000,   0.567391,   1.113431,   53.186924,   -524.012146,   -272.023987,   298.063507,   -0.385993,   687.435425,   -678.284058
-0.098672,   0.032641,   0.103989,   -732.282776,   0.000000,   0.567391,   1.113431,   52.231445,   -572.706299,   -273.874176,   270.464813,   -0.413560,   682.351624,   -660.297607
-0.100309,   0.030597,   0.105355,   -738.383728,   0.000000,   0.567391,   1.113431,   51.275970,   -611.798218,   -279.850250,   240.922623,   -0.440365,   674.931458,   -633.979614
-0.099166,   0.027941,   0.103895,   -739.292969,   0.000000,   0.567392,   1.113431,   50.320492,   -639.271301,   -286.590271,   212.791183,   -0.463458,   665.907776,   -602.767944
-0.094925,   0.024928,   0.099216,   -734.168213,   0.000000,   0.567390,   1.113431,   49.365013,   -653.834290,   -289.844116,   188.929337,   -0.480212,   655.043335,   -572.037720
-0.087054,   0.021720,   0.090671,   -722.776062,   0.000000,   0.567392,   1.113431,   48.409538,   -652.769836,   -289.543945,   174.152115,   -0.489401,   641.814209,   -547.235046
-0.074935,   0.018502,   0.077514,   -698.599060,   0.000000,   0.567391,   1.113431,   47.454060,   -622.396179,   -264.814117,   181.812180,   -0.472438,   625.980225,   -556.454285
-0.059440,   0.015674,   0.061158,   -643.011597,   5.527584,   0.567391,   1.113431,   46.498585,   -387.160339,   -250.323654,   316.969543,   -0.329044,   645.793091,   -645.739868
-0.047846,   0.015478,   0.052406,   -482.785339,   256.874695,   0.567391,   1.113431,   45.543106,   -22.545412,   -203.365219,   358.608826,   -0.115772,   650.447266,   -516.269165
-0.042131,   0.017957,   0.047816,   -497.811646,   225.554581,   0.567391,   1.113431,   44.587631,   -78.100761,   -194.156296,   356.997833,   -0.141563,   641.073303,   -540.322021
-0.037856,   0.020327,   0.042803,   -466.378845,   249.331818,   0.567391,   1.113431,   43.632153,   -45.982910,   -171.064102,   352.347992,   -0.114976,   629.252441,   -498.394836
-0.037058,   0.024395,   0.041880,   -446.224335,   271.141296,   0.567392,   1.113431,   42.676678,   -30.388321,   -144.694717,   354.100098,   -0.093021,   627.394287,   -465.226685
-0.037579,   0.027921,   0.042591,   -434.925476,   287.120239,   0.567390,   1.113431,   41.721199,   -24.628958,   -123.176277,   357.644531,   -0.078246,   629.661865,   -441.890808
-0.038529,   0.031222,   0.044512,   -419.510803,   310.757538,   0.567391,   1.113431,   40.765724,   -8.982039,   -99.771225,   362.301392,   -0.057110,   634.764343,   -402.250061
-0.039162,   0.033625,   0.046131,   -410.550690,   325.521667,   0.567391,   1.113431,   39.810246,   -0.480654,   -84.548386,   365.627930,   -0.044364,   638.873535,   -372.653748
-0.040702,   0.036560,   0.048893,   -400.240204,   344.269928,   0.567391,   1.113431,   38.854771,   14.185341,   -70.155594,   369.858734,   -0.028909,   645.371704,   -326.732758
-0.042075,   0.038886,   0.051254,   -394.735138,   356.446625,   0.567392,   1.113431,   37.899292,   19.807823,   -58.096355,   373.565582,   -0.019610,   650.824097,   -289.642303
-0.043074,   0.040646,   0.053032,   -388.374878,   367.573792,   0.567390,   1.113431,   36.943813,   26.853186,   -47.654266,   376.133972,   -0.010590,   654.753357,   -237.353424
-0.043818,   0.042149,   0.054490,   -383.289642,   376.467285,   0.567392,   1.113431,   35.988338,   30.210274,   -37.032619,   378.387695,   -0.003456,   657.977661,   -164.239288
-0.044455,   0.043401,   0.055729,   -377.479218,   385.318787,   0.567390,   1.113431,   35.032864,   35.241623,   -27.402048,   380.110687,   0.003956,   660.614075,   172.485672
-0.044955,   0.044487,   0.056774,   -373.154602,   392.168884,   0.567392,   1.113431,   34.077385,   37.372013,   -18.357727,   381.645844,   0.009562,   662.857727,   232.254593
-0.045103,   0.045197,   0.057346,   -366.849915,   399.667084,   0.567391,   1.113431,   33.121906,   42.078693,   -9.261520,   382.397858,   0.016474,   664.025940,   278.870758
-0.045266,   0.045877,   0.057911,   -362.451385,   405.314178,   0.567391,   1.113431,   32.166431,   43.090134,   -0.227346,   383.271301,   0.021477,   665.249817,   305.149902
-0.044868,   0.045991,   0.057735,   -354.458252,   412.479553,   0.567391,   1.113431,   31.210953,   49.301216,   8.720064,   382.931702,   0.029091,   664.820862,   337.283142
-0.044682,   0.046317,   0.057845,   -350.235687,   416.840851,   0.567391,   1.113431,   30.255476,   48.050522,   18.554640,   383.254608,   0.033379,   665.141968,   353.176056
-0.043644,   0.045785,   0.056825,   -338.192352,   425.516602,   0.567391,   1.113431,   29.299999,   59.439785,   27.884443,   381.528381,   0.043915,   662.830994,   385.333923
-0.043169,   0.045879,   0.056601,   -334.266571,   428.791626,   0.567391,   1.113431,   28.344522,   55.246319,   39.278713,   381.445557,   0.047559,   662.515747,   395.388947
-0.041636,   0.044866,   0.054947,   -318.046082,   439.294861,   0.567391,   1.113431,   27.389046,   71.778870,   49.469910,   378.506134,   0.061360,   658.672363,   427.291962
-0.040521,   0.044567,   0.054084,   -302.526581,   450.652313,   0.567391,   1.113431,   26.433569,   85.675339,   62.450413,   376.410370,   0.075214,   656.463379,   454.886444
-0.039516,   0.044104,   0.053154,   -307.422363,   444.768311,   0.567391,   1.113431,   25.478092,   63.534992,   73.810936,   376.060242,   0.069893,   655.026062,   443.272491
-0.035649,   0.041505,   0.049216,   -189.309158,   518.662903,   0.567391,   1.113431,   24.522615,   240.344147,   89.009567,   345.804230,   0.172929,   634.851807,   565.924927
-0.031822,   0.040785,   0.047758,   -44.587688,   581.630554,   0.567391,   1.113431,   23.567139,   413.478210,   123.564644,   277.533508,   0.295814,   605.157593,   601.445312
-0.028266,   0.041438,   0.047782,   0.000000,   605.799500,   0.567391,   1.113431,   22.611660,   463.602203,   161.182175,   251.442566,   0.349119,   596.533630,   595.853333
-0.025503,   0.043367,   0.048846,   0.000000,   618.451416,   0.567391,   1.113431,   21.656183,   476.809814,   185.559158,   247.619766,   0.369396,   597.703918,   594.057556
-0.023516,   0.046362,   0.050711,   0.000000,   628.164185,   0.567390,   1.113431,   20.700708,   482.614990,   201.920914,   249.076996,   0.379059,   601.961182,   595.979309
-0.022198,   0.050350,   0.053453,   0.000000,   637.518677,   0.567391,   1.113431,   19.745232,   486.196045,   214.458969,   253.018814,   0.383871,   608.412476,   600.975952
-0.021885,   0.055096,   0.057315,   0.000000,   647.127380,   0.567391,   1.113431,   18.789755,   488.180450,   223.770859,   259.405487,   0.384460,   617.273499,   609.545105
-0.021885,   0.059582,   0.061464,   0.000000,   656.177246,   0.567391,   1.113431,   17.834278,   489.299286,   231.464142,   266.224091,   0.383556,   626.386475,   618.828735
-0.021969,   0.063524,   0.065436,   0.000000,   663.777161,   0.567391,   1.113431,   16.878801,   490.317749,   236.596344,   272.210480,   0.381842,   634.568787,   627.443970
-0.022347,   0.067602,   0.069784,   0.000000,   671.381836,   0.567391,   1.113431,   15.923324,   492.650116,   240.468597,   277.520935,   0.380204,   642.740967,   636.018982
-0.023049,   0.071748,   0.074271,   0.000000,   678.713562,   0.567391,   1.113431,   14.967846,   495.776245,   243.484375,   282.169556,   0.378784,   650.556641,   644.171875
-0.023947,   0.075521,   0.078364,   0.000000,   685.042175,   0.567391,   1.113431,   14.012369,   498.517548,   245.905472,   286.198914,   0.377478,   657.366333,   651.291321
-0.024908,   0.078638,   0.081761,   0.000000,   690.091370,   0.567391,   1.113431,   13.056892,   500.081238,   248.087570,   289.802002,   0.376174,   662.963318,   657.203430
-0.025840,   0.080908,   0.084271,   0.000000,   693.660278,   0.567391,   1.113431,   12.101416,   499.595978,   250.235168,   293.347870,   0.374532,   667.350159,   662.000244
-0.026693,   0.082254,   0.085807,   0.000000,   695.608521,   0.567391,   1.113431,   11.145939,   496.821045,   252.133545,   296.912903,   0.372320,   670.528931,   665.729431
-0.027409,   0.082665,   0.086366,   0.000000,   695.939331,   0.567391,   1.113431,   10.190462,   491.615631,   253.776031,   300.573547,   0.369420,   672.578125,   668.469421
-0.027951,   0.082123,   0.085933,   0.000000,   694.565796,   0.567391,   1.113431,   9.234985,   483.673340,   255.124878,   304.425323,   0.365630,   673.539795,   670.260376
-0.028256,   0.080573,   0.084459,   0.000000,   691.358887,   0.567391,   1.113431,   8.279508,   472.515472,   256.349274,   308.543365,   0.360794,   673.389832,   671.033813
-0.028291,   0.078080,   0.082003,   0.000000,   686.376892,   0.567391,   1.113431,   7.324031,   458.166901,   257.688538,   312.779449,   0.355022,   672.122681,   670.665894
-0.028029,   0.074698,   0.078625,   0.000000,   679.636780,   0.567391,   1.113431,   6.368554,   440.332703,   259.563995,   317.056976,   0.348344,   669.736694,   669.046692
-0.027396,   0.070325,   0.074197,   0.000000,   670.942505,   0.567391,   1.113431,   5.413077,   418.623077,   262.624420,   320.977570,   0.341042,   665.849854,   665.670349
-0.026272,   0.065045,   0.068792,   0.000000,   660.544250,   0.567391,   1.113431,   4.457601,   393.506165,   267.825012,   323.837891,   0.333929,   660.151123,   660.150024
-0.024710,   0.059336,   0.062832,   -6.861100,   649.132324,   0.567391,   1.113431,   3.502124,   367.593964,   274.677246,   324.689789,   0.328063,   652.589905,   652.508728
-0.022623,   0.053461,   0.056591,   -10.198972,   637.938293,   0.567391,   1.113431,   2.546647,   343.123077,   284.616272,   322.745605,   0.325372,   643.098450,   642.916443
-0.020076,   0.047557,   0.050173,   -7.508580,   627.284546,   0.567391,   1.113431,   1.591170,   324.661255,   295.114685,   317.052551,   0.327367,   631.072327,   630.971802
-0.078831,   0.032852,   0.085147,   -693.847900,   0.443988,   0.552450,   1.855719,   56.279121,   -354.897003,   -338.506897,   347.049194,   -0.333013,   694.070007,   -694.069641
-0.087508,   0.035644,   0.094306,   -705.885498,   0.000000,   0.552448,   1.855719,   55.348808,   -401.137756,   -312.656006,   346.173096,   -0.338950,   701.964783,   -701.864563
-0.095810,   0.037137,   0.102686,   -718.805786,   0.000000,   0.552448,   1.855719,   54.418495,   -459.327972,   -289.308075,   333.833984,   -0.354284,   704.364563,   -702.941223
-0.103009,   0.037527,   0.109674,   -730.214111,   0.000000,   0.552450,   1.855719,   53.488178,   -518.669067,   -271.709137,   311.439331,   -0.375262,   702.068176,   -696.232910
-0.108315,   0.037097,   0.114562,   -738.569214,   0.000000,   0.552448,   1.855719,   52.557865,   -571.135559,   -261.100677,   282.744202,   -0.398308,   696.475647,   -682.089233
-0.111195,   0.035855,   0.116911,   -743.730530,   0.000000,   0.552449,   1.855719,   51.627552,   -612.853210,   -257.883636,   252.163330,   -0.421218,   689.062561,   -661.955872
-0.111026,   0.033810,   0.116173,   -744.997314,   0.000000,   0.552449,   1.855719,   50.697235,   -641.734924,   -259.534515,   223.897430,   -0.441503,   680.455505,   -638.179871
-0.107153,   0.031051,   0.111657,   -741.277100,   0.000000,   0.552449,   1.855719,   49.766922,   -656.888550,   -262.442627,   201.017746,   -0.457222,   670.229492,   -613.544067
-0.099023,   0.027666,   0.102730,   -731.433777,   0.000000,   0.552448,   1.855719,   48.836605,   -656.404846,   -263.992218,   187.274277,   -0.466516,   657.638489,   -591.779724
-0.086058,   0.023686,   0.088754,   -711.587830,   0.000000,   0.552450,   1.855719,   47.906292,   -635.534546,   -255.171310,   186.311508,   -0.463128,   641.079041,   -580.653931
-0.069103,   0.019643,   0.070746,   -673.807800,   0.000000,   0.552448,   1.855719,   46.975975,   -486.484711,   -246.672714,   282.864380,   -0.378201,   646.180359,   -640.005310
-0.054918,   0.017552,   0.058363,   -541.119019,   198.385712,   0.552449,   1.855719,   46.045662,   -109.517464,   -233.215836,   364.542847,   -0.172325,   662.960754,   -590.427612
-0.048429,   0.019961,   0.054959,   -496.961700,   247.597198,   0.552448,   1.855719,   45.115349,   -50.239033,   -199.125473,   364.760468,   -0.126565,   656.750793,   -535.524719
-0.045249,   0.023437,   0.051655,   -488.672211,   249.239868,   0.552450,   1.855719,   44.185036,   -58.245739,   -181.186600,   363.799316,   -0.122754,   650.167358,   -525.304810
-0.044510,   0.028007,   0.050894,   -464.918304,   275.831573,   0.552448,   1.855719,   43.254719,   -23.763237,   -165.323471,   363.548859,   -0.097201,   648.437561,   -487.528870
-0.045665,   0.032709,   0.052224,   -459.460358,   286.538849,   0.552449,   1.855719,   42.324406,   -22.490147,   -150.431381,   367.473083,   -0.088431,   651.814087,   -475.655609
-0.046871,   0.036670,   0.054267,   -445.004303,   308.756073,   0.552449,   1.855719,   41.394089,   -3.332304,   -132.915924,   371.269043,   -0.069198,   656.320740,   -442.714233
-0.047306,   0.039228,   0.055602,   -438.066986,   320.293671,   0.552448,   1.855719,   40.463776,   1.701180,   -119.474510,   374.308472,   -0.059536,   659.394226,   -423.573303
-0.047754,   0.041682,   0.057145,   -424.131805,   339.422424,   0.552449,   1.855719,   39.533463,   17.592367,   -102.301750,   377.041260,   -0.042614,   662.612427,   -381.408051
-0.048831,   0.044024,   0.059238,   -417.247772,   352.106262,   0.552449,   1.855719,   38.603146,   22.713236,   -87.854729,   380.683716,   -0.032551,   667.075806,   -351.268250
-0.049343,   0.045532,   0.060488,   -408.372345,   364.481964,   0.552449,   1.855719,   37.672832,   29.842802,   -73.733185,   382.941193,   -0.021847,   669.671143,   -308.925537
-0.049889,   0.047016,   0.061773,   -401.845978,   374.368103,   0.552448,   1.855719,   36.742519,   33.182232,   -60.660107,   385.260284,   -0.013623,   672.361511,   -265.061188
-0.050357,   0.048275,   0.062887,   -394.404785,   384.542023,   0.552450,   1.855719,   35.812202,   38.206379,   -48.069138,   387.077087,   -0.004873,   674.605774,   -188.822159
-0.050651,   0.049319,   0.063760,   -388.391266,   392.664856,   0.552448,   1.855719,   34.881889,   40.225925,   -35.952339,   388.666168,   0.002106,   676.417847,   143.142654
-0.050810,   0.050200,   0.064445,   -381.139160,   401.404999,   0.552449,   1.855719,   33.951572,   44.298588,   -24.032745,   389.777557,   0.009967,   677.778870,   240.787628
-0.050764,   0.050802,   0.064819,   -375.216431,   408.119995,   0.552449,   1.855719,   33.021259,   45.684135,   -12.780561,   390.575806,   0.016163,   678.588684,   283.184204
-0.050725,   0.051414,   0.065211,   -368.041168,   415.910034,   0.552448,   1.855719,   32.090942,   49.609150,   -1.740284,   391.133850,   0.023488,   679.343445,   321.021851
-0.050281,   0.051588,   0.065047,   -361.462891,   421.919067,   0.552449,   1.855719,   31.160629,   51.107407,   9.348786,   391.134094,   0.029675,   679.101746,   346.804199
-0.050042,   0.052006,   0.065191,   -353.666687,   429.546783,   0.552448,   1.855719,   30.230314,   55.639271,   20.240826,   391.206573,   0.037232,   679.343018,   373.992188
-0.049218,   0.051778,   0.064519,   -345.961700,   435.327820,   0.552449,   1.855719,   29.299999,   57.963860,   31.402256,   390.418945,   0.043930,   678.090393,   394.250763
-0.048634,   0.051894,   0.064250,   -336.039307,   443.728943,   0.552449,   1.855719,   28.369686,   65.714455,   41.975185,   389.703400,   0.052988,   677.442322,   418.901642
-0.047634,   0.051520,   0.063378,   -328.792511,   448.510193,   0.552448,   1.855719,   27.439371,   65.778259,   53.939426,   388.606262,   0.059048,   675.820007,   432.960541
-0.046100,   0.050786,   0.061949,   -306.775177,   464.197479,   0.552449,   1.855719,   26.509056,   93.054474,   64.367821,   385.219391,   0.078051,   672.305420,   471.440308
-0.045734,   0.051265,   0.062100,   -310.941132,   461.516785,   0.552448,   1.855719,   25.578741,   73.427559,   77.148087,   386.224487,   0.074558,   673.191406,   465.164398
-0.041893,   0.048157,   0.057625,   -245.394241,   502.748474,   0.552449,   1.855719,   24.648426,   160.378769,   96.975464,   372.725616,   0.129866,   660.564880,   542.793884
-0.037439,   0.045830,   0.054051,   -103.393303,   573.838806,   0.552449,   1.855719,   23.718113,   349.526886,   120.918617,   318.740326,   0.248160,   631.911560,   612.446228
-0.033665,   0.046140,   0.053815,   -9.156746,   608.826050,   0.552448,   1.855719,   22.787798,   450.043213,   149.626083,   270.024200,   0.325842,   613.455688,   613.301880
-0.030386,   0.047646,   0.054632,   0.000000,   622.131165,   0.552449,   1.855719,   21.857483,   475.696259,   169.763870,   257.375916,   0.352248,   610.800903,   609.797302
-0.027795,   0.050147,   0.056073,   0.000000,   631.406616,   0.552448,   1.855719,   20.927168,   486.033081,   184.804169,   254.802231,   0.364996,   612.643738,   609.778992
-0.026170,   0.053735,   0.058415,   0.000000,   640.516174,   0.552448,   1.855719,   19.996855,   491.694183,   198.069183,   256.604431,   0.372422,   617.367493,   612.924866
-0.025429,   0.058548,   0.061967,   0.000000,   650.585938,   0.552449,   1.855719,   19.066540,   496.245636,   209.940094,   260.786163,   0.376847,   624.644714,   619.040833
-0.025447,   0.063874,   0.066474,   0.000000,   661.015808,   0.552449,   1.855719,   18.136225,   498.996429,   220.465652,   267.166016,   0.378375,   633.817017,   627.711304
-0.025528,   0.068311,   0.070564,   0.000000,   669.352234,   0.552448,   1.855719,   17.205910,   500.526031,   227.977570,   272.975494,   0.378351,   641.824097,   635.648315
-0.025548,   0.072047,   0.074311,   0.000000,   676.304260,   0.552449,   1.855719,   16.275597,   501.817322,   233.539383,   277.950867,   0.377805,   648.796753,   642.708740
-0.025930,   0.075934,   0.078437,   0.000000,   683.311462,   0.552449,   1.855719,   15.345281,   503.969208,   238.086136,   282.573364,   0.377109,   655.915405,   649.957520
-0.026661,   0.079896,   0.082712,   0.000000,   690.189026,   0.552449,   1.855719,   14.414967,   506.219025,   242.298370,   287.051300,   0.376356,   662.952087,   657.141968
-0.027538,   0.083495,   0.086635,   0.000000,   696.275269,   0.552449,   1.855719,   13.484652,   507.829895,   246.228668,   291.220184,   0.375570,   669.257141,   663.610107
-0.028435,   0.086420,   0.089875,   0.000000,   701.266296,   0.552449,   1.855719,   12.554337,   507.853363,   250.324249,   295.326996,   0.374623,   674.613525,   669.180603
-0.029231,   0.088506,   0.092254,   0.000000,   705.023926,   0.552449,   1.855719,   11.624022,   506.218933,   254.579605,   299.250061,   0.373568,   678.857239,   673.673462
-0.029893,   0.089671,   0.093685,   0.000000,   707.386658,   0.552449,   1.855719,   10.693707,   502.487671,   258.849548,   303.158020,   0.372103,   682.013611,   677.187744
-0.030385,   0.089904,   0.094156,   0.000000,   708.320557,   0.552449,   1.855719,   9.763393,   496.384033,   263.138947,   307.164825,   0.370053,   684.157837,   679.827087
-0.030712,   0.089268,   0.093737,   0.000000,   707.865906,   0.552449,   1.855719,   8.833078,   487.638397,   267.517548,   311.411041,   0.367234,   685.445496,   681.760742
-0.030843,   0.087782,   0.092440,   0.000000,   705.987732,   0.552449,   1.855719,   7.902764,   476.065979,   272.076141,   315.857117,   0.363591,   685.882812,   682.959167
-0.030797,   0.085448,   0.090264,   0.000000,   702.503052,   0.552449,   1.855719,   6.972449,   460.987335,   276.883942,   320.614563,   0.358798,   685.503540,   683.446167
-0.030558,   0.082334,   0.087280,   0.000000,   697.511108,   0.552449,   1.855719,   6.042135,   442.027832,   282.614532,   325.575104,   0.352959,   684.348999,   683.137390
-0.030131,   0.078467,   0.083480,   0.000000,   690.945557,   0.552449,   1.855719,   5.111820,   419.268799,   289.559998,   330.222839,   0.346355,   682.179749,   681.652039
-0.029400,   0.073684,   0.078634,   0.000000,   682.354675,   0.552449,   1.855719,   4.181505,   393.223511,   297.440948,   333.602417,   0.339441,   678.237976,   678.123474
-0.028019,   0.068073,   0.072807,   0.000000,   672.235413,   0.552449,   1.855719,   3.251191,   365.267609,   307.308563,   334.695068,   0.333587,   672.065063,   672.064880
-0.025838,   0.061943,   0.066276,   -2.144985,   662.215088,   0.552449,   1.855719,   2.320876,   339.078308,   320.991791,   332.056915,   0.331715,   663.290161,   663.282410
-0.097071,   0.040372,   0.105384,   -719.895020,   0.957590,   0.537507,   2.598006,   55.549416,   -380.815186,   -338.122223,   359.793610,   -0.332668,   720.374268,   -720.372864
-0.107643,   0.042696,   0.116215,   -734.094971,   0.000000,   0.537506,   2.598006,   54.644264,   -445.408081,   -307.216522,   351.047333,   -0.346031,   725.007812,   -724.474731
-0.115994,   0.043265,   0.124316,   -745.507141,   0.000000,   0.537506,   2.598006,   53.739113,   -511.142853,   -282.394592,   329.449615,   -0.366011,   722.690002,   -719.085938
-0.121899,   0.042948,   0.129637,   -752.790527,   0.000000,   0.537507,   2.598006,   52.833961,   -568.606323,   -264.202942,   299.983551,   -0.387637,   716.141968,   -705.979126
-0.124871,   0.041741,   0.131828,   -756.065735,   0.000000,   0.537506,   2.598006,   51.928806,   -613.648315,   -253.077484,   267.645844,   -0.408491,   707.258667,   -687.376099
-0.124382,   0.039660,   0.130472,   -755.594482,   0.000000,   0.537507,   2.598006,   51.023655,   -644.419067,   -248.438766,   237.451584,   -0.426895,   697.172058,   -665.744019
-0.119824,   0.036716,   0.124998,   -751.024353,   0.000000,   0.537507,   2.598006,   50.118504,   -660.536072,   -248.412415,   213.261566,   -0.441771,   685.837280,   -642.990662
-0.110616,   0.032903,   0.114783,   -740.822998,   0.000000,   0.537506,   2.598006,   49.213352,   -661.054321,   -249.290939,   198.012283,   -0.451367,   672.287537,   -621.411377
-0.096339,   0.028193,   0.099386,   -723.682800,   0.000000,   0.537506,   2.598006,   48.308201,   -644.636108,   -250.582550,   193.383102,   -0.455593,   654.983826,   -601.253723
-0.077922,   0.023127,   0.079776,   -692.630859,   0.000000,   0.537507,   2.598006,   47.403046,   -551.650574,   -243.494934,   251.633316,   -0.409348,   647.489014,   -628.841187
-0.061065,   0.019436,   0.063574,   -591.415344,   136.044022,   0.537506,   2.598006,   46.497894,   -202.926453,   -252.444855,   362.886017,   -0.226594,   669.879517,   -637.677490
-0.053204,   0.021046,   0.059669,   -499.355499,   257.527740,   0.537507,   2.598006,   45.592743,   -46.232540,   -195.595230,   370.999664,   -0.120937,   666.539062,   -536.110229
-0.051312,   0.025773,   0.058933,   -503.614899,   250.635193,   0.537506,   2.598006,   44.687592,   -61.103214,   -191.876480,   371.413361,   -0.126743,   665.334167,   -542.752808
-0.050599,   0.030767,   0.058296,   -479.804321,   277.622925,   0.537507,   2.598006,   43.782436,   -20.656332,   -181.525085,   370.073395,   -0.101543,   663.695251,   -505.872650
-0.052179,   0.036274,   0.060085,   -474.039062,   289.686554,   0.537506,   2.598006,   42.877285,   -19.157560,   -165.194946,   374.816589,   -0.092020,   667.797913,   -493.497742
-0.054154,   0.041208,   0.062851,   -461.740784,   310.695343,   0.537506,   2.598006,   41.972134,   -0.849859,   -150.195602,   378.930542,   -0.074790,   673.198975,   -465.634827
-0.055212,   0.044871,   0.065003,   -454.302917,   324.421204,   0.537508,   2.598006,   41.066982,   6.137414,   -136.019135,   382.819397,   -0.063901,   677.514404,   -445.356537
-0.055401,   0.047479,   0.066295,   -441.239014,   341.678680,   0.537506,   2.598006,   40.161827,   21.689600,   -121.249924,   384.879333,   -0.048815,   679.851562,   -409.226105
-0.056404,   0.050074,   0.068408,   -434.032623,   354.356964,   0.537506,   2.598006,   39.256676,   27.304688,   -106.980331,   388.434570,   -0.038832,   683.926636,   -381.787964
-0.057399,   0.052265,   0.070381,   -426.106384,   367.110291,   0.537507,   2.598006,   38.351524,   34.208607,   -93.204704,   391.458344,   -0.028601,   687.578857,   -346.867950
-0.057875,   0.053861,   0.071659,   -419.006165,   377.378326,   0.537506,   2.598006,   37.446369,   38.422005,   -80.049866,   393.761566,   -0.020110,   690.003174,   -309.658813
-0.058123,   0.055069,   0.072574,   -411.416229,   387.223755,   0.537506,   2.598006,   36.541222,   42.633385,   -66.825867,   395.551666,   -0.011658,   691.748291,   -258.918823
-0.058194,   0.056018,   0.073222,   -404.469177,   395.753082,   0.537508,   2.598006,   35.636066,   45.565121,   -54.281231,   396.984375,   -0.004192,   693.026489,   -184.486130
-0.058150,   0.056786,   0.073690,   -397.501160,   403.842468,   0.537506,   2.598006,   34.730915,   47.894012,   -41.552708,   398.167969,   0.003046,   693.991211,   166.081665
-0.058082,   0.057486,   0.074109,   -390.365387,   411.843414,   0.537506,   2.598006,   33.825764,   50.854065,   -29.376045,   399.093384,   0.010304,   694.816223,   249.591049
-0.057901,   0.058034,   0.074361,   -383.988342,   418.726685,   0.537507,   2.598006,   32.920609,   51.967167,   -17.228813,   399.863525,   0.016652,   695.388550,   293.087982
-0.057639,   0.058501,   0.074512,   -376.103058,   426.674713,   0.537507,   2.598006,   32.015457,   55.826946,   -5.255284,   400.225281,   0.024231,   695.685608,   332.164307
-0.057180,   0.058735,   0.074384,   -369.814758,   432.557526,   0.537507,   2.598006,   31.110304,   56.269131,   6.473654,   400.412811,   0.030067,   695.582581,   356.772186
-0.056706,   0.058979,   0.074260,   -360.875824,   440.709778,   0.537506,   2.598006,   30.205153,   61.376762,   18.457197,   400.217865,   0.038271,   695.340149,   386.296143
-0.056016,   0.058988,   0.073842,   -354.066498,   446.314209,   0.537507,   2.598006,   29.300001,   62.421394,   29.826305,   399.858368,   0.044264,   694.682922,   404.905151
-0.055174,   0.058877,   0.073252,   -343.240448,   454.999115,   0.537507,   2.598006,   28.394848,   69.709412,   42.049232,   398.880096,   0.053713,   693.550537,   430.775604
-0.054486,   0.058973,   0.072913,   -335.759369,   461.105804,   0.537506,   2.598006,   27.489697,   72.308662,   53.037777,   398.316071,   0.060296,   692.945557,   446.971191
-0.052804,   0.058025,   0.071230,   -319.548492,   471.923706,   0.537507,   2.598006,   26.584543,   86.667320,   65.707901,   395.597321,   0.073648,   689.656250,   474.659332
-0.052326,   0.058652,   0.071443,   -308.783630,   481.428558,   0.537506,   2.598006,   25.679390,   95.965675,   76.679260,   394.988403,   0.083432,   689.766663,   494.115112
-0.049668,   0.056699,   0.068475,   -290.628540,   490.496490,   0.537507,   2.598006,   24.774239,   114.770477,   85.097481,   390.280609,   0.097428,   683.815796,   514.503906
-0.044037,   0.052070,   0.062040,   -177.522278,   553.132019,   0.537507,   2.598006,   23.869085,   266.448547,   109.161186,   356.761963,   0.189688,   660.047302,   602.730652
-0.039493,   0.050569,   0.059561,   -53.663334,   604.507141,   0.537506,   2.598006,   22.963934,   413.598999,   137.244797,   298.670685,   0.290049,   633.046997,   627.899048
-0.035548,   0.051391,   0.059754,   0.000000,   626.352905,   0.537507,   2.598006,   22.058783,   470.073669,   162.995514,   269.096924,   0.338709,   623.021973,   622.940491
-0.032379,   0.053548,   0.061036,   0.000000,   636.500488,   0.537507,   2.598006,   21.153629,   486.453094,   178.069901,   262.271454,   0.355572,   622.962097,   621.541687
-0.030007,   0.056815,   0.063049,   0.000000,   645.221924,   0.537506,   2.598006,   20.248476,   495.605774,   190.387177,   260.865173,   0.365376,   625.833252,   622.834839
-0.028677,   0.061208,   0.066053,   0.000000,   653.956238,   0.537507,   2.598006,   19.343325,   501.314270,   200.778946,   263.009247,   0.370733,   631.265747,   627.116577
-0.028583,   0.066981,   0.070637,   0.000000,   664.405212,   0.537507,   2.598006,   18.438171,   505.825562,   211.062683,   268.124817,   0.373508,   639.780273,   634.909912
-0.028859,   0.072898,   0.075860,   0.000000,   674.909912,   0.537506,   2.598006,   17.533020,   510.075439,   220.209839,   273.770447,   0.375084,   648.996521,   643.649231
-0.028961,   0.077457,   0.080153,   0.000000,   682.964783,   0.537507,   2.598006,   16.627869,   512.153015,   227.422241,   278.948059,   0.375518,   656.492676,   650.967285
-0.029115,   0.081461,   0.084208,   0.000000,   689.950195,   0.537506,   2.598006,   15.722715,   514.447388,   232.866104,   283.230560,   0.375648,   663.131958,   657.515259
-0.029736,   0.085748,   0.088760,   0.000000,   697.164856,   0.537507,   2.598006,   14.817563,   516.613403,   237.937164,   287.948334,   0.375221,   670.316895,   664.756714
-0.030644,   0.089956,   0.093304,   0.000000,   704.001648,   0.537507,   2.598006,   13.912411,   518.304626,   242.734756,   292.670288,   0.374553,   677.286499,   671.851074
-0.031633,   0.093724,   0.097442,   0.000000,   710.133667,   0.537506,   2.598006,   13.007258,   518.743591,   247.805008,   297.464508,   0.373740,   683.674194,   678.407776
-0.032568,   0.096742,   0.100832,   0.000000,   715.183167,   0.537507,   2.598006,   12.102106,   517.714722,   253.004181,   302.102264,   0.372817,   689.095764,   684.033752
-0.033378,   0.098874,   0.103324,   0.000000,   719.060486,   0.537507,   2.598006,   11.196954,   514.964600,   258.448517,   306.608887,   0.371753,   693.483521,   688.666931
-0.034021,   0.100132,   0.104933,   0.000000,   721.869812,   0.537507,   2.598006,   10.291800,   510.484772,   264.281738,   311.010071,   0.370562,   696.928650,   692.390625
-0.034517,   0.100544,   0.105683,   0.000000,   723.553406,   0.537506,   2.598006,   9.386649,   503.922668,   270.388733,   315.482025,   0.368953,   699.556885,   695.395813
-0.034870,   0.100084,   0.105545,   0.000000,   723.907776,   0.537507,   2.598006,   8.481497,   494.716705,   276.560974,   320.199738,   0.366530,   701.423462,   697.811035
-0.035061,   0.098810,   0.104570,   0.000000,   723.007629,   0.537507,   2.598006,   7.576344,   482.727997,   283.067932,   325.128540,   0.363320,   702.591370,   699.650940
-0.035118,   0.096752,   0.102795,   0.000000,   720.736328,   0.537507,   2.598006,   6.671192,   467.148407,   290.123840,   330.451416,   0.358975,   703.180603,   701.040344
-0.035100,   0.093936,   0.100210,   0.000000,   716.891541,   0.537507,   2.598006,   5.766040,   447.676605,   297.686920,   335.940704,   0.353376,   703.088074,   701.789185
-0.034780,   0.090028,   0.096452,   0.000000,   710.937317,   0.537507,   2.598006,   4.860888,   423.405792,   306.284485,   341.101807,   0.346606,   701.748779,   701.184631
-0.034152,   0.084846,   0.091241,   0.000000,   702.150757,   0.537507,   2.598006,   3.955735,   394.637604,   315.189758,   344.957367,   0.338815,   698.344055,   698.249084
-0.032572,   0.078419,   0.084581,   -1.028821,   691.767639,   0.537507,   2.598006,   3.050583,   362.449341,   328.289490,   345.976898,   0.332590,   692.282654,   692.280945
-0.126894,   0.052502,   0.138087,   -753.913330,   0.000000,   0.522564,   3.340294,   54.819710,   -425.982788,   -328.014771,   373.717987,   -0.333389,   753.871216,   -753.871216
-0.136194,   0.052754,   0.146959,   -766.356873,   0.000000,   0.522564,   3.340294,   53.939720,   -500.700989,   -297.773010,   352.820129,   -0.354493,   750.813660,   -749.265747
-0.141660,   0.051695,   0.151556,   -772.815002,   0.000000,   0.522564,   3.340294,   53.059731,   -564.226196,   -274.263367,   322.478333,   -0.376599,   742.160217,   -735.580017
-0.143585,   0.049662,   0.152354,   -774.665161,   0.000000,   0.522564,   3.340294,   52.179741,   -613.776489,   -258.604736,   288.146271,   -0.397953,   730.723816,   -715.803223
-0.141522,   0.046768,   0.149045,   -772.144775,   0.000000,   0.522564,   3.340294,   51.299751,   -647.428955,   -249.537491,   255.298630,   -0.416466,   717.918945,   -692.872131
-0.134893,   0.042897,   0.141157,   -765.460632,   0.000000,   0.522565,   3.340294,   50.419762,   -665.088196,   -246.257950,   228.284134,   -0.431540,   703.948120,   -668.656006
-0.123439,   0.038160,   0.128415,   -753.424011,   0.000000,   0.522564,   3.340294,   49.539768,   -666.936829,   -244.943695,   209.707031,   -0.441790,   688.019836,   -645.019836
-0.107113,   0.032523,   0.110760,   -736.730469,   0.000000,   0.522564,   3.340294,   48.659779,   -653.139038,   -250.385086,   201.629089,   -0.450112,   669.111267,   -619.694946
-0.086868,   0.026457,   0.089161,   -707.549500,   0.000000,   0.522564,   3.340294,   47.779793,   -592.043091,   -243.583191,   231.497498,   -0.426557,   653.000244,   -623.795105
-0.067352,   0.021452,   0.069450,   -630.755493,   80.129776,   0.522564,   3.340294,   46.899803,   -288.024750,   -262.600952,   355.215240,   -0.272156,   674.400146,   -663.563477
-0.057252,   0.021617,   0.063218,   -511.335052,   251.698517,   0.522564,   3.340294,   46.019814,   -57.280888,   -202.355652,   374.557587,   -0.128513,   673.437439,   -551.646362
-0.055578,   0.026793,   0.063920,   -515.118286,   248.729706,   0.522565,   3.340294,   45.139820,   -62.553055,   -203.835526,   375.334198,   -0.131591,   674.787781,   -556.661316
-0.055607,   0.032633,   0.064372,   -491.598267,   278.389404,   0.522564,   3.340294,   44.259830,   -21.265900,   -191.942963,   375.416565,   -0.105242,   675.296448,   -520.479004
-0.057776,   0.039059,   0.066885,   -484.115936,   293.817444,   0.522564,   3.340294,   43.379841,   -15.025665,   -175.272812,   380.624878,   -0.093229,   680.395935,   -504.884247
-0.060706,   0.045296,   0.070693,   -473.800934,   314.251953,   0.522564,   3.340294,   42.499851,   3.367723,   -162.916687,   385.154785,   -0.077400,   687.120422,   -480.534912
-0.062840,   0.050360,   0.074184,   -466.035706,   330.800323,   0.522564,   3.340294,   41.619862,   12.239870,   -147.475250,   390.332794,   -0.065012,   693.385132,   -458.348938
-0.063479,   0.053570,   0.076005,   -455.769379,   345.830688,   0.522565,   3.340294,   40.739872,   25.214342,   -135.153046,   392.697388,   -0.052624,   696.378967,   -429.638611
-0.064639,   0.056774,   0.078492,   -447.497375,   359.873474,   0.522564,   3.340294,   39.859882,   33.903702,   -121.527626,   396.134064,   -0.041691,   700.574951,   -400.360168
-0.065880,   0.059522,   0.080926,   -439.681763,   373.096344,   0.522564,   3.340294,   38.979893,   40.430393,   -107.015800,   399.646057,   -0.031497,   704.673401,   -367.043213
-0.066498,   0.061319,   0.082400,   -433.348297,   382.728027,   0.522564,   3.340294,   38.099903,   44.273441,   -94.893700,   402.061279,   -0.023860,   707.195862,   -335.931641
-0.066744,   0.062736,   0.083422,   -425.808807,   392.615997,   0.522564,   3.340294,   37.219910,   48.567532,   -81.760323,   403.990662,   -0.015606,   708.970947,   -292.431976
-0.066933,   0.063941,   0.084303,   -419.002228,   401.381561,   0.522565,   3.340294,   36.339920,   51.578758,   -69.199425,   405.722260,   -0.008266,   710.527832,   -237.171417
-0.066966,   0.064887,   0.084931,   -412.147278,   409.623016,   0.522565,   3.340294,   35.459930,   54.231434,   -56.755711,   407.120453,   -0.001182,   711.675049,   -124.240395
-0.066898,   0.065683,   0.085408,   -405.561462,   417.224640,   0.522564,   3.340294,   34.579941,   56.308563,   -44.645393,   408.284607,   0.005456,   712.577515,   207.098907
-0.066620,   0.066225,   0.085588,   -398.556427,   424.608398,   0.522564,   3.340294,   33.699951,   58.495815,   -32.443859,   409.063049,   0.012179,   713.000671,   270.794189
-0.066281,   0.066675,   0.085676,   -391.936523,   431.377991,   0.522564,   3.340294,   32.819962,   59.889103,   -20.447638,   409.692810,   0.018432,   713.283936,   310.963013
-0.065818,   0.066978,   0.085591,   -384.587585,   438.412384,   0.522564,   3.340294,   31.939970,   62.308907,   -8.484117,   409.974792,   0.025155,   713.246826,   344.806976
-0.065269,   0.067187,   0.085391,   -377.567200,   444.864594,   0.522564,   3.340294,   31.059980,   63.886723,   3.410676,   410.102631,   0.031460,   713.041199,   371.257965
-0.064630,   0.067295,   0.085071,   -369.928253,   451.553802,   0.522565,   3.340294,   30.179991,   66.518768,   15.106782,   409.935852,   0.038182,   712.594055,   395.578522
-0.063900,   0.067334,   0.084652,   -361.474548,   458.695557,   0.522565,   3.340294,   29.299999,   70.155510,   27.065491,   409.518707,   0.045519,   711.949646,   418.807037
-0.062952,   0.067136,   0.083935,   -353.683136,   464.634338,   0.522564,   3.340294,   28.420010,   72.627007,   38.324196,   408.799103,   0.052027,   710.851685,   436.931549
-0.062127,   0.067163,   0.083466,   -342.335083,   473.919250,   0.522564,   3.340294,   27.540020,   80.937660,   50.646526,   407.846039,   0.061781,   709.952026,   461.583710
-0.060664,   0.066489,   0.082111,   -333.543152,   479.362854,   0.522565,   3.340294,   26.660030,   84.848045,   60.971642,   406.277649,   0.068676,   707.762695,   476.245941
-0.059396,   0.066231,   0.081201,   -315.267029,   493.149719,   0.522564,   3.340294,   25.780041,   104.026428,   73.856262,   403.926788,   0.084018,   705.736328,   506.684998
-0.057869,   0.065786,   0.080021,   -303.193451,   501.160645,   0.522565,   3.340294,   24.900049,   112.369537,   85.597656,   401.954224,   0.093789,   703.588562,   523.081238
-0.052452,   0.060969,   0.073385,   -246.462372,   531.177673,   0.522564,   3.340294,   24.020060,   187.635300,   97.079987,   386.174744,   0.137876,   688.337646,   575.706482
-0.046476,   0.056672,   0.067354,   -120.348381,   591.042419,   0.522564,   3.340294,   23.140070,   348.257446,   122.436607,   337.298767,   0.237903,   659.504272,   634.089294
-0.041658,   0.055819,   0.065612,   -25.295954,   625.747864,   0.522565,   3.340294,   22.260080,   449.832642,   150.619247,   289.106110,   0.313337,   638.771606,   637.643188
-0.037586,   0.057083,   0.066083,   0.000000,   640.691101,   0.522564,   3.340294,   21.380089,   484.102722,   171.361298,   271.093353,   0.344926,   633.433899,   633.046204
-0.034555,   0.060027,   0.067947,   0.000000,   650.209045,   0.522564,   3.340294,   20.500099,   497.507080,   184.584381,   266.649200,   0.358127,   634.868530,   633.063538
-0.032753,   0.064401,   0.070958,   0.000000,   659.248535,   0.522565,   3.340294,   19.620110,   506.490204,   194.882919,   266.337585,   0.365740,   639.228088,   636.093994
-0.031778,   0.069905,   0.075040,   0.000000,   668.995117,   0.522564,   3.340294,   18.740120,   512.959167,   204.952484,   269.086090,   0.370481,   645.927490,   641.740356
-0.032004,   0.076470,   0.080472,   0.000000,   679.386292,   0.522565,   3.340294,   17.860130,   518.453003,   213.307144,   273.875214,   0.372527,   654.772217,   650.034485
-0.032509,   0.082870,   0.086325,   0.000000,   689.880371,   0.522565,   3.340294,   16.980139,   522.635803,   222.115036,   279.698395,   0.373788,   664.147217,   659.018616
-0.032700,   0.087773,   0.091011,   0.000000,   697.588623,   0.522564,   3.340294,   16.100149,   525.658325,   228.046722,   284.127563,   0.374256,   671.291809,   665.984009
-0.033133,   0.092268,   0.095632,   0.000000,   704.568115,   0.522565,   3.340294,   15.220160,   527.791565,   233.043411,   288.711792,   0.373955,   678.187561,   672.906067
-0.034006,   0.097056,   0.100716,   0.000000,   711.886963,   0.522565,   3.340294,   14.340169,   529.993835,   238.173309,   293.539215,   0.373541,   685.481873,   680.254761
-0.035144,   0.101767,   0.105824,   0.000000,   718.945923,   0.522564,   3.340294,   13.460179,   531.208862,   243.514389,   298.757629,   0.372780,   692.743469,   687.664185
-0.036376,   0.106021,   0.110512,   0.000000,   725.174072,   0.522565,   3.340294,   12.580190,   531.055115,   248.759186,   304.107147,   0.371629,   699.456421,   694.630432
-0.037564,   0.109593,   0.114536,   0.000000,   730.571899,   0.522565,   3.340294,   11.700199,   529.462402,   254.457901,   309.436676,   0.370431,   705.412292,   700.852112
-0.038624,   0.112315,   0.117715,   0.000000,   734.982849,   0.522565,   3.340294,   10.820210,   526.357605,   260.513885,   314.620728,   0.369183,   710.461121,   706.179016
-0.039534,   0.114153,   0.120009,   0.000000,   738.388489,   0.522564,   3.340294,   9.940220,   521.571655,   266.937164,   319.716431,   0.367784,   714.647705,   710.677307
-0.040319,   0.115180,   0.121493,   0.000000,   740.791870,   0.522565,   3.340294,   9.060229,   514.931519,   273.573914,   324.847687,   0.366002,   718.124878,   714.545593
-0.040991,   0.115410,   0.122175,   0.000000,   742.143738,   0.522564,   3.340294,   8.180239,   506.053711,   280.456238,   330.151184,   0.363627,   720.985107,   717.904236
-0.041586,   0.114828,   0.122041,   0.000000,   742.205872,   0.522565,   3.340294,   7.300249,   494.154297,   287.419098,   335.872833,   0.360176,   723.325989,   720.909790
-0.042101,   0.113503,   0.121148,   0.000000,   740.988770,   0.522564,   3.340294,   6.420259,   478.997803,   294.664856,   341.954407,   0.355607,   725.204041,   723.545227
-0.042481,   0.111235,   0.119303,   0.000000,   738.149292,   0.522565,   3.340294,   5.540269,   459.245850,   302.747681,   348.475281,   0.349609,   726.520752,   725.639526
-0.042754,   0.107933,   0.116299,   0.000000,   733.052063,   0.522564,   3.340294,   4.660279,   435.224640,   310.595337,   354.709991,   0.342079,   726.752197,   726.499817
-0.042623,   0.102800,   0.111327,   -1.166888,   724.555298,   0.522565,   3.340294,   3.780289,   403.334503,   320.053925,   360.463959,   0.332528,   725.139465,   725.137329
-0.165798,   0.067996,   0.180162,   -789.787292,   0.000000,   0.517473,   4.089216,   54.127285,   -481.580902,   -314.265350,   382.830109,   -0.337176,   786.775269,   -786.722839
-0.169606,   0.065296,   0.182469,   -795.555847,   0.000000,   0.517473,   4.089216,   53.271168,   -553.571045,   -285.067200,   351.469055,   -0.360745,   774.913391,   -772.211975
-0.168976,   0.061301,   0.180131,   -796.276367,   0.000000,   0.517472,   4.089216,   52.415058,   -610.204346,   -265.796417,   314.177429,   -0.384434,   759.558594,   -750.058838
-0.163638,   0.056355,   0.173042,   -792.052002,   0.000000,   0.517473,   4.089216,   51.558945,   -648.549316,   -254.697556,   277.690094,   -0.405376,   742.723694,   -723.641113
-0.153642,   0.050729,   0.161323,   -783.346619,   0.000000,   0.517473,   4.089216,   50.702831,   -669.128845,   -249.765335,   246.869370,   -0.422400,   725.137512,   -695.772949
-0.138883,   0.044357,   0.144946,   -769.790833,   0.000000,   0.517473,   4.089216,   49.846718,   -673.378784,   -248.556381,   224.172470,   -0.435211,   706.120728,   -667.731445
-0.119786,   0.037380,   0.124273,   -752.457703,   0.000000,   0.517473,   4.089216,   48.990604,   -662.451721,   -255.402618,   211.513458,   -0.446706,   684.904907,   -637.607178
-0.097265,   0.030128,   0.100222,   -724.246399,   0.000000,   0.517473,   4.089216,   48.134491,   -621.617126,   -250.589844,   220.479065,   -0.438667,   662.770874,   -623.966736
-0.075103,   0.023929,   0.077220,   -665.158752,   25.454725,   0.517473,   4.089216,   47.278378,   -372.318207,   -267.385803,   341.297577,   -0.314392,   678.244446,   -677.168457
-0.061987,   0.022322,   0.067372,   -533.555420,   233.186432,   0.517473,   4.089216,   46.422264,   -78.374504,   -221.994507,   376.585449,   -0.147069,   680.790161,   -580.156982
-0.059336,   0.027158,   0.068090,   -526.235046,   244.551010,   0.517472,   4.089216,   45.566151,   -66.007545,   -215.676498,   378.057648,   -0.137632,   682.216858,   -570.291016
-0.060231,   0.034008,   0.069975,   -503.036133,   277.522339,   0.517473,   4.089216,   44.710037,   -23.974300,   -201.539490,   380.046753,   -0.109687,   685.323120,   -535.011719
-0.063184,   0.041776,   0.073541,   -492.663910,   298.084351,   0.517473,   4.089216,   43.853924,   -8.838810,   -185.740753,   385.353241,   -0.093771,   691.684448,   -514.199280
-0.066930,   0.049040,   0.078209,   -484.495148,   317.199188,   0.517473,   4.089216,   42.997814,   7.979985,   -175.275925,   390.234253,   -0.079744,   699.308472,   -493.760498
-0.070091,   0.055351,   0.082870,   -476.232758,   336.069580,   0.517473,   4.089216,   42.141701,   18.682354,   -158.845520,   396.332855,   -0.066088,   706.956665,   -469.815735
-0.072125,   0.060087,   0.086447,   -468.253113,   351.555542,   0.517473,   4.089216,   41.285587,   30.879118,   -147.576675,   400.074921,   -0.054605,   712.368774,   -444.856689
-0.073129,   0.063591,   0.088895,   -458.983673,   366.230652,   0.517473,   4.089216,   40.429474,   39.963482,   -132.716507,   403.472534,   -0.043171,   716.159790,   -414.000977
-0.074929,   0.067164,   0.092141,   -452.018921,   379.459198,   0.517472,   4.089216,   39.573360,   47.539703,   -120.099411,   407.201721,   -0.033546,   720.994507,   -383.466431
-0.076049,   0.069660,   0.094376,   -445.920288,   389.925232,   0.517473,   4.089216,   38.717247,   51.620937,   -107.615990,   410.268616,   -0.025766,   724.404663,   -353.003662
-0.076652,   0.071727,   0.096023,   -438.340057,   400.762695,   0.517473,   4.089216,   37.861134,   56.268860,   -93.846230,   412.782898,   -0.017231,   726.927185,   -309.887604
-0.076862,   0.073042,   0.096973,   -431.992798,   409.053467,   0.517473,   4.089216,   37.005020,   59.046085,   -81.985428,   414.568726,   -0.010497,   728.457703,   -263.296906
-0.076872,   0.074106,   0.097648,   -425.194183,   417.245880,   0.517474,   4.089216,   36.148907,   61.890858,   -69.839172,   416.038605,   -0.003631,   729.585327,   -185.139999
-0.076705,   0.074884,   0.098041,   -418.922516,   424.385040,   0.517473,   4.089216,   35.292793,   63.673470,   -58.210930,   417.226501,   0.002493,   730.330872,   163.495499
-0.076446,   0.075549,   0.098312,   -412.181244,   431.699646,   0.517473,   4.089216,   34.436680,   65.673912,   -46.155502,   418.219177,   0.008902,   730.887451,   250.060120
-0.076076,   0.076036,   0.098402,   -405.762207,   438.334961,   0.517472,   4.089216,   33.580566,   67.047760,   -34.475010,   418.984833,   0.014849,   731.190979,   296.647034
-0.075650,   0.076439,   0.098407,   -399.119690,   444.954620,   0.517473,   4.089216,   32.724453,   68.626862,   -22.791929,   419.554535,   0.020891,   731.348938,   332.396210
-0.075110,   0.076703,   0.098250,   -392.392212,   451.310547,   0.517472,   4.089216,   31.868340,   70.193306,   -11.274961,   419.880127,   0.026857,   731.261658,   361.284119
-0.074462,   0.076848,   0.097948,   -385.381317,   457.608643,   0.517473,   4.089216,   31.012226,   72.048882,   0.178459,   419.960327,   0.032938,   730.943420,   386.409821
-0.073744,   0.076918,   0.097555,   -378.273224,   463.772827,   0.517473,   4.089216,   30.156113,   73.795464,   11.704139,   419.876831,   0.039015,   730.485229,   408.410400
-0.072894,   0.076865,   0.096999,   -370.130585,   470.480408,   0.517472,   4.089216,   29.299999,   77.384903,   22.964912,   419.423798,   0.045840,   729.717468,   430.252747
-0.071907,   0.076684,   0.096273,   -362.358185,   476.533081,   0.517473,   4.089216,   28.443888,   79.580353,   34.594551,   418.842102,   0.052225,   728.740601,   448.483612
-0.070855,   0.076481,   0.095500,   -352.531799,   484.114502,   0.517473,   4.089216,   27.587774,   85.948715,   45.633968,   417.837219,   0.060287,   727.537842,   469.259705
-0.069521,   0.076040,   0.094396,   -341.986206,   491.687714,   0.517473,   4.089216,   26.731661,   92.159119,   57.542400,   416.477448,   0.068747,   725.852478,   488.581970
-0.067870,   0.075317,   0.092908,   -329.649780,   499.912018,   0.517472,   4.089216,   25.875547,   102.079292,   68.182938,   414.434509,   0.078449,   723.447937,   508.132477
-0.066323,   0.074964,   0.091792,   -311.257751,   513.150940,   0.517473,   4.089216,   25.019434,   123.030251,   78.862946,   411.612366,   0.093332,   721.059998,   535.244080
-0.062070,   0.071492,   0.086796,   -285.955902,   525.020325,   0.517473,   4.089216,   24.163321,   149.419083,   89.645363,   404.385193,   0.111855,   712.425293,   559.529968
-0.055154,   0.065319,   0.078411,   -197.960449,   569.436401,   0.517473,   4.089216,   23.307207,   262.931458,   108.544518,   375.853241,   0.179443,   690.052246,   621.186523
-0.049191,   0.061953,   0.073516,   -78.526405,   618.828796,   0.517472,   4.089216,   22.451094,   405.527222,   134.775192,   321.324463,   0.272222,   661.596497,   650.987976
-0.044215,   0.061776,   0.072436,   -9.629299,   642.527527,   0.517473,   4.089216,   21.594982,   472.975098,   159.923157,   286.053772,   0.325869,   647.395935,   647.234802
-0.040218,   0.063717,   0.073410,   0.000000,   654.219421,   0.517473,   4.089216,   20.738867,   496.967743,   176.444565,   274.100189,   0.348105,   644.837280,   644.194153
-0.037121,   0.067330,   0.075694,   0.000000,   663.643311,   0.517472,   4.089216,   19.882755,   509.669739,   188.958710,   270.349548,   0.360010,   646.860657,   644.726929
-0.035496,   0.072595,   0.079513,   0.000000,   673.263184,   0.517473,   4.089216,   19.026642,   518.939697,   198.962128,   270.547180,   0.366974,   652.090759,   648.639832
-0.035204,   0.079354,   0.084769,   0.000000,   683.189880,   0.517473,   4.089216,   18.170528,   526.022217,   206.642944,   273.674591,   0.370120,   659.844849,   655.652222
-0.035850,   0.087059,   0.091558,   0.000000,   694.887756,   0.517473,   4.089216,   17.314415,   532.111755,   215.859848,   279.238708,   0.372167,   669.925110,   665.168640
-0.036543,   0.093821,   0.097824,   0.000000,   704.461731,   0.517472,   4.089216,   16.458302,   536.464172,   222.478317,   284.555847,   0.372654,   678.862915,   673.918091
-0.036929,   0.099417,   0.103305,   0.000000,   712.510925,   0.517473,   4.089216,   15.602188,   540.262390,   228.105804,   288.856476,   0.373199,   686.289246,   681.146912
-0.037765,   0.104979,   0.109065,   0.000000,   720.267212,   0.517473,   4.089216,   14.746075,   543.358765,   233.069916,   293.580200,   0.372982,   693.893188,   688.751953
-0.039058,   0.110668,   0.115132,   0.000000,   727.885315,   0.517473,   4.089216,   13.889962,   545.534546,   237.858780,   298.925903,   0.372098,   701.779663,   696.815002
-0.040654,   0.116252,   0.121173,   0.000000,   735.011292,   0.517473,   4.089216,   13.033849,   546.567932,   242.482025,   304.653687,   0.370688,   709.536987,   704.884949
-0.042338,   0.121416,   0.126853,   0.000000,   741.566528,   0.517473,   4.089216,   12.177735,   546.123230,   247.615829,   310.707855,   0.369058,   716.905518,   712.615601
-0.043983,   0.125866,   0.131851,   0.000000,   747.193665,   0.517473,   4.089216,   11.321622,   544.193481,   252.881973,   316.773376,   0.367209,   723.543518,   719.659729
-0.045514,   0.129491,   0.136038,   0.000000,   751.970215,   0.517473,   4.089216,   10.465509,   540.890808,   258.598236,   322.708313,   0.365377,   729.372681,   725.877747
-0.046966,   0.132344,   0.139465,   0.000000,   755.912842,   0.517473,   4.089216,   9.609395,   536.346497,   264.515930,   328.472534,   0.363465,   734.470337,   731.366089
-0.048357,   0.134444,   0.142159,   0.000000,   758.969482,   0.517473,   4.089216,   8.753282,   530.145691,   270.553741,   334.306946,   0.361169,   738.988708,   736.330750
-0.049734,   0.135881,   0.144204,   0.000000,   761.101257,   0.517473,   4.089216,   7.897169,   522.093628,   276.499054,   340.328705,   0.358243,   743.065247,   740.932800
-0.051119,   0.136606,   0.145567,   0.000000,   762.106750,   0.517473,   4.089216,   7.041056,   511.285706,   282.364960,   346.885193,   0.354229,   746.834595,   745.333618
-0.052540,   0.136667,   0.146315,   0.000000,   761.973999,   0.517473,   4.089216,   6.184943,   496.983765,   288.533569,   354.199219,   0.348896,   750.479370,   749.647766
-0.054031,   0.135951,   0.146276,   0.000000,   760.236633,   0.517473,   4.089216,   5.328829,   479.122101,   294.296234,   361.915222,   0.342039,   753.732239,   753.472839
-0.055378,   0.134103,   0.145110,   0.000000,   756.730408,   0.517473,   4.089216,   4.472716,   455.820953,   301.401672,   370.152283,   0.333659,   756.484436,   756.484009
-0.204941,   0.084026,   0.221693,   -816.862244,   0.000000,   0.523154,   4.859001,   53.488712,   -534.178650,   -293.549805,   384.619110,   -0.340006,   811.483765,   -811.320007
-0.201904,   0.077627,   0.216127,   -818.672607,   0.000000,   0.523154,   4.859001,   52.654621,   -601.422791,   -271.908752,   344.651031,   -0.367213,   792.757568,   -788.501465
-0.193011,   0.069917,   0.204802,   -814.837524,   0.000000,   0.523154,   4.859001,   51.820526,   -647.481689,   -261.323975,   304.357880,   -0.392325,   772.153748,   -759.130005
-0.178625,   0.061479,   0.188186,   -805.600098,   0.000000,   0.523154,   4.859001,   50.986435,   -673.073730,   -257.957397,   269.401337,   -0.413359,   750.784363,   -726.648621
-0.159596,   0.052714,   0.167111,   -791.318787,   0.000000,   0.523155,   4.859001,   50.152340,   -681.183411,   -258.874420,   242.158966,   -0.430176,   728.428955,   -693.015991
-0.136660,   0.043726,   0.142314,   -772.875122,   0.000000,   0.523154,   4.859001,   49.318245,   -673.652039,   -266.156433,   224.227982,   -0.444730,   704.403320,   -657.652100
-0.110991,   0.034901,   0.114877,   -745.623352,   0.000000,   0.523154,   4.859001,   48.484154,   -643.857361,   -265.955566,   220.938599,   -0.446911,   678.593262,   -631.539734
-0.085649,   0.027285,   0.088217,   -698.688965,   0.000000,   0.523155,   4.859001,   47.650059,   -453.653595,   -276.263733,   321.728333,   -0.355913,   683.609924,   -682.002258
-0.068555,   0.023673,   0.073409,   -568.822510,   199.452347,   0.523154,   4.859001,   46.815964,   -116.724144,   -252.646042,   378.077881,   -0.178310,   690.502258,   -620.558350
-0.063485,   0.027303,   0.072484,   -536.553528,   241.280060,   0.523155,   4.859001,   45.981869,   -66.674248,   -228.599213,   380.396301,   -0.142724,   689.612488,   -582.612854
-0.064878,   0.035047,   0.075601,   -515.907837,   274.023285,   0.523152,   4.859001,   45.147778,   -27.899347,   -213.985214,   383.849976,   -0.116060,   694.708862,   -551.819336
-0.068662,   0.044094,   0.080288,   -502.593292,   299.718567,   0.523154,   4.859001,   44.313686,   -3.368300,   -199.506439,   388.983978,   -0.096306,   702.187866,   -526.409241
-0.073420,   0.052753,   0.086111,   -494.441895,   320.498474,   0.523155,   4.859001,   43.479591,   13.702287,   -187.645691,   394.837555,   -0.081538,   711.097717,   -505.672516
-0.077983,   0.060658,   0.092342,   -486.279541,   341.441132,   0.523154,   4.859001,   42.645496,   25.912071,   -170.750504,   402.009125,   -0.067011,   720.476013,   -480.958862
-0.080708,   0.066519,   0.096887,   -478.087982,   358.358765,   0.523155,   4.859001,   41.811405,   38.134651,   -157.863846,   406.579559,   -0.054908,   726.853577,   -454.722504
-0.082708,   0.071330,   0.100645,   -469.952667,   373.428284,   0.523154,   4.859001,   40.977310,   48.568153,   -145.092529,   410.422638,   -0.043956,   731.982117,   -425.665222
-0.084344,   0.075278,   0.103955,   -461.322754,   388.077484,   0.523154,   4.859001,   40.143215,   57.043816,   -130.289093,   414.242432,   -0.033150,   736.513245,   -390.180878
-0.086284,   0.078724,   0.107308,   -456.127655,   399.003571,   0.523154,   4.859001,   39.309124,   60.859619,   -117.983719,   418.110168,   -0.025693,   741.115967,   -360.806213
-0.087134,   0.081106,   0.109283,   -449.642883,   408.944885,   0.523154,   4.859001,   38.475029,   64.993996,   -105.692001,   420.725342,   -0.018238,   743.837219,   -323.143585
-0.087684,   0.082997,   0.110814,   -443.398834,   417.864563,   0.523155,   4.859001,   37.640938,   68.145660,   -93.679916,   422.961914,   -0.011410,   745.985229,   -277.226685
-0.087996,   0.084542,   0.111997,   -436.976318,   426.343536,   0.523154,   4.859001,   36.806843,   71.008446,   -81.641205,   424.858582,   -0.004740,   747.675842,   -207.353683
-0.087999,   0.085642,   0.112705,   -430.847076,   433.760498,   0.523154,   4.859001,   35.972748,   73.041756,   -70.128334,   426.335724,   0.001297,   748.773560,   134.813004
-0.087769,   0.086419,   0.113065,   -424.647522,   440.671234,   0.523155,   4.859001,   35.138653,   74.726639,   -58.702938,   427.484833,   0.007127,   749.430908,   238.095001
-0.087410,   0.086997,   0.113221,   -418.540619,   447.127441,   0.523154,   4.859001,   34.304562,   76.077362,   -47.490524,   428.401733,   0.012708,   749.826782,   288.839294
-0.086905,   0.087385,   0.113163,   -412.320618,   453.316376,   0.523154,   4.859001,   33.470467,   77.301880,   -36.306141,   429.074768,   0.018222,   749.943787,   325.700378
-0.086335,   0.087671,   0.113001,   -406.120148,   459.265961,   0.523154,   4.859001,   32.636375,   78.393883,   -25.248077,   429.578705,   0.023623,   749.917297,   355.047455
-0.085669,   0.087841,   0.112705,   -399.653625,   465.190918,   0.523154,   4.859001,   31.802280,   79.756790,   -14.219494,   429.861755,   0.029140,   749.693787,   380.551422
-0.084903,   0.087895,   0.112271,   -393.088318,   470.937683,   0.523154,   4.859001,   30.968187,   81.101326,   -3.251951,   429.949249,   0.034633,   749.280212,   402.738464
-0.084077,   0.087886,   0.111759,   -386.254272,   476.730591,   0.523154,   4.859001,   30.134094,   82.845268,   7.631050,   429.850464,   0.040280,   748.734680,   423.046082
-0.083129,   0.087762,   0.111096,   -378.782501,   482.789368,   0.523154,   4.859001,   29.300001,   85.370491,   18.636379,   429.491760,   0.046352,   747.953186,   442.620239
-0.082059,   0.087529,   0.110285,   -371.122620,   488.705688,   0.523154,   4.859001,   28.465906,   88.285118,   29.297937,   428.901276,   0.052472,   746.950439,   460.404053
-0.080893,   0.087233,   0.109378,   -362.488525,   495.237091,   0.523154,   4.859001,   27.631813,   92.264290,   40.484264,   428.080627,   0.059334,   745.771729,   478.527893
-0.079506,   0.086770,   0.108226,   -352.179901,   502.658142,   0.523154,   4.859001,   26.797718,   99.717049,   50.761196,   426.717529,   0.067407,   744.125000,   497.697388
-0.077789,   0.086012,   0.106673,   -341.575684,   509.671661,   0.523154,   4.859001,   25.963625,   106.129990,   61.965992,   425.050476,   0.075517,   741.977478,   514.807922
-0.075935,   0.085294,   0.105095,   -324.265442,   521.709290,   0.523154,   4.859001,   25.129532,   124.325333,   73.118484,   422.211761,   0.089028,   739.257019,   540.619141
-0.072746,   0.083218,   0.101766,   -303.730469,   533.100098,   0.523154,   4.859001,   24.295439,   148.110550,   81.259071,   417.078003,   0.104202,   733.734741,   563.777405
-0.066151,   0.077161,   0.093520,   -261.582581,   551.672302,   0.523154,   4.859001,   23.461344,   198.331238,   91.758476,   403.120880,   0.134473,   719.079712,   597.014465
-0.058641,   0.070843,   0.084905,   -156.892242,   600.474976,   0.523153,   4.859001,   22.627251,   328.860901,   114.721848,   363.231873,   0.213553,   692.383728,   650.560669
-0.052309,   0.068040,   0.080617,   -52.803154,   639.046753,   0.523154,   4.859001,   21.793158,   443.551636,   142.691986,   311.504333,   0.292968,   667.017761,   662.290894
-0.046941,   0.068192,   0.079720,   -1.433160,   656.227356,   0.523154,   4.859001,   20.959064,   489.909393,   164.884796,   285.865509,   0.332242,   656.945068,   656.941589
-0.042855,   0.070821,   0.081177,   0.000000,   666.852783,   0.523154,   4.859001,   20.124969,   509.974457,   179.573517,   276.484283,   0.350487,   655.799744,   654.915344
-0.040403,   0.075757,   0.084670,   0.000000,   676.852844,   0.523154,   4.859001,   19.290876,   522.826904,   190.474396,   273.705841,   0.360589,   659.384521,   657.112366
-0.039186,   0.082207,   0.089558,   0.000000,   687.074585,   0.523154,   4.859001,   18.456783,   532.884705,   199.570572,   274.168152,   0.366845,   665.545593,   662.051331
-0.039177,   0.090287,   0.096219,   0.000000,   698.562378,   0.523154,   4.859001,   17.622690,   541.468506,   208.342407,   277.507721,   0.370606,   674.400085,   669.998108
-0.040340,   0.099176,   0.104246,   0.000000,   710.267883,   0.523154,   4.859001,   16.788595,   548.125793,   215.763550,   283.160675,   0.371704,   685.032959,   680.287292
-0.041243,   0.106697,   0.111347,   0.000000,   719.989258,   0.523154,   4.859001,   15.954503,   553.320007,   221.933502,   288.115540,   0.372355,   694.009338,   689.032715
-0.042043,   0.113085,   0.117714,   0.000000,   727.992493,   0.523154,   4.859001,   15.120409,   556.858276,   226.694092,   292.898102,   0.372129,   701.863770,   696.890381
-0.043313,   0.119732,   0.124630,   0.000000,   736.008972,   0.523154,   4.859001,   14.286316,   560.527283,   230.779694,   297.755768,   0.371518,   709.976929,   705.107422
-0.045213,   0.126797,   0.132132,   0.000000,   744.145264,   0.523154,   4.859001,   13.452222,   563.520020,   234.859283,   303.298370,   0.370358,   718.564880,   713.938354
-0.047386,   0.133589,   0.139472,   0.000000,   751.614563,   0.523154,   4.859001,   12.618128,   564.492798,   239.058624,   309.693970,   0.368413,   727.038757,   722.847412
-0.049681,   0.139830,   0.146307,   0.000000,   758.127991,   0.523154,   4.859001,   11.784035,   563.882080,   243.025726,   316.317078,   0.365968,   734.953125,   731.297729
-0.051960,   0.145409,   0.152525,   0.000000,   763.932861,   0.523154,   4.859001,   10.949941,   561.852539,   247.489746,   323.052643,   0.363453,   742.270691,   739.135864
-0.054197,   0.150219,   0.157994,   0.000000,   768.916870,   0.523154,   4.859001,   10.115848,   558.753784,   252.100418,   329.569031,   0.360943,   748.829468,   746.180481
-0.056370,   0.154268,   0.162737,   0.000000,   773.141968,   0.523154,   4.859001,   9.281754,   554.600464,   256.850555,   335.903381,   0.358391,   754.716919,   752.524780
-0.058577,   0.157646,   0.166829,   0.000000,   776.571106,   0.523154,   4.859001,   8.447660,   549.306091,   261.447601,   342.154266,   0.355567,   760.056519,   758.324219
-0.060821,   0.160358,   0.170320,   0.000000,   779.126343,   0.523154,   4.859001,   7.613567,   542.088440,   265.940521,   348.775726,   0.352043,   765.084595,   763.854858
-0.063167,   0.162449,   0.173255,   0.000000,   780.723816,   0.523154,   4.859001,   6.779473,   532.390137,   270.333984,   356.015442,   0.347518,   769.959473,   769.251770
-0.065603,   0.163820,   0.175558,   0.000000,   781.024353,   0.523154,   4.859001,   5.945380,   519.497192,   274.309845,   364.032410,   0.341549,   774.712097,   774.474792
-0.068089,   0.164357,   0.177119,   0.000000,   780.046570,   0.523154,   4.859001,   5.111286,   502.414459,   278.900238,   373.007141,   0.334146,   779.413330,   779.411011
-0.245939,   0.100875,   0.264450,   -840.947876,   0.000000,   0.527610,   5.656495,   52.883896,   -584.833313,   -274.954193,   380.735138,   -0.344595,   831.688171,   -831.207825
-0.231701,   0.088833,   0.246647,   -838.596252,   0.000000,   0.527611,   5.656495,   52.070660,   -642.656372,   -265.169739,   335.197113,   -0.375346,   806.213684,   -799.485229
-0.211548,   0.076385,   0.223463,   -830.016663,   0.000000,   0.527611,   5.656495,   51.257420,   -675.930542,   -264.940948,   295.076782,   -0.401816,   780.515869,   -762.502991
-0.186845,   0.064081,   0.196203,   -816.002441,   0.000000,   0.527610,   5.656495,   50.444183,   -689.189941,   -270.258026,   263.072662,   -0.423835,   754.575867,   -722.938782
-0.159031,   0.052387,   0.166146,   -796.917175,   0.000000,   0.527612,   5.656495,   49.630943,   -685.618530,   -278.955383,   240.100922,   -0.441824,   727.720581,   -682.207031
-0.129252,   0.041379,   0.134348,   -770.894836,   0.000000,   0.527610,   5.656495,   48.817707,   -662.019348,   -284.931274,   230.020691,   -0.451134,   699.681335,   -646.970154
-0.100136,   0.032056,   0.103535,   -730.748474,   0.000000,   0.527611,   5.656495,   48.004471,   -522.838989,   -289.504242,   302.884247,   -0.390422,   693.560242,   -682.636658
-0.078262,   0.026340,   0.082962,   -612.969238,   156.343002,   0.527611,   5.656495,   47.191231,   -170.615387,   -286.010864,   380.304230,   -0.216120,   704.278259,   -663.527405
-0.069341,   0.028101,   0.078630,   -548.542236,   239.117981,   0.527611,   5.656495,   46.377995,   -66.440887,   -242.983383,   383.810303,   -0.147459,   699.458618,   -596.519226
-0.070237,   0.036160,   0.082065,   -530.857239,   268.712402,   0.527611,   5.656495,   45.564754,   -32.019138,   -230.125717,   387.319458,   -0.123991,   704.743713,   -571.122681
-0.074680,   0.046433,   0.087759,   -513.790222,   300.221619,   0.527610,   5.656495,   44.751518,   1.307473,   -214.876083,   392.390106,   -0.099846,   712.996765,   -540.595398
-0.080395,   0.056679,   0.094661,   -503.957520,   324.244659,   0.527611,   5.656495,   43.938282,   20.603416,   -200.316299,   399.096893,   -0.082872,   722.850830,   -516.704346
-0.086248,   0.066333,   0.102415,   -494.590759,   348.138977,   0.527611,   5.656495,   43.125042,   36.487324,   -182.939117,   406.830872,   -0.066555,   733.489624,   -488.563904
-0.090254,   0.073856,   0.108591,   -486.760986,   366.638489,   0.527611,   5.656495,   42.311806,   48.769699,   -168.892181,   412.587555,   -0.054000,   741.502075,   -461.361603
-0.093038,   0.079885,   0.113516,   -478.196106,   383.421967,   0.527611,   5.656495,   41.498566,   59.585648,   -154.359802,   417.316742,   -0.042252,   747.686279,   -429.169922
-0.095371,   0.084688,   0.117747,   -470.997955,   397.335876,   0.527611,   5.656495,   40.685329,   67.626381,   -141.288483,   421.413757,   -0.032613,   752.900574,   -396.711029
-0.097811,   0.088947,   0.121883,   -465.632111,   409.010559,   0.527610,   5.656495,   39.872089,   72.417305,   -129.038864,   425.562927,   -0.024900,   757.991699,   -365.200287
-0.099314,   0.092220,   0.124864,   -459.401062,   419.801697,   0.527611,   5.656495,   39.058853,   76.618835,   -116.218201,   428.897247,   -0.017330,   761.669373,   -325.317108
-0.100244,   0.094881,   0.127111,   -452.985016,   429.657013,   0.527611,   5.656495,   38.245617,   80.010132,   -103.338135,   431.694427,   -0.010172,   764.479370,   -273.435699
-0.100576,   0.096426,   0.128286,   -447.503418,   437.011169,   0.527611,   5.656495,   37.432377,   82.180038,   -92.672264,   433.529907,   -0.004566,   766.030090,   -209.801254
-0.100525,   0.097653,   0.129028,   -441.457611,   444.321991,   0.527611,   5.656495,   36.619141,   84.088303,   -81.223930,   435.108429,   0.001245,   767.109009,   136.231827
-0.100333,   0.098591,   0.129515,   -435.555939,   451.078674,   0.527610,   5.656495,   35.805901,   85.684181,   -70.161461,   436.415253,   0.006738,   767.887329,   239.440887
-0.100018,   0.099316,   0.129795,   -429.842377,   457.320374,   0.527612,   5.656495,   34.992664,   86.882416,   -59.404442,   437.509399,   0.011920,   768.428345,   289.756042
-0.099561,   0.099830,   0.129854,   -424.104095,   463.239349,   0.527610,   5.656495,   34.179428,   87.915085,   -48.779823,   438.375671,   0.016970,   768.711060,   326.039429
-0.098977,   0.100164,   0.129716,   -418.366608,   468.843292,   0.527611,   5.656495,   33.366188,   88.806656,   -38.329952,   439.026672,   0.021887,   768.760681,   354.851562
-0.098304,   0.100370,   0.129442,   -412.562042,   474.276215,   0.527611,   5.656495,   32.552952,   89.624893,   -27.910730,   439.507538,   0.026763,   768.644104,   379.312805
-0.097542,   0.100465,   0.129040,   -406.573242,   479.643768,   0.527610,   5.656495,   31.739714,   90.654282,   -17.583754,   439.791168,   0.031700,   768.355530,   401.065735
-0.096678,   0.100441,   0.128495,   -400.463257,   484.877472,   0.527610,   5.656495,   30.926476,   91.722084,   -7.307847,   439.892395,   0.036643,   767.888367,   420.516846
-0.095747,   0.100345,   0.127863,   -394.051025,   490.199036,   0.527611,   5.656495,   30.113239,   93.145149,   3.002854,   439.821716,   0.041769,   767.290527,   438.756958
-0.094710,   0.100151,   0.127099,   -387.238739,   495.623566,   0.527611,   5.656495,   29.299999,   95.202484,   13.182354,   439.522064,   0.047134,   766.499329,   456.099609
-0.093542,   0.099839,   0.126176,   -379.897064,   501.236176,   0.527611,   5.656495,   28.486761,   97.778793,   23.560308,   439.000977,   0.052837,   765.491760,   472.904510
-0.092273,   0.099458,   0.125147,   -372.150360,   506.954895,   0.527611,   5.656495,   27.673523,   101.233223,   33.571312,   438.248749,   0.058792,   764.305298,   488.953461
-0.090795,   0.098917,   0.123886,   -362.597473,   513.805176,   0.527610,   5.656495,   26.860287,   107.025291,   44.182426,   437.073334,   0.066081,   762.743164,   506.872040
-0.089023,   0.098138,   0.122286,   -352.491913,   520.507019,   0.527610,   5.656495,   26.047049,   114.234436,   53.780701,   435.451630,   0.073624,   760.692200,   523.494873
-0.086934,   0.097128,   0.120346,   -339.560852,   528.883911,   0.527611,   5.656495,   25.233810,   125.428444,   63.894615,   433.131012,   0.083252,   758.029053,   542.642334
-0.083989,   0.095392,   0.117403,   -318.196106,   542.108582,   0.527611,   5.656495,   24.420572,   149.672668,   74.239822,   428.495636,   0.099066,   753.410461,   569.838013
-0.078540,   0.090817,   0.110919,   -293.206451,   552.487732,   0.527611,   5.656495,   23.607334,   177.970322,   81.310982,   420.076080,   0.116200,   743.778015,   591.012817
-0.070482,   0.083310,   0.100812,   -235.261810,   577.975220,   0.527610,   5.656495,   22.794098,   248.423157,   94.290230,   399.248505,   0.157606,   724.830261,   629.923035
-0.062630,   0.077303,   0.092516,   -126.218346,   624.634766,   0.527611,   5.656495,   21.980860,   379.684723,   118.731689,   352.024109,   0.238576,   696.376343,   669.912415
-0.056077,   0.075095,   0.088856,   -39.079140,   654.915466,   0.527611,   5.656495,   21.167622,   469.462433,   146.373901,   307.100281,   0.303980,   675.303589,   672.752502
-0.050809,   0.075925,   0.088554,   0.000000,   668.639160,   0.527610,   5.656495,   20.354383,   504.923065,   164.664459,   287.243378,   0.334043,   668.165466,   668.163940
-0.046650,   0.079405,   0.090637,   0.000000,   679.445312,   0.527610,   5.656495,   19.541147,   524.258240,   178.872757,   278.715637,   0.350907,   667.917542,   666.971619
-0.044137,   0.085199,   0.094872,   0.000000,   690.147400,   0.527611,   5.656495,   18.727909,   537.719604,   190.226242,   276.046844,   0.361060,   672.045837,   669.647949
-0.043326,   0.092853,   0.100758,   0.000000,   700.450989,   0.527611,   5.656495,   17.914671,   548.243225,   197.798386,   276.600128,   0.366351,   678.804871,   675.347412
-0.044258,   0.102730,   0.109271,   0.000000,   713.100220,   0.527611,   5.656495,   17.101433,   557.925110,   206.075333,   280.495361,   0.369585,   689.061523,   684.812683
-0.045672,   0.112975,   0.118709,   0.000000,   725.636597,   0.527610,   5.656495,   16.288195,   566.460632,   213.560257,   285.499969,   0.371422,   700.030579,   695.253906
-0.046793,   0.121670,   0.127087,   0.000000,   735.954163,   0.527610,   5.656495,   15.474957,   572.535645,   219.751846,   290.442810,   0.372245,   709.466919,   704.408752
-0.048176,   0.129450,   0.134882,   0.000000,   744.179688,   0.527610,   5.656495,   14.661719,   577.315857,   222.884140,   294.932800,   0.371593,   717.810852,   712.867737
-0.050194,   0.137637,   0.143396,   0.000000,   752.664001,   0.527611,   5.656495,   13.848482,   581.738892,   226.130463,   299.996307,   0.370598,   726.635803,   721.894958
-0.052794,   0.146096,   0.152382,   0.000000,   760.889587,   0.527611,   5.656495,   13.035244,   584.439575,   229.235184,   306.284882,   0.368553,   735.918152,   731.640869
-0.055758,   0.154423,   0.161313,   0.000000,   768.406616,   0.527610,   5.656495,   12.222006,   585.908325,   231.855240,   312.921234,   0.365912,   744.955444,   741.263306
-0.058907,   0.162259,   0.169836,   0.000000,   775.190002,   0.527611,   5.656495,   11.408768,   585.523193,   234.793060,   320.148956,   0.362824,   753.640808,   750.592102
-0.062076,   0.169340,   0.177643,   0.000000,   781.087646,   0.527610,   5.656495,   10.595531,   583.834717,   237.819458,   327.354919,   0.359610,   761.615112,   759.178650
-0.065233,   0.175663,   0.184732,   0.000000,   786.116455,   0.527611,   5.656495,   9.782292,   581.219055,   240.654938,   334.310699,   0.356316,   768.861572,   766.987366
-0.068422,   0.181248,   0.191120,   0.000000,   790.439636,   0.527611,   5.656495,   8.969054,   577.821655,   243.528076,   341.003296,   0.353065,   775.446777,   774.058899
-0.071619,   0.186124,   0.196867,   0.000000,   794.059448,   0.527610,   5.656495,   8.155817,   573.403076,   246.358459,   347.640198,   0.349642,   781.525452,   780.573669
-0.074972,   0.190411,   0.202109,   0.000000,   796.904907,   0.527611,   5.656495,   7.342579,   567.522583,   248.901398,   354.545258,   0.345652,   787.326904,   786.782227
-0.078503,   0.194125,   0.206917,   0.000000,   798.802002,   0.527611,   5.656495,   6.529341,   559.393799,   250.985596,   362.148804,   0.340606,   793.076721,   792.886536
-0.082275,   0.197255,   0.211310,   0.000000,   799.690247,   0.527611,   5.656495,   5.716104,   548.230835,   252.932022,   370.793091,   0.334254,   798.955017,   798.951904
-0.284285,   0.116425,   0.303611,   -861.212830,   0.000000,   0.530988,   6.480167,   52.313992,   -630.547852,   -261.058472,   372.067963,   -0.351126,   846.425415,   -845.196289
-0.255276,   0.097396,   0.270253,   -854.779968,   0.000000,   0.530988,   6.480167,   51.520405,   -675.773315,   -265.793182,   324.703796,   -0.385165,   814.860352,   -804.364014
-0.222794,   0.079968,   0.234414,   -841.864136,   0.000000,   0.530986,   6.480167,   50.726818,   -696.171936,   -276.632599,   286.966614,   -0.413274,   784.631531,   -759.464966
-0.188393,   0.064220,   0.197313,   -823.213989,   0.000000,   0.530986,   6.480167,   49.933235,   -697.211853,   -289.696838,   259.276520,   -0.435837,   754.799011,   -713.202209
-0.153320,   0.050310,   0.159901,   -798.215393,   0.000000,   0.530988,   6.480167,   49.139648,   -677.820923,   -301.000977,   244.666855,   -0.450042,   724.985291,   -671.514893
-0.119443,   0.038669,   0.124014,   -761.259827,   0.000000,   0.530986,   6.480167,   48.346062,   -578.482544,   -302.325256,   289.625305,   -0.414059,   709.084717,   -685.860229
-0.091975,   0.030647,   0.096909,   -662.152100,   106.460464,   0.530988,   6.480167,   47.552475,   -241.931305,   -313.760345,   382.624451,   -0.256801,   721.299011,   -703.297058
-0.077957,   0.030050,   0.087647,   -565.395569,   235.568390,   0.530988,   6.480167,   46.758888,   -69.321243,   -260.505951,   388.906067,   -0.154199,   712.989441,   -615.840271
-0.076852,   0.037598,   0.089977,   -547.494263,   263.013397,   0.530988,   6.480167,   45.965305,   -35.797840,   -248.683014,   391.025116,   -0.132405,   716.187378,   -591.894958
-0.081577,   0.049125,   0.096394,   -525.221558,   301.460266,   0.530986,   6.480167,   45.171719,   6.666170,   -230.427460,   395.976471,   -0.102933,   724.616760,   -554.653137
-0.088354,   0.061370,   0.104605,   -512.512878,   330.175049,   0.530986,   6.480167,   44.378132,   29.860395,   -212.198212,   403.587219,   -0.082641,   735.461731,   -525.249817
-0.095189,   0.072610,   0.113488,   -501.659393,   356.321289,   0.530988,   6.480167,   43.584549,   48.775391,   -194.113495,   411.441315,   -0.064891,   746.578125,   -493.211731
-0.100880,   0.082023,   0.121673,   -494.902130,   375.745697,   0.530986,   6.480167,   42.790962,   60.890320,   -180.046753,   418.323120,   -0.052514,   756.353271,   -466.319336
-0.104100,   0.089006,   0.127313,   -485.343933,   393.850372,   0.530989,   6.480167,   41.997375,   73.123421,   -164.617004,   423.220428,   -0.039983,   762.777649,   -429.928894
-0.107888,   0.095493,   0.133463,   -479.988647,   407.755585,   0.530986,   6.480167,   41.203789,   80.506599,   -152.739670,   428.277374,   -0.031284,   769.656921,   -399.989258
-0.110252,   0.100488,   0.137984,   -471.760193,   422.355469,   0.530988,   6.480167,   40.410202,   87.631355,   -137.036087,   432.714508,   -0.021257,   774.720825,   -354.149780
-0.112407,   0.104340,   0.141720,   -467.556244,   431.617432,   0.530986,   6.480167,   39.616615,   90.232742,   -126.171555,   436.372101,   -0.015380,   778.914551,   -319.724121
-0.113344,   0.107179,   0.144052,   -461.161591,   441.300598,   0.530986,   6.480167,   38.823032,   93.357201,   -113.218216,   439.250671,   -0.008470,   781.618286,   -263.024506
-0.114201,   0.109500,   0.146075,   -456.060638,   449.155731,   0.530988,   6.480167,   38.029446,   95.418015,   -102.322929,   441.677246,   -0.002936,   783.947937,   -185.326797
-0.114620,   0.111381,   0.147553,   -450.562988,   456.662018,   0.530986,   6.480167,   37.235859,   97.544571,   -91.445564,   443.660889,   0.002588,   785.685852,   178.078995
-0.114651,   0.112669,   0.148409,   -445.219635,   463.239929,   0.530989,   6.480167,   36.442272,   98.978241,   -80.957947,   445.230774,   0.007634,   786.800659,   255.761612
-0.114324,   0.113484,   0.148737,   -439.886169,   469.147522,   0.530986,   6.480167,   35.648685,   100.013077,   -70.751724,   446.425140,   0.012388,   787.382202,   300.736115
-0.113828,   0.114040,   0.148797,   -434.570984,   474.679352,   0.530988,   6.480167,   34.855103,   100.798927,   -60.690552,   447.397278,   0.016973,   787.689209,   334.107941
-0.113193,   0.114386,   0.148636,   -429.306488,   479.857239,   0.530986,   6.480167,   34.061516,   101.389816,   -50.839069,   448.164337,   0.021390,   787.764465,   360.859680
-0.112461,   0.114583,   0.148319,   -424.004547,   484.838562,   0.530986,   6.480167,   33.267929,   101.918564,   -41.084538,   448.761047,   0.025744,   787.668762,   383.725098
-0.111650,   0.114660,   0.147876,   -418.667206,   489.652252,   0.530988,   6.480167,   32.474346,   102.432930,   -31.447870,   449.199341,   0.030049,   787.428040,   403.800903
-0.110767,   0.114640,   0.147325,   -413.176666,   494.424469,   0.530987,   6.480167,   31.680758,   103.096626,   -21.848795,   449.479828,   0.034410,   787.054749,   422.139343
-0.109797,   0.114518,   0.146652,   -407.527832,   499.142456,   0.530987,   6.480167,   30.887173,   103.915062,   -12.300420,   449.595642,   0.038826,   786.534546,   439.043671
-0.108759,   0.114323,   0.145889,   -401.690491,   503.863678,   0.530987,   6.480167,   30.093586,   104.962646,   -2.789451,   449.560303,   0.043336,   785.895142,   454.884583
-0.107634,   0.114048,   0.145019,   -395.375580,   508.813110,   0.530988,   6.480167,   29.299999,   106.654556,   6.782963,   449.328064,   0.048163,   785.101807,   470.495819
-0.106382,   0.113661,   0.143995,   -388.773682,   513.762085,   0.530987,   6.480167,   28.506414,   108.791634,   16.196808,   448.886688,   0.053134,   784.113281,   485.297699
-0.105019,   0.113193,   0.142851,   -381.449890,   519.120300,   0.530987,   6.480167,   27.712828,   111.790985,   25.879429,   448.231506,   0.058612,   782.948486,   500.379761
-0.103478,   0.112593,   0.141511,   -373.324554,   524.805603,   0.530988,   6.480167,   26.919241,   116.402733,   35.078339,   447.220337,   0.064613,   781.482544,   515.550842
-0.101644,   0.111759,   0.139836,   -363.560028,   531.372131,   0.530986,   6.480167,   26.125656,   122.932884,   44.879238,   445.760925,   0.071755,   779.562622,   532.049500
-0.099497,   0.110699,   0.137823,   -352.460297,   538.435181,   0.530987,   6.480167,   25.332071,   131.971909,   54.002975,   443.738556,   0.079771,   777.121460,   548.762146
-0.096656,   0.109040,   0.134986,   -336.321533,   548.183594,   0.530988,   6.480167,   24.538485,   149.186691,   62.675377,   440.132111,   0.091325,   773.293823,   570.089478
-0.092082,   0.105592,   0.129848,   -312.951630,   560.105774,   0.530987,   6.480167,   23.744898,   176.183044,   70.971115,   433.347351,   0.107535,   766.122192,   594.438843
-0.084766,   0.098952,   0.120758,   -283.048553,   570.741150,   0.530987,   6.480167,   22.951313,   210.108704,   77.583893,   421.720886,   0.127309,   753.265808,   615.304016
-0.075890,   0.090834,   0.109824,   -213.416550,   601.119263,   0.530987,   6.480167,   22.157726,   294.510162,   93.192528,   394.632660,   0.176656,   731.559814,   655.842773
-0.067565,   0.084993,   0.101651,   -107.158501,   643.244263,   0.530988,   6.480167,   21.364141,   417.385773,   118.699966,   344.198730,   0.254198,   702.975952,   684.238342
-0.060339,   0.082751,   0.097809,   -33.749229,   667.135193,   0.530986,   6.480167,   20.570555,   488.819153,   144.566788,   305.257782,   0.308382,   684.633972,   682.758545
-0.054620,   0.083897,   0.097602,   0.000000,   679.373474,   0.530987,   6.480167,   19.776970,   519.384644,   161.660767,   287.798950,   0.334565,   678.539001,   678.534363
-0.050952,   0.088702,   0.100972,   0.000000,   691.195007,   0.530988,   6.480167,   18.983383,   539.071228,   175.543533,   280.076538,   0.350411,   679.787781,   678.879272
-0.049121,   0.096002,   0.106481,   0.000000,   702.085144,   0.530987,   6.480167,   18.189796,   553.986694,   184.409729,   276.887939,   0.359500,   684.652100,   682.480591
-0.048516,   0.105365,   0.114097,   0.000000,   714.529907,   0.530987,   6.480167,   17.396212,   566.676086,   194.014191,   277.417084,   0.366101,   692.604370,   689.130737
-0.049792,   0.116455,   0.123694,   0.000000,   727.054565,   0.530987,   6.480167,   16.602625,   576.738831,   201.198151,   281.148529,   0.368868,   702.995789,   698.834717
-0.051652,   0.128019,   0.134485,   0.000000,   739.956665,   0.530987,   6.480167,   15.809039,   585.793945,   208.529221,   286.227722,   0.370663,   714.326782,   709.649719
-0.053499,   0.138256,   0.144346,   0.000000,   750.171631,   0.530987,   6.480167,   15.015453,   593.290100,   212.454102,   290.444366,   0.370976,   723.986694,   719.164612
-0.055468,   0.148091,   0.154278,   0.000000,   759.690063,   0.530987,   6.480167,   14.221868,   600.282349,   215.602478,   294.502533,   0.370919,   733.209473,   728.340942
-0.058454,   0.158361,   0.164973,   0.000000,   768.791565,   0.530987,   6.480167,   13.428282,   605.444824,   217.821991,   299.998505,   0.369317,   743.053162,   738.540405
-0.062097,   0.168910,   0.176074,   0.000000,   777.377930,   0.530987,   6.480167,   12.634696,   609.544312,   219.334930,   306.036560,   0.366948,   752.949463,   748.971191
-0.066117,   0.179286,   0.187148,   0.000000,   785.232971,   0.530987,   6.480167,   11.841109,   611.417358,   220.793488,   313.222595,   0.363651,   762.829712,   759.564941
-0.070295,   0.189005,   0.197643,   0.000000,   792.099548,   0.530987,   6.480167,   11.047523,   611.410889,   222.203186,   320.895294,   0.359853,   772.179688,   769.662781
-0.074614,   0.197942,   0.207381,   0.000000,   797.880249,   0.530987,   6.480167,   10.253938,   610.371582,   223.059937,   328.304382,   0.355843,   780.711853,   778.887512
-0.078938,   0.206118,   0.216425,   0.000000,   802.917969,   0.530987,   6.480167,   9.460352,   608.432739,   223.979065,   335.551880,   0.351859,   788.584839,   787.342407
-0.083334,   0.213567,   0.224807,   0.000000,   807.268738,   0.530987,   6.480167,   8.666766,   605.942627,   224.775101,   342.448822,   0.347958,   795.803406,   795.025513
-0.087881,   0.220403,   0.232669,   0.000000,   810.993835,   0.530987,   6.480167,   7.873180,   602.846619,   225.331146,   349.147644,   0.343982,   802.539917,   802.125854
-0.092694,   0.226755,   0.240192,   0.000000,   814.085876,   0.530987,   6.480167,   7.079594,   598.678528,   225.546326,   356.055847,   0.339580,   809.064087,   808.921143
-0.097840,   0.232713,   0.247530,   0.000000,   816.441101,   0.530987,   6.480167,   6.286008,   592.815125,   225.251205,   363.600647,   0.334329,   815.629761,   815.626099
-0.315314,   0.128811,   0.334406,   -876.613220,   0.000000,   0.533427,   7.328438,   51.780094,   -668.972229,   -251.967148,   360.141815,   -0.358910,   855.312012,   -852.722046
-0.270636,   0.102645,   0.285057,   -866.685303,   0.000000,   0.533425,   7.328438,   51.004917,   -700.407227,   -271.925415,   314.476624,   -0.395745,   818.988281,   -803.443359
-0.226818,   0.080824,   0.237846,   -849.462708,   0.000000,   0.533425,   7.328438,   50.229740,   -707.141846,   -291.884918,   281.700104,   -0.423981,   785.434387,   -752.388672
-0.184436,   0.062583,   0.192763,   -825.526611,   0.000000,   0.533425,   7.328438,   49.454567,   -691.229126,   -308.621613,   263.474915,   -0.442232,   753.640381,   -706.108154
-0.144380,   0.047695,   0.150397,   -790.470337,   0.000000,   0.533425,   7.328438,   48.679390,   -620.265320,   -311.375854,   285.559631,   -0.425295,   730.192627,   -698.492676
-0.110152,   0.036844,   0.115636,   -712.109192,   51.096405,   0.533425,   7.328438,   47.904217,   -330.492737,   -330.520020,   381.602783,   -0.298163,   738.983459,   -734.993225
-0.089503,   0.033271,   0.099547,   -589.856506,   225.734787,   0.533425,   7.328438,   47.129040,   -82.137497,   -281.984222,   395.363892,   -0.166400,   729.409363,   -643.486389
-0.084764,   0.039511,   0.099298,   -563.646851,   259.305023,   0.533426,   7.328438,   46.353867,   -38.151215,   -266.190613,   395.363068,   -0.139205,   728.761475,   -611.229492
-0.088955,   0.051877,   0.105682,   -536.278442,   303.192322,   0.533426,   7.328438,   45.578690,   11.512768,   -244.598892,   399.724274,   -0.105523,   736.285034,   -567.955933
-0.096906,   0.066188,   0.115367,   -521.134399,   335.910980,   0.533425,   7.328438,   44.803513,   39.510803,   -224.734238,   407.646088,   -0.082544,   747.978638,   -533.988770
-0.105271,   0.079462,   0.125984,   -509.974030,   363.611755,   0.533425,   7.328438,   44.028336,   60.826420,   -207.188690,   415.728271,   -0.064187,   760.078613,   -500.355499
-0.112189,   0.090982,   0.135861,   -500.700836,   387.024872,   0.533425,   7.328438,   43.253162,   75.995430,   -189.671387,   423.520386,   -0.049153,   770.891174,   -465.081329
-0.117016,   0.099976,   0.143598,   -491.891907,   406.137024,   0.533425,   7.328438,   42.477985,   88.766930,   -174.521805,   429.282837,   -0.036699,   778.896912,   -426.760193
-0.120655,   0.107239,   0.150006,   -483.969482,   422.197418,   0.533426,   7.328438,   41.702808,   98.539558,   -160.311615,   434.204590,   -0.026218,   785.371094,   -384.927490
-0.124281,   0.113315,   0.155981,   -478.506226,   435.071320,   0.533425,   7.328438,   40.927635,   103.609398,   -147.044312,   439.259796,   -0.018293,   791.479370,   -344.184387
-0.126566,   0.117806,   0.160190,   -473.266296,   445.506561,   0.533426,   7.328438,   40.152458,   106.981560,   -134.741287,   443.202454,   -0.011628,   795.801697,   -297.609406
-0.128493,   0.121757,   0.163915,   -467.966583,   455.294006,   0.533425,   7.328438,   39.377281,   110.017632,   -122.690231,   446.726196,   -0.005283,   799.592224,   -229.907288
-0.129594,   0.124746,   0.166500,   -462.719513,   463.684906,   0.533425,   7.328438,   38.602108,   112.134674,   -111.169273,   449.544342,   0.000401,   802.289917,   97.683403
-0.130014,   0.126536,   0.167898,   -458.185059,   470.013794,   0.533425,   7.328438,   37.826931,   113.200516,   -101.371773,   451.528473,   0.004905,   803.865540,   225.487045
-0.129960,   0.127925,   0.168754,   -453.043182,   476.332001,   0.533425,   7.328438,   37.051758,   114.267662,   -90.978859,   453.214111,   0.009644,   804.946777,   282.846344
-0.129716,   0.128943,   0.169269,   -448.186493,   481.950867,   0.533426,   7.328438,   36.276581,   115.008499,   -81.244133,   454.598846,   0.013969,   805.699463,   320.292816
-0.129263,   0.129635,   0.169448,   -443.404724,   487.096100,   0.533425,   7.328438,   35.501404,   115.551353,   -71.859970,   455.716125,   0.018066,   806.133423,   349.106903
-0.128649,   0.130066,   0.169359,   -438.662872,   491.880920,   0.533425,   7.328438,   34.726231,   115.930450,   -62.712399,   456.617584,   0.022001,   806.313721,   372.828491
-0.127901,   0.130295,   0.169057,   -433.923737,   496.400146,   0.533426,   7.328438,   33.951054,   116.192383,   -53.715950,   457.338409,   0.025829,   806.289490,   393.223816
-0.127049,   0.130362,   0.168584,   -429.172150,   500.711945,   0.533425,   7.328438,   33.175877,   116.386833,   -44.847054,   457.899567,   0.029583,   806.097229,   411.235565
-0.126115,   0.130309,   0.167981,   -424.348541,   504.910889,   0.533425,   7.328438,   32.400703,   116.607613,   -36.045261,   458.317627,   0.033327,   805.769714,   427.627136
-0.125116,   0.130163,   0.167277,   -419.404816,   509.065460,   0.533425,   7.328438,   31.625526,   116.961662,   -27.301016,   458.597137,   0.037111,   805.327637,   442.873901
-0.124041,   0.129927,   0.166466,   -414.310211,   513.195190,   0.533425,   7.328438,   30.850351,   117.475342,   -18.590349,   458.735321,   0.040958,   804.763489,   457.216888
-0.122904,   0.129624,   0.165572,   -409.004486,   517.373779,   0.533425,   7.328438,   30.075176,   118.244225,   -9.874946,   458.737976,   0.044924,   804.094788,   470.968140
-0.121695,   0.129254,   0.164589,   -403.381042,   521.677124,   0.533426,   7.328438,   29.300001,   119.492592,   -1.196494,   458.575714,   0.049087,   803.304382,   484.421844
-0.120377,   0.128795,   0.163479,   -397.301361,   526.183350,   0.533425,   7.328438,   28.524824,   121.324158,   7.557848,   458.225189,   0.053543,   802.353210,   497.837738
-0.118942,   0.128246,   0.162237,   -390.873016,   530.776611,   0.533425,   7.328438,   27.749649,   123.749199,   16.154373,   457.673828,   0.058204,   801.231384,   510.896851
-0.117350,   0.127589,   0.160829,   -383.381714,   536.015076,   0.533426,   7.328438,   26.974474,   127.591888,   25.041471,   456.829803,   0.063608,   799.870056,   524.999207
-0.115489,   0.126719,   0.159113,   -375.083801,   541.471008,   0.533425,   7.328438,   26.199297,   133.017624,   33.369595,   455.560913,   0.069492,   798.107605,   539.095154
-0.113280,   0.125579,   0.157004,   -365.057617,   547.811584,   0.533425,   7.328438,   25.424122,   140.657349,   42.096615,   453.766449,   0.076546,   795.831238,   554.582336
-0.110502,   0.123968,   0.154232,   -351.946411,   555.657959,   0.533425,   7.328438,   24.648947,   153.249252,   50.462276,   450.882599,   0.085674,   792.580505,   572.586548
-0.106418,   0.121080,   0.149781,   -333.325836,   565.475342,   0.533425,   7.328438,   23.873770,   174.447906,   57.701580,   445.593384,   0.098328,   786.991760,   593.843628
-0.100089,   0.115725,   0.142220,   -309.147034,   575.277466,   0.533425,   7.328438,   23.098595,   201.990082,   64.140358,   436.807770,   0.114110,   777.406799,   614.316833
-0.091362,   0.107593,   0.131228,   -274.609131,   586.901367,   0.533425,   7.328438,   22.323420,   241.508774,   70.783478,   422.212402,   0.136565,   762.254456,   635.744263
-0.081802,   0.099099,   0.119743,   -198.496887,   619.106689,   0.533425,   7.328438,   21.548244,   333.021027,   87.588783,   389.948273,   0.189813,   738.637146,   674.608459
-0.073109,   0.093474,   0.111763,   -97.929802,   657.099792,   0.533425,   7.328438,   20.773067,   445.079346,   114.090637,   339.306702,   0.262100,   711.139893,   695.727051
-0.065791,   0.091548,   0.108207,   -35.004860,   677.028931,   0.533425,   7.328438,   19.997892,   505.150177,   136.873917,   304.698517,   0.307840,   695.192627,   693.205627
-0.059911,   0.093421,   0.108531,   -1.111364,   689.468262,   0.533425,   7.328438,   19.222717,   534.467102,   153.889816,   288.123749,   0.332528,   690.024597,   690.022583
-0.055792,   0.098511,   0.111893,   0.000000,   700.637085,   0.533425,   7.328438,   18.447540,   554.605835,   166.497650,   279.286713,   0.348041,   690.631409,   689.948547
-0.053976,   0.107000,   0.118428,   0.000000,   712.606445,   0.533425,   7.328438,   17.672365,   570.726746,   176.397476,   275.820923,   0.357823,   695.989868,   694.060120
-0.054470,   0.118500,   0.127995,   0.000000,   725.861816,   0.533425,   7.328438,   16.897190,   584.881531,   184.607193,   276.235840,   0.363793,   705.061462,   702.014954
-0.056431,   0.131983,   0.140017,   0.000000,   740.158264,   0.533425,   7.328438,   16.122015,   597.662659,   192.264954,   279.414398,   0.367457,   716.571045,   712.666931
-0.059001,   0.145425,   0.152530,   0.000000,   753.349365,   0.533425,   7.328438,   15.346839,   608.596924,   198.336502,   283.442169,   0.369456,   728.037781,   723.581238
-0.061327,   0.157452,   0.164202,   0.000000,   764.202576,   0.533425,   7.328438,   14.571663,   617.843445,   201.812134,   286.898926,   0.370195,   738.040222,   733.331177
-0.064372,   0.169582,   0.176450,   0.000000,   774.254639,   0.533425,   7.328438,   13.796487,   625.974121,   203.667618,   290.872711,   0.369666,   748.100403,   743.466431
-0.068427,   0.182383,   0.189675,   0.000000,   784.084167,   0.533425,   7.328438,   13.021312,   633.061890,   204.814896,   295.774536,   0.368159,   758.619629,   754.310791
-0.073234,   0.195187,   0.203105,   0.000000,   792.956360,   0.533425,   7.328438,   12.246136,   637.612549,   205.188126,   302.169098,   0.365206,   769.246277,   765.600403
-0.078463,   0.207698,   0.216377,   0.000000,   800.887695,   0.533425,   7.328438,   11.470961,   639.980774,   205.234192,   309.588074,   0.361356,   779.669739,   776.827087
-0.083967,   0.219771,   0.229248,   0.000000,   807.830627,   0.533425,   7.328438,   10.695785,   641.338379,   204.620987,   316.906525,   0.357190,   789.457153,   787.381531
-0.089657,   0.231064,   0.241444,   0.000000,   813.708984,   0.533425,   7.328438,   9.920609,   640.992554,   203.658127,   324.601013,   0.352516,   798.687805,   797.337585
-0.095475,   0.241515,   0.252848,   0.000000,   818.684875,   0.533425,   7.328438,   9.145433,   640.041260,   202.334717,   331.823792,   0.347902,   807.100159,   806.317261
-0.101428,   0.251312,   0.263694,   0.000000,   823.041687,   0.533425,   7.328438,   8.370258,   638.756653,   200.836441,   338.619415,   0.343437,   814.892029,   814.513794
-0.107651,   0.260582,   0.274146,   0.000000,   826.916321,   0.533425,   7.328438,   7.595082,   637.210266,   199.186935,   345.085602,   0.339082,   822.216919,   822.093872
-0.114285,   0.269501,   0.284449,   0.000000,   830.276245,   0.533425,   7.328438,   6.819907,   635.172180,   197.053406,   351.488739,   0.334508,   829.303284,   829.298096
-0.335035,   0.136506,   0.352844,   -886.113159,   0.000000,   0.535065,   8.199678,   51.283226,   -699.299927,   -246.190231,   345.754364,   -0.367337,   857.967041,   -853.325928
-0.276832,   0.104478,   0.290211,   -872.972046,   0.000000,   0.535064,   8.199678,   50.525185,   -714.395874,   -279.376373,   306.806366,   -0.404328,   819.278748,   -798.873352
-0.224074,   0.079594,   0.234286,   -850.813538,   0.000000,   0.535065,   8.199678,   49.767139,   -702.197388,   -303.783600,   285.127167,   -0.427266,   784.819763,   -749.133118
-0.175832,   0.060010,   0.183491,   -818.321045,   0.000000,   0.535064,   8.199678,   49.009098,   -649.141052,   -314.394073,   291.983521,   -0.424702,   756.243835,   -723.872192
-0.133719,   0.045450,   0.140075,   -758.102783,   0.000000,   0.535064,   8.199678,   48.251057,   -429.351898,   -333.692078,   373.531006,   -0.336597,   755.644348,   -755.608032
-0.104877,   0.038085,   0.115015,   -627.791016,   200.821732,   0.535065,   8.199678,   47.493015,   -119.353989,   -307.615326,   403.471436,   -0.190098,   748.682190,   -684.041443
-0.094417,   0.041939,   0.110260,   -579.214417,   257.977264,   0.535064,   8.199678,   46.734970,   -40.504997,   -280.732147,   400.992767,   -0.144193,   742.607422,   -629.247559
-0.096870,   0.054530,   0.115612,   -547.891724,   304.359283,   0.535064,   8.199678,   45.976933,   14.156411,   -257.688843,   403.866302,   -0.108519,   748.048035,   -582.052368
-0.105218,   0.070630,   0.126006,   -528.765503,   341.390564,   0.535066,   8.199678,   45.218887,   49.078671,   -236.453613,   410.987488,   -0.082249,   759.378723,   -541.508179
-0.115047,   0.086659,   0.138499,   -514.201477,   373.962860,   0.535064,   8.199678,   44.460846,   76.177361,   -216.416000,   419.292572,   -0.060524,   772.362427,   -498.808716
-0.123672,   0.100316,   0.150415,   -504.595367,   398.982208,   0.535064,   8.199678,   43.702801,   93.204147,   -198.817291,   427.544128,   -0.044886,   784.300903,   -459.247986
-0.129856,   0.111178,   0.160052,   -495.702454,   419.458801,   0.535065,   8.199678,   42.944759,   106.666374,   -182.910019,   434.069580,   -0.032030,   793.469177,   -415.596771
-0.134354,   0.119779,   0.167738,   -487.760864,   436.188354,   0.535064,   8.199678,   42.186718,   116.770134,   -168.342636,   439.429413,   -0.021473,   800.578857,   -367.202332
-0.139004,   0.127284,   0.175252,   -482.359894,   449.886383,   0.535064,   8.199678,   41.428677,   122.744194,   -155.217697,   444.921417,   -0.013405,   807.512207,   -316.636780
-0.142095,   0.133218,   0.180909,   -476.598450,   461.839752,   0.535065,   8.199678,   40.670635,   127.058540,   -141.817245,   449.547577,   -0.006053,   812.744812,   -244.530777
-0.144172,   0.137197,   0.184687,   -472.484344,   470.133453,   0.535065,   8.199678,   39.912590,   128.718521,   -131.069427,   453.055878,   -0.000960,   816.331787,   -132.949860
-0.145292,   0.140367,   0.187384,   -467.563751,   478.100281,   0.535064,   8.199678,   39.154549,   130.199829,   -119.663307,   456.028748,   0.004288,   818.986023,   219.670792
-0.146203,   0.142919,   0.189612,   -463.334259,   484.806610,   0.535065,   8.199678,   38.396507,   131.169388,   -109.697044,   458.517853,   0.008716,   821.184265,   278.987274
-0.146538,   0.144844,   0.191081,   -458.961670,   490.847382,   0.535064,   8.199678,   37.638466,   132.050400,   -100.164696,   460.492493,   0.012919,   822.713196,   318.656097
-0.146476,   0.146127,   0.191882,   -454.772736,   496.044861,   0.535064,   8.199678,   36.880424,   132.412292,   -91.140167,   462.081818,   0.016702,   823.690735,   347.512878
-0.146025,   0.146893,   0.192109,   -450.543488,   500.702179,   0.535065,   8.199678,   36.122379,   132.566483,   -82.407784,   463.318024,   0.020286,   824.184570,   370.951080
-0.145340,   0.147303,   0.191959,   -446.346252,   504.939880,   0.535064,   8.199678,   35.364338,   132.544693,   -73.951042,   464.301849,   0.023693,   824.358704,   390.673584
-0.144500,   0.147476,   0.191560,   -442.177124,   508.888367,   0.535064,   8.199678,   34.606297,   132.433624,   -65.722382,   465.096710,   0.026976,   824.322021,   407.860474
-0.143557,   0.147469,   0.190981,   -438.005005,   512.623962,   0.535065,   8.199678,   33.848255,   132.280792,   -57.661858,   465.729858,   0.030181,   824.113831,   423.229004
-0.142539,   0.147336,   0.190273,   -433.829102,   516.205627,   0.535065,   8.199678,   33.090210,   132.103760,   -49.727257,   466.235840,   0.033333,   823.784546,   437.210571
-0.141466,   0.147108,   0.189469,   -429.589630,   519.714172,   0.535064,   8.199678,   32.332169,   132.004715,   -41.880177,   466.621307,   0.036487,   823.355286,   450.253357
-0.140347,   0.146810,   0.188592,   -425.241943,   523.209351,   0.535064,   8.199678,   31.574127,   132.049805,   -34.082417,   466.893982,   0.039687,   822.842224,   462.646912
-0.139177,   0.146447,   0.187639,   -420.752472,   526.716919,   0.535064,   8.199678,   30.816084,   132.288239,   -26.323790,   467.049377,   0.042958,   822.241333,   474.547485
-0.137955,   0.146028,   0.186617,   -416.091522,   530.266174,   0.535064,   8.199678,   30.058043,   132.756622,   -18.581953,   467.089264,   0.046325,   821.555603,   486.082489
-0.136676,   0.145560,   0.185528,   -411.118073,   533.973145,   0.535065,   8.199678,   29.300001,   133.672211,   -10.817123,   466.990448,   0.049894,   820.774902,   497.613708
-0.135307,   0.145021,   0.184335,   -405.810822,   537.814636,   0.535064,   8.199678,   28.541958,   135.098007,   -3.094220,   466.725800,   0.053669,   819.864624,   509.093567
-0.133826,   0.144400,   0.183020,   -400.023407,   541.894653,   0.535064,   8.199678,   27.783916,   137.148972,   4.722305,   466.281250,   0.057756,   818.803467,   520.785706
-0.132206,   0.143683,   0.181555,   -393.687256,   546.211121,   0.535065,   8.199678,   27.025873,   140.179062,   12.344791,   465.582245,   0.062188,   817.540588,   532.671997
-0.130353,   0.142797,   0.179834,   -386.175140,   551.181946,   0.535064,   8.199678,   26.267830,   144.781067,   20.225719,   464.522400,   0.067408,   815.956787,   545.743835
-0.128173,   0.141657,   0.177743,   -377.742584,   556.414856,   0.535064,   8.199678,   25.509789,   151.054153,   27.618116,   462.983185,   0.073173,   813.921753,   559.019592
-0.125502,   0.140117,   0.175082,   -367.028046,   562.754639,   0.535064,   8.199678,   24.751747,   160.761139,   34.965485,   460.616791,   0.080433,   811.140625,   574.302307
-0.121848,   0.137664,   0.171194,   -352.233704,   570.764221,   0.535065,   8.199678,   23.993704,   176.658325,   41.872231,   456.551727,   0.090290,   806.773071,   592.630859
-0.116417,   0.133375,   0.164938,   -332.669250,   579.462463,   0.535064,   8.199678,   23.235661,   199.382706,   47.410484,   449.691193,   0.102894,   799.509155,   611.905823
-0.108686,   0.126487,   0.155432,   -308.403961,   587.448730,   0.535064,   8.199678,   22.477619,   226.786499,   52.258293,   439.343811,   0.117998,   788.276917,   629.309326
-0.099022,   0.117432,   0.143242,   -270.309357,   600.214111,   0.535064,   8.199678,   21.719578,   270.899170,   59.005581,   422.170654,   0.142496,   771.730286,   651.686279
-0.088807,   0.108559,   0.131205,   -192.406235,   631.944153,   0.535065,   8.199678,   20.961535,   363.692810,   75.845131,   386.230927,   0.196143,   746.969604,   687.824341
-0.079245,   0.102446,   0.122540,   -97.860703,   666.049072,   0.535064,   8.199678,   20.203493,   465.422577,   102.765770,   336.168915,   0.263056,   719.984802,   704.789062
-0.071126,   0.100262,   0.118491,   -39.722824,   683.914795,   0.535064,   8.199678,   19.445450,   519.454407,   124.737534,   303.253174,   0.304748,   704.616455,   702.090576
-0.065262,   0.102777,   0.119379,   -7.214839,   696.291443,   0.535064,   8.199678,   18.687408,   548.746582,   140.330032,   286.407501,   0.328166,   699.926758,   699.843079
-0.061743,   0.109084,   0.123735,   0.000000,   707.879944,   0.535065,   8.199678,   17.929365,   570.162537,   151.714233,   276.755646,   0.343267,   700.986267,   700.671753
-0.060059,   0.119029,   0.131568,   0.000000,   721.153137,   0.535064,   8.199678,   17.171324,   588.616455,   162.384552,   272.134796,   0.354228,   706.702087,   705.281860
-0.060910,   0.132179,   0.142403,   0.000000,   734.770203,   0.535065,   8.199678,   16.413282,   604.570984,   169.882385,   271.197235,   0.360670,   715.754089,   713.272705
-0.063485,   0.147757,   0.156412,   0.000000,   750.083069,   0.535064,   8.199678,   15.655239,   619.059265,   177.752960,   273.840973,   0.364919,   727.844421,   724.457886
-0.066765,   0.162974,   0.170542,   0.000000,   763.267029,   0.535064,   8.199678,   14.897197,   631.216064,   182.410934,   276.952362,   0.366809,   739.374451,   735.500916
-0.070143,   0.177400,   0.184514,   0.000000,   774.917419,   0.535064,   8.199678,   14.139154,   642.651001,   185.120956,   279.303192,   0.367953,   749.888489,   745.680420
-0.074322,   0.192195,   0.199425,   0.000000,   786.037659,   0.535064,   8.199678,   13.381112,   653.057190,   186.641602,   282.326019,   0.367985,   760.628052,   756.351807
-0.079645,   0.207805,   0.215491,   0.000000,   796.672424,   0.535064,   8.199678,   12.623070,   661.606323,   187.125916,   286.930450,   0.366484,   771.960205,   767.995850
-0.085773,   0.223554,   0.231911,   0.000000,   806.369751,   0.535064,   8.199678,   11.865027,   667.634888,   186.891464,   293.160797,   0.363596,   783.402344,   780.061768
-0.092449,   0.238778,   0.247874,   0.000000,   814.621094,   0.535064,   8.199678,   11.106986,   671.616760,   185.468719,   299.952545,   0.359708,   794.240784,   791.680664
-0.099548,   0.253276,   0.263231,   0.000000,   821.596558,   0.535065,   8.199678,   10.348944,   673.480835,   183.360489,   307.461884,   0.354997,   804.553406,   802.813721
-0.106822,   0.267161,   0.278032,   0.000000,   827.500793,   0.535064,   8.199678,   9.590901,   674.344788,   180.471039,   314.795990,   0.349967,   814.187012,   813.155212
-0.114339,   0.280247,   0.292136,   0.000000,   832.589600,   0.535064,   8.199678,   8.832859,   674.459045,   177.399078,   321.878296,   0.344969,   823.124512,   822.616760
-0.122048,   0.292572,   0.305594,   0.000000,   836.956909,   0.535064,   8.199678,   8.074817,   674.189026,   174.033981,   328.485291,   0.340086,   831.381165,   831.209412
-0.130151,   0.304414,   0.318727,   0.000000,   840.860474,   0.535064,   8.199678,   7.316774,   674.047363,   170.371353,   334.434448,   0.335451,   839.087036,   839.070068
-0.340230,   0.138400,   0.355837,   -888.698181,   0.000000,   0.536039,   9.092217,   50.824341,   -719.421692,   -242.761780,   330.668793,   -0.375415,   854.329163,   -847.174988
-0.272544,   0.102833,   0.284462,   -871.618286,   0.000000,   0.536039,   9.092217,   50.082123,   -711.833984,   -284.243683,   306.354767,   -0.406628,   816.533875,   -794.772705
-0.213752,   0.076424,   0.222973,   -843.070251,   0.000000,   0.536040,   9.092217,   49.339905,   -668.695923,   -308.262878,   305.379547,   -0.414982,   784.739563,   -758.401550
-0.162592,   0.056931,   0.170001,   -794.950806,   0.000000,   0.536039,   9.092217,   48.597683,   -521.995911,   -323.601257,   358.688141,   -0.365643,   770.876465,   -767.119812
-0.123882,   0.044663,   0.133631,   -679.841309,   153.688171,   0.536039,   9.092217,   47.855469,   -195.850311,   -330.302826,   411.307037,   -0.228275,   768.301941,   -732.509827
-0.105062,   0.044651,   0.121534,   -593.537292,   257.722137,   0.536040,   9.092217,   47.113247,   -45.851799,   -289.963348,   407.753662,   -0.148049,   756.091858,   -645.555786
-0.104280,   0.056633,   0.124796,   -558.792908,   304.637665,   0.536039,   9.092217,   46.371029,   13.428666,   -267.583893,   408.210815,   -0.111696,   758.474121,   -595.435913
-0.112501,   0.074156,   0.135521,   -534.560608,   346.649963,   0.536039,   9.092217,   45.628811,   57.609467,   -245.520081,   413.716248,   -0.081462,   768.912659,   -546.622864
-0.123699,   0.092367,   0.149626,   -519.060120,   380.921631,   0.536040,   9.092217,   44.886593,   87.883308,   -226.021820,   421.731781,   -0.058848,   782.461487,   -500.724457
-0.134277,   0.108896,   0.164049,   -507.317810,   409.783173,   0.536039,   9.092217,   44.144371,   109.562141,   -207.096756,   430.349091,   -0.040858,   795.728516,   -451.717041
-0.142141,   0.122466,   0.176164,   -496.657715,   433.628845,   0.536039,   9.092217,   43.402153,   126.488350,   -189.517227,   437.485291,   -0.026058,   806.267883,   -394.367706
-0.148564,   0.133192,   0.186388,   -489.496796,   451.256531,   0.536040,   9.092217,   42.659935,   137.142670,   -175.382919,   443.662201,   -0.015641,   814.940613,   -336.394073
-0.153057,   0.141355,   0.194205,   -482.528748,   466.048584,   0.536039,   9.092217,   41.917717,   144.632782,   -161.112930,   448.976196,   -0.006687,   821.533386,   -255.514221
-0.157500,   0.148503,   0.201445,   -478.706085,   477.099823,   0.536039,   9.092217,   41.175499,   147.338089,   -148.944336,   454.362640,   -0.000647,   827.752563,   -118.186485
-0.160216,   0.153687,   0.206440,   -473.990265,   486.757935,   0.536040,   9.092217,   40.433281,   149.756454,   -136.988785,   458.479614,   0.005115,   832.056824,   236.678177
-0.161981,   0.157658,   0.210107,   -469.921692,   494.431427,   0.536039,   9.092217,   39.691059,   151.270447,   -126.760735,   461.702179,   0.009781,   835.244202,   294.879059
-0.163105,   0.160621,   0.212715,   -466.237305,   500.787445,   0.536039,   9.092217,   38.948841,   151.604324,   -117.054192,   464.478058,   0.013749,   837.646118,   331.236786
-0.163516,   0.162510,   0.214188,   -462.789032,   505.872345,   0.536040,   9.092217,   38.206623,   151.369476,   -108.286156,   466.605774,   0.017114,   839.161865,   356.919281
-0.163284,   0.163828,   0.214900,   -458.747406,   510.828674,   0.536039,   9.092217,   37.464405,   151.311798,   -99.230537,   468.323151,   0.020665,   840.081238,   380.440033
-0.162914,   0.164688,   0.215242,   -455.260193,   514.879395,   0.536039,   9.092217,   36.722187,   150.868744,   -91.249519,   469.720551,   0.023639,   840.694214,   398.114777
-0.162308,   0.165214,   0.215219,   -451.766937,   518.579407,   0.536040,   9.092217,   35.979969,   150.409210,   -83.596741,   470.853821,   0.026481,   841.008362,   413.566101
-0.161493,   0.165435,   0.214869,   -448.261047,   521.974060,   0.536039,   9.092217,   35.237751,   149.939011,   -76.225967,   471.753540,   0.029214,   841.056213,   427.291321
-0.160530,   0.165408,   0.214266,   -444.750702,   525.122864,   0.536039,   9.092217,   34.495529,   149.448273,   -69.076134,   472.467407,   0.031860,   840.895935,   439.662018
-0.159466,   0.165217,   0.213492,   -441.238037,   528.095947,   0.536039,   9.092217,   33.753311,   148.950729,   -62.092812,   473.040436,   0.034443,   840.590515,   450.997131
-0.158330,   0.164900,   0.212590,   -437.702087,   530.950684,   0.536040,   9.092217,   33.011093,   148.472229,   -55.223621,   473.496613,   0.036996,   840.172607,   461.559723
-0.157145,   0.164499,   0.211602,   -434.109528,   533.749390,   0.536039,   9.092217,   32.268875,   148.075836,   -48.435989,   473.849640,   0.039555,   839.669678,   471.591461
-0.155924,   0.164038,   0.210553,   -430.410950,   536.554199,   0.536040,   9.092217,   31.526657,   147.842545,   -41.699280,   474.103241,   0.042166,   839.096436,   481.313751
-0.154667,   0.163530,   0.209450,   -426.580841,   539.392578,   0.536040,   9.092217,   30.784437,   147.805954,   -34.994213,   474.259613,   0.044849,   838.456970,   490.824432
-0.153372,   0.162983,   0.208298,   -422.593170,   542.297180,   0.536039,   9.092217,   30.042219,   148.014496,   -28.310490,   474.321320,   0.047629,   837.760254,   500.216400
-0.152036,   0.162403,   0.207100,   -418.361176,   545.320923,   0.536040,   9.092217,   29.299999,   148.594955,   -21.635187,   474.263885,   0.050562,   836.983948,   509.662445
-0.150634,   0.161779,   0.205833,   -413.789581,   548.528320,   0.536040,   9.092217,   28.557781,   149.691086,   -14.952332,   474.064423,   0.053716,   836.110291,   519.331970
-0.149137,   0.161089,   0.204462,   -408.883148,   551.877930,   0.536039,   9.092217,   27.815563,   151.324524,   -8.329747,   473.701477,   0.057076,   835.109741,   529.108093
-0.147512,   0.160317,   0.202959,   -403.380035,   555.557373,   0.536040,   9.092217,   27.073343,   153.805206,   -1.627870,   473.128296,   0.060826,   833.942566,   539.455139
-0.145690,   0.159405,   0.201240,   -397.208862,   559.511841,   0.536040,   9.092217,   26.331125,   157.485794,   4.817184,   472.230560,   0.064985,   832.509094,   550.240784
-0.143559,   0.158258,   0.199174,   -389.876617,   564.028748,   0.536039,   9.092217,   25.588907,   162.750366,   11.401791,   470.911102,   0.069883,   830.682739,   562.117188
-0.140991,   0.156758,   0.196600,   -381.184967,   569.039978,   0.536040,   9.092217,   24.846687,   170.272339,   17.582678,   468.938507,   0.075602,   828.262024,   574.882874
-0.137647,   0.154567,   0.193079,   -369.700897,   575.162659,   0.536040,   9.092217,   24.104469,   182.180084,   23.281700,   465.703369,   0.083045,   824.699402,   589.899475
-0.132898,   0.150987,   0.187732,   -354.184937,   582.350403,   0.536039,   9.092217,   23.362249,   199.868805,   28.296661,   460.342651,   0.092858,   819.047424,   607.005188
-0.126127,   0.145257,   0.179636,   -334.887421,   589.206482,   0.536040,   9.092217,   22.620031,   222.326843,   31.992208,   452.139984,   0.104616,   810.328125,   623.396606
-0.117222,   0.137088,   0.168500,   -311.055359,   595.511963,   0.536039,   9.092217,   21.877813,   249.261459,   35.195129,   440.465637,   0.118837,   797.889160,   638.357361
-0.106769,   0.127257,   0.155308,   -271.373199,   608.409119,   0.536040,   9.092217,   21.135595,   295.630371,   41.405575,   421.125488,   0.143972,   780.327515,   660.916138
-0.096043,   0.118155,   0.142910,   -194.804260,   638.820679,   0.536040,   9.092217,   20.393375,   385.881348,   58.135101,   383.246979,   0.195955,   755.304932,   695.335266
-0.086051,   0.111690,   0.133797,   -106.079979,   670.073975,   0.536039,   9.092217,   19.651157,   480.186188,   83.807800,   333.653687,   0.257911,   728.926270,   711.248962
-0.077487,   0.109428,   0.129464,   -49.940979,   687.346680,   0.536040,   9.092217,   18.908939,   532.344910,   105.060814,   300.425293,   0.297730,   713.629028,   709.681458
-0.070882,   0.111603,   0.129699,   -17.661013,   698.938660,   0.536040,   9.092217,   18.166719,   561.459229,   119.818398,   282.165039,   0.320782,   707.934387,   707.438477
-0.067005,   0.118354,   0.134287,   0.000000,   711.082947,   0.536039,   9.092217,   17.424501,   584.282227,   131.899185,   270.999847,   0.336925,   708.547485,   708.506226
-0.065934,   0.129361,   0.142672,   0.000000,   723.749512,   0.536040,   9.092217,   16.682283,   603.814697,   140.299255,   264.529755,   0.347497,   713.785217,   713.131165
-0.067346,   0.144593,   0.155553,   0.000000,   739.323914,   0.536040,   9.092217,   15.940063,   622.363525,   149.348038,   262.685730,   0.355460,   723.673828,   722.040466
-0.070833,   0.162356,   0.171320,   0.000000,   755.121155,   0.536039,   9.092217,   15.197845,   639.095215,   156.267868,   263.595337,   0.360304,   735.825928,   733.343933
-0.074651,   0.179865,   0.187536,   0.000000,   769.533936,   0.536039,   9.092217,   14.455626,   654.297913,   161.396790,   264.724945,   0.363732,   747.523193,   744.306458
-0.078875,   0.196491,   0.203633,   0.000000,   781.913635,   0.536039,   9.092217,   13.713408,   667.158386,   163.941101,   266.299835,   0.365230,   758.517700,   754.917236
-0.084292,   0.213444,   0.220628,   0.000000,   793.398132,   0.536040,   9.092217,   12.971189,   678.527100,   164.818634,   268.710968,   0.365255,   769.640869,   765.981689
-0.090905,   0.231236,   0.238823,   0.000000,   804.423889,   0.536040,   9.092217,   12.228970,   687.931152,   164.952850,   272.935425,   0.363864,   781.321777,   777.929749
-0.098323,   0.249426,   0.257595,   0.000000,   814.485596,   0.536039,   9.092217,   11.486752,   695.364380,   163.938416,   278.377350,   0.361191,   793.027344,   790.170471
-0.106372,   0.267473,   0.276363,   0.000000,   823.576904,   0.536040,   9.092217,   10.744533,   700.856873,   162.451553,   284.839081,   0.357723,   804.447327,   802.235291
-0.115088,   0.284675,   0.294387,   0.000000,   831.002869,   0.536039,   9.092217,   10.002314,   704.065491,   159.520233,   291.952454,   0.353118,   815.199890,   813.732910
-0.123944,   0.300937,   0.311555,   0.000000,   837.218567,   0.536039,   9.092217,   9.260096,   705.774292,   156.004288,   299.235260,   0.348104,   825.212708,   824.389832
-0.133134,   0.316380,   0.328027,   0.000000,   842.403625,   0.536039,   9.092217,   8.517877,   706.420593,   151.862686,   306.434113,   0.342802,   834.577087,   834.237183
-0.142590,   0.331091,   0.343868,   0.000000,   846.881165,   0.536039,   9.092217,   7.775658,   707.011169,   147.347076,   312.800018,   0.337757,   843.167542,   843.092896
-0.327583,   0.133414,   0.340285,   -882.216125,   0.000000,   0.536478,   10.004342,   50.404324,   -724.106018,   -240.049744,   318.642426,   -0.380683,   844.233948,   -835.217346
-0.255801,   0.097271,   0.265934,   -859.843384,   0.000000,   0.536478,   10.004342,   49.676586,   -685.715149,   -283.681396,   316.742889,   -0.398615,   810.638000,   -793.726868
-0.195119,   0.071158,   0.203417,   -821.559509,   0.000000,   0.536478,   10.004342,   48.948853,   -589.585754,   -307.056458,   345.472412,   -0.379912,   786.709900,   -778.587769
-0.145918,   0.053292,   0.154781,   -737.731323,   83.638321,   0.536478,   10.004342,   48.221115,   -320.466522,   -333.626495,   410.632111,   -0.278489,   782.908386,   -772.761353
-0.116457,   0.047534,   0.132085,   -612.741150,   249.192596,   0.536476,   10.004342,   47.493382,   -65.772186,   -297.776398,   415.061401,   -0.157735,   768.270325,   -667.827148
-0.110212,   0.057034,   0.131625,   -570.600403,   300.380615,   0.536478,   10.004342,   46.765648,   4.330456,   -274.550232,   412.563171,   -0.117544,   766.296692,   -611.043884
-0.117303,   0.075242,   0.141935,   -539.648987,   348.527008,   0.536478,   10.004342,   46.037910,   61.279289,   -252.401260,   415.469940,   -0.082193,   775.096313,   -552.595032
-0.129336,   0.095933,   0.157255,   -520.788879,   386.746521,   0.536478,   10.004342,   45.310177,   98.127655,   -232.170029,   422.647583,   -0.056644,   788.801086,   -498.527710
-0.141923,   0.115653,   0.174376,   -506.318604,   420.161224,   0.536478,   10.004342,   44.582439,   125.592842,   -211.750214,   431.440765,   -0.035742,   803.510681,   -436.415192
-0.152025,   0.131684,   0.189357,   -495.933838,   445.500336,   0.536478,   10.004342,   43.854706,   144.481247,   -194.914734,   439.063965,   -0.020610,   815.695801,   -369.066345
-0.159947,   0.144640,   0.201934,   -487.503632,   465.720123,   0.536478,   10.004342,   43.126968,   157.695023,   -179.478546,   445.799713,   -0.008795,   825.587830,   -281.329437
-0.166388,   0.154996,   0.212322,   -481.458435,   481.225372,   0.536476,   10.004342,   42.399235,   165.505096,   -165.738174,   451.950775,   -0.000093,   833.708618,   -62.400501
-0.171102,   0.163053,   0.220359,   -476.286835,   493.646057,   0.536478,   10.004342,   41.671501,   170.076462,   -152.717224,   457.322113,   0.006888,   840.031372,   263.866333
-0.174978,   0.169540,   0.227002,   -472.687225,   503.241180,   0.536478,   10.004342,   40.943764,   171.956696,   -141.402756,   462.126099,   0.012048,   845.316833,   319.891541
-0.177507,   0.174245,   0.231583,   -469.735901,   510.430511,   0.536478,   10.004342,   40.216030,   172.137253,   -131.442642,   465.984283,   0.015976,   849.092834,   352.968079
-0.178653,   0.177512,   0.234413,   -465.885468,   516.957214,   0.536478,   10.004342,   39.488293,   172.511230,   -121.439507,   468.927673,   0.019992,   851.549683,   381.408417
-0.179536,   0.179976,   0.236590,   -463.092712,   521.882080,   0.536478,   10.004342,   38.760559,   171.926544,   -113.137199,   471.411163,   0.022960,   853.519470,   400.291626
-0.179844,   0.181803,   0.237990,   -460.357208,   526.084412,   0.536478,   10.004342,   38.032822,   171.131760,   -105.404572,   473.443420,   0.025627,   854.915344,   415.855103
-0.179677,   0.182880,   0.238602,   -457.556854,   529.676575,   0.536476,   10.004342,   37.305088,   170.291519,   -98.171799,   475.015076,   0.028093,   855.729309,   429.137268
-0.179155,   0.183528,   0.238713,   -454.652222,   532.938354,   0.536478,   10.004342,   36.577354,   169.446030,   -91.159912,   476.292877,   0.030479,   856.173767,   441.125946
-0.178345,   0.183737,   0.238358,   -451.785706,   535.773560,   0.536478,   10.004342,   35.849617,   168.466217,   -84.478386,   477.308167,   0.032695,   856.281799,   451.559906
-0.177341,   0.183635,   0.237673,   -449.014008,   538.228149,   0.536478,   10.004342,   35.121883,   167.422043,   -78.207924,   478.098572,   0.034735,   856.139648,   460.623871
-0.176210,   0.183336,   0.236782,   -446.197540,   540.526489,   0.536478,   10.004342,   34.394146,   166.467270,   -72.138306,   478.720093,   0.036740,   855.828674,   469.082520
-0.175002,   0.182893,   0.235748,   -443.333649,   542.723206,   0.536478,   10.004342,   33.666412,   165.604355,   -66.214828,   479.209747,   0.038730,   855.395020,   477.092102
-0.173741,   0.182358,   0.234620,   -440.451813,   544.834167,   0.536476,   10.004342,   32.938675,   164.801132,   -60.418789,   479.599945,   0.040701,   854.877319,   484.678864
-0.172451,   0.181759,   0.233433,   -437.516083,   546.915405,   0.536479,   10.004342,   32.210941,   164.110474,   -54.711155,   479.901672,   0.042686,   854.295654,   492.017517
-0.171143,   0.181123,   0.232211,   -434.487854,   549.018250,   0.536477,   10.004342,   31.483206,   163.600403,   -49.070023,   480.118622,   0.044721,   853.664185,   499.257050
-0.169818,   0.180461,   0.230962,   -431.340118,   551.170410,   0.536479,   10.004342,   30.755470,   163.311981,   -43.481686,   480.250793,   0.046828,   852.985962,   506.475433
-0.168472,   0.179779,   0.229687,   -428.051910,   553.390137,   0.536478,   10.004342,   30.027735,   163.266281,   -37.928024,   480.299225,   0.049022,   852.260986,   513.719360
-0.167097,   0.179079,   0.228384,   -424.563416,   555.721924,   0.536477,   10.004342,   29.299999,   163.564697,   -32.406212,   480.248566,   0.051345,   851.481140,   521.110413
-0.165676,   0.178354,   0.227035,   -420.805878,   558.205261,   0.536478,   10.004342,   28.572264,   164.316528,   -26.917130,   480.076172,   0.053842,   850.627258,   528.754028
-0.164177,   0.177583,   0.225609,   -416.706451,   560.870361,   0.536478,   10.004342,   27.844528,   165.611206,   -21.447268,   479.756592,   0.056557,   849.669434,   536.726990
-0.162568,   0.176744,   0.224070,   -412.227692,   563.708130,   0.536478,   10.004342,   27.116795,   167.556915,   -16.076466,   479.251892,   0.059504,   848.572083,   544.999146
-0.160794,   0.175797,   0.222357,   -407.056122,   566.916931,   0.536477,   10.004342,   26.389059,   170.546310,   -10.685478,   478.481598,   0.062893,   847.264099,   554.066895
-0.158758,   0.174655,   0.220352,   -401.171814,   570.376953,   0.536478,   10.004342,   25.661324,   174.804230,   -5.599073,   477.326324,   0.066698,   845.628662,   563.650330
-0.156333,   0.173208,   0.217899,   -394.081055,   574.342773,   0.536478,   10.004342,   24.933588,   180.850647,   -0.588909,   475.637573,   0.071235,   843.508789,   574.342041
-0.153298,   0.171234,   0.214712,   -385.182983,   578.951782,   0.536477,   10.004342,   24.205853,   189.832077,   3.936704,   473.021851,   0.076840,   840.567322,   586.479431
-0.149187,   0.168241,   0.210160,   -373.411011,   584.360168,   0.536478,   10.004342,   23.478117,   203.346451,   7.602713,   468.777679,   0.084097,   836.133423,   600.485107
-0.143403,   0.163540,   0.203387,   -358.235321,   590.035522,   0.536478,   10.004342,   22.750381,   221.472488,   10.327718,   462.232483,   0.093164,   829.364807,   615.289307
-0.135590,   0.156640,   0.193816,   -339.999390,   594.960693,   0.536477,   10.004342,   22.022648,   242.767380,   12.193931,   453.041473,   0.103684,   819.673218,   628.834778
-0.125746,   0.147440,   0.181369,   -317.045044,   599.701172,   0.536478,   10.004342,   21.294912,   268.916229,   13.739893,   440.258057,   0.116838,   806.406433,   641.848328
-0.114561,   0.136846,   0.167195,   -277.880981,   611.549561,   0.536478,   10.004342,   20.567177,   314.960327,   18.708250,   419.321289,   0.141123,   788.129883,   663.665100
-0.102935,   0.126754,   0.153553,   -205.750656,   638.530884,   0.536478,   10.004342,   19.839441,   399.496735,   33.283482,   380.361389,   0.189189,   762.517639,   695.838928
-0.092014,   0.119319,   0.143195,   -120.661263,   667.980286,   0.536477,   10.004342,   19.111706,   488.545624,   58.773396,   330.624908,   0.247958,   735.769104,   712.998535
-0.082889,   0.116561,   0.138211,   -63.761860,   685.627563,   0.536478,   10.004342,   18.383970,   541.384460,   80.481247,   295.445740,   0.288049,   719.630188,   713.233398
-0.076131,   0.118570,   0.138008,   -31.455084,   696.688782,   0.536478,   10.004342,   17.656237,   571.409424,   93.824265,   274.820801,   0.311030,   712.936951,   711.373108
-0.071926,   0.125304,   0.142332,   -7.786922,   708.627258,   0.536477,   10.004342,   16.928501,   595.412659,   105.427681,   261.325470,   0.327854,   712.552612,   712.456848
-0.070636,   0.136693,   0.150624,   0.000000,   721.438782,   0.536478,   10.004342,   16.200766,   616.117920,   114.420761,   252.847153,   0.339660,   716.932190,   716.802307
-0.072554,   0.152827,   0.164026,   0.000000,   736.874451,   0.536477,   10.004342,   15.473030,   635.264404,   122.775047,   249.797287,   0.347793,   726.523254,   725.829163
-0.076219,   0.171373,   0.180164,   0.000000,   752.567871,   0.536478,   10.004342,   14.745295,   653.211060,   129.397430,   248.829758,   0.353479,   738.006287,   736.628784
-0.080849,   0.190454,   0.197735,   0.000000,   767.512207,   0.536477,   10.004342,   14.017559,   669.656189,   134.341476,   248.916824,   0.357363,   749.935486,   747.934631
-0.085949,   0.209400,   0.215991,   0.000000,   781.326111,   0.536478,   10.004342,   13.289824,   685.336487,   137.568741,   248.584045,   0.360265,   761.388550,   758.827881
-0.092431,   0.229001,   0.235556,   0.000000,   794.347168,   0.536478,   10.004342,   12.562089,   698.840820,   139.397247,   250.103714,   0.361308,   773.336426,   770.526611
-0.100178,   0.248906,   0.255762,   0.000000,   806.198303,   0.536478,   10.004342,   11.834353,   709.852844,   139.860443,   253.374481,   0.360654,   785.345520,   782.626221
-0.108653,   0.268926,   0.276228,   0.000000,   816.854065,   0.536478,   10.004342,   11.106618,   718.404114,   139.273026,   258.278534,   0.358609,   797.226746,   794.870056
-0.118154,   0.289051,   0.296982,   0.000000,   826.332214,   0.536478,   10.004342,   10.378882,   724.670349,   137.483734,   264.631104,   0.355227,   809.016296,   807.229126
-0.128163,   0.308407,   0.317090,   0.000000,   834.380920,   0.536478,   10.004342,   9.651148,   728.448303,   134.859375,   272.217133,   0.350810,   820.300171,   819.151489
-0.138616,   0.326652,   0.336184,   0.000000,   840.917419,   0.536478,   10.004342,   8.923412,   730.484802,   131.139511,   279.968964,   0.345718,   830.757507,   830.176636
-0.149296,   0.344139,   0.354598,   0.000000,   846.470337,   0.536478,   10.004342,   8.195677,   731.834717,   126.795959,   287.228729,   0.340542,   840.456177,   840.258179
-0.294540,   0.120530,   0.303897,   -863.425415,   0.000000,   0.536501,   10.934303,   50.023975,   -708.296082,   -235.165649,   312.188293,   -0.380588,   826.319519,   -817.530701
-0.225192,   0.086867,   0.233340,   -834.378967,   0.000000,   0.536499,   10.934303,   49.309357,   -632.092773,   -277.231567,   335.713043,   -0.379101,   799.545044,   -791.584656
-0.167642,   0.063308,   0.175441,   -777.934998,   15.999530,   0.536501,   10.934303,   48.594734,   -457.173676,   -304.761780,   389.583954,   -0.323104,   786.056885,   -785.690430
-0.126961,   0.050359,   0.139404,   -650.451416,   209.075912,   0.536501,   10.934303,   47.880116,   -137.085831,   -304.289703,   421.553711,   -0.189497,   776.397766,   -708.796997
-0.112280,   0.054914,   0.132714,   -576.000854,   296.237946,   0.536499,   10.934303,   47.165497,   -8.083754,   -271.679138,   415.727661,   -0.121390,   768.223389,   -618.595642
-0.116715,   0.072370,   0.141430,   -542.233215,   345.181671,   0.536499,   10.934303,   46.450878,   56.710278,   -253.761810,   415.665802,   -0.084774,   774.813660,   -557.870422
-0.129380,   0.094902,   0.157913,   -520.352905,   387.506165,   0.536501,   10.934303,   45.736256,   101.474983,   -234.321747,   421.737091,   -0.056122,   789.029907,   -497.166656
-0.143711,   0.116797,   0.177188,   -504.511414,   423.782379,   0.536501,   10.934303,   45.021637,   134.777359,   -215.506393,   429.834473,   -0.033431,   804.938721,   -427.624573
-0.156746,   0.136474,   0.196152,   -493.165619,   453.236359,   0.536501,   10.934303,   44.307014,   157.841187,   -197.770447,   438.525116,   -0.016234,   819.851318,   -342.638733
-0.166938,   0.152267,   0.212001,   -483.737244,   476.564667,   0.536499,   10.934303,   43.592396,   174.570755,   -181.743317,   445.875549,   -0.002875,   831.653564,   -195.230087
-0.175274,   0.164982,   0.225164,   -476.938354,   494.440063,   0.536501,   10.934303,   42.877777,   184.961197,   -167.459503,   452.596863,   0.006935,   841.283875,   264.848907
-0.181695,   0.175151,   0.235698,   -471.984497,   508.136475,   0.536499,   10.934303,   42.163158,   190.674454,   -154.522461,   458.660065,   0.014194,   849.002136,   339.307098
-0.186722,   0.182856,   0.243854,   -468.593903,   518.360657,   0.536501,   10.934303,   41.448536,   192.832764,   -143.066025,   464.018127,   0.019400,   855.089844,   379.187866
-0.189957,   0.188703,   0.249693,   -465.359650,   526.517761,   0.536499,   10.934303,   40.733917,   193.677475,   -132.519363,   468.352539,   0.023718,   859.535156,   407.486359
-0.192518,   0.193252,   0.254314,   -463.222931,   532.619019,   0.536501,   10.934303,   40.019299,   193.169785,   -123.773720,   472.029663,   0.026800,   863.122192,   426.132416
-0.193915,   0.196390,   0.257257,   -460.935455,   537.536499,   0.536501,   10.934303,   39.304676,   192.297272,   -115.696213,   474.891113,   0.029500,   865.549927,   441.155396
-0.194482,   0.198501,   0.259013,   -458.533600,   541.652832,   0.536499,   10.934303,   38.590057,   191.099640,   -107.980385,   477.211700,   0.031950,   867.183289,   453.831085
-0.194557,   0.199789,   0.259918,   -456.525269,   544.722839,   0.536501,   10.934303,   37.875439,   189.538879,   -101.341316,   479.031952,   0.033861,   868.226929,   463.204376
-0.194257,   0.200538,   0.260231,   -454.649353,   547.191833,   0.536499,   10.934303,   37.160820,   187.879013,   -95.336571,   480.487946,   0.035504,   868.852905,   470.861359
-0.193632,   0.200896,   0.260093,   -452.531342,   549.520813,   0.536501,   10.934303,   36.446198,   186.398804,   -89.409340,   481.673737,   0.037197,   869.156555,   478.338257
-0.192732,   0.200929,   0.259569,   -450.290436,   551.638611,   0.536499,   10.934303,   35.731579,   185.080505,   -83.732361,   482.597504,   0.038868,   869.174438,   485.343719
-0.191704,   0.200635,   0.258743,   -448.227997,   553.335999,   0.536501,   10.934303,   35.016960,   183.696518,   -78.588501,   483.305542,   0.040319,   868.970520,   491.139221
-0.190549,   0.200169,   0.257722,   -446.111115,   554.911560,   0.536501,   10.934303,   34.302338,   182.404160,   -73.603729,   483.866272,   0.041752,   868.616211,   496.630585
-0.189303,   0.199568,   0.256556,   -443.935486,   556.401245,   0.536501,   10.934303,   33.587719,   181.255707,   -68.789932,   484.290924,   0.043183,   868.140198,   501.901367
-0.188008,   0.198876,   0.255299,   -441.706451,   557.843506,   0.536498,   10.934303,   32.873100,   180.231873,   -64.094826,   484.614410,   0.044621,   867.581116,   507.022034
-0.186680,   0.198125,   0.253983,   -439.436462,   559.251892,   0.536502,   10.934303,   32.158482,   179.316635,   -59.501198,   484.856812,   0.046067,   866.961792,   512.007996
-0.185336,   0.197343,   0.252637,   -437.081299,   560.684998,   0.536500,   10.934303,   31.443859,   178.578445,   -54.974762,   485.023315,   0.047560,   866.298218,   517.011353
-0.183981,   0.196543,   0.251273,   -434.608154,   562.176880,   0.536500,   10.934303,   30.729240,   178.069717,   -50.501007,   485.112305,   0.049126,   865.594421,   522.119019
-0.182612,   0.195733,   0.249895,   -432.008179,   563.736694,   0.536501,   10.934303,   30.014620,   177.805832,   -46.077301,   485.124786,   0.050771,   864.851990,   527.344421
-0.181222,   0.194914,   0.248499,   -429.240784,   565.394592,   0.536499,   10.934303,   29.299999,   177.845505,   -41.691669,   485.052307,   0.052525,   864.065430,   532.764160
-0.179797,   0.194081,   0.247073,   -426.242279,   567.188843,   0.536501,   10.934303,   28.585381,   178.299683,   -37.353088,   484.870941,   0.054427,   863.218140,   538.480652
-0.178308,   0.193215,   0.245585,   -422.966705,   569.129089,   0.536500,   10.934303,   27.870760,   179.239853,   -33.077457,   484.555328,   0.056502,   862.282715,   544.522217
-0.176720,   0.192291,   0.243999,   -419.338165,   571.244446,   0.536501,   10.934303,   27.156141,   180.766022,   -28.859735,   484.074097,   0.058795,   861.225464,   550.965576
-0.174986,   0.191269,   0.242256,   -415.272797,   573.542419,   0.536499,   10.934303,   26.441521,   183.072174,   -24.802540,   483.358978,   0.061346,   859.987732,   557.845764
-0.173021,   0.190081,   0.240258,   -410.490387,   576.165710,   0.536501,   10.934303,   25.726900,   186.493805,   -20.818485,   482.315216,   0.064329,   858.475281,   565.535278
-0.170706,   0.188614,   0.237853,   -404.930603,   579.006165,   0.536500,   10.934303,   25.012281,   191.262009,   -17.186403,   480.801636,   0.067743,   856.547913,   573.813293
-0.167871,   0.186712,   0.234828,   -398.030090,   582.305786,   0.536500,   10.934303,   24.297661,   198.128662,   -13.852979,   478.571350,   0.071928,   853.980774,   583.293701
-0.164202,   0.184031,   0.230750,   -389.094208,   586.159485,   0.536500,   10.934303,   23.583042,   208.237823,   -11.172544,   475.126007,   0.077251,   850.322571,   594.302734
-0.159198,   0.180002,   0.224910,   -377.575012,   590.273560,   0.536501,   10.934303,   22.868422,   222.271194,   -9.572616,   469.834900,   0.083915,   844.901367,   606.361633
-0.152365,   0.174158,   0.216680,   -363.214935,   594.189697,   0.536499,   10.934303,   22.153801,   239.701309,   -8.726521,   462.305969,   0.091970,   837.140991,   618.533875
-0.143613,   0.166138,   0.205721,   -346.452789,   597.013428,   0.536501,   10.934303,   21.439182,   259.460571,   -8.899926,   452.247498,   0.101039,   826.614502,   629.072144
-0.133100,   0.156058,   0.192211,   -325.237640,   599.758179,   0.536500,   10.934303,   20.724562,   284.217438,   -9.696874,   438.529266,   0.112590,   812.744324,   639.605103
-0.121337,   0.144792,   0.177193,   -288.600098,   609.475708,   0.536501,   10.934303,   20.009941,   327.566040,   -6.690409,   416.777161,   0.134686,   794.131897,   659.634949
-0.109039,   0.133786,   0.162437,   -222.389084,   632.815369,   0.536499,   10.934303,   19.295322,   404.799133,   5.627157,   378.165436,   0.178013,   768.533264,   690.382202
-0.097237,   0.125118,   0.150516,   -140.139954,   660.813232,   0.536501,   10.934303,   18.580702,   490.506805,   30.166447,   327.724243,   0.234255,   740.891113,   710.147522
-0.086941,   0.120580,   0.143359,   -81.024460,   678.059814,   0.536500,   10.934303,   17.866083,   545.073425,   51.961914,   288.552399,   0.275643,   721.989929,   711.653503
-0.079313,   0.121557,   0.141912,   -46.501324,   689.169861,   0.536500,   10.934303,   17.151463,   576.318726,   66.349800,   265.114960,   0.300218,   713.557861,   710.136780
-0.074629,   0.127407,   0.144906,   -22.277401,   699.917542,   0.536500,   10.934303,   16.436844,   600.624817,   77.015305,   248.695892,   0.317551,   711.317871,   710.532349
-0.073318,   0.138947,   0.153249,   -4.108123,   713.274048,   0.536500,   10.934303,   15.722223,   622.384033,   86.781883,   238.624969,   0.330458,   715.336975,   715.310486
-0.075274,   0.155370,   0.166354,   0.000000,   728.528442,   0.536501,   10.934303,   15.007604,   642.870178,   94.829933,   232.983963,   0.339647,   723.986206,   723.855469
-0.079277,   0.174606,   0.182819,   0.000000,   744.598999,   0.536500,   10.934303,   14.292984,   662.035461,   101.649727,   230.400040,   0.346229,   735.241760,   734.684082
-0.084238,   0.194546,   0.200895,   0.000000,   759.934998,   0.536501,   10.934303,   13.578364,   680.047607,   106.584557,   228.461105,   0.351045,   746.944397,   745.869751
-0.090309,   0.214625,   0.220205,   0.000000,   774.272827,   0.536500,   10.934303,   12.863744,   696.268250,   109.794624,   227.667221,   0.354059,   758.877380,   757.377075
-0.097618,   0.235668,   0.241087,   0.000000,   788.193604,   0.536500,   10.934303,   12.149125,   711.030457,   112.211975,   228.387543,   0.355797,   771.266724,   769.471802
-0.106178,   0.257071,   0.262638,   0.000000,   800.820068,   0.536500,   10.934303,   11.434505,   722.996765,   113.197479,   231.328888,   0.355646,   783.731934,   781.932739
-0.115589,   0.278668,   0.284507,   0.000000,   812.421753,   0.536500,   10.934303,   10.719885,   733.218567,   113.440384,   235.290359,   0.354612,   795.855652,   794.196228
-0.126311,   0.300564,   0.306937,   0.000000,   822.910828,   0.536500,   10.934303,   10.005265,   740.290771,   112.712723,   242.232544,   0.351775,   808.284729,   807.022888
-0.137597,   0.322046,   0.329033,   0.000000,   831.995972,   0.536500,   10.934303,   9.290645,   745.388794,   110.824402,   249.917252,   0.347988,   820.155579,   819.350525
-0.149488,   0.342504,   0.350215,   0.000000,   839.556030,   0.536500,   10.934303,   8.576026,   748.553162,   107.856415,   258.044067,   0.343419,   831.257324,   830.872864
-0.240439,   0.099448,   0.246267,   -826.038879,   0.000000,   0.536220,   11.880316,   49.684025,   -668.896301,   -220.025253,   308.594452,   -0.372030,   796.461487,   -790.847595
-0.180433,   0.071359,   0.186363,   -789.107483,   0.000000,   0.536219,   11.880316,   48.981129,   -551.367676,   -261.044464,   354.318481,   -0.348204,   777.717041,   -776.930847
-0.133091,   0.052863,   0.140870,   -700.210083,   126.959923,   0.536220,   11.880316,   48.278233,   -288.126862,   -285.123291,   413.582275,   -0.247657,   771.564392,   -747.520264
-0.107809,   0.049044,   0.123691,   -575.737305,   284.931305,   0.536220,   11.880316,   47.575333,   -30.138216,   -260.667786,   414.610229,   -0.127645,   759.410889,   -620.813538
-0.108159,   0.063835,   0.130421,   -541.444946,   333.098328,   0.536220,   11.880316,   46.872437,   38.300564,   -246.647217,   413.409821,   -0.090841,   764.507385,   -562.666992
-0.120647,   0.086432,   0.147363,   -515.785828,   380.582336,   0.536219,   11.880316,   46.169540,   96.072586,   -231.276047,   417.228577,   -0.057837,   779.215576,   -495.835876
-0.136899,   0.110751,   0.169132,   -499.581177,   420.315399,   0.536220,   11.880316,   45.466640,   135.711487,   -214.977280,   425.213806,   -0.033125,   797.639038,   -422.460327
-0.152607,   0.133410,   0.191694,   -487.592010,   453.831635,   0.536220,   11.880316,   44.763744,   164.521072,   -198.281448,   434.353790,   -0.013800,   815.471558,   -322.866150
-0.166115,   0.152551,   0.211960,   -478.068085,   480.906342,   0.536220,   11.880316,   44.060844,   185.030670,   -182.192413,   442.938812,   0.001139,   830.497437,   143.198471
-0.177016,   0.168268,   0.228807,   -470.868622,   501.796326,   0.536219,   11.880316,   43.357948,   198.489639,   -167.561920,   450.578339,   0.012237,   842.494507,   320.473999
-0.185743,   0.180958,   0.242542,   -465.629181,   517.849304,   0.536220,   11.880316,   42.655052,   206.532974,   -154.312851,   457.444061,   0.020428,   852.117493,   384.410034
-0.192702,   0.191045,   0.253569,   -461.896057,   530.205078,   0.536219,   11.880316,   41.952156,   210.545105,   -142.236084,   463.629730,   0.026481,   859.863403,   422.835297
-0.197829,   0.198884,   0.261980,   -459.368408,   539.329773,   0.536220,   11.880316,   41.249256,   211.929977,   -131.968597,   468.810150,   0.030784,   865.821594,   447.573090
-0.201514,   0.204638,   0.268134,   -457.333221,   546.296936,   0.536219,   11.880316,   40.546360,   211.657959,   -122.694244,   473.149567,   0.034074,   870.306702,   465.276550
-0.203876,   0.208847,   0.272425,   -455.592529,   551.599792,   0.536220,   11.880316,   39.843464,   210.456131,   -114.448853,   476.674194,   0.036634,   873.574097,   478.352020
-0.205415,   0.211785,   0.275365,   -454.378662,   555.385193,   0.536220,   11.880316,   39.140564,   208.650940,   -107.644402,   479.473755,   0.038437,   875.938293,   487.325897
-0.206194,   0.213958,   0.277336,   -452.801361,   558.770874,   0.536219,   11.880316,   38.437668,   206.997253,   -101.027763,   481.767303,   0.040248,   877.648071,   495.753479
-0.206446,   0.215165,   0.278308,   -451.518494,   561.127869,   0.536220,   11.880316,   37.734772,   205.148468,   -95.539070,   483.487244,   0.041581,   878.688232,   501.706879
-0.206285,   0.215876,   0.278693,   -450.303833,   562.995789,   0.536220,   11.880316,   37.031872,   203.152130,   -90.460213,   484.914398,   0.042718,   879.350281,   506.572113
-0.205763,   0.216140,   0.278555,   -448.962036,   564.586243,   0.536220,   11.880316,   36.328976,   201.254913,   -85.630676,   486.049591,   0.043814,   879.660400,   510.999664
-0.204987,   0.216046,   0.278020,   -447.544006,   565.918701,   0.536219,   11.880316,   35.626076,   199.591949,   -81.217239,   486.891388,   0.044855,   879.677856,   514.978882
-0.204042,   0.215738,   0.277239,   -446.048126,   567.119934,   0.536220,   11.880316,   34.923180,   198.072891,   -77.001045,   487.556122,   0.045886,   879.515076,   518.747925
-0.202933,   0.215190,   0.276192,   -444.543793,   568.121277,   0.536220,   11.880316,   34.220284,   196.596664,   -73.019165,   488.056824,   0.046854,   879.167664,   522.117310
-0.201717,   0.214476,   0.274965,   -442.993439,   569.014709,   0.536220,   11.880316,   33.517384,   195.210129,   -69.188866,   488.429535,   0.047807,   878.686890,   525.297241
-0.200436,   0.213666,   0.273632,   -441.377411,   569.865845,   0.536219,   11.880316,   32.814487,   193.970108,   -65.481682,   488.696655,   0.048774,   878.115601,   528.424133
-0.199119,   0.212795,   0.272236,   -439.696411,   570.703796,   0.536220,   11.880316,   32.111591,   192.883942,   -61.876553,   488.877716,   0.049766,   877.480591,   531.546265
-0.197786,   0.211899,   0.270814,   -437.949768,   571.554688,   0.536220,   11.880316,   31.408693,   191.960846,   -58.355900,   488.988953,   0.050792,   876.804993,   534.706116
-0.196444,   0.210990,   0.269379,   -436.100708,   572.455994,   0.536220,   11.880316,   30.705795,   191.263336,   -54.908073,   489.026123,   0.051880,   876.092529,   537.998047
-0.195093,   0.210077,   0.267936,   -434.129730,   573.427856,   0.536220,   11.880316,   30.002897,   190.817322,   -51.519207,   488.990112,   0.053045,   875.345764,   541.466248
-0.193725,   0.209161,   0.266481,   -432.023865,   574.475952,   0.536220,   11.880316,   29.299999,   190.649002,   -48.196953,   488.874847,   0.054295,   874.559631,   545.121887
-0.192328,   0.208236,   0.265005,   -429.729584,   575.635010,   0.536220,   11.880316,   28.597103,   190.840332,   -44.934910,   488.663483,   0.055664,   873.722229,   549.057495
-0.190879,   0.207289,   0.263482,   -427.194458,   576.923950,   0.536220,   11.880316,   27.894205,   191.481583,   -41.752064,   488.327728,   0.057183,   872.808777,   553.331238
-0.189346,   0.206294,   0.261875,   -424.380890,   578.343140,   0.536220,   11.880316,   27.191309,   192.631561,   -38.669334,   487.841003,   0.058868,   871.789917,   557.951965
-0.187682,   0.205215,   0.260130,   -421.188660,   579.927795,   0.536220,   11.880316,   26.488411,   194.438156,   -35.698994,   487.152710,   0.060776,   870.617676,   563.028381
-0.185827,   0.203998,   0.258174,   -417.523376,   581.680359,   0.536220,   11.880316,   25.785513,   197.102066,   -32.945099,   486.180634,   0.062952,   869.219727,   568.597778
-0.183664,   0.202539,   0.255860,   -413.145630,   583.675537,   0.536220,   11.880316,   25.082615,   200.908310,   -30.378416,   484.808960,   0.065527,   867.473022,   574.898315
-0.181048,   0.200693,   0.252999,   -407.901642,   585.854980,   0.536220,   11.880316,   24.379717,   206.177017,   -28.223667,   482.858307,   0.068559,   865.205811,   581.865906
-0.177709,   0.198212,   0.249252,   -401.179169,   588.390808,   0.536220,   11.880316,   23.676821,   213.761765,   -26.550097,   479.973694,   0.072387,   862.089661,   590.041626
-0.173292,   0.194675,   0.244104,   -392.425201,   591.228821,   0.536220,   11.880316,   22.973923,   224.381119,   -25.577499,   475.682648,   0.077267,   857.649231,   599.462463
-0.167368,   0.189565,   0.236921,   -381.449402,   593.871765,   0.536220,   11.880316,   22.271025,   238.194473,   -25.772127,   469.460602,   0.083175,   851.304504,   609.234314
-0.159638,   0.182552,   0.227274,   -368.420959,   595.697754,   0.536220,   11.880316,   21.568127,   254.376343,   -27.099581,   461.057526,   0.089906,   842.648987,   618.148621
-0.150037,   0.173402,   0.214949,   -353.348663,   596.290466,   0.536220,   11.880316,   20.865231,   272.299042,   -29.357233,   450.227173,   0.097410,   831.333923,   625.461853
-0.138784,   0.162412,   0.200312,   -333.728149,   597.236389,   0.536220,   11.880316,   20.162333,   294.820251,   -31.312040,   435.985291,   0.107519,   816.933533,   633.835510
-0.126229,   0.150114,   0.184032,   -300.818481,   603.776245,   0.536219,   11.880316,   19.459436,   333.338501,   -30.380737,   414.125580,   0.126563,   797.912659,   650.626953
-0.113138,   0.137841,   0.167760,   -242.154221,   622.132385,   0.536220,   11.880316,   18.756538,   401.782135,   -21.803961,   376.684937,   0.164018,   772.230103,   678.577393
-0.100484,   0.127741,   0.154084,   -163.118622,   648.325256,   0.536220,   11.880316,   18.053640,   484.597870,   0.608776,   325.651550,   0.217553,   743.429382,   701.450195
-0.089306,   0.121474,   0.144899,   -99.290710,   666.801453,   0.536220,   11.880316,   17.350744,   543.159790,   24.350945,   281.839752,   0.262158,   721.588562,   705.974121
-0.080544,   0.120475,   0.141107,   -61.963219,   677.027527,   0.536220,   11.880316,   16.647846,   575.973877,   39.090446,   253.901321,   0.288746,   710.039795,   703.918396
-0.075123,   0.125076,   0.142676,   -36.210129,   687.369690,   0.536220,   11.880316,   15.944948,   600.425171,   50.734406,   235.269974,   0.307366,   706.171387,   704.078186
-0.073317,   0.135566,   0.149606,   -16.922115,   699.920105,   0.536220,   11.880316,   15.242051,   622.652100,   60.345875,   222.302979,   0.321320,   708.532715,   708.077820
-0.075037,   0.151528,   0.161856,   -2.900996,   714.895752,   0.536220,   11.880316,   14.539153,   643.621887,   68.372894,   214.662994,   0.331306,   716.350708,   716.337463
-0.079191,   0.170695,   0.177858,   0.000000,   731.085327,   0.536220,   11.880316,   13.836256,   663.854675,   75.191650,   209.990891,   0.338793,   727.137512,   727.039490
-0.084562,   0.191257,   0.196374,   0.000000,   747.291321,   0.536220,   11.880316,   13.133358,   683.302490,   80.536736,   206.554718,   0.344464,   739.156311,   738.739319
-0.091171,   0.212431,   0.216670,   0.000000,   762.993408,   0.536220,   11.880316,   12.430461,   701.247803,   84.760307,   204.640945,   0.348524,   751.750366,   750.957031
-0.099434,   0.234382,   0.238385,   0.000000,   777.682129,   0.536220,   11.880316,   11.727564,   716.817749,   87.421822,   204.968964,   0.350546,   764.749329,   763.710754
-0.108425,   0.256918,   0.260820,   0.000000,   791.461792,   0.536220,   11.880316,   11.024666,   730.784241,   89.441475,   206.390060,   0.351660,   777.478943,   776.280457
-0.118972,   0.279804,   0.283891,   0.000000,   803.918579,   0.536220,   11.880316,   10.321769,   741.363159,   90.219948,   211.295319,   0.350679,   790.449463,   789.359131
-0.130696,   0.303069,   0.307480,   0.000000,   815.366821,   0.536220,   11.880316,   9.618871,   749.889282,   90.201958,   217.903702,   0.348604,   803.290039,   802.433228
-0.143348,   0.326213,   0.331101,   0.000000,   825.442505,   0.536220,   11.880316,   8.915974,   755.931702,   89.005737,   226.252808,   0.345209,   815.869812,   815.345459
-0.169985,   0.071563,   0.172334,   -764.904541,   0.000000,   0.535738,   12.840565,   49.385132,   -608.343506,   -192.167297,   299.446686,   -0.356859,   747.737488,   -745.826477
-0.126087,   0.051671,   0.129516,   -711.680481,   53.425079,   0.535738,   12.840565,   48.692539,   -436.539978,   -221.715408,   367.163757,   -0.296575,   739.841125,   -735.482422
-0.095207,   0.041126,   0.102863,   -588.257019,   236.192291,   0.535738,   12.840565,   47.999950,   -119.275787,   -232.788956,   408.298737,   -0.159585,   735.373962,   -641.314453
-0.088538,   0.048376,   0.104844,   -521.560120,   319.946381,   0.535738,   12.840565,   47.307358,   21.523708,   -223.137466,   402.577362,   -0.091347,   735.705078,   -542.420776
-0.100473,   0.069439,   0.122210,   -503.408295,   363.062469,   0.535738,   12.840565,   46.614769,   80.063095,   -220.408936,   406.352112,   -0.062073,   753.659668,   -490.754150
-0.118507,   0.094764,   0.146193,   -490.292633,   405.204315,   0.535738,   12.840565,   45.922176,   125.278351,   -210.366653,   415.107574,   -0.036518,   776.689209,   -424.852600
-0.136957,   0.119346,   0.172059,   -479.325195,   442.969482,   0.535738,   12.840565,   45.229588,   160.566681,   -196.922379,   425.096771,   -0.015168,   798.937439,   -326.434937
-0.153933,   0.141751,   0.196892,   -470.720886,   474.430725,   0.535738,   12.840565,   44.536995,   185.588699,   -181.878860,   435.396118,   0.001511,   818.527405,   155.060867
-0.168095,   0.160959,   0.218263,   -463.619263,   499.426819,   0.535738,   12.840565,   43.844406,   203.133286,   -167.325729,   444.471008,   0.014308,   834.214539,   334.286041
-0.180181,   0.177111,   0.236571,   -458.157104,   519.371155,   0.535738,   12.840565,   43.151814,   214.537201,   -153.323151,   452.835571,   0.024087,   847.117371,   403.668030
-0.189700,   0.190094,   0.251246,   -454.294739,   534.449158,   0.535739,   12.840565,   42.459225,   221.138657,   -140.984207,   460.022156,   0.031169,   857.214722,   444.948914
-0.197683,   0.200869,   0.263519,   -451.924652,   546.146240,   0.535737,   12.840565,   41.766632,   223.990112,   -129.768509,   466.636993,   0.036282,   865.637634,   472.496460
-0.203308,   0.208714,   0.272374,   -450.077148,   554.684875,   0.535738,   12.840565,   41.074043,   224.889801,   -120.282059,   471.805878,   0.040001,   871.720032,   491.405304
-0.207716,   0.215118,   0.279468,   -448.941132,   561.265564,   0.535738,   12.840565,   40.381451,   224.212753,   -111.888359,   476.328033,   0.042709,   876.665466,   504.990692
-0.210708,   0.219735,   0.284495,   -447.842682,   566.277161,   0.535738,   12.840565,   39.688862,   223.027451,   -104.592987,   479.870789,   0.044849,   880.247681,   515.288208
-0.212897,   0.223085,   0.288145,   -447.272064,   569.828125,   0.535738,   12.840565,   38.996269,   221.067154,   -98.511101,   482.794617,   0.046267,   882.963562,   522.201172
-0.214266,   0.225407,   0.290594,   -446.720032,   572.497803,   0.535738,   12.840565,   38.303680,   218.955002,   -93.177238,   485.123291,   0.047379,   884.906067,   527.454468
-0.214814,   0.226894,   0.291971,   -445.914734,   574.608459,   0.535738,   12.840565,   37.611088,   217.102417,   -88.408669,   486.859985,   0.048410,   886.138367,   531.939880
-0.214995,   0.227808,   0.292722,   -445.170105,   576.237854,   0.535738,   12.840565,   36.918499,   215.066788,   -83.999039,   488.322083,   0.049256,   886.989502,   535.488892
-0.214744,   0.228160,   0.292819,   -444.439545,   577.386719,   0.535738,   12.840565,   36.225906,   213.036545,   -80.089363,   489.440033,   0.049938,   887.420654,   538.174011
-0.214177,   0.228064,   0.292404,   -443.689606,   578.176208,   0.535738,   12.840565,   35.533318,   211.110168,   -76.623589,   490.259888,   0.050511,   887.512817,   540.249268
-0.213388,   0.227774,   0.291729,   -442.685303,   579.001099,   0.535738,   12.840565,   34.840725,   209.398346,   -73.082558,   490.929626,   0.051203,   887.427612,   542.614380
-0.212454,   0.227246,   0.290801,   -441.720459,   579.579529,   0.535738,   12.840565,   34.148136,   207.837509,   -69.978432,   491.393921,   0.051798,   887.153564,   544.508667
-0.211437,   0.226605,   0.289743,   -440.709412,   580.084717,   0.535738,   12.840565,   33.455544,   206.428909,   -67.053635,   491.738739,   0.052390,   886.776123,   546.308594
-0.210347,   0.225861,   0.288571,   -439.629883,   580.548462,   0.535738,   12.840565,   32.762955,   205.175415,   -64.256813,   491.978180,   0.052999,   886.305481,   548.088196
-0.209196,   0.225041,   0.287309,   -438.481293,   580.989136,   0.535738,   12.840565,   32.070362,   204.073715,   -61.565845,   492.126923,   0.053629,   885.757935,   549.877014
-0.208005,   0.224171,   0.285988,   -437.259979,   581.432617,   0.535738,   12.840565,   31.377773,   203.124420,   -58.951809,   492.201843,   0.054293,   885.153870,   551.719055
-0.206784,   0.223267,   0.284626,   -435.949554,   581.901489,   0.535738,   12.840565,   30.685183,   202.359756,   -56.407833,   492.204254,   0.055004,   884.500488,   553.663452
-0.205535,   0.222342,   0.283232,   -434.527008,   582.420410,   0.535739,   12.840565,   29.992590,   201.820587,   -53.927174,   492.131897,   0.055779,   883.801270,   555.766296
-0.204254,   0.221396,   0.281806,   -432.976227,   583.000305,   0.535738,   12.840565,   29.299999,   201.529587,   -51.505489,   491.981110,   0.056631,   883.053284,   558.053528
-0.202932,   0.220427,   0.280338,   -431.275208,   583.651062,   0.535737,   12.840565,   28.607409,   201.531113,   -49.155258,   491.739685,   0.057571,   882.247742,   560.552429
-0.201549,   0.219422,   0.278808,   -429.370239,   584.397217,   0.535738,   12.840565,   27.914818,   201.908386,   -46.881447,   491.382751,   0.058631,   881.363525,   563.337708
-0.200075,   0.218357,   0.277182,   -427.222473,   585.242554,   0.535738,   12.840565,   27.222227,   202.727600,   -44.707481,   490.882202,   0.059831,   880.373047,   566.434021
-0.198466,   0.217197,   0.275406,   -424.781952,   586.184326,   0.535738,   12.840565,   26.529636,   204.069275,   -42.666901,   490.197418,   0.061191,   879.233948,   569.859741
-0.196672,   0.215896,   0.273418,   -421.945038,   587.252441,   0.535738,   12.840565,   25.837046,   206.092117,   -40.784683,   489.267670,   0.062767,   877.890259,   573.720276
-0.194604,   0.214373,   0.271107,   -418.615570,   588.426208,   0.535738,   12.840565,   25.144455,   208.986160,   -39.175537,   487.993042,   0.064598,   876.246948,   578.024170
-0.192146,   0.212516,   0.268322,   -414.577881,   589.750549,   0.535738,   12.840565,   24.451864,   213.047348,   -37.874695,   486.239044,   0.066796,   874.172729,   582.952637
-0.189119,   0.210154,   0.264834,   -409.587799,   591.201782,   0.535738,   12.840565,   23.759274,   218.743713,   -37.129711,   483.763519,   0.069468,   871.453247,   588.570496
-0.185292,   0.207072,   0.260351,   -403.067230,   592.969238,   0.535738,   12.840565,   23.066683,   226.787338,   -36.885307,   480.251343,   0.072944,   867.803101,   595.422180
-0.180197,   0.202622,   0.254114,   -394.906403,   594.443054,   0.535738,   12.840565,   22.374092,   237.513718,   -37.977077,   475.109772,   0.077107,   862.590881,   602.516724
-0.173446,   0.196493,   0.245676,   -384.739685,   595.511475,   0.535739,   12.840565,   21.681501,   250.657867,   -39.886082,   468.101624,   0.082130,   855.438721,   609.725464
-0.164846,   0.188355,   0.234667,   -372.935699,   595.443909,   0.535738,   12.840565,   20.988911,   265.291840,   -42.783669,   459.033905,   0.087672,   845.988586,   615.665466
-0.154543,   0.178277,   0.221223,   -359.325928,   594.213623,   0.535738,   12.840565,   20.296320,   281.220367,   -46.332645,   447.757385,   0.093869,   834.099121,   620.274719
-0.142652,   0.166352,   0.205474,   -341.744995,   592.961426,   0.535737,   12.840565,   19.603729,   301.219727,   -50.003296,   433.104614,   0.102224,   819.166931,   625.677368
-0.129427,   0.152954,   0.187898,   -313.482788,   595.614929,   0.535738,   12.840565,   18.911140,   333.763824,   -51.631649,   411.682220,   0.117579,   799.839722,   637.848999
-0.115547,   0.139472,   0.170152,   -262.523651,   609.047729,   0.535738,   12.840565,   18.218550,   392.303314,   -45.779232,   376.736115,   0.149152,   774.433533,   662.621338
-0.101776,   0.127464,   0.154112,   -187.770035,   632.156921,   0.535738,   12.840565,   17.525959,   471.243164,   -26.856264,   325.644440,   0.199090,   744.029663,   687.623901
-0.089488,   0.119121,   0.142490,   -118.197105,   652.037476,   0.535738,   12.840565,   16.833368,   535.065552,   -1.225155,   276.429749,   0.247676,   718.465332,   696.085754
-0.079619,   0.115841,   0.136195,   -75.552155,   662.553345,   0.535738,   12.840565,   16.140778,   570.810913,   16.190273,   243.513687,   0.278181,   703.379272,   694.162354
-0.073161,   0.118548,   0.135645,   -48.253582,   671.597046,   0.535738,   12.840565,   15.448186,   595.373657,   27.969809,   221.493683,   0.298117,   696.977783,   693.204712
-0.070679,   0.127533,   0.140817,   -27.086189,   683.543579,   0.535738,   12.840565,   14.755594,   618.123596,   38.333794,   205.449783,   0.313728,   697.481201,   696.296326
-0.071990,   0.142624,   0.151863,   -11.831541,   698.361328,   0.535738,   12.840565,   14.063004,   639.850769,   46.679047,   195.269852,   0.324899,   704.351685,   704.128052
-0.075989,   0.161356,   0.167098,   -0.027455,   714.751343,   0.535738,   12.840565,   13.370413,   661.192749,   53.531113,   188.186096,   0.333314,   714.765076,   714.765076
-0.081835,   0.181924,   0.185625,   0.000000,   731.649658,   0.535738,   12.840565,   12.677823,   681.299011,   58.938759,   184.041931,   0.339219,   727.393616,   727.279602
-0.089083,   0.203656,   0.206430,   0.000000,   748.410156,   0.535738,   12.840565,   11.985232,   700.583130,   63.352379,   181.009018,   0.343758,   740.769531,   740.403381
-0.097772,   0.226103,   0.228458,   0.000000,   764.045044,   0.535738,   12.840565,   11.292642,   717.520325,   66.460670,   180.152527,   0.346461,   754.274780,   753.681641
-0.107645,   0.249143,   0.251308,   0.000000,   778.396606,   0.535738,   12.840565,   10.600051,   731.812256,   68.358269,   181.869934,   0.347413,   767.741272,   767.046082
-0.119028,   0.273151,   0.275306,   0.000000,   792.062439,   0.535738,   12.840565,   9.907460,   744.192383,   69.791748,   185.943939,   0.347263,   781.332275,   780.639954
-0.131850,   0.297764,   0.300088,   0.000000,   804.516907,   0.535738,   12.840565,   9.214869,   753.844421,   70.040489,   192.919022,   0.345440,   795.009827,   794.478821
-0.096714,   0.042011,   0.096225,   -644.875610,   52.701344,   0.535148,   13.813208,   49.127861,   -502.897675,   -89.276611,   280.860840,   -0.293398,   672.776184,   -668.108398
-0.071969,   0.030835,   0.072875,   -591.688782,   150.526169,   0.535147,   13.813208,   48.444141,   -283.629852,   -157.532745,   365.712494,   -0.216392,   679.572205,   -640.431824
-0.060075,   0.029409,   0.066889,   -482.109680,   294.505829,   0.535148,   13.813208,   47.760422,   5.041324,   -192.645187,   375.516876,   -0.092087,   679.078430,   -501.950012
-0.069735,   0.045545,   0.083738,   -478.744202,   330.122345,   0.535148,   13.813208,   47.076702,   55.357826,   -203.979675,   383.082611,   -0.070327,   704.429504,   -477.660004
-0.088933,   0.069651,   0.109043,   -470.719208,   377.392029,   0.535148,   13.813208,   46.392986,   110.198151,   -203.525345,   393.976593,   -0.042270,   735.966736,   -422.500427
-0.110307,   0.095586,   0.138214,   -465.958923,   419.268860,   0.535148,   13.813208,   45.709267,   148.503876,   -195.193954,   407.890930,   -0.020292,   766.985107,   -345.237305
-0.130108,   0.120042,   0.166555,   -459.884216,   455.636169,   0.535148,   13.813208,   45.025547,   178.474197,   -182.722229,   420.628906,   -0.001786,   792.866760,   -158.814743
-0.148208,   0.142631,   0.192958,   -454.299438,   486.030762,   0.535147,   13.813208,   44.341827,   200.166962,   -168.435654,   432.536987,   0.012986,   814.504395,   316.020630
-0.163827,   0.161942,   0.215855,   -450.202576,   509.725067,   0.535148,   13.813208,   43.658108,   214.517914,   -154.995438,   442.978821,   0.023851,   831.854309,   395.101257
-0.177071,   0.178874,   0.235654,   -446.856934,   528.964355,   0.535148,   13.813208,   42.974388,   223.937744,   -141.830338,   452.338623,   0.032348,   846.082642,   444.608551
-0.188137,   0.192759,   0.252087,   -444.522736,   543.949829,   0.535150,   13.813208,   42.290668,   229.386200,   -129.959091,   460.420746,   0.038651,   857.484680,   477.931976
-0.197112,   0.204286,   0.265629,   -442.855286,   555.765747,   0.535148,   13.813208,   41.606945,   232.196747,   -119.286247,   467.360596,   0.043427,   866.671936,   501.984467
-0.203868,   0.213317,   0.276032,   -441.597748,   564.687805,   0.535147,   13.813208,   40.923229,   233.296570,   -110.206528,   472.920776,   0.046964,   873.639343,   519.236389
-0.209450,   0.220490,   0.284471,   -441.165375,   571.412964,   0.535148,   13.813208,   40.239510,   232.596649,   -102.349030,   477.788208,   0.049374,   879.333435,   531.284058
-0.213516,   0.225834,   0.290703,   -441.000793,   576.288391,   0.535148,   13.813208,   39.555790,   231.091461,   -95.803864,   481.668121,   0.051037,   883.591309,   539.694885
-0.216348,   0.229787,   0.295217,   -440.798401,   579.975708,   0.535148,   13.813208,   38.872070,   229.258255,   -90.080986,   484.768555,   0.052317,   886.751038,   546.043640
-0.218326,   0.232562,   0.298361,   -440.754211,   582.569458,   0.535148,   13.813208,   38.188351,   227.085587,   -85.270309,   487.243561,   0.053171,   889.056458,   550.374023
-0.219427,   0.234429,   0.300351,   -440.396484,   584.629883,   0.535147,   13.813208,   37.504631,   225.122375,   -80.888985,   489.141113,   0.053982,   890.623474,   554.086121
-0.220153,   0.235730,   0.301720,   -440.098511,   586.193176,   0.535148,   13.813208,   36.820915,   223.159317,   -77.064644,   490.698547,   0.054607,   891.791443,   556.907715
-0.220438,   0.236477,   0.302422,   -439.838989,   587.239380,   0.535148,   13.813208,   36.137192,   221.304474,   -73.904076,   491.869354,   0.055050,   892.524048,   558.840393
-0.220378,   0.236803,   0.302624,   -439.512451,   587.987915,   0.535148,   13.813208,   35.453476,   219.580612,   -71.105171,   492.762299,   0.055426,   892.932800,   560.343262
-0.220029,   0.236851,   0.302456,   -438.982513,   588.666626,   0.535148,   13.813208,   34.769756,   217.990097,   -68.305984,   493.481842,   0.055866,   893.111633,   561.906860
-0.219460,   0.236549,   0.301902,   -438.446869,   589.069153,   0.535148,   13.813208,   34.086037,   216.512787,   -65.890480,   493.973083,   0.056221,   893.036255,   563.024048
-0.218729,   0.236074,   0.301131,   -437.832550,   589.380188,   0.535147,   13.813208,   33.402317,   215.162384,   -63.614788,   494.330170,   0.056581,   892.813599,   564.057739
-0.217880,   0.235469,   0.300198,   -437.149658,   589.625305,   0.535148,   13.813208,   32.718597,   213.951965,   -61.476307,   494.572052,   0.056949,   892.475342,   565.040222
-0.216951,   0.234770,   0.299151,   -436.395874,   589.837524,   0.535148,   13.813208,   32.034878,   212.889160,   -59.447521,   494.719025,   0.057337,   892.049438,   566.025452
-0.215958,   0.233999,   0.298016,   -435.572968,   590.032349,   0.535148,   13.813208,   31.351158,   211.972260,   -57.512863,   494.783813,   0.057749,   891.551575,   567.035889
-0.214917,   0.233178,   0.296816,   -434.672760,   590.232361,   0.535147,   13.813208,   30.667439,   211.214523,   -55.654900,   494.775513,   0.058197,   890.995239,   568.112732
-0.213831,   0.232317,   0.295562,   -433.674622,   590.458557,   0.535149,   13.813208,   29.983719,   210.649963,   -53.866016,   494.691833,   0.058695,   890.382996,   569.304810
-0.212698,   0.231419,   0.294253,   -432.563934,   590.721985,   0.535147,   13.813208,   29.299999,   210.305679,   -52.147640,   494.528137,   0.059254,   889.712891,   570.638611
-0.211510,   0.230481,   0.292884,   -431.322021,   591.031677,   0.535148,   13.813208,   28.616280,   210.210022,   -50.500347,   494.276550,   0.059885,   888.978149,   572.139954
-0.210253,   0.229493,   0.291436,   -429.920563,   591.395691,   0.535148,   13.813208,   27.932560,   210.418442,   -48.943329,   493.917603,   0.060603,   888.163147,   573.839172
-0.208899,   0.228436,   0.289882,   -428.314331,   591.826172,   0.535147,   13.813208,   27.248842,   211.002304,   -47.490429,   493.423798,   0.061431,   887.242371,   575.784729
-0.207416,   0.227279,   0.288178,   -426.466797,   592.318909,   0.535148,   13.813208,   26.565123,   212.026917,   -46.174805,   492.761658,   0.062384,   886.182800,   577.988831
-0.205753,   0.225978,   0.286261,   -424.317047,   592.871033,   0.535148,   13.813208,   25.881403,   213.598602,   -45.044628,   491.877838,   0.063490,   884.932922,   580.482300
-0.203845,   0.224476,   0.284052,   -421.766693,   593.494873,   0.535147,   13.813208,   25.197683,   215.870712,   -44.142563,   490.700806,   0.064796,   883.424927,   583.340759
-0.201595,   0.222663,   0.281410,   -418.732269,   594.141174,   0.535148,   13.813208,   24.513964,   219.007095,   -43.598198,   489.119385,   0.066326,   881.547852,   586.527344
-0.198849,   0.220362,   0.278116,   -415.010803,   594.793945,   0.535147,   13.813208,   23.830246,   223.289474,   -43.506313,   486.961426,   0.068168,   879.124451,   590.130493
-0.195342,   0.217431,   0.273916,   -410.151062,   595.599609,   0.535148,   13.813208,   23.146526,   229.248154,   -43.799622,   483.988464,   0.070572,   875.927246,   594.617432
-0.190785,   0.213386,   0.268279,   -403.997162,   596.194397,   0.535148,   13.813208,   22.462807,   237.333939,   -45.136692,   479.737823,   0.073512,   871.505798,   599.459961
-0.184844,   0.207905,   0.260769,   -396.304565,   596.381348,   0.535148,   13.813208,   21.779087,   247.576035,   -47.499260,   473.908173,   0.077057,   865.492126,   604.416138
-0.177276,   0.200712,   0.251041,   -386.971130,   595.900391,   0.535148,   13.813208,   21.095367,   259.567383,   -50.638130,   466.317749,   0.081209,   857.578064,   609.050171
-0.168021,   0.191562,   0.238865,   -376.455078,   594.023621,   0.535148,   13.813208,   20.411648,   272.554474,   -54.985928,   456.767487,   0.085576,   847.470154,   612.016113
-0.156997,   0.180509,   0.224223,   -364.169189,   590.933960,   0.535147,   13.813208,   19.727928,   286.740387,   -59.975594,   444.974731,   0.090538,   834.878479,   613.809143
-0.144458,   0.167664,   0.207395,   -348.479095,   587.617554,   0.535148,   13.813208,   19.044209,   303.822388,   -64.683899,   430.255768,   0.097276,   819.453796,   616.255676
-0.130531,   0.153212,   0.188575,   -324.578461,   586.609802,   0.535147,   13.813208,   18.360491,   330.003052,   -67.971733,   409.841461,   0.109191,   799.914429,   623.597412
-0.115757,   0.138212,   0.169000,   -282.442657,   593.635071,   0.535148,   13.813208,   17.676771,   377.397980,   -66.205574,   377.732727,   0.133933,   774.496155,   642.261230
-0.101283,   0.124597,   0.151108,   -214.194412,   612.814575,   0.535148,   13.813208,   16.993052,   449.929321,   -51.309155,   328.901154,   0.178731,   743.426147,   668.535767
-0.087651,   0.113900,   0.136578,   -138.782257,   633.693481,   0.535147,   13.813208,   16.309332,   519.699585,   -24.788363,   273.976105,   0.231283,   713.283508,   681.907410
-0.076730,   0.108530,   0.127970,   -87.145592,   646.219543,   0.535149,   13.813208,   15.625613,   561.814453,   -2.740519,   234.041702,   0.268563,   693.908691,   681.434265
-0.069070,   0.109037,   0.124998,   -56.760719,   654.227234,   0.535148,   13.813208,   14.941894,   586.940063,   10.526465,   208.117310,   0.291003,   684.375244,   679.049255
-0.065777,   0.116014,   0.128154,   -34.801361,   664.853516,   0.535148,   13.813208,   14.258174,   609.031555,   21.020580,   189.578491,   0.307529,   682.919556,   680.920105
-0.066478,   0.129494,   0.137257,   -18.313364,   678.843628,   0.535148,   13.813208,   13.574455,   631.268738,   29.261515,   175.794739,   0.319939,   688.183044,   687.634460
-0.070576,   0.147834,   0.152021,   -5.892689,   696.073975,   0.535148,   13.813208,   12.890736,   653.629944,   36.551350,   167.310501,   0.329110,   699.038940,   698.983032
-0.076650,   0.168562,   0.170724,   0.000000,   714.645813,   0.535148,   13.813208,   12.207016,   676.230652,   42.816261,   160.650085,   0.336417,   712.455505,   712.424866
-0.084566,   0.190544,   0.191837,   0.000000,   732.650085,   0.535148,   13.813208,   11.523296,   696.669067,   47.472717,   157.013977,   0.341206,   726.972412,   726.768005
-0.093700,   0.213325,   0.214071,   0.000000,   749.341431,   0.535148,   13.813208,   10.839578,   715.016663,   50.778740,   154.848251,   0.344371,   741.251404,   740.840332
-0.104202,   0.237094,   0.237512,   0.000000,   764.851685,   0.535148,   13.813208,   10.155858,   730.925537,   52.850876,   155.420242,   0.345778,   755.567139,   755.033508
-0.116689,   0.261914,   0.262210,   0.000000,   779.322632,   0.535148,   13.813208,   9.472138,   744.268372,   53.898281,   159.465469,   0.345494,   770.073608,   769.554626
-0.042563,   0.018999,   0.041641,   -399.052765,   89.881500,   0.534530,   14.796378,   48.912712,   -262.199402,   -46.971851,   219.507294,   -0.228627,   450.765198,   -429.904480
-0.032800,   0.014915,   0.032638,   -472.352814,   202.139069,   0.534527,   14.796378,   48.236412,   -138.260529,   -131.953217,   337.231201,   -0.150232,   599.548462,   -514.043213
-0.036120,   0.021719,   0.041954,   -410.659027,   306.421936,   0.534530,   14.796378,   47.560112,   59.124924,   -163.362015,   340.846252,   -0.055754,   623.193542,   -391.829163
-0.055090,   0.042346,   0.066795,   -435.172119,   341.186707,   0.534529,   14.796378,   46.883808,   90.513130,   -184.498550,   363.008820,   -0.046482,   673.986694,   -399.217957
-0.077240,   0.066640,   0.096301,   -440.817963,   387.224243,   0.534529,   14.796378,   46.207512,   133.250244,   -186.843964,   381.835571,   -0.024895,   717.606140,   -345.718781
-0.099706,   0.092073,   0.127432,   -441.668213,   428.956055,   0.534530,   14.796378,   45.531208,   167.249863,   -179.962006,   399.196228,   -0.005620,   754.009521,   -221.313248
-0.120191,   0.115849,   0.156519,   -440.507446,   463.052490,   0.534529,   14.796378,   44.854908,   192.202759,   -169.657730,   413.967865,   0.009603,   782.587036,   274.596802
-0.139235,   0.138556,   0.183998,   -438.637177,   492.063171,   0.534527,   14.796378,   44.178608,   210.473755,   -157.047775,   427.531006,   0.022083,   806.452698,   373.355042
-0.156491,   0.159165,   0.209014,   -437.082581,   515.923767,   0.534530,   14.796378,   43.502308,   222.981354,   -144.140198,   439.727997,   0.031806,   826.268616,   431.773163
-0.170709,   0.176261,   0.229759,   -435.563904,   534.481506,   0.534529,   14.796378,   42.826008,   231.471817,   -132.554230,   449.575653,   0.039181,   841.538574,   471.160980
-0.183591,   0.191992,   0.248699,   -434.892212,   550.052551,   0.534529,   14.796378,   42.149708,   236.193558,   -121.033234,   458.940399,   0.044901,   854.928406,   500.656219
-0.193542,   0.204190,   0.263378,   -434.241547,   561.745728,   0.534530,   14.796378,   41.473408,   238.874420,   -111.370224,   466.186493,   0.049140,   864.903076,   521.752197
-0.201976,   0.214426,   0.275758,   -434.248535,   570.943970,   0.534527,   14.796378,   40.797108,   239.361542,   -102.666122,   472.606873,   0.052182,   873.201233,   537.242737
-0.208569,   0.222528,   0.285521,   -434.514465,   577.908203,   0.534530,   14.796378,   40.120808,   238.485153,   -95.091415,   477.945160,   0.054334,   879.710266,   548.461060
-0.213580,   0.228679,   0.292925,   -434.870148,   583.046936,   0.534529,   14.796378,   39.444504,   236.935928,   -88.759155,   482.202728,   0.055833,   884.649902,   556.473633
-0.217294,   0.233419,   0.298543,   -435.075012,   587.035156,   0.534529,   14.796378,   38.768208,   235.162003,   -83.201828,   485.631989,   0.057015,   888.428345,   562.690918
-0.220097,   0.236939,   0.302754,   -435.461884,   589.853088,   0.534530,   14.796378,   38.091904,   233.181763,   -78.790588,   488.350281,   0.057740,   891.298035,   566.845459
-0.222093,   0.239475,   0.305764,   -435.692810,   591.982910,   0.534527,   14.796378,   37.415604,   231.208267,   -74.918144,   490.510956,   0.058312,   893.417419,   570.023682
-0.223347,   0.241259,   0.307796,   -435.707703,   593.631714,   0.534529,   14.796378,   36.739307,   229.378891,   -71.454910,   492.198792,   0.058822,   894.924377,   572.611633
-0.224125,   0.242367,   0.309056,   -435.720947,   594.746460,   0.534530,   14.796378,   36.063004,   227.624207,   -68.598724,   493.486328,   0.059165,   895.946167,   574.353088
-0.224511,   0.243057,   0.309783,   -435.654114,   595.568420,   0.534529,   14.796378,   35.386703,   225.960876,   -66.046570,   494.507721,   0.059450,   896.637085,   575.697388
-0.224620,   0.243408,   0.310106,   -435.536469,   596.144592,   0.534530,   14.796378,   34.710403,   224.452347,   -63.844254,   495.290527,   0.059679,   897.063599,   576.695618
-0.224456,   0.243497,   0.310078,   -435.260803,   596.609131,   0.534529,   14.796378,   34.034103,   223.165237,   -61.816910,   495.868103,   0.059941,   897.259705,   577.646057
-0.224082,   0.243321,   0.309734,   -434.911774,   596.923523,   0.534527,   14.796378,   33.357803,   221.964996,   -59.953251,   496.287750,   0.060188,   897.259705,   578.419312
-0.223540,   0.242944,   0.309145,   -434.501282,   597.120422,   0.534530,   14.796378,   32.681503,   220.859711,   -58.240574,   496.574860,   0.060424,   897.102966,   579.057251
-0.222874,   0.242429,   0.308383,   -434.026489,   597.247742,   0.534529,   14.796378,   32.005203,   219.867676,   -56.646400,   496.756104,   0.060666,   896.830688,   579.636475
-0.222113,   0.241811,   0.307490,   -433.480560,   597.335693,   0.534530,   14.796378,   31.328901,   219.011627,   -55.156506,   496.843536,   0.060926,   896.464539,   580.209290
-0.221280,   0.241118,   0.306501,   -432.865387,   597.404846,   0.534528,   14.796378,   30.652601,   218.295959,   -53.756512,   496.851135,   0.061211,   896.025024,   580.805603
-0.220384,   0.240365,   0.305432,   -432.171509,   597.470886,   0.534530,   14.796378,   29.976301,   217.743027,   -52.443665,   496.780273,   0.061528,   895.518555,   581.456177
-0.219429,   0.239560,   0.304291,   -431.381287,   597.551880,   0.534529,   14.796378,   29.300001,   217.383057,   -51.212490,   496.628601,   0.061892,   894.947327,   582.201782
-0.218409,   0.238701,   0.303071,   -430.482086,   597.652283,   0.534530,   14.796378,   28.623699,   217.241394,   -50.071201,   496.388031,   0.062309,   894.305176,   583.057190
-0.217313,   0.237782,   0.301763,   -429.452118,   597.780273,   0.534529,   14.796378,   27.947399,   217.353333,   -49.025200,   496.046570,   0.062792,   893.581726,   584.049500
-0.216117,   0.236781,   0.300336,   -428.260925,   597.937195,   0.534529,   14.796378,   27.271099,   217.774597,   -48.098354,   495.578979,   0.063353,   892.753845,   585.200806
-0.214791,   0.235674,   0.298754,   -426.870087,   598.125854,   0.534530,   14.796378,   26.594799,   218.561447,   -47.305687,   494.957397,   0.064012,   891.792969,   586.539917
-0.213283,   0.234413,   0.296952,   -425.235718,   598.332214,   0.534530,   14.796378,   25.918497,   219.783661,   -46.687145,   494.136780,   0.064783,   890.650940,   588.072205
-0.211533,   0.232937,   0.294847,   -423.291046,   598.548218,   0.534528,   14.796378,   25.242197,   221.539963,   -46.282764,   493.058441,   0.065694,   889.266785,   589.826050
-0.209431,   0.231155,   0.292308,   -420.928711,   598.760742,   0.534530,   14.796378,   24.565897,   223.965607,   -46.133568,   491.633270,   0.066788,   887.542175,   591.846985
-0.206864,   0.228936,   0.289175,   -418.046661,   598.929443,   0.534529,   14.796378,   23.889597,   227.189499,   -46.306728,   489.755096,   0.068102,   885.358643,   594.128906
-0.203667,   0.226071,   0.285191,   -414.483673,   598.951416,   0.534530,   14.796378,   23.213297,   231.599670,   -47.131931,   487.175385,   0.069677,   882.493713,   596.606140
-0.199651,   0.222428,   0.280146,   -409.910492,   598.889221,   0.534529,   14.796378,   22.536997,   237.654022,   -48.675293,   483.655975,   0.071685,   878.741089,   599.551147
-0.194474,   0.217521,   0.273486,   -404.121887,   598.453308,   0.534529,   14.796378,   21.860695,   245.507050,   -51.175648,   478.836182,   0.074143,   873.675537,   602.611694
-0.187789,   0.211106,   0.264828,   -396.907043,   597.471680,   0.534530,   14.796378,   21.184395,   255.061432,   -54.496807,   472.483521,   0.077113,   866.976562,   605.593201
-0.179407,   0.202765,   0.253739,   -388.565887,   595.254944,   0.534530,   14.796378,   20.508095,   265.707520,   -59.018456,   464.342682,   0.080275,   858.258484,   607.279968
-0.169313,   0.192469,   0.240198,   -379.010498,   591.700500,   0.534528,   14.796378,   19.831795,   276.997467,   -64.307472,   454.365143,   0.083668,   847.360107,   607.554932
-0.157659,   0.180527,   0.224505,   -367.861694,   587.036194,   0.534530,   14.796378,   19.155495,   289.162933,   -69.988426,   442.391296,   0.087579,   834.195312,   606.879211
-0.144513,   0.166714,   0.206539,   -354.076324,   581.438904,   0.534529,   14.796378,   18.479193,   303.469818,   -76.107262,   427.524841,   0.092637,   818.116760,   605.858521
-0.129951,   0.151333,   0.186622,   -333.903961,   577.132141,   0.534530,   14.796378,   17.802893,   323.974762,   -80.746559,   408.101532,   0.101561,   798.298218,   608.501221
-0.114525,   0.135258,   0.165737,   -299.925018,   578.358154,   0.534529,   14.796378,   17.126593,   360.247620,   -81.814491,   379.460938,   0.120027,   773.251099,   620.519165
-0.099099,   0.119838,   0.145681,   -240.606857,   591.298462,   0.534529,   14.796378,   16.450293,   423.256653,   -72.565063,   334.001221,   0.157653,   741.482300,   644.448547
-0.084347,   0.106797,   0.128398,   -162.499893,   611.758423,   0.534530,   14.796378,   15.773993,   496.584656,   -47.326111,   275.516357,   0.211769,   707.152954,   663.163696
-0.072202,   0.099021,   0.117128,   -99.612999,   627.058167,   0.534529,   14.796378,   15.097692,   546.921753,   -19.476610,   227.620209,   0.257665,   682.339905,   665.686096
-0.063374,   0.097269,   0.111803,   -63.406170,   634.950745,   0.534529,   14.796378,   14.421391,   574.588013,   -3.043414,   196.242416,   0.284813,   668.911499,   662.099792
-0.058954,   0.102430,   0.112764,   -37.915928,   644.749146,   0.534530,   14.796378,   13.745091,   597.947144,   8.886084,   172.509918,   0.304397,   664.518860,   662.078491
-0.059385,   0.114755,   0.120748,   -19.807158,   659.131348,   0.534529,   14.796378,   13.068790,   621.019470,   18.304703,   156.278900,   0.318426,   669.254761,   668.594849
-0.063382,   0.132231,   0.134659,   -6.881919,   676.822021,   0.534529,   14.796378,   12.392490,   644.619812,   25.320305,   144.844070,   0.328262,   680.289124,   680.210815
-0.069919,   0.152631,   0.153377,   0.000000,   696.588867,   0.534529,   14.796378,   11.716190,   668.157288,   31.217169,   137.541214,   0.335335,   695.200256,   695.187744
-0.078102,   0.174343,   0.174165,   0.000000,   715.637268,   0.534530,   14.796378,   11.039889,   690.267700,   35.761868,   131.332245,   0.340620,   710.498169,   710.327209
-0.087743,   0.196856,   0.196093,   0.000000,   732.737427,   0.534529,   14.796378,   10.363589,   709.145691,   37.980274,   128.025467,   0.343198,   725.650146,   725.329041
-0.099079,   0.220808,   0.219643,   0.000000,   748.964478,   0.534529,   14.796378,   9.687288,   726.025635,   39.262882,   127.592018,   0.344288,   740.937317,   740.532532
-0.011033,   0.005116,   0.011198,   -125.081047,   151.565475,   0.533953,   15.788191,   48.740093,   61.732506,   -35.248070,   129.545425,   0.036792,   239.948608,   131.578140
-0.011089,   0.005869,   0.010731,   -357.536743,   224.638809,   0.533950,   15.788191,   48.069744,   -8.831903,   -124.066025,   285.328522,   -0.087111,   508.538818,   -369.333649
-0.023992,   0.018340,   0.028395,   -370.428253,   298.995697,   0.533951,   15.788191,   47.399399,   87.321503,   -158.754059,   311.277710,   -0.040994,   580.837341,   -330.091095
-0.044674,   0.038984,   0.055232,   -397.576935,   350.234589,   0.533950,   15.788191,   46.729050,   126.981285,   -174.323624,   342.212433,   -0.024351,   648.056213,   -309.930511
-0.066855,   0.062242,   0.085190,   -412.068878,   395.317596,   0.533950,   15.788191,   46.058701,   157.815323,   -174.566620,   367.897797,   -0.007985,   699.267334,   -230.735321
-0.088993,   0.086621,   0.115997,   -417.780396,   435.649139,   0.533951,   15.788191,   45.388355,   185.475861,   -167.607117,   388.482422,   0.008058,   739.145630,   244.635742
-0.110208,   0.110414,   0.145844,   -421.124756,   468.678925,   0.533950,   15.788191,   44.718006,   205.955139,   -158.400955,   405.892609,   0.020561,   770.959351,   348.549103
-0.129932,   0.132648,   0.173750,   -423.219391,   495.909424,   0.533950,   15.788191,   44.047657,   220.420624,   -147.730591,   421.088623,   0.030408,   796.818237,   410.228699
-0.147972,   0.153801,   0.199737,   -424.159302,   519.334106,   0.533951,   15.788191,   43.377312,   230.915665,   -135.740845,   434.667358,   0.038761,   818.473877,   456.618622
-0.163564,   0.172095,   0.222250,   -424.658783,   538.120544,   0.533950,   15.788191,   42.706963,   238.106339,   -124.644562,   445.913635,   0.045255,   835.719116,   490.676239
-0.177410,   0.188347,   0.242280,   -425.160797,   553.779419,   0.533950,   15.788191,   42.036613,   242.365189,   -113.746590,   455.935394,   0.050425,   850.222717,   517.263306
-0.188826,   0.201969,   0.258906,   -425.769196,   565.977844,   0.533951,   15.788191,   41.366264,   244.482910,   -104.274292,   464.201080,   0.054235,   861.734436,   536.934326
-0.198531,   0.213378,   0.272971,   -426.628723,   575.693054,   0.533950,   15.788191,   40.695919,   244.700287,   -95.635941,   471.386322,   0.057032,   871.230042,   551.853821
-0.206265,   0.222507,   0.284189,   -427.527710,   583.087524,   0.533953,   15.788191,   40.025570,   243.818237,   -88.258423,   477.249481,   0.059014,   878.667786,   562.806335
-0.212343,   0.229728,   0.293030,   -428.502472,   588.603943,   0.533950,   15.788191,   39.355221,   242.267197,   -82.165718,   481.987762,   0.060338,   884.470032,   570.638611
-0.217140,   0.235333,   0.299945,   -429.404358,   592.797791,   0.533950,   15.788191,   38.684872,   240.288971,   -76.895515,   485.873260,   0.061264,   889.014771,   576.423950
-0.220658,   0.239530,   0.305076,   -430.152679,   595.855835,   0.533951,   15.788191,   38.014526,   238.293518,   -72.590332,   488.887695,   0.061894,   892.403748,   580.552673
-0.223325,   0.242692,   0.308955,   -430.822937,   598.110779,   0.533950,   15.788191,   37.344177,   236.284180,   -68.996315,   491.301453,   0.062305,   894.999939,   583.496338
-0.225280,   0.245008,   0.311800,   -431.331757,   599.787415,   0.533950,   15.788191,   36.673828,   234.440704,   -65.985062,   493.191406,   0.062604,   896.938843,   585.673096
-0.226568,   0.246645,   0.313755,   -431.623901,   601.046021,   0.533951,   15.788191,   36.003483,   232.812073,   -63.389950,   494.639130,   0.062866,   898.321350,   587.374329
-0.227426,   0.247750,   0.315066,   -431.816162,   601.966919,   0.533950,   15.788191,   35.333134,   231.241516,   -61.090767,   495.794647,   0.063067,   899.315491,   588.633972
-0.227890,   0.248355,   0.315776,   -431.972473,   602.514221,   0.533951,   15.788191,   34.662785,   229.760162,   -59.218418,   496.652313,   0.063168,   899.940613,   589.349915
-0.228044,   0.248696,   0.316118,   -431.939331,   602.978027,   0.533950,   15.788191,   33.992435,   228.462219,   -57.423496,   497.323669,   0.063324,   900.335510,   590.082520
-0.228001,   0.248794,   0.316168,   -431.843811,   603.288025,   0.533950,   15.788191,   33.322090,   227.324966,   -55.880718,   497.818359,   0.063460,   900.539673,   590.627502
-0.227779,   0.248692,   0.315965,   -431.666901,   603.489441,   0.533951,   15.788191,   32.651741,   226.342361,   -54.519798,   498.162903,   0.063597,   900.578796,   591.068359
-0.227416,   0.248432,   0.315564,   -431.420532,   603.611084,   0.533951,   15.788191,   31.981392,   225.482071,   -53.291489,   498.391357,   0.063740,   900.488892,   591.439758
-0.226932,   0.248039,   0.314995,   -431.107971,   603.670410,   0.533951,   15.788191,   31.311045,   224.736969,   -52.174522,   498.519379,   0.063892,   900.288391,   591.765747
-0.226345,   0.247539,   0.314288,   -430.725769,   603.689453,   0.533950,   15.788191,   30.640696,   224.110550,   -51.146885,   498.559967,   0.064061,   899.994568,   592.082214
-0.225669,   0.246947,   0.313461,   -430.268829,   603.682861,   0.533951,   15.788191,   29.970348,   223.613815,   -50.199776,   498.518372,   0.064255,   899.616699,   592.414856
-0.224908,   0.246273,   0.312523,   -429.727966,   603.662842,   0.533951,   15.788191,   29.299999,   223.266022,   -49.331158,   498.394257,   0.064481,   899.158386,   592.788391
-0.224058,   0.245517,   0.311474,   -429.087524,   603.638855,   0.533951,   15.788191,   28.629652,   223.094101,   -48.542759,   498.181000,   0.064748,   898.615540,   593.228271
-0.223112,   0.244673,   0.310303,   -428.335144,   603.612610,   0.533950,   15.788191,   27.959303,   223.122482,   -47.845016,   497.868652,   0.065064,   897.979736,   593.744873
-0.222051,   0.243725,   0.308988,   -427.446503,   603.586304,   0.533951,   15.788191,   27.288956,   223.391495,   -47.251724,   497.438660,   0.065438,   897.233398,   594.357971
-0.220848,   0.242651,   0.307496,   -426.395020,   603.555725,   0.533951,   15.788191,   26.618608,   223.949387,   -46.788662,   496.865051,   0.065882,   896.351196,   595.078491
-0.219464,   0.241416,   0.305779,   -425.142853,   603.514587,   0.533951,   15.788191,   25.948259,   224.855606,   -46.483868,   496.112640,   0.066411,   895.296692,   595.921326
-0.217853,   0.239975,   0.303775,   -423.648102,   603.449463,   0.533951,   15.788191,   25.277912,   226.184784,   -46.383392,   495.135345,   0.067038,   894.024170,   596.892212
-0.215942,   0.238258,   0.301390,   -421.838867,   603.343811,   0.533951,   15.788191,   24.607563,   228.059921,   -46.554962,   493.858826,   0.067792,   892.460449,   598.011414
-0.213676,   0.236233,   0.298567,   -419.630524,   603.211487,   0.533951,   15.788191,   23.937216,   230.619659,   -47.038704,   492.217316,   0.068714,   890.550293,   599.349304
-0.210860,   0.233589,   0.294955,   -416.992706,   602.801025,   0.533951,   15.788191,   23.266867,   234.057922,   -48.249607,   489.969818,   0.069745,   888.040344,   600.545349
-0.207257,   0.230218,   0.290344,   -413.535339,   602.281189,   0.533950,   15.788191,   22.596519,   238.636627,   -49.890766,   486.989532,   0.071109,   884.770386,   602.093323
-0.202642,   0.225812,   0.284377,   -409.152435,   601.439758,   0.533951,   15.788191,   21.926172,   244.495911,   -52.208607,   483.027679,   0.072798,   880.463501,   603.718933
-0.196692,   0.219916,   0.276518,   -403.722992,   599.903564,   0.533951,   15.788191,   21.255823,   251.821625,   -55.641029,   477.685303,   0.074762,   874.683594,   604.925293
-0.189239,   0.212421,   0.266585,   -397.189423,   597.504456,   0.533951,   15.788191,   20.585474,   260.382721,   -60.067707,   470.831024,   0.076994,   867.233215,   605.472595
-0.180152,   0.203107,   0.254340,   -389.661713,   593.865356,   0.533950,   15.788191,   19.915127,   269.650055,   -65.446442,   462.340729,   0.079346,   857.857178,   604.738770
-0.169366,   0.191805,   0.239609,   -380.996857,   588.774231,   0.533951,   15.788191,   19.244780,   279.360443,   -71.583038,   452.021759,   0.081843,   846.247498,   602.498840
-0.156996,   0.178790,   0.222667,   -370.983887,   582.291321,   0.533951,   15.788191,   18.574430,   289.527496,   -78.220047,   439.742950,   0.084629,   832.293823,   598.929199
-0.143138,   0.163996,   0.203534,   -358.666382,   574.707092,   0.533951,   15.788191,   17.904083,   300.982910,   -84.942192,   424.925842,   0.088305,   815.510864,   594.842529
-0.127825,   0.147526,   0.182314,   -341.649048,   567.125244,   0.533951,   15.788191,   17.233734,   316.205078,   -90.728889,   406.286682,   0.094533,   795.055298,   592.554382
-0.111796,   0.130515,   0.160299,   -314.656311,   563.046997,   0.533951,   15.788191,   16.563387,   342.226715,   -93.836014,   380.858368,   0.107502,   770.192688,   597.540161
-0.095423,   0.113553,   0.138340,   -265.486481,   568.754700,   0.533951,   15.788191,   15.893039,   392.814087,   -89.545883,   340.326019,   0.136938,   738.215210,   616.187439
-0.080048,   0.098704,   0.119076,   -189.015137,   587.066650,   0.533950,   15.788191,   15.222691,   466.121368,   -68.069847,   281.488312,   0.189290,   700.955383,   639.746277
-0.066347,   0.088376,   0.104658,   -112.765236,   605.191284,   0.533950,   15.788191,   14.552342,   527.562073,   -35.136044,   222.953110,   0.245449,   668.742859,   646.832153
-0.056340,   0.084383,   0.096971,   -67.369522,   613.962158,   0.533951,   15.788191,   13.881994,   559.959656,   -13.366988,   184.058044,   0.280188,   650.269592,   642.347717
-0.051046,   0.087474,   0.095925,   -39.943947,   622.260132,   0.533950,   15.788191,   13.211646,   582.700317,   -0.384115,   156.944901,   0.301798,   643.163025,   640.363403
-0.050994,   0.098187,   0.102136,   -20.391045,   636.042114,   0.533951,   15.788191,   12.541299,   606.226318,   9.424754,   136.686127,   0.317438,   646.478882,   645.754700
-0.055164,   0.114989,   0.115756,   -6.688037,   655.428589,   0.533951,   15.788191,   11.870951,   631.806274,   16.934307,   122.811775,   0.328245,   658.798096,   658.721680
-0.061876,   0.134948,   0.134279,   0.000000,   677.475647,   0.533951,   15.788191,   11.200602,   658.440613,   23.856190,   111.542168,   0.336898,   675.078003,   675.039246
-0.070456,   0.156200,   0.154706,   0.000000,   697.446960,   0.533950,   15.788191,   10.530254,   681.561646,   27.443823,   103.165962,   0.341653,   691.740173,   691.522888
-0.080497,   0.178465,   0.176388,   0.000000,   715.302612,   0.533951,   15.788191,   9.859906,   701.361145,   28.554810,   97.848145,   0.343599,   708.109009,   707.769653
-0.001739,   0.003153,   0.001485,   -77.553993,   332.456024,   0.533467,   16.786739,   48.610340,   327.714386,   -72.812347,   43.836498,   0.225222,   377.259766,   358.660736
-0.003629,   0.003510,   0.003168,   -230.179047,   266.326996,   0.533467,   16.786739,   47.944466,   168.497604,   -132.349655,   197.489990,   0.027998,   430.366547,   215.580643
-0.018050,   0.016812,   0.021612,   -325.524933,   310.175385,   0.533465,   16.786739,   47.278591,   135.944778,   -151.294312,   283.552734,   -0.009293,   550.586121,   -191.091385
-0.037437,   0.035946,   0.047326,   -358.407715,   365.561188,   0.533467,   16.786739,   46.612720,   163.757812,   -156.604340,   324.614807,   0.003803,   626.985657,   161.572769
-0.058744,   0.058117,   0.076330,   -381.037231,   407.003418,   0.533465,   16.786739,   45.946846,   185.270813,   -159.304626,   354.357117,   0.012680,   682.586731,   262.745422
-0.080153,   0.081080,   0.105946,   -393.578583,   442.873901,   0.533467,   16.786739,   45.280972,   204.403244,   -155.107910,   377.625641,   0.022671,   724.808350,   338.499298
-0.101255,   0.104474,   0.135603,   -400.941071,   474.407471,   0.533467,   16.786739,   44.615097,   220.670639,   -147.204224,   397.147064,   0.032266,   758.963501,   398.493439
-0.121141,   0.126960,   0.163851,   -405.921295,   500.889801,   0.533465,   16.786739,   43.949223,   232.882401,   -137.913910,   413.768188,   0.040236,   786.755676,   444.370697
-0.139447,   0.147770,   0.189938,   -409.401978,   523.099792,   0.533467,   16.786739,   43.283348,   241.552155,   -127.854355,   428.105804,   0.046814,   809.568665,   480.649689
-0.156355,   0.167232,   0.214175,   -412.396454,   541.913208,   0.533465,   16.786739,   42.617477,   246.946442,   -117.429649,   441.003693,   0.052078,   828.989685,   509.709259
-0.170935,   0.184089,   0.235130,   -414.697235,   557.150146,   0.533467,   16.786739,   41.951603,   250.001175,   -107.548225,   451.842285,   0.056218,   844.653015,   532.509583
-0.183757,   0.198730,   0.253461,   -416.904572,   569.549316,   0.533465,   16.786739,   41.285728,   250.977951,   -98.333237,   461.268066,   0.059324,   857.696594,   550.313660
-0.194434,   0.211092,   0.268823,   -418.767487,   579.471985,   0.533467,   16.786739,   40.619858,   250.656082,   -89.951576,   469.166412,   0.061698,   868.226929,   564.242615
-0.203243,   0.221278,   0.281474,   -420.497498,   587.218079,   0.533468,   16.786739,   39.953979,   249.363556,   -82.642990,   475.726379,   0.063391,   876.679504,   574.775574
-0.210343,   0.229401,   0.291623,   -422.111786,   593.111267,   0.533465,   16.786739,   39.288105,   247.435623,   -76.436142,   481.088593,   0.064526,   883.356445,   582.505005
-0.215975,   0.235847,   0.299669,   -423.645142,   597.515869,   0.533467,   16.786739,   38.622231,   245.118454,   -71.247688,   485.459137,   0.065222,   888.614197,   588.015503
-0.220327,   0.240759,   0.305837,   -424.926575,   600.781433,   0.533465,   16.786739,   37.956360,   242.849854,   -66.994987,   488.894958,   0.065669,   892.630371,   591.985718
-0.223612,   0.244521,   0.310532,   -425.958344,   603.230042,   0.533467,   16.786739,   37.290485,   240.702728,   -63.431034,   491.612488,   0.065971,   895.699646,   594.907166
-0.226094,   0.247314,   0.314039,   -426.844940,   604.979797,   0.533465,   16.786739,   36.624611,   238.708450,   -60.573563,   493.733887,   0.066122,   898.014343,   596.885376
-0.227881,   0.249383,   0.316612,   -427.442719,   606.339478,   0.533467,   16.786739,   35.958740,   236.997620,   -58.100891,   495.384308,   0.066277,   899.738953,   598.487610
-0.229211,   0.250908,   0.318517,   -427.952667,   607.313110,   0.533465,   16.786739,   35.292866,   235.467072,   -56.106598,   496.678986,   0.066353,   901.040466,   599.575806
-0.230104,   0.251956,   0.319811,   -428.346832,   607.971741,   0.533467,   16.786739,   34.626991,   234.127289,   -54.502338,   497.656799,   0.066383,   901.960876,   600.276306
-0.230691,   0.252651,   0.320665,   -428.603088,   608.462646,   0.533467,   16.786739,   33.961117,   232.899017,   -53.039433,   498.433685,   0.066422,   902.616394,   600.825378
-0.230978,   0.253037,   0.321115,   -428.741211,   608.785950,   0.533465,   16.786739,   33.295242,   231.828140,   -51.783421,   499.005768,   0.066460,   903.023193,   601.208923
-0.231048,   0.253186,   0.321267,   -428.779724,   608.992188,   0.533467,   16.786739,   32.629368,   230.904984,   -50.692551,   499.417999,   0.066506,   903.242493,   601.489136
-0.230945,   0.253149,   0.321179,   -428.732117,   609.110107,   0.533467,   16.786739,   31.963495,   230.112595,   -49.734623,   499.700409,   0.066562,   903.311340,   601.699341
-0.230701,   0.252961,   0.320899,   -428.608459,   609.160828,   0.533466,   16.786739,   31.297621,   229.438492,   -48.886101,   499.875122,   0.066630,   903.257202,   601.863647
-0.230338,   0.252649,   0.320458,   -428.414581,   609.160156,   0.533466,   16.786739,   30.631748,   228.876266,   -48.130661,   499.957123,   0.066713,   903.099243,   602.001282
-0.229872,   0.252229,   0.319877,   -428.149414,   609.121521,   0.533467,   16.786739,   29.965874,   228.430161,   -47.458054,   499.954163,   0.066815,   902.848755,   602.132996
-0.229309,   0.251710,   0.319167,   -427.807037,   609.055481,   0.533466,   16.786739,   29.299999,   228.112061,   -46.863609,   499.868042,   0.066942,   902.510742,   602.278564
-0.228647,   0.251096,   0.318328,   -427.378082,   608.968506,   0.533466,   16.786739,   28.634127,   227.940994,   -46.350578,   499.694489,   0.067100,   902.083374,   602.453857
-0.227880,   0.250380,   0.317353,   -426.849152,   608.864197,   0.533466,   16.786739,   27.968252,   227.940430,   -45.925404,   499.424561,   0.067296,   901.559143,   602.673401
-0.226993,   0.249549,   0.316222,   -426.206940,   608.738708,   0.533467,   16.786739,   27.302378,   228.136978,   -45.605198,   499.043518,   0.067535,   900.923889,   602.940063
-0.225963,   0.248584,   0.314906,   -425.429169,   608.588379,   0.533466,   16.786739,   26.636505,   228.567886,   -45.408699,   498.530121,   0.067825,   900.156128,   603.263184
-0.224754,   0.247449,   0.313361,   -424.490295,   608.399963,   0.533466,   16.786739,   25.970631,   229.278229,   -45.368584,   497.853241,   0.068174,   899.223206,   603.639465
-0.223323,   0.246101,   0.311525,   -423.354431,   608.158875,   0.533467,   16.786739,   25.304758,   230.321823,   -45.517395,   496.973938,   0.068592,   898.082886,   604.070557
-0.221605,   0.244476,   0.309314,   -421.975769,   607.839478,   0.533466,   16.786739,   24.638884,   231.770294,   -45.906548,   495.836426,   0.069094,   896.674927,   604.547485
-0.219509,   0.242472,   0.306596,   -420.286743,   607.399475,   0.533466,   16.786739,   23.973009,   233.719620,   -46.606861,   494.357178,   0.069695,   894.906128,   605.050232
-0.216886,   0.239953,   0.303187,   -418.234924,   606.737915,   0.533466,   16.786739,   23.307137,   236.294174,   -47.791180,   492.408569,   0.070391,   892.642334,   605.461792
-0.213612,   0.236756,   0.298893,   -415.649078,   605.846497,   0.533466,   16.786739,   22.641262,   239.660568,   -49.463165,   489.862396,   0.071256,   889.737976,   605.877197
-0.209550,   0.232779,   0.293559,   -412.347412,   604.718506,   0.533467,   16.786739,   21.975388,   244.099716,   -51.728584,   486.546173,   0.072371,   886.041199,   606.392212
-0.204314,   0.227507,   0.286562,   -408.270111,   602.902954,   0.533467,   16.786739,   21.309513,   249.783905,   -55.151073,   482.049164,   0.073633,   881.092346,   606.376953
-0.197690,   0.220756,   0.277660,   -403.206177,   600.371826,   0.533466,   16.786739,   20.643641,   256.520569,   -59.354935,   476.285492,   0.075137,   874.697205,   605.907715
-0.189507,   0.212215,   0.266507,   -397.332703,   596.631226,   0.533466,   16.786739,   19.977766,   263.907104,   -64.608551,   469.052704,   0.076664,   866.546692,   604.158813
-0.179598,   0.201778,   0.252927,   -390.584320,   591.445251,   0.533466,   16.786739,   19.311893,   271.711517,   -70.850563,   460.172058,   0.078183,   856.371887,   600.838745
-0.168100,   0.189470,   0.237022,   -382.808563,   584.793945,   0.533466,   16.786739,   18.646019,   279.699799,   -77.714401,   449.585846,   0.079770,   844.032288,   596.009094
-0.155008,   0.175415,   0.218858,   -373.688049,   576.639893,   0.533466,   16.786739,   17.980146,   287.928802,   -84.976929,   437.053925,   0.081581,   829.240479,   589.787231
-0.140348,   0.159564,   0.198446,   -362.636200,   566.982056,   0.533467,   16.786739,   17.314272,   296.639465,   -92.293648,   422.173279,   0.083934,   811.530579,   582.456116
-0.124366,   0.142057,   0.176039,   -348.418457,   556.240906,   0.533466,   16.786739,   16.648397,   306.850769,   -99.028358,   404.249512,   0.087653,   790.318909,   575.113647
-0.107763,   0.124066,   0.152928,   -327.092926,   547.350037,   0.533466,   16.786739,   15.982523,   323.618439,   -103.361336,   381.555603,   0.095941,   765.255615,   573.004028
-0.090507,   0.105875,   0.129363,   -287.845917,   545.438660,   0.533466,   16.786739,   15.316649,   360.840057,   -103.247299,   346.044128,   0.117133,   733.049072,   583.909607
-0.073874,   0.089098,   0.107617,   -216.864822,   558.210938,   0.533466,   16.786739,   14.650777,   429.022034,   -87.675926,   288.862274,   0.164284,   692.593750,   608.870178
-0.059398,   0.076535,   0.090940,   -130.756393,   578.410339,   0.533466,   16.786739,   13.984902,   499.732452,   -52.078491,   222.723007,   0.228277,   653.671631,   623.220520
-0.047937,   0.070046,   0.080456,   -71.216057,   589.005188,   0.533466,   16.786739,   13.319029,   540.055237,   -22.266121,   172.978867,   0.274988,   627.650696,   618.463013
-0.041980,   0.071802,   0.077967,   -38.418018,   597.236694,   0.533466,   16.786739,   12.653154,   564.878174,   -6.059468,   139.720398,   0.301733,   617.342957,   614.644775
-0.041919,   0.081690,   0.083359,   -16.850405,   611.786926,   0.533466,   16.786739,   11.987281,   589.982361,   4.954171,   115.029259,   0.319661,   620.383728,   619.868591
-0.046308,   0.097784,   0.097004,   -2.235909,   633.721008,   0.533466,   16.786739,   11.321407,   618.585388,   12.899713,   96.935631,   0.331571,   634.841858,   634.833008
-0.053324,   0.116509,   0.114629,   0.000000,   656.672363,   0.533466,   16.786739,   10.655534,   646.115540,   18.691908,   82.067383,   0.339546,   652.642883,   652.528809
-0.062195,   0.136233,   0.133702,   0.000000,   676.034119,   0.533466,   16.786739,   9.989659,   668.228394,   19.149599,   71.606277,   0.341758,   670.434204,   670.218201
-0.007373,   0.014879,   0.012808,   -12.136319,   444.254059,   0.533122,   17.790113,   48.523701,   444.156158,   -12.038424,   6.683454,   0.319771,   450.444885,   450.076782
-0.006343,   0.010147,   0.008802,   -75.784409,   395.406311,   0.533123,   17.790113,   47.860813,   377.109009,   -57.487114,   91.031456,   0.243110,   438.240875,   423.120239
-0.016374,   0.017707,   0.020901,   -221.180878,   378.671509,   0.533122,   17.790113,   47.197926,   280.954224,   -123.463608,   221.511337,   0.099914,   525.421692,   398.460815
-0.033273,   0.034383,   0.043015,   -316.199585,   386.855743,   0.533121,   17.790113,   46.535042,   214.998444,   -144.342285,   302.142761,   0.038617,   609.887817,   339.832306
-0.052616,   0.054683,   0.069488,   -347.852661,   421.540161,   0.533122,   17.790113,   45.872154,   217.222260,   -143.534760,   339.786591,   0.036807,   667.331604,   365.987793
-0.072750,   0.076399,   0.097463,   -366.973267,   452.457184,   0.533123,   17.790113,   45.209270,   227.863647,   -142.379745,   365.508575,   0.040081,   710.933594,   401.031555
-0.092928,   0.098575,   0.125788,   -379.194275,   480.434692,   0.533122,   17.790113,   44.546383,   238.582672,   -137.342255,   386.536682,   0.045226,   746.179504,   438.012207
-0.112725,   0.120646,   0.153765,   -387.712341,   505.339874,   0.533121,   17.790113,   43.883495,   247.243683,   -129.616135,   404.820618,   0.050551,   775.638916,   472.272278
-0.131139,   0.141351,   0.179921,   -394.237915,   526.226624,   0.533123,   17.790113,   43.220608,   253.207748,   -121.219055,   420.434143,   0.055004,   799.872803,   500.691254
-0.148419,   0.160890,   0.204539,   -399.510864,   544.345276,   0.533121,   17.790113,   42.557724,   256.620300,   -111.785919,   434.494324,   0.058832,   820.604980,   525.088745
-0.163902,   0.178460,   0.226627,   -403.804474,   559.457642,   0.533122,   17.790113,   41.894836,   258.074371,   -102.421219,   446.630951,   0.061927,   837.831970,   545.145630
-0.177576,   0.194035,   0.246181,   -407.370819,   572.065430,   0.533121,   17.790113,   41.231953,   258.053406,   -93.358803,   457.111816,   0.064419,   852.204529,   561.658752
-0.189166,   0.207189,   0.262710,   -410.386139,   582.118042,   0.533123,   17.790113,   40.569065,   256.972748,   -85.240852,   465.820343,   0.066269,   863.812073,   574.566528
-0.199061,   0.218349,   0.276776,   -413.235016,   590.095764,   0.533121,   17.790113,   39.906178,   254.823441,   -77.962715,   473.266846,   0.067499,   873.398193,   584.417786
-0.207127,   0.227421,   0.288216,   -415.757202,   596.215515,   0.533122,   17.790113,   39.243294,   252.177032,   -71.718719,   479.369476,   0.068276,   881.026611,   591.711426
-0.213625,   0.234663,   0.297387,   -417.973114,   600.851929,   0.533123,   17.790113,   38.580406,   249.347839,   -66.469032,   484.320190,   0.068721,   887.053894,   597.015808
-0.218712,   0.240342,   0.304568,   -419.815033,   604.337036,   0.533120,   17.790113,   37.917519,   246.662170,   -62.140182,   488.243927,   0.068975,   891.727356,   600.878662
-0.222692,   0.244726,   0.310148,   -421.360840,   606.926941,   0.533123,   17.790113,   37.254635,   244.177460,   -58.611401,   491.348816,   0.069086,   895.343811,   603.627075
-0.225742,   0.248061,   0.314406,   -422.652130,   608.795105,   0.533121,   17.790113,   36.591747,   242.017960,   -55.874996,   493.746674,   0.069088,   898.095093,   605.488953
-0.228083,   0.250614,   0.317663,   -423.668732,   610.210571,   0.533123,   17.790113,   35.928864,   240.127258,   -53.585453,   495.640808,   0.069073,   900.210632,   606.873535
-0.229803,   0.252497,   0.320064,   -424.452606,   611.239502,   0.533120,   17.790113,   35.265976,   238.526962,   -51.740074,   497.092346,   0.069043,   901.784851,   607.849304
-0.231068,   0.253886,   0.321834,   -425.068848,   611.981628,   0.533123,   17.790113,   34.603092,   237.167572,   -50.254787,   498.212311,   0.069000,   902.961426,   608.518311
-0.231994,   0.254903,   0.323129,   -425.569794,   612.504517,   0.533123,   17.790113,   33.940201,   235.965424,   -49.030682,   499.093048,   0.068941,   903.844482,   608.943848
-0.232620,   0.255600,   0.324010,   -425.928497,   612.871338,   0.533120,   17.790113,   33.277317,   234.955078,   -48.012215,   499.758606,   0.068896,   904.469910,   609.237366
-0.233004,   0.256040,   0.324560,   -426.175751,   613.112427,   0.533123,   17.790113,   32.614429,   234.098892,   -47.162231,   500.252960,   0.068862,   904.890198,   609.422241
-0.233192,   0.256270,   0.324841,   -426.318939,   613.261475,   0.533122,   17.790113,   31.951544,   233.389114,   -46.446564,   500.604492,   0.068845,   905.142212,   609.543335
-0.233218,   0.256331,   0.324901,   -426.370544,   613.340881,   0.533121,   17.790113,   31.288658,   232.810364,   -45.839993,   500.837769,   0.068846,   905.256531,   609.624695
-0.233108,   0.256248,   0.324776,   -426.342651,   613.363403,   0.533122,   17.790113,   30.625772,   232.346237,   -45.325478,   500.970825,   0.068865,   905.254517,   609.676941
-0.232880,   0.256042,   0.324490,   -426.240967,   613.339844,   0.533122,   17.790113,   29.962887,   231.990219,   -44.891354,   501.015167,   0.068902,   905.150635,   609.712036
-0.232542,   0.255723,   0.324057,   -426.065125,   613.278320,   0.533122,   17.790113,   29.300001,   231.744888,   -44.531689,   500.975555,   0.068959,   904.952087,   609.742126
-0.232095,   0.255294,   0.323479,   -425.808777,   613.184631,   0.533122,   17.790113,   28.637114,   231.622162,   -44.246288,   500.850250,   0.069041,   904.658997,   609.780029
-0.231535,   0.254750,   0.322748,   -425.462585,   613.060242,   0.533122,   17.790113,   27.974228,   231.639709,   -44.042072,   500.631897,   0.069153,   904.265137,   609.833801
-0.230846,   0.254079,   0.321849,   -425.013885,   612.902893,   0.533123,   17.790113,   27.311340,   231.819855,   -43.930820,   500.308105,   0.069299,   903.758240,   609.908813
-0.230010,   0.253260,   0.320752,   -424.449310,   612.703186,   0.533122,   17.790113,   26.648455,   232.187424,   -43.933590,   499.860596,   0.069483,   903.118896,   609.999695
-0.228994,   0.252265,   0.319420,   -423.749329,   612.448486,   0.533121,   17.790113,   25.985569,   232.775391,   -44.076210,   499.264252,   0.069709,   902.320007,   610.100708
-0.227756,   0.251050,   0.317793,   -422.889862,   612.117432,   0.533122,   17.790113,   25.322683,   233.624710,   -44.397099,   498.483704,   0.069981,   901.322327,   610.195923
-0.226246,   0.249562,   0.315802,   -421.839111,   611.684692,   0.533121,   17.790113,   24.659798,   234.784897,   -44.939301,   497.475098,   0.070307,   900.077209,   610.268494
-0.224372,   0.247709,   0.313326,   -420.550079,   611.100769,   0.533122,   17.790113,   23.996910,   236.333649,   -45.782982,   496.163696,   0.070692,   898.501526,   610.276123
-0.222058,   0.245408,   0.310258,   -418.957275,   610.336853,   0.533121,   17.790113,   23.334024,   238.364929,   -46.985371,   494.474854,   0.071157,   896.516174,   610.218262
-0.219164,   0.242500,   0.306395,   -416.997864,   609.294006,   0.533122,   17.790113,   22.671139,   240.967133,   -48.670990,   492.286682,   0.071700,   893.980225,   609.989624
-0.215500,   0.238777,   0.301470,   -414.534546,   607.876648,   0.533123,   17.790113,   22.008251,   244.309906,   -50.967789,   489.422058,   0.072356,   890.695679,   609.537476
-0.210820,   0.233964,   0.295143,   -411.452545,   605.905151,   0.533122,   17.790113,   21.345366,   248.535980,   -54.083382,   485.653717,   0.073124,   886.405884,   608.670654
-0.204899,   0.227802,   0.287085,   -407.632751,   603.193604,   0.533122,   17.790113,   20.682480,   253.681564,   -58.120705,   480.767426,   0.074005,   880.845276,   607.191772
-0.197527,   0.220051,   0.276989,   -403.047485,   599.484741,   0.533122,   17.790113,   20.019594,   259.530090,   -63.092838,   474.601227,   0.074940,   873.756287,   604.744751
-0.188523,   0.210411,   0.264531,   -397.788452,   594.356567,   0.533121,   17.790113,   19.356709,   265.708801,   -69.140656,   466.965637,   0.075764,   864.825806,   600.674622
-0.177852,   0.198881,   0.249683,   -391.818024,   587.650696,   0.533122,   17.790113,   18.693821,   271.881256,   -76.048576,   457.794678,   0.076448,   853.877563,   594.787537
-0.165476,   0.185384,   0.232369,   -384.902069,   579.219849,   0.533121,   17.790113,   18.030935,   277.975159,   -83.657364,   446.864929,   0.077056,   840.588013,   587.022522
-0.151638,   0.170218,   0.212951,   -376.780487,   569.206848,   0.533123,   17.790113,   17.368050,   283.861298,   -91.434959,   434.178741,   0.077759,   824.879395,   577.735168
-0.136063,   0.153171,   0.191103,   -366.854492,   557.246155,   0.533122,   17.790113,   16.705162,   289.809631,   -99.417984,   419.065582,   0.078746,   805.936584,   566.754883
-0.119490,   0.134915,   0.167774,   -354.634491,   543.870117,   0.533122,   17.790113,   16.042276,   295.813293,   -106.577652,   401.681488,   0.080472,   783.859314,   555.072998
-0.101868,   0.115637,   0.143062,   -337.245087,   530.179749,   0.533122,   17.790113,   15.379390,   305.012268,   -112.077637,   380.283386,   0.084913,   757.380554,   545.603943
-0.084077,   0.096383,   0.118364,   -307.459045,   520.515991,   0.533122,   17.790113,   14.716504,   327.839020,   -114.782066,   349.867554,   0.097968,   724.917480,   546.376343
-0.066714,   0.078415,   0.095116,   -245.703140,   525.920166,   0.533122,   17.790113,   14.053617,   385.224518,   -105.007477,   297.940918,   0.136803,   682.775452,   569.747375
-0.050782,   0.063683,   0.075642,   -150.501282,   546.155762,   0.533122,   17.790113,   13.390732,   464.955292,   -69.300842,   223.551666,   0.207716,   634.928284,   592.768982
-0.038553,   0.055307,   0.063300,   -74.037880,   559.925171,   0.533122,   17.790113,   12.727845,   515.967224,   -30.079956,   161.044708,   0.269768,   600.377747,   589.976013
-0.032078,   0.055440,   0.058972,   -36.246902,   566.211060,   0.533122,   17.790113,   12.064960,   541.129883,   -11.165753,   120.338165,   0.301882,   585.177063,   582.643250
-0.032585,   0.064947,   0.064438,   -12.701035,   583.191650,   0.533122,   17.790113,   11.402073,   569.355469,   1.135138,   89.740929,   0.322505,   589.644775,   589.336914
-0.037356,   0.080254,   0.078240,   0.000000,   609.306458,   0.533122,   17.790113,   10.739187,   602.145630,   10.527802,   65.480858,   0.336100,   607.629944,   607.608948
-0.044776,   0.097207,   0.094518,   0.000000,   631.714661,   0.533122,   17.790113,   10.076301,   627.954773,   12.202470,   48.262653,   0.340038,   627.535889,   627.408142
-0.016715,   0.034952,   0.032544,   -6.691935,   516.059387,   0.532940,   18.796381,   48.480339,   515.605591,   -6.238147,   15.395204,   0.326871,   519.437744,   519.340759
-0.013126,   0.025660,   0.023865,   -19.994856,   486.230316,   0.532942,   18.796381,   47.818947,   479.602448,   -13.366983,   57.543610,   0.312996,   496.529755,   495.622742
-0.016305,   0.023543,   0.025499,   -76.726112,   469.532196,   0.532942,   18.796381,   47.157555,   439.333618,   -46.527542,   124.836952,   0.255622,   512.223328,   499.048981
-0.029180,   0.033795,   0.040336,   -200.436951,   450.874268,   0.532939,   18.796381,   46.496166,   358.336182,   -107.898872,   227.393463,   0.144481,   577.784058,   489.867157
-0.046293,   0.050778,   0.062579,   -297.484558,   442.317413,   0.532942,   18.796381,   45.834774,   279.455078,   -134.622223,   306.531799,   0.074876,   644.766907,   446.134430
-0.065222,   0.070947,   0.088594,   -336.630829,   461.353760,   0.532942,   18.796381,   45.173382,   258.841339,   -134.118408,   347.261444,   0.059915,   693.882935,   446.651855
-0.084468,   0.091938,   0.115490,   -356.156830,   484.941925,   0.532939,   18.796381,   44.511990,   259.464966,   -130.679871,   372.570160,   0.058705,   731.253540,   467.584167
-0.103788,   0.113292,   0.142706,   -369.084290,   507.625916,   0.532942,   18.796381,   43.850601,   263.264740,   -124.723106,   393.092285,   0.060572,   762.406738,   492.507355
-0.122285,   0.133840,   0.168845,   -378.590668,   527.686401,   0.532940,   18.796381,   43.189209,   266.198669,   -117.102913,   410.614807,   0.063038,   788.391418,   515.953552
-0.139663,   0.153269,   0.193488,   -386.185852,   545.102844,   0.532942,   18.796381,   42.527821,   267.382385,   -108.465424,   426.039032,   0.065364,   810.424316,   536.654358
-0.155735,   0.171309,   0.216320,   -392.523468,   560.043762,   0.532940,   18.796381,   41.866428,   266.995453,   -99.475197,   439.625854,   0.067343,   829.188721,   554.419800
-0.170100,   0.187448,   0.236732,   -397.715424,   572.625244,   0.532940,   18.796381,   41.205036,   265.474274,   -90.564453,   451.330658,   0.069008,   844.878174,   569.396545
-0.182593,   0.201459,   0.254468,   -402.132568,   582.869019,   0.532942,   18.796381,   40.543648,   263.122803,   -82.386345,   461.208069,   0.070232,   857.809692,   581.408630
-0.193331,   0.213437,   0.269665,   -406.041229,   591.083435,   0.532940,   18.796381,   39.882256,   260.022430,   -74.980255,   469.582458,   0.071022,   868.477600,   590.770813
-0.202325,   0.223412,   0.282346,   -409.525604,   597.475403,   0.532940,   18.796381,   39.220863,   256.480255,   -68.530441,   476.555115,   0.071425,   877.137146,   597.755188
-0.209681,   0.231479,   0.292651,   -412.614990,   602.296021,   0.532942,   18.796381,   38.559475,   252.793518,   -63.112473,   482.246765,   0.071520,   884.040710,   602.718506
-0.215509,   0.237847,   0.300800,   -415.206390,   605.886963,   0.532939,   18.796381,   37.898083,   249.384415,   -58.703812,   486.752838,   0.071463,   889.417542,   606.226135
-0.220189,   0.242884,   0.307285,   -417.395325,   608.583191,   0.532942,   18.796381,   37.236691,   246.306168,   -55.118309,   490.350677,   0.071313,   893.651001,   608.700195
-0.223746,   0.246714,   0.312216,   -419.117798,   610.547668,   0.532942,   18.796381,   36.575302,   243.789566,   -52.359707,   493.078735,   0.071150,   896.838684,   610.418640
-0.226572,   0.249716,   0.316105,   -420.548096,   612.019592,   0.532940,   18.796381,   35.913910,   241.638199,   -50.166714,   495.238800,   0.070967,   899.339905,   611.613586
-0.228734,   0.252009,   0.319076,   -421.683228,   613.099121,   0.532940,   18.796381,   35.252518,   239.886353,   -48.470490,   496.896576,   0.070797,   901.244080,   612.432312
-0.230398,   0.253764,   0.321354,   -422.587280,   613.897400,   0.532942,   18.796381,   34.591129,   238.446075,   -47.135956,   498.182556,   0.070643,   902.704407,   612.994263
-0.231671,   0.255106,   0.323096,   -423.314575,   614.481689,   0.532940,   18.796381,   33.929737,   237.248093,   -46.080967,   499.185760,   0.070503,   903.826294,   613.361450
-0.232626,   0.256111,   0.324402,   -423.890961,   614.897034,   0.532940,   18.796381,   33.268345,   236.272095,   -45.266010,   499.954193,   0.070378,   904.671875,   613.582520
-0.233325,   0.256849,   0.325359,   -424.332886,   615.191833,   0.532940,   18.796381,   32.606956,   235.484451,   -44.625481,   500.537231,   0.070275,   905.298584,   613.717285
-0.233814,   0.257367,   0.326030,   -424.657959,   615.393188,   0.532942,   18.796381,   31.945564,   234.862000,   -44.126785,   500.966980,   0.070195,   905.745422,   613.793518
-0.234129,   0.257703,   0.326463,   -424.878204,   615.524475,   0.532940,   18.796381,   31.284174,   234.387817,   -43.741539,   501.268829,   0.070139,   906.043457,   613.837585
-0.234297,   0.257886,   0.326697,   -425.005249,   615.600830,   0.532941,   18.796381,   30.622782,   234.044449,   -43.448891,   501.462463,   0.070107,   906.216003,   613.863831
-0.234335,   0.257935,   0.326757,   -425.050629,   615.629761,   0.532941,   18.796381,   29.961391,   233.815643,   -43.236519,   501.562012,   0.070096,   906.279114,   613.875610
-0.234257,   0.257863,   0.326657,   -425.020508,   615.616333,   0.532940,   18.796381,   29.300001,   233.692795,   -43.096973,   501.575623,   0.070105,   906.242493,   613.876282
-0.234063,   0.257672,   0.326402,   -424.914520,   615.563293,   0.532941,   18.796381,   28.638609,   233.677109,   -43.028309,   501.504791,   0.070135,   906.108337,   613.869934
-0.233751,   0.257358,   0.325987,   -424.726166,   615.471680,   0.532941,   18.796381,   27.977219,   233.778961,   -43.033470,   501.344788,   0.070189,   905.872314,   613.862366
-0.233308,   0.256910,   0.325395,   -424.445251,   615.338318,   0.532941,   18.796381,   27.315826,   234.015015,   -43.121941,   501.085083,   0.070270,   905.523315,   613.855835
-0.232713,   0.256308,   0.324600,   -424.059509,   615.154907,   0.532940,   18.796381,   26.654436,   234.405884,   -43.310509,   500.709534,   0.070382,   905.043762,   613.846008
-0.231940,   0.255523,   0.323564,   -423.556091,   614.905457,   0.532940,   18.796381,   25.993046,   234.972809,   -43.623432,   500.196594,   0.070525,   904.408875,   613.818054
-0.230949,   0.254516,   0.322236,   -422.917725,   614.568604,   0.532942,   18.796381,   25.331656,   235.743744,   -44.092876,   499.517090,   0.070700,   903.585022,   613.751770
-0.229692,   0.253236,   0.320548,   -422.122589,   614.115051,   0.532940,   18.796381,   24.670263,   236.753784,   -44.761288,   498.632568,   0.070909,   902.527893,   613.618774
-0.228096,   0.251607,   0.318400,   -421.136536,   613.501465,   0.532941,   18.796381,   24.008873,   238.058334,   -45.693413,   497.483856,   0.071154,   901.170288,   613.377686
-0.226084,   0.249539,   0.315681,   -419.914520,   612.686707,   0.532941,   18.796381,   23.347481,   239.706345,   -46.934181,   496.009705,   0.071442,   899.438293,   612.997986
-0.223533,   0.246906,   0.312225,   -418.404419,   611.590637,   0.532940,   18.796381,   22.686090,   241.774612,   -48.588398,   494.110077,   0.071772,   897.216553,   612.396423
-0.220272,   0.243510,   0.307784,   -416.530273,   610.088257,   0.532941,   18.796381,   22.024700,   244.388947,   -50.830948,   491.627625,   0.072143,   894.329590,   611.440735
-0.216170,   0.239214,   0.302181,   -414.204224,   608.107178,   0.532940,   18.796381,   21.363308,   247.610229,   -53.707302,   488.448639,   0.072571,   890.640259,   610.081604
-0.210874,   0.233585,   0.294881,   -411.300110,   605.341309,   0.532942,   18.796381,   20.701918,   251.558151,   -57.516937,   484.260376,   0.073022,   885.766846,   607.958008
-0.204290,   0.226539,   0.285780,   -407.828522,   601.664124,   0.532940,   18.796381,   20.040525,   256.005920,   -62.170345,   479.019623,   0.073456,   879.601929,   604.880920
-0.196120,   0.217672,   0.274389,   -403.785004,   596.637634,   0.532940,   18.796381,   19.379135,   260.793274,   -67.940636,   472.435059,   0.073742,   871.740906,   600.227783
-0.186283,   0.206915,   0.260613,   -399.179291,   590.057068,   0.532941,   18.796381,   18.717745,   265.533203,   -74.655449,   464.451355,   0.073812,   862.003479,   593.702942
-0.174734,   0.194179,   0.244361,   -393.963501,   581.674194,   0.532941,   18.796381,   18.056355,   269.976715,   -82.266022,   454.915924,   0.073601,   850.123840,   584.982544
-0.161527,   0.179537,   0.225714,   -387.923462,   571.422119,   0.532941,   18.796381,   17.394962,   273.929138,   -90.430481,   443.730225,   0.073177,   835.868408,   574.101746
-0.146573,   0.162957,   0.204595,   -380.574768,   559.156067,   0.532940,   18.796381,   16.733572,   277.505463,   -98.924149,   430.521423,   0.072708,   818.714478,   561.155396
-0.130158,   0.144772,   0.181414,   -371.876892,   544.678162,   0.532941,   18.796381,   16.072182,   280.131104,   -107.329811,   415.315308,   0.072140,   798.448486,   545.882751
-0.112652,   0.125371,   0.156700,   -361.245178,   528.107117,   0.532941,   18.796381,   15.410790,   281.816803,   -114.954872,   397.969757,   0.071796,   774.707275,   528.832886
-0.094388,   0.105176,   0.130952,   -346.923859,   510.121948,   0.532941,   18.796381,   14.749399,   284.058868,   -120.860794,   377.679626,   0.072853,   746.695435,   512.122864
-0.075692,   0.084854,   0.104864,   -323.413971,   493.252411,   0.532941,   18.796381,   14.088008,   294.560822,   -124.722389,   350.408905,   0.079475,   712.333679,   502.414246
-0.057509,   0.065595,   0.080062,   -273.505554,   487.486389,   0.532940,   18.796381,   13.426618,   335.252533,   -121.271713,   304.423370,   0.106830,   667.666504,   516.993530
-0.040791,   0.049406,   0.058846,   -174.986649,   504.736786,   0.532940,   18.796381,   12.765226,   418.289856,   -88.539703,   226.466202,   0.179805,   611.311523,   550.593994
-0.027806,   0.039628,   0.044842,   -75.499237,   522.615112,   0.532941,   18.796381,   12.103836,   484.540405,   -37.424534,   146.025146,   0.264175,   564.166382,   552.629272
-0.021916,   0.039555,   0.040015,   -30.926170,   528.319580,   0.532940,   18.796381,   11.442445,   511.574219,   -14.180828,   95.311882,   0.304528,   544.441772,   542.460266
-0.023661,   0.049241,   0.047236,   -4.429304,   553.031250,   0.532941,   18.796381,   10.781054,   547.458984,   1.142943,   55.455006,   0.329337,   555.259155,   555.219421
-0.029237,   0.062580,   0.059952,   0.000000,   578.661682,   0.532941,   18.796381,   10.119662,   577.182373,   4.154400,   29.152306,   0.335647,   577.328735,   577.314819
-0.029237,   0.062580,   0.059952,   0.000000,   578.661499,   0.532941,   19.803617,   48.480339,   577.182190,   4.154175,   29.152536,   0.335647,   577.328674,   577.314697
-0.023661,   0.049241,   0.047236,   -4.429456,   553.031067,   0.532943,   19.803617,   47.818947,   547.458801,   1.142806,   55.455078,   0.329337,   555.259033,   555.219360
-0.021916,   0.039555,   0.040015,   -30.926041,   528.319580,   0.532943,   19.803617,   47.157555,   511.574280,   -14.180744,   95.311745,   0.304528,   544.441711,   542.460266
-0.027806,   0.039628,   0.044842,   -75.499367,   522.614990,   0.532940,   19.803617,   46.496166,   484.540253,   -37.424603,   146.025253,   0.264175,   564.166382,   552.629272
-0.040791,   0.049406,   0.058846,   -174.986588,   504.736755,   0.532943,   19.803617,   45.834774,   418.289886,   -88.539711,   226.466110,   0.179805,   611.311462,   550.593933
-0.057509,   0.065595,   0.080062,   -273.505768,   487.486298,   0.532943,   19.803617,   45.173382,   335.252319,   -121.271790,   304.423492,   0.106830,   667.666504,   516.993347
-0.075692,   0.084854,   0.104864,   -323.413940,   493.252441,   0.532940,   19.803617,   44.511990,   294.560883,   -124.722366,   350.408875,   0.079475,   712.333679,   502.414307
-0.094388,   0.105176,   0.130952,   -346.923981,   510.121857,   0.532943,   19.803617,   43.850601,   284.058746,   -120.860855,   377.679657,   0.072853,   746.695435,   512.122681
-0.112652,   0.125371,   0.156700,   -361.245209,   528.106995,   0.532941,   19.803617,   43.189209,   281.816742,   -114.954956,   397.969696,   0.071796,   774.707153,   528.832764
-0.130158,   0.144772,   0.181414,   -371.876892,   544.678162,   0.532943,   19.803617,   42.527821,   280.131073,   -107.329788,   415.315338,   0.072140,   798.448486,   545.882690
-0.146573,   0.162957,   0.204595,   -380.574615,   559.156189,   0.532941,   19.803617,   41.866428,   277.505615,   -98.924049,   430.521393,   0.072708,   818.714417,   561.155579
-0.161527,   0.179537,   0.225714,   -387.923615,   571.421997,   0.532941,   19.803617,   41.205036,   273.928955,   -90.430550,   443.730255,   0.073177,   835.868347,   574.101501
-0.174734,   0.194179,   0.244361,   -393.963562,   581.674133,   0.532943,   19.803617,   40.543648,   269.976654,   -82.266060,   454.915924,   0.073601,   850.123840,   584.982422
-0.186283,   0.206915,   0.260613,   -399.179199,   590.057190,   0.532941,   19.803617,   39.882256,   265.533325,   -74.655373,   464.451355,   0.073812,   862.003479,   593.703125
-0.196120,   0.217672,   0.274389,   -403.785065,   596.637573,   0.532941,   19.803617,   39.220863,   260.793213,   -67.940681,   472.435059,   0.073742,   871.740906,   600.227661
-0.204290,   0.226539,   0.285780,   -407.828522,   601.664124,   0.532943,   19.803617,   38.559475,   256.005920,   -62.170345,   479.019623,   0.073456,   879.601929,   604.880920
-0.210874,   0.233585,   0.294881,   -411.300110,   605.341370,   0.532940,   19.803617,   37.898083,   251.558167,   -57.516930,   484.260376,   0.073022,   885.766846,   607.958008
-0.216170,   0.239214,   0.302181,   -414.204193,   608.107117,   0.532943,   19.803617,   37.236691,   247.610245,   -53.707287,   488.448608,   0.072571,   890.640198,   610.081665
-0.220272,   0.243510,   0.307784,   -416.530273,   610.088257,   0.532943,   19.803617,   36.575302,   244.388931,   -50.830940,   491.627625,   0.072143,   894.329590,   611.440735
-0.223533,   0.246906,   0.312225,   -418.404419,   611.590576,   0.532941,   19.803617,   35.913910,   241.774597,   -48.588413,   494.110077,   0.071772,   897.216553,   612.396423
-0.226084,   0.249539,   0.315681,   -419.914520,   612.686707,   0.532941,   19.803617,   35.252518,   239.706345,   -46.934174,   496.009705,   0.071442,   899.438293,   612.997925
-0.228095,   0.251607,   0.318400,   -421.136536,   613.501465,   0.532943,   19.803617,   34.591129,   238.058319,   -45.693405,   497.483856,   0.071154,   901.170288,   613.377686
-0.229692,   0.253236,   0.320548,   -422.122589,   614.115051,   0.532941,   19.803617,   33.929737,   236.753769,   -44.761295,   498.632568,   0.070909,   902.527893,   613.618652
-0.230949,   0.254516,   0.322236,   -422.917725,   614.568604,   0.532941,   19.803617,   33.268345,   235.743729,   -44.092865,   499.517090,   0.070700,   903.585022,   613.751770
-0.231940,   0.255523,   0.323564,   -423.556091,   614.905457,   0.532941,   19.803617,   32.606956,   234.972809,   -43.623436,   500.196594,   0.070525,   904.408875,   613.818054
-0.232713,   0.256308,   0.324600,   -424.059509,   615.154907,   0.532943,   19.803617,   31.945564,   234.405884,   -43.310509,   500.709534,   0.070382,   905.043762,   613.846008
-0.233308,   0.256910,   0.325395,   -424.445251,   615.338318,   0.532941,   19.803617,   31.284174,   234.014999,   -43.121937,   501.085083,   0.070270,   905.523315,   613.855774
-0.233751,   0.257358,   0.325987,   -424.726166,   615.471619,   0.532942,   19.803617,   30.622782,   233.778946,   -43.033470,   501.344788,   0.070189,   905.872314,   613.862305
-0.234063,   0.257672,   0.326402,   -424.914520,   615.563293,   0.532942,   19.803617,   29.961391,   233.677109,   -43.028309,   501.504791,   0.070135,   906.108337,   613.869934
-0.234257,   0.257863,   0.326657,   -425.020508,   615.616333,   0.532941,   19.803617,   29.300001,   233.692795,   -43.096973,   501.575623,   0.070105,   906.242493,   613.876282
-0.234335,   0.257935,   0.326757,   -425.050629,   615.629761,   0.532942,   19.803617,   28.638609,   233.815643,   -43.236519,   501.562012,   0.070096,   906.279114,   613.875610
-0.234297,   0.257886,   0.326697,   -425.005249,   615.600830,   0.532942,   19.803617,   27.977219,   234.044449,   -43.448891,   501.462463,   0.070107,   906.216003,   613.863831
-0.234129,   0.257703,   0.326463,   -424.878204,   615.524475,   0.532942,   19.803617,   27.315826,   234.387817,   -43.741543,   501.268829,   0.070139,   906.043457,   613.837585
-0.233814,   0.257367,   0.326030,   -424.657959,   615.393188,   0.532941,   19.803617,   26.654436,   234.862000,   -44.126789,   500.966980,   0.070195,   905.745422,   613.793518
-0.233325,   0.256849,   0.325359,   -424.332886,   615.191833,   0.532941,   19.803617,   25.993046,   235.484451,   -44.625481,   500.537231,   0.070275,   905.298584,   613.717285
-0.232626,   0.256111,   0.324402,   -423.890961,   614.897034,   0.532943,   19.803617,   25.331656,   236.272095,   -45.266014,   499.954193,   0.070378,   904.671875,   613.582581
-0.231671,   0.255106,   0.323096,   -423.314575,   614.481689,   0.532941,   19.803617,   24.670263,   237.248093,   -46.080971,   499.185760,   0.070503,   903.826294,   613.361450
-0.230398,   0.253764,   0.321354,   -422.587280,   613.897400,   0.532942,   19.803617,   24.008873,   238.446075,   -47.135952,   498.182556,   0.070643,   902.704407,   612.994263
-0.228734,   0.252009,   0.319076,   -421.683228,   613.099121,   0.532942,   19.803617,   23.347481,   239.886368,   -48.470490,   496.896576,   0.070797,   901.244080,   612.432251
-0.226572,   0.249716,   0.316105,   -420.548096,   612.019592,   0.532941,   19.803617,   22.686090,   241.638199,   -50.166718,   495.238800,   0.070967,   899.339905,   611.613586
-0.223746,   0.246714,   0.312216,   -419.117798,   610.547668,   0.532942,   19.803617,   22.024700,   243.789581,   -52.359703,   493.078735,   0.071150,   896.838684,   610.418701
-0.220189,   0.242884,   0.307285,   -417.395355,   608.583191,   0.532941,   19.803617,   21.363308,   246.306168,   -55.118305,   490.350708,   0.071313,   893.651062,   608.700256
-0.215509,   0.237847,   0.300800,   -415.206390,   605.886963,   0.532943,   19.803617,   20.701918,   249.384430,   -58.703823,   486.752838,   0.071463,   889.417542,   606.226135
-0.209681,   0.231479,   0.292651,   -412.615021,   602.296021,   0.532941,   19.803617,   20.040525,   252.793488,   -63.112488,   482.246796,   0.071520,   884.040771,   602.718445
-0.202325,   0.223412,   0.282346,   -409.525635,   597.475342,   0.532941,   19.803617,   19.379135,   256.480194,   -68.530472,   476.555115,   0.071425,   877.137146,   597.755066
-0.193331,   0.213437,   0.269665,   -406.041168,   591.083496,   0.532942,   19.803617,   18.717745,   260.022522,   -74.980202,   469.582458,   0.071022,   868.477600,   590.770996
-0.182593,   0.201459,   0.254468,   -402.132599,   582.868958,   0.532942,   19.803617,   18.056355,   263.122772,   -82.386375,   461.208069,   0.070232,   857.809692,   581.408569
-0.170100,   0.187448,   0.236732,   -397.715454,   572.625244,   0.532942,   19.803617,   17.394962,   265.474304,   -90.564491,   451.330658,   0.069008,   844.878174,   569.396545
-0.155735,   0.171309,   0.216320,   -392.523315,   560.043884,   0.532941,   19.803617,   16.733572,   266.995697,   -99.475113,   439.625824,   0.067343,   829.188782,   554.420166
-0.139663,   0.153269,   0.193488,   -386.185913,   545.102783,   0.532942,   19.803617,   16.072182,   267.382324,   -108.465454,   426.039062,   0.065364,   810.424377,   536.654297
-0.122285,   0.133840,   0.168845,   -378.590759,   527.686340,   0.532942,   19.803617,   15.410790,   266.198608,   -117.103035,   410.614777,   0.063038,   788.391357,   515.953308
-0.103788,   0.113292,   0.142706,   -369.084412,   507.625854,   0.532942,   19.803617,   14.749399,   263.264618,   -124.723160,   393.092346,   0.060572,   762.406799,   492.507233
-0.084468,   0.091938,   0.115490,   -356.156708,   484.941956,   0.532942,   19.803617,   14.088008,   259.465118,   -130.679886,   372.570068,   0.058705,   731.253479,   467.584259
-0.065222,   0.070947,   0.088594,   -336.630798,   461.353760,   0.532942,   19.803617,   13.426618,   258.841400,   -134.118439,   347.261383,   0.059915,   693.882874,   446.651825
-0.046293,   0.050778,   0.062579,   -297.484711,   442.317352,   0.532942,   19.803617,   12.765226,   279.454987,   -134.622330,   306.531830,   0.074876,   644.766968,   446.134216
-0.029180,   0.033795,   0.040336,   -200.436768,   450.874359,   0.532942,   19.803617,   12.103836,   358.336304,   -107.898705,   227.393433,   0.144482,   577.783997,   489.867310
-0.016305,   0.023543,   0.025499,   -76.725731,   469.532318,   0.532942,   19.803617,   11.442445,   439.333893,   -46.527294,   124.836670,   0.255622,   512.223267,   499.049072
-0.013126,   0.025660,   0.023865,   -19.994787,   486.230408,   0.532942,   19.803617,   10.781054,   479.602539,   -13.366933,   57.543533,   0.312996,   496.529816,   495.622833
-0.016715,   0.034952,   0.032544,   -6.692012,   516.059387,   0.532942,   19.803617,   10.119662,   515.605591,   -6.238214,   15.395371,   0.326871,   519.437744,   519.340698
-0.044776,   0.097207,   0.094518,   0.000000,   631.714783,   0.533120,   20.809887,   48.523701,   627.954895,   12.202760,   48.262650,   0.340038,   627.535889,   627.408142
-0.037356,   0.080254,   0.078240,   0.000000,   609.306458,   0.533122,   20.809887,   47.860813,   602.145691,   10.527919,   65.480690,   0.336100,   607.629883,   607.608887
-0.032585,   0.064947,   0.064438,   -12.700765,   583.191772,   0.533120,   20.809887,   47.197926,   569.355652,   1.135347,   89.740723,   0.322506,   589.644714,   589.336792
-0.032078,   0.055440,   0.058972,   -36.247353,   566.210815,   0.533120,   20.809887,   46.535042,   541.129517,   -11.166052,   120.338539,   0.301882,   585.177063,   582.643250
-0.038553,   0.055307,   0.063300,   -74.037613,   559.925293,   0.533120,   20.809887,   45.872154,   515.967407,   -30.079750,   161.044586,   0.269768,   600.377747,   589.976013
-0.050782,   0.063683,   0.075642,   -150.501251,   546.155762,   0.533122,   20.809887,   45.209270,   464.955231,   -69.300697,   223.551804,   0.207716,   634.928284,   592.768982
-0.066714,   0.078415,   0.095116,   -245.703354,   525.919983,   0.533120,   20.809887,   44.546383,   385.224274,   -105.007614,   297.940979,   0.136803,   682.775452,   569.747070
-0.084077,   0.096383,   0.118365,   -307.459015,   520.516052,   0.533120,   20.809887,   43.883495,   327.838989,   -114.781944,   349.867645,   0.097968,   724.917542,   546.376465
-0.101868,   0.115637,   0.143062,   -337.245056,   530.179749,   0.533122,   20.809887,   43.220608,   305.012299,   -112.077614,   380.283386,   0.084913,   757.380554,   545.604004
-0.119490,   0.134915,   0.167774,   -354.634583,   543.870117,   0.533120,   20.809887,   42.557724,   295.813171,   -106.577621,   401.681580,   0.080472,   783.859436,   555.072937
-0.136063,   0.153171,   0.191103,   -366.854492,   557.246155,   0.533120,   20.809887,   41.894836,   289.809631,   -99.417999,   419.065582,   0.078745,   805.936584,   566.754822
-0.151638,   0.170218,   0.212951,   -376.780396,   569.206909,   0.533120,   20.809887,   41.231953,   283.861359,   -91.434860,   434.178741,   0.077759,   824.879395,   577.735352
-0.165476,   0.185384,   0.232369,   -384.902161,   579.219849,   0.533122,   20.809887,   40.569065,   277.975067,   -83.657394,   446.864960,   0.077056,   840.588074,   587.022461
-0.177852,   0.198881,   0.249683,   -391.818085,   587.650635,   0.533120,   20.809887,   39.906178,   271.881195,   -76.048683,   457.794647,   0.076448,   853.877502,   594.787354
-0.188523,   0.210411,   0.264531,   -397.788391,   594.356628,   0.533120,   20.809887,   39.243294,   265.708832,   -69.140572,   466.965637,   0.075764,   864.825745,   600.674622
-0.197527,   0.220051,   0.276989,   -403.047516,   599.484741,   0.533122,   20.809887,   38.580406,   259.530060,   -63.092834,   474.601257,   0.074940,   873.756348,   604.744873
-0.204899,   0.227802,   0.287085,   -407.632751,   603.193604,   0.533119,   20.809887,   37.917519,   253.681580,   -58.120724,   480.767426,   0.074005,   880.845276,   607.191772
-0.210820,   0.233964,   0.295143,   -411.452545,   605.905090,   0.533122,   20.809887,   37.254635,   248.535950,   -54.083393,   485.653717,   0.073124,   886.405884,   608.670654
-0.215500,   0.238777,   0.301470,   -414.534546,   607.876709,   0.533120,   20.809887,   36.591747,   244.309906,   -50.967762,   489.422058,   0.072356,   890.695679,   609.537415
-0.219164,   0.242500,   0.306395,   -416.997864,   609.294006,   0.533122,   20.809887,   35.928864,   240.967148,   -48.670998,   492.286682,   0.071700,   893.980225,   609.989746
-0.222058,   0.245408,   0.310258,   -418.957275,   610.336792,   0.533119,   20.809887,   35.265976,   238.364914,   -46.985378,   494.474854,   0.071157,   896.516174,   610.218201
-0.224372,   0.247709,   0.313326,   -420.550110,   611.100708,   0.533122,   20.809887,   34.603092,   236.333633,   -45.782997,   496.163696,   0.070692,   898.501526,   610.276062
-0.226246,   0.249562,   0.315802,   -421.839111,   611.684692,   0.533122,   20.809887,   33.940201,   234.784897,   -44.939304,   497.475098,   0.070307,   900.077209,   610.268494
-0.227756,   0.251050,   0.317793,   -422.889862,   612.117432,   0.533119,   20.809887,   33.277317,   233.624710,   -44.397114,   498.483704,   0.069981,   901.322327,   610.195923
-0.228994,   0.252265,   0.319420,   -423.749329,   612.448486,   0.533122,   20.809887,   32.614429,   232.775391,   -44.076218,   499.264252,   0.069709,   902.320007,   610.100769
-0.230010,   0.253260,   0.320752,   -424.449310,   612.703186,   0.533121,   20.809887,   31.951544,   232.187424,   -43.933590,   499.860596,   0.069483,   903.118896,   609.999695
-0.230846,   0.254079,   0.321849,   -425.013885,   612.902893,   0.533120,   20.809887,   31.288658,   231.819855,   -43.930824,   500.308105,   0.069299,   903.758240,   609.908813
-0.231535,   0.254750,   0.322748,   -425.462585,   613.060242,   0.533120,   20.809887,   30.625772,   231.639709,   -44.042076,   500.631897,   0.069153,   904.265137,   609.833801
-0.232095,   0.255294,   0.323479,   -425.808777,   613.184631,   0.533121,   20.809887,   29.962887,   231.622162,   -44.246296,   500.850250,   0.069041,   904.658997,   609.779968
-0.232542,   0.255723,   0.324057,   -426.065125,   613.278320,   0.533120,   20.809887,   29.300001,   231.744888,   -44.531693,   500.975555,   0.068959,   904.952087,   609.742065
-0.232880,   0.256042,   0.324490,   -426.240967,   613.339844,   0.533121,   20.809887,   28.637114,   231.990219,   -44.891357,   501.015167,   0.068902,   905.150635,   609.712036
-0.233108,   0.256248,   0.324776,   -426.342651,   613.363403,   0.533120,   20.809887,   27.974228,   232.346237,   -45.325485,   500.970825,   0.068865,   905.254517,   609.676880
-0.233218,   0.256331,   0.324901,   -426.370544,   613.340942,   0.533122,   20.809887,   27.311340,   232.810379,   -45.839996,   500.837769,   0.068846,   905.256531,   609.624756
-0.233192,   0.256270,   0.324841,   -426.318939,   613.261475,   0.533120,   20.809887,   26.648455,   233.389114,   -46.446575,   500.604492,   0.068845,   905.142212,   609.543274
-0.233004,   0.256040,   0.324560,   -426.175751,   613.112427,   0.533120,   20.809887,   25.985569,   234.098907,   -47.162235,   500.252960,   0.068862,   904.890198,   609.422302
-0.232620,   0.255600,   0.324010,   -425.928497,   612.871338,   0.533121,   20.809887,   25.322683,   234.955078,   -48.012218,   499.758606,   0.068896,   904.469910,   609.237366
-0.231994,   0.254903,   0.323129,   -425.569794,   612.504517,   0.533120,   20.809887,   24.659798,   235.965424,   -49.030693,   499.093048,   0.068941,   903.844482,   608.943909
-0.231068,   0.253887,   0.321834,   -425.068848,   611.981628,   0.533121,   20.809887,   23.996910,   237.167572,   -50.254795,   498.212311,   0.069000,   902.961426,   608.518311
-0.229803,   0.252497,   0.320064,   -424.452637,   611.239502,   0.533120,   20.809887,   23.334024,   238.526962,   -51.740089,   497.092346,   0.069043,   901.784912,   607.849365
-0.228083,   0.250614,   0.317663,   -423.668762,   610.210571,   0.533120,   20.809887,   22.671139,   240.127274,   -53.585468,   495.640808,   0.069073,   900.210693,   606.873535
-0.225742,   0.248061,   0.314406,   -422.652130,   608.795044,   0.533122,   20.809887,   22.008251,   242.017960,   -55.875015,   493.746674,   0.069088,   898.095093,   605.488892
-0.222692,   0.244726,   0.310148,   -421.360870,   606.926880,   0.533120,   20.809887,   21.345366,   244.177460,   -58.611408,   491.348816,   0.069086,   895.343811,   603.627075
-0.218712,   0.240342,   0.304568,   -419.815033,   604.337036,   0.533121,   20.809887,   20.682480,   246.662216,   -62.140209,   488.243927,   0.068975,   891.727356,   600.878601
-0.213625,   0.234663,   0.297387,   -417.973145,   600.851929,   0.533120,   20.809887,   20.019594,   249.347839,   -66.469048,   484.320190,   0.068721,   887.053894,   597.015869
-0.207127,   0.227421,   0.288216,   -415.757263,   596.215515,   0.533120,   20.809887,   19.356709,   252.177017,   -71.718742,   479.369507,   0.068276,   881.026672,   591.711365
-0.199061,   0.218349,   0.276776,   -413.235107,   590.095703,   0.533121,   20.809887,   18.693821,   254.823395,   -77.962791,   473.266846,   0.067499,   873.398193,   584.417664
-0.189166,   0.207189,   0.262710,   -410.386108,   582.118042,   0.533120,   20.809887,   18.030935,   256.972748,   -85.240829,   465.820343,   0.066269,   863.812073,   574.566589
-0.177576,   0.194035,   0.246181,   -407.370819,   572.065491,   0.533122,   20.809887,   17.368050,   258.053467,   -93.358803,   457.111816,   0.064419,   852.204590,   561.658875
-0.163902,   0.178460,   0.226627,   -403.804504,   559.457581,   0.533120,   20.809887,   16.705162,   258.074371,   -102.421295,   446.630920,   0.061927,   837.831970,   545.145569
-0.148419,   0.160890,   0.204539,   -399.510803,   544.345337,   0.533121,   20.809887,   16.042276,   256.620422,   -111.785851,   434.494324,   0.058832,   820.605042,   525.088989
-0.131139,   0.141351,   0.179921,   -394.237762,   526.226685,   0.533121,   20.809887,   15.379390,   253.207932,   -121.219025,   420.434082,   0.055004,   799.872742,   500.691437
-0.112725,   0.120646,   0.153766,   -387.712341,   505.339935,   0.533121,   20.809887,   14.716504,   247.243683,   -129.616089,   404.820648,   0.050551,   775.638977,   472.272339
-0.092928,   0.098575,   0.125788,   -379.194397,   480.434540,   0.533121,   20.809887,   14.053617,   238.582550,   -137.342392,   386.536652,   0.045226,   746.179504,   438.011841
-0.072750,   0.076399,   0.097463,   -366.973267,   452.457214,   0.533121,   20.809887,   13.390732,   227.863678,   -142.379715,   365.508606,   0.040081,   710.933655,   401.031616
-0.052616,   0.054683,   0.069488,   -347.852570,   421.540375,   0.533121,   20.809887,   12.727845,   217.222412,   -143.534622,   339.786652,   0.036807,   667.331665,   365.988373
-0.033273,   0.034383,   0.043015,   -316.199951,   386.855469,   0.533121,   20.809887,   12.064960,   214.998032,   -144.342514,   302.142883,   0.038617,   609.887878,   339.831360
-0.016374,   0.017707,   0.020901,   -221.180588,   378.671783,   0.533121,   20.809887,   11.402073,   280.954620,   -123.463425,   221.511230,   0.099914,   525.421753,   398.461273
-0.006343,   0.010147,   0.008802,   -75.784348,   395.406281,   0.533121,   20.809887,   10.739187,   377.109070,   -57.487129,   91.031265,   0.243110,   438.240814,   423.120209
-0.007373,   0.014879,   0.012808,   -12.136224,   444.254089,   0.533121,   20.809887,   10.076301,   444.156189,   -12.038335,   6.683275,   0.319771,   450.444794,   450.076691
-0.062195,   0.136233,   0.133702,   0.000000,   676.034180,   0.533468,   21.813259,   48.610340,   668.228333,   19.149578,   71.606743,   0.341758,   670.434265,   670.218262
-0.053324,   0.116509,   0.114629,   0.000000,   656.672485,   0.533468,   21.813259,   47.944466,   646.115662,   18.692112,   82.067276,   0.339546,   652.642822,   652.528748
-0.046308,   0.097784,   0.097004,   -2.235940,   633.720947,   0.533466,   21.813259,   47.278591,   618.585266,   12.899760,   96.935875,   0.331571,   634.841919,   634.833069
-0.041919,   0.081690,   0.083359,   -16.850096,   611.786987,   0.533468,   21.813259,   46.612720,   589.982422,   4.954473,   115.029221,   0.319661,   620.383667,   619.868469
-0.041980,   0.071802,   0.077967,   -38.418011,   597.236694,   0.533466,   21.813259,   45.946846,   564.878113,   -6.059452,   139.720413,   0.301733,   617.342896,   614.644714
-0.047937,   0.070046,   0.080456,   -71.216049,   589.005127,   0.533468,   21.813259,   45.280972,   540.055115,   -22.266060,   172.978943,   0.274988,   627.650635,   618.462891
-0.059398,   0.076535,   0.090940,   -130.756210,   578.410339,   0.533468,   21.813259,   44.615097,   499.732544,   -52.078384,   222.722885,   0.228277,   653.671570,   623.220398
-0.073874,   0.089098,   0.107617,   -216.865051,   558.210693,   0.533466,   21.813259,   43.949223,   429.021790,   -87.676125,   288.862305,   0.164284,   692.593750,   608.869934
-0.090507,   0.105875,   0.129363,   -287.845886,   545.438721,   0.533468,   21.813259,   43.283348,   360.840027,   -103.247208,   346.044159,   0.117133,   733.049011,   583.909668
-0.107763,   0.124066,   0.152928,   -327.092896,   547.349976,   0.533466,   21.813259,   42.617477,   323.618408,   -103.361305,   381.555603,   0.095941,   765.255554,   573.004028
-0.124366,   0.142057,   0.176039,   -348.418518,   556.240845,   0.533468,   21.813259,   41.951603,   306.850708,   -99.028366,   404.249542,   0.087653,   790.318909,   575.113586
-0.140348,   0.159564,   0.198446,   -362.636139,   566.981995,   0.533466,   21.813259,   41.285728,   296.639526,   -92.293678,   422.173187,   0.083934,   811.530457,   582.456055
-0.155008,   0.175415,   0.218858,   -373.687988,   576.639954,   0.533468,   21.813259,   40.619858,   287.928772,   -84.976822,   437.053925,   0.081581,   829.240417,   589.787354
-0.168100,   0.189469,   0.237022,   -382.808502,   584.793945,   0.533469,   21.813259,   39.953979,   279.699829,   -77.714424,   449.585785,   0.079770,   844.032227,   596.009094
-0.179598,   0.201778,   0.252927,   -390.584412,   591.445129,   0.533466,   21.813259,   39.288105,   271.711334,   -70.850609,   460.172089,   0.078183,   856.371887,   600.838440
-0.189507,   0.212215,   0.266507,   -397.332672,   596.631226,   0.533468,   21.813259,   38.622231,   263.907074,   -64.608513,   469.052704,   0.076664,   866.546692,   604.158875
-0.197690,   0.220756,   0.277660,   -403.206146,   600.371826,   0.533466,   21.813259,   37.956360,   256.520599,   -59.354950,   476.285461,   0.075137,   874.697144,   605.907715
-0.204314,   0.227507,   0.286562,   -408.270111,   602.902954,   0.533468,   21.813259,   37.290485,   249.783875,   -55.151031,   482.049194,   0.073633,   881.092346,   606.376953
-0.209550,   0.232779,   0.293559,   -412.347443,   604.718506,   0.533466,   21.813259,   36.624611,   244.099686,   -51.728619,   486.546173,   0.072371,   886.041199,   606.392151
-0.213612,   0.236756,   0.298893,   -415.649048,   605.846436,   0.533468,   21.813259,   35.958740,   239.660568,   -49.463146,   489.862366,   0.071256,   889.737915,   605.877197
-0.216886,   0.239953,   0.303187,   -418.234924,   606.737915,   0.533466,   21.813259,   35.292866,   236.294174,   -47.791180,   492.408569,   0.070391,   892.642334,   605.461792
-0.219509,   0.242472,   0.306596,   -420.286743,   607.399475,   0.533468,   21.813259,   34.626991,   233.719620,   -46.606850,   494.357178,   0.069695,   894.906128,   605.050293
-0.221605,   0.244476,   0.309314,   -421.975769,   607.839478,   0.533468,   21.813259,   33.961117,   231.770279,   -45.906544,   495.836426,   0.069094,   896.674927,   604.547424
-0.223323,   0.246101,   0.311525,   -423.354431,   608.158875,   0.533466,   21.813259,   33.295242,   230.321823,   -45.517399,   496.973938,   0.068592,   898.082886,   604.070496
-0.224754,   0.247449,   0.313361,   -424.490295,   608.399963,   0.533468,   21.813259,   32.629368,   229.278229,   -45.368576,   497.853241,   0.068174,   899.223206,   603.639404
-0.225963,   0.248584,   0.314906,   -425.429199,   608.588379,   0.533468,   21.813259,   31.963495,   228.567871,   -45.408707,   498.530121,   0.067825,   900.156128,   603.263123
-0.226993,   0.249549,   0.316222,   -426.206940,   608.738708,   0.533467,   21.813259,   31.297621,   228.136978,   -45.605209,   499.043518,   0.067535,   900.923889,   602.940125
-0.227880,   0.250380,   0.317353,   -426.849152,   608.864197,   0.533467,   21.813259,   30.631748,   227.940430,   -45.925404,   499.424561,   0.067296,   901.559143,   602.673401
-0.228647,   0.251096,   0.318328,   -427.378082,   608.968506,   0.533468,   21.813259,   29.965874,   227.940994,   -46.350590,   499.694489,   0.067100,   902.083374,   602.453857
-0.229309,   0.251710,   0.319167,   -427.807037,   609.055481,   0.533467,   21.813259,   29.299999,   228.112061,   -46.863617,   499.868042,   0.066942,   902.510742,   602.278442
-0.229872,   0.252229,   0.319877,   -428.149414,   609.121521,   0.533467,   21.813259,   28.634127,   228.430161,   -47.458050,   499.954163,   0.066815,   902.848755,   602.132996
-0.230338,   0.252649,   0.320458,   -428.414551,   609.160156,   0.533467,   21.813259,   27.968252,   228.876266,   -48.130665,   499.957092,   0.066713,   903.099182,   602.001221
-0.230701,   0.252961,   0.320899,   -428.608459,   609.160828,   0.533468,   21.813259,   27.302378,   229.438492,   -48.886097,   499.875122,   0.066630,   903.257202,   601.863647
-0.230945,   0.253149,   0.321179,   -428.732117,   609.110107,   0.533467,   21.813259,   26.636505,   230.112595,   -49.734619,   499.700409,   0.066562,   903.311340,   601.699341
-0.231048,   0.253186,   0.321267,   -428.779755,   608.992188,   0.533467,   21.813259,   25.970631,   230.904984,   -50.692562,   499.417999,   0.066506,   903.242493,   601.489197
-0.230978,   0.253037,   0.321115,   -428.741211,   608.785950,   0.533468,   21.813259,   25.304758,   231.828140,   -51.783424,   499.005768,   0.066460,   903.023193,   601.208923
-0.230691,   0.252651,   0.320665,   -428.603088,   608.462646,   0.533467,   21.813259,   24.638884,   232.899017,   -53.039440,   498.433685,   0.066422,   902.616394,   600.825439
-0.230104,   0.251956,   0.319811,   -428.346832,   607.971741,   0.533467,   21.813259,   23.973009,   234.127289,   -54.502346,   497.656799,   0.066383,   901.960876,   600.276306
-0.229211,   0.250908,   0.318517,   -427.952667,   607.313110,   0.533467,   21.813259,   23.307137,   235.467072,   -56.106594,   496.678986,   0.066353,   901.040466,   599.575806
-0.227881,   0.249383,   0.316612,   -427.442719,   606.339417,   0.533467,   21.813259,   22.641262,   236.997604,   -58.100899,   495.384308,   0.066277,   899.738953,   598.487610
-0.226094,   0.247314,   0.314039,   -426.844940,   604.979797,   0.533468,   21.813259,   21.975388,   238.708435,   -60.573559,   493.733887,   0.066122,   898.014343,   596.885315
-0.223612,   0.244521,   0.310532,   -425.958374,   603.230042,   0.533468,   21.813259,   21.309513,   240.702713,   -63.431042,   491.612518,   0.065971,   895.699646,   594.907166
-0.220327,   0.240759,   0.305837,   -424.926544,   600.781433,   0.533467,   21.813259,   20.643641,   242.849884,   -66.994987,   488.894928,   0.065669,   892.630310,   591.985718
-0.215975,   0.235847,   0.299669,   -423.645111,   597.515930,   0.533467,   21.813259,   19.977766,   245.118469,   -71.247688,   485.459137,   0.065222,   888.614197,   588.015503
-0.210343,   0.229401,   0.291623,   -422.111786,   593.111267,   0.533467,   21.813259,   19.311893,   247.435623,   -76.436142,   481.088593,   0.064526,   883.356445,   582.505005
-0.203243,   0.221278,   0.281474,   -420.497528,   587.218079,   0.533467,   21.813259,   18.646019,   249.363571,   -82.643013,   475.726379,   0.063391,   876.679504,   574.775574
-0.194434,   0.211092,   0.268823,   -418.767609,   579.471924,   0.533467,   21.813259,   17.980146,   250.655930,   -89.951607,   469.166473,   0.061698,   868.226990,   564.242432
-0.183757,   0.198730,   0.253461,   -416.904541,   569.549255,   0.533468,   21.813259,   17.314272,   250.977997,   -98.333252,   461.268036,   0.059324,   857.696594,   550.313721
-0.170935,   0.184089,   0.235130,   -414.697205,   557.150208,   0.533467,   21.813259,   16.648397,   250.001221,   -107.548218,   451.842285,   0.056218,   844.653015,   532.509644
-0.156355,   0.167232,   0.214175,   -412.396515,   541.913147,   0.533467,   21.813259,   15.982523,   246.946350,   -117.429733,   441.003693,   0.052078,   828.989624,   509.708984
-0.139447,   0.147770,   0.189938,   -409.401917,   523.099854,   0.533467,   21.813259,   15.316649,   241.552277,   -127.854355,   428.105774,   0.046814,   809.568665,   480.649811
-0.121141,   0.126960,   0.163851,   -405.921326,   500.889771,   0.533467,   21.813259,   14.650777,   232.882401,   -137.913940,   413.768188,   0.040236,   786.755676,   444.370544
-0.101255,   0.104474,   0.135603,   -400.940918,   474.407593,   0.533467,   21.813259,   13.984902,   220.670837,   -147.204178,   397.147003,   0.032266,   758.963501,   398.493774
-0.080153,   0.081080,   0.105946,   -393.578583,   442.873932,   0.533467,   21.813259,   13.319029,   204.403305,   -155.107941,   377.625641,   0.022671,   724.808350,   338.499298
-0.058744,   0.058117,   0.076330,   -381.037384,   407.003326,   0.533467,   21.813259,   12.653154,   185.270721,   -159.304794,   354.357117,   0.012680,   682.586731,   262.744659
-0.037437,   0.035946,   0.047326,   -358.407471,   365.561371,   0.533467,   21.813259,   11.987281,   163.758179,   -156.604263,   324.614685,   0.003803,   626.985596,   161.575790
-0.018050,   0.016812,   0.021612,   -325.525146,   310.175110,   0.533467,   21.813259,   11.321407,   135.944550,   -151.294601,   283.552673,   -0.009293,   550.586060,   -191.093689
-0.003629,   0.003510,   0.003168,   -230.178818,   266.326752,   0.533467,   21.813259,   10.655534,   168.497589,   -132.349640,   197.489700,   0.027998,   430.366119,   215.580521
-0.001739,   0.003153,   0.001485,   -77.553825,   332.456146,   0.533467,   21.813259,   9.989659,   327.714478,   -72.812157,   43.836613,   0.225223,   377.259796,   358.660858
-0.080497,   0.178465,   0.176388,   0.000000,   715.302063,   0.533953,   22.811810,   48.740093,   701.360596,   28.554276,   97.848305,   0.343598,   708.108826,   707.769470
-0.070456,   0.156199,   0.154706,   0.000000,   697.446655,   0.533950,   22.811810,   48.069744,   681.561401,   27.443531,   103.165764,   0.341653,   691.739990,   691.522644
-0.061876,   0.134948,   0.134279,   0.000000,   677.475281,   0.533951,   22.811810,   47.399399,   658.440186,   23.855799,   111.542381,   0.336897,   675.077820,   675.039062
-0.055164,   0.114989,   0.115756,   -6.688169,   655.428406,   0.533950,   22.811810,   46.729050,   631.806091,   16.934156,   122.811722,   0.328244,   658.797974,   658.721558
-0.050994,   0.098187,   0.102136,   -20.391165,   636.041992,   0.533950,   22.811810,   46.058701,   606.226196,   9.424627,   136.686111,   0.317438,   646.478821,   645.754700
-0.051046,   0.087474,   0.095925,   -39.944313,   622.259949,   0.533951,   22.811810,   45.388355,   582.700073,   -0.384419,   156.945038,   0.301798,   643.163086,   640.363403
-0.056340,   0.084383,   0.096971,   -67.369576,   613.962097,   0.533950,   22.811810,   44.718006,   559.959595,   -13.367078,   184.057983,   0.280188,   650.269531,   642.347717
-0.066347,   0.088375,   0.104658,   -112.765045,   605.191223,   0.533950,   22.811810,   44.047657,   527.562195,   -35.135998,   222.952896,   0.245449,   668.742676,   646.832092
-0.080048,   0.098704,   0.119076,   -189.015335,   587.066467,   0.533951,   22.811810,   43.377312,   466.121155,   -68.070015,   281.488342,   0.189290,   700.955322,   639.746155
-0.095423,   0.113553,   0.138340,   -265.486450,   568.754639,   0.533950,   22.811810,   42.706963,   392.814148,   -89.545944,   340.325928,   0.136938,   738.215149,   616.187378
-0.111796,   0.130515,   0.160299,   -314.656219,   563.046997,   0.533950,   22.811810,   42.036613,   342.226776,   -93.835999,   380.858307,   0.107502,   770.192627,   597.540161
-0.127825,   0.147526,   0.182314,   -341.648956,   567.125183,   0.533951,   22.811810,   41.366264,   316.205261,   -90.728996,   406.286530,   0.094533,   795.055176,   592.554321
-0.143138,   0.163996,   0.203534,   -358.666473,   574.707031,   0.533950,   22.811810,   40.695919,   300.982758,   -84.942223,   424.925873,   0.088305,   815.510864,   594.842346
-0.156996,   0.178790,   0.222667,   -370.983856,   582.291382,   0.533953,   22.811810,   40.025570,   289.527557,   -78.220055,   439.742920,   0.084629,   832.293762,   598.929260
-0.169366,   0.191805,   0.239609,   -380.996826,   588.774231,   0.533950,   22.811810,   39.355221,   279.360474,   -71.583054,   452.021729,   0.081843,   846.247498,   602.498779
-0.180152,   0.203107,   0.254340,   -389.661774,   593.865295,   0.533950,   22.811810,   38.684872,   269.649994,   -65.446487,   462.340729,   0.079346,   857.857117,   604.738647
-0.189239,   0.212421,   0.266585,   -397.189423,   597.504395,   0.533951,   22.811810,   38.014526,   260.382751,   -60.067741,   470.830994,   0.076994,   867.233154,   605.472595
-0.196692,   0.219916,   0.276518,   -403.723022,   599.903564,   0.533950,   22.811810,   37.344177,   251.821579,   -55.641060,   477.685303,   0.074762,   874.683594,   604.925232
-0.202642,   0.225812,   0.284377,   -409.152405,   601.439697,   0.533950,   22.811810,   36.673828,   244.495941,   -52.208611,   483.027649,   0.072798,   880.463501,   603.719055
-0.207257,   0.230218,   0.290344,   -413.535400,   602.281189,   0.533951,   22.811810,   36.003483,   238.636597,   -49.890820,   486.989532,   0.071109,   884.770447,   602.093201
-0.210860,   0.233589,   0.294955,   -416.992676,   602.800964,   0.533950,   22.811810,   35.333134,   234.057907,   -48.249619,   489.969788,   0.069745,   888.040283,   600.545288
-0.213676,   0.236233,   0.298567,   -419.630524,   603.211426,   0.533951,   22.811810,   34.662785,   230.619644,   -47.038731,   492.217316,   0.068714,   890.550293,   599.349243
-0.215942,   0.238257,   0.301390,   -421.838867,   603.343811,   0.533950,   22.811810,   33.992435,   228.059921,   -46.554962,   493.858826,   0.067792,   892.460449,   598.011414
-0.217853,   0.239975,   0.303775,   -423.648102,   603.449463,   0.533950,   22.811810,   33.322090,   226.184784,   -46.383415,   495.135345,   0.067038,   894.024170,   596.892151
-0.219464,   0.241416,   0.305779,   -425.142883,   603.514587,   0.533951,   22.811810,   32.651741,   224.855591,   -46.483891,   496.112640,   0.066411,   895.296692,   595.921265
-0.220848,   0.242651,   0.307496,   -426.395020,   603.555725,   0.533951,   22.811810,   31.981392,   223.949387,   -46.788654,   496.865051,   0.065882,   896.351196,   595.078552
-0.222051,   0.243725,   0.308988,   -427.446533,   603.586304,   0.533951,   22.811810,   31.311045,   223.391495,   -47.251736,   497.438660,   0.065438,   897.233398,   594.357910
-0.223112,   0.244673,   0.310303,   -428.335144,   603.612610,   0.533950,   22.811810,   30.640696,   223.122467,   -47.845028,   497.868652,   0.065064,   897.979736,   593.744873
-0.224058,   0.245517,   0.311474,   -429.087524,   603.638855,   0.533951,   22.811810,   29.970348,   223.094101,   -48.542763,   498.181000,   0.064748,   898.615540,   593.228271
-0.224908,   0.246273,   0.312523,   -429.727997,   603.662842,   0.533951,   22.811810,   29.299999,   223.266006,   -49.331173,   498.394257,   0.064481,   899.158386,   592.788391
-0.225669,   0.246947,   0.313461,   -430.268860,   603.682861,   0.533951,   22.811810,   28.629652,   223.613800,   -50.199795,   498.518372,   0.064255,   899.616699,   592.414795
-0.226345,   0.247539,   0.314288,   -430.725769,   603.689453,   0.533950,   22.811810,   27.959303,   224.110550,   -51.146893,   498.559967,   0.064061,   899.994568,   592.082153
-0.226932,   0.248039,   0.314995,   -431.107971,   603.670410,   0.533951,   22.811810,   27.288956,   224.736954,   -52.174530,   498.519379,   0.063892,   900.288330,   591.765686
-0.227416,   0.248432,   0.315564,   -431.420563,   603.611084,   0.533951,   22.811810,   26.618608,   225.482056,   -53.291519,   498.391357,   0.063740,   900.488892,   591.439697
-0.227779,   0.248692,   0.315965,   -431.666901,   603.489441,   0.533951,   22.811810,   25.948259,   226.342361,   -54.519794,   498.162903,   0.063597,   900.578796,   591.068359
-0.228001,   0.248794,   0.316168,   -431.843811,   603.288025,   0.533951,   22.811810,   25.277912,   227.324966,   -55.880718,   497.818359,   0.063460,   900.539673,   590.627502
-0.228044,   0.248696,   0.316118,   -431.939331,   602.978027,   0.533951,   22.811810,   24.607563,   228.462204,   -57.423515,   497.323669,   0.063324,   900.335510,   590.082520
-0.227890,   0.248355,   0.315776,   -431.972473,   602.514221,   0.533951,   22.811810,   23.937216,   229.760162,   -59.218418,   496.652313,   0.063168,   899.940613,   589.349915
-0.227426,   0.247750,   0.315066,   -431.816193,   601.966919,   0.533951,   22.811810,   23.266867,   231.241516,   -61.090786,   495.794647,   0.063067,   899.315491,   588.633972
-0.226568,   0.246645,   0.313755,   -431.623901,   601.046021,   0.533950,   22.811810,   22.596519,   232.812057,   -63.389942,   494.639130,   0.062866,   898.321350,   587.374268
-0.225280,   0.245008,   0.311800,   -431.331757,   599.787415,   0.533951,   22.811810,   21.926172,   234.440704,   -65.985077,   493.191406,   0.062604,   896.938843,   585.673157
-0.223325,   0.242692,   0.308955,   -430.822937,   598.110779,   0.533951,   22.811810,   21.255823,   236.284180,   -68.996330,   491.301453,   0.062305,   894.999939,   583.496338
-0.220658,   0.239530,   0.305076,   -430.152679,   595.855835,   0.533951,   22.811810,   20.585474,   238.293518,   -72.590355,   488.887695,   0.061894,   892.403748,   580.552612
-0.217140,   0.235333,   0.299945,   -429.404358,   592.797791,   0.533950,   22.811810,   19.915127,   240.288971,   -76.895531,   485.873260,   0.061264,   889.014832,   576.423950
-0.212343,   0.229728,   0.293030,   -428.502441,   588.603943,   0.533951,   22.811810,   19.244780,   242.267227,   -82.165726,   481.987732,   0.060338,   884.470032,   570.638550
-0.206265,   0.222507,   0.284189,   -427.527649,   583.087585,   0.533951,   22.811810,   18.574430,   243.818314,   -88.258415,   477.249451,   0.059014,   878.667786,   562.806335
-0.198531,   0.213378,   0.272971,   -426.628754,   575.693054,   0.533951,   22.811810,   17.904083,   244.700241,   -95.635925,   471.386353,   0.057032,   871.230103,   551.853699
-0.188826,   0.201969,   0.258906,   -425.769287,   565.977722,   0.533951,   22.811810,   17.233734,   244.482834,   -104.274376,   464.201080,   0.054235,   861.734436,   536.934082
-0.177410,   0.188347,   0.242280,   -425.160828,   553.779419,   0.533951,   22.811810,   16.563387,   242.365173,   -113.746597,   455.935394,   0.050425,   850.222717,   517.263184
-0.163564,   0.172095,   0.222250,   -424.658752,   538.120605,   0.533951,   22.811810,   15.893039,   238.106415,   -124.644524,   445.913635,   0.045255,   835.719116,   490.676361
-0.147972,   0.153801,   0.199737,   -424.159363,   519.334045,   0.533950,   22.811810,   15.222691,   230.915619,   -135.740906,   434.667358,   0.038761,   818.473877,   456.618561
-0.129932,   0.132648,   0.173750,   -423.219421,   495.909454,   0.533950,   22.811810,   14.552342,   220.420654,   -147.730606,   421.088623,   0.030408,   796.818237,   410.228851
-0.110208,   0.110414,   0.145844,   -421.124756,   468.678955,   0.533951,   22.811810,   13.881994,   205.955170,   -158.400986,   405.892609,   0.020561,   770.959351,   348.549103
-0.088993,   0.086621,   0.115997,   -417.780609,   435.648956,   0.533950,   22.811810,   13.211646,   185.475616,   -167.607285,   388.482452,   0.008058,   739.145691,   244.633957
-0.066855,   0.062242,   0.085190,   -412.068817,   395.317657,   0.533951,   22.811810,   12.541299,   157.815399,   -174.566544,   367.897797,   -0.007985,   699.267334,   -230.734970
-0.044674,   0.038984,   0.055232,   -397.576843,   350.234528,   0.533951,   22.811810,   11.870951,   126.981270,   -174.323593,   342.212372,   -0.024351,   648.056091,   -309.930420
-0.023992,   0.018340,   0.028395,   -370.428589,   298.995270,   0.533951,   22.811810,   11.200602,   87.320992,   -158.754288,   311.277710,   -0.040994,   580.837219,   -330.092194
-0.011089,   0.005869,   0.010731,   -357.536774,   224.638824,   0.533950,   22.811810,   10.530254,   -8.832084,   -124.065880,   285.328583,   -0.087111,   508.538879,   -369.333740
-0.011033,   0.005116,   0.011198,   -125.081161,   151.565811,   0.533951,   22.811810,   9.859906,   61.733009,   -35.248360,   129.545517,   0.036792,   239.948990,   131.578629
-0.099079,   0.220808,   0.219643,   0.000000,   748.964417,   0.534530,   23.803621,   48.912712,   726.025696,   39.262890,   127.591705,   0.344289,   740.937195,   740.532471
-0.087743,   0.196856,   0.196093,   0.000000,   732.737305,   0.534527,   23.803621,   48.236412,   709.145691,   37.980293,   128.025223,   0.343198,   725.650024,   725.328918
-0.078102,   0.174343,   0.174165,   0.000000,   715.637146,   0.534530,   23.803621,   47.560112,   690.267639,   35.761833,   131.332108,   0.340620,   710.498047,   710.326965
-0.069919,   0.152631,   0.153377,   0.000000,   696.588745,   0.534528,   23.803621,   46.883808,   668.157104,   31.216938,   137.541275,   0.335335,   695.200256,   695.187683
-0.063382,   0.132231,   0.134658,   -6.882244,   676.821838,   0.534528,   23.803621,   46.207512,   644.619568,   25.320030,   144.844193,   0.328262,   680.289124,   680.210815
-0.059385,   0.114755,   0.120748,   -19.807213,   659.131287,   0.534530,   23.803621,   45.531208,   621.019470,   18.304600,   156.278809,   0.318426,   669.254761,   668.594727
-0.058954,   0.102430,   0.112764,   -37.916168,   644.749023,   0.534528,   23.803621,   44.854908,   597.946960,   8.885906,   172.510040,   0.304397,   664.518921,   662.078552
-0.063374,   0.097269,   0.111803,   -63.406048,   634.950806,   0.534527,   23.803621,   44.178608,   574.588135,   -3.043349,   196.242325,   0.284813,   668.911499,   662.099792
-0.072202,   0.099021,   0.117128,   -99.612923,   627.058228,   0.534530,   23.803621,   43.502308,   546.921875,   -19.476564,   227.620178,   0.257665,   682.339966,   665.686157
-0.084347,   0.106797,   0.128398,   -162.500076,   611.758362,   0.534528,   23.803621,   42.826008,   496.584534,   -47.326283,   275.516388,   0.211769,   707.152954,   663.163696
-0.099099,   0.119838,   0.145681,   -240.606873,   591.298462,   0.534528,   23.803621,   42.149708,   423.256653,   -72.565086,   334.001221,   0.157653,   741.482300,   644.448486
-0.114525,   0.135259,   0.165737,   -299.925018,   578.358215,   0.534530,   23.803621,   41.473408,   360.247681,   -81.814484,   379.460968,   0.120027,   773.251160,   620.519226
-0.129951,   0.151333,   0.186622,   -333.903992,   577.132141,   0.534527,   23.803621,   40.797108,   323.974762,   -80.746597,   408.101532,   0.101561,   798.298279,   608.501221
-0.144513,   0.166714,   0.206539,   -354.076385,   581.438843,   0.534530,   23.803621,   40.120808,   303.469788,   -76.107315,   427.524841,   0.092637,   818.116699,   605.858398
-0.157659,   0.180527,   0.224505,   -367.861664,   587.036194,   0.534528,   23.803621,   39.444504,   289.162994,   -69.988472,   442.391266,   0.087579,   834.195312,   606.879211
-0.169313,   0.192469,   0.240198,   -379.010529,   591.700439,   0.534528,   23.803621,   38.768208,   276.997467,   -64.307526,   454.365143,   0.083668,   847.360107,   607.554932
-0.179407,   0.202765,   0.253739,   -388.565948,   595.254944,   0.534530,   23.803621,   38.091904,   265.707489,   -59.018486,   464.342712,   0.080275,   858.258545,   607.279968
-0.187789,   0.211106,   0.264828,   -396.907013,   597.471680,   0.534527,   23.803621,   37.415604,   255.061478,   -54.496811,   472.483490,   0.077113,   866.976501,   605.593201
-0.194474,   0.217521,   0.273485,   -404.121887,   598.453247,   0.534528,   23.803621,   36.739307,   245.507065,   -51.175720,   478.836151,   0.074143,   873.675476,   602.611572
-0.199651,   0.222428,   0.280146,   -409.910492,   598.889221,   0.534530,   23.803621,   36.063004,   237.654037,   -48.675301,   483.655975,   0.071685,   878.741089,   599.551147
-0.203667,   0.226071,   0.285191,   -414.483734,   598.951416,   0.534528,   23.803621,   35.386703,   231.599655,   -47.131985,   487.175385,   0.069677,   882.493713,   596.606018
-0.206864,   0.228936,   0.289175,   -418.046661,   598.929382,   0.534530,   23.803621,   34.710403,   227.189499,   -46.306770,   489.755066,   0.068101,   885.358643,   594.128845
-0.209431,   0.231155,   0.292308,   -420.928772,   598.760742,   0.534528,   23.803621,   34.034103,   223.965591,   -46.133617,   491.633270,   0.066788,   887.542175,   591.846863
-0.211533,   0.232937,   0.294847,   -423.291046,   598.548218,   0.534527,   23.803621,   33.357803,   221.539978,   -46.282787,   493.058441,   0.065694,   889.266785,   589.825989
-0.213283,   0.234413,   0.296952,   -425.235718,   598.332214,   0.534530,   23.803621,   32.681503,   219.783661,   -46.687164,   494.136780,   0.064783,   890.650940,   588.072144
-0.214791,   0.235674,   0.298754,   -426.870087,   598.125854,   0.534528,   23.803621,   32.005203,   218.561447,   -47.305721,   494.957397,   0.064012,   891.792969,   586.539978
-0.216117,   0.236781,   0.300336,   -428.260956,   597.937134,   0.534529,   23.803621,   31.328901,   217.774597,   -48.098385,   495.578979,   0.063353,   892.753845,   585.200806
-0.217313,   0.237782,   0.301763,   -429.452087,   597.780212,   0.534528,   23.803621,   30.652601,   217.353333,   -49.025215,   496.046539,   0.062792,   893.581726,   584.049438
-0.218409,   0.238701,   0.303071,   -430.482086,   597.652283,   0.534529,   23.803621,   29.976301,   217.241394,   -50.071217,   496.388000,   0.062309,   894.305115,   583.057190
-0.219429,   0.239560,   0.304291,   -431.381317,   597.551880,   0.534528,   23.803621,   29.300001,   217.383057,   -51.212505,   496.628601,   0.061892,   894.947327,   582.201721
-0.220384,   0.240365,   0.305432,   -432.171509,   597.470886,   0.534529,   23.803621,   28.623699,   217.743027,   -52.443680,   496.780273,   0.061528,   895.518555,   581.456238
-0.221280,   0.241118,   0.306501,   -432.865387,   597.404785,   0.534528,   23.803621,   27.947399,   218.295944,   -53.756538,   496.851105,   0.061211,   896.024963,   580.805542
-0.222113,   0.241811,   0.307490,   -433.480560,   597.335693,   0.534528,   23.803621,   27.271099,   219.011627,   -55.156513,   496.843536,   0.060926,   896.464539,   580.209229
-0.222874,   0.242429,   0.308383,   -434.026489,   597.247742,   0.534529,   23.803621,   26.594799,   219.867676,   -56.646404,   496.756104,   0.060666,   896.830688,   579.636475
-0.223540,   0.242944,   0.309145,   -434.501312,   597.120422,   0.534529,   23.803621,   25.918497,   220.859711,   -58.240601,   496.574860,   0.060424,   897.102966,   579.057129
-0.224082,   0.243321,   0.309734,   -434.911774,   596.923462,   0.534528,   23.803621,   25.242197,   221.964981,   -59.953274,   496.287750,   0.060188,   897.259705,   578.419312
-0.224456,   0.243497,   0.310078,   -435.260803,   596.609131,   0.534529,   23.803621,   24.565897,   223.165237,   -61.816914,   495.868103,   0.059941,   897.259705,   577.646057
-0.224620,   0.243408,   0.310106,   -435.536469,   596.144531,   0.534528,   23.803621,   23.889597,   224.452347,   -63.844265,   495.290527,   0.059679,   897.063599,   576.695557
-0.224511,   0.243057,   0.309783,   -435.654114,   595.568420,   0.534529,   23.803621,   23.213297,   225.960876,   -66.046570,   494.507721,   0.059450,   896.637085,   575.697388
-0.224125,   0.242367,   0.309056,   -435.720978,   594.746399,   0.534528,   23.803621,   22.536997,   227.624207,   -68.598755,   493.486328,   0.059165,   895.946167,   574.353088
-0.223347,   0.241259,   0.307796,   -435.707703,   593.631714,   0.534528,   23.803621,   21.860695,   229.378891,   -71.454895,   492.198792,   0.058822,   894.924377,   572.611694
-0.222093,   0.239475,   0.305764,   -435.692810,   591.982910,   0.534529,   23.803621,   21.184395,   231.208267,   -74.918159,   490.510956,   0.058312,   893.417419,   570.023682
-0.220097,   0.236939,   0.302754,   -435.461884,   589.853088,   0.534529,   23.803621,   20.508095,   233.181778,   -78.790611,   488.350281,   0.057740,   891.298035,   566.845459
-0.217294,   0.233419,   0.298543,   -435.074982,   587.035156,   0.534528,   23.803621,   19.831795,   235.161987,   -83.201836,   485.631958,   0.057015,   888.428284,   562.690918
-0.213580,   0.228679,   0.292925,   -434.870178,   583.046936,   0.534529,   23.803621,   19.155495,   236.935913,   -88.759171,   482.202728,   0.055833,   884.649902,   556.473633
-0.208569,   0.222528,   0.285521,   -434.514465,   577.908203,   0.534528,   23.803621,   18.479193,   238.485138,   -95.091431,   477.945160,   0.054334,   879.710266,   548.461060
-0.201976,   0.214426,   0.275758,   -434.248505,   570.944031,   0.534529,   23.803621,   17.802893,   239.361603,   -102.666100,   472.606873,   0.052182,   873.201233,   537.242859
-0.193542,   0.204190,   0.263378,   -434.241516,   561.745789,   0.534528,   23.803621,   17.126593,   238.874481,   -111.370216,   466.186493,   0.049140,   864.903137,   521.752380
-0.183591,   0.191992,   0.248699,   -434.892273,   550.052490,   0.534528,   23.803621,   16.450293,   236.193481,   -121.033287,   458.940399,   0.044901,   854.928406,   500.656097
-0.170709,   0.176261,   0.229759,   -435.563934,   534.481445,   0.534529,   23.803621,   15.773993,   231.471741,   -132.554260,   449.575653,   0.039181,   841.538574,   471.160919
-0.156492,   0.159165,   0.209014,   -437.082581,   515.923828,   0.534528,   23.803621,   15.097692,   222.981384,   -144.140167,   439.728027,   0.031806,   826.268616,   431.773132
-0.139235,   0.138556,   0.183998,   -438.637085,   492.063263,   0.534528,   23.803621,   14.421391,   210.473877,   -157.047714,   427.531006,   0.022083,   806.452698,   373.355469
-0.120191,   0.115849,   0.156519,   -440.507355,   463.052521,   0.534529,   23.803621,   13.745091,   192.202881,   -169.657715,   413.967804,   0.009603,   782.586975,   274.597412
-0.099706,   0.092073,   0.127432,   -441.668121,   428.956146,   0.534528,   23.803621,   13.068790,   167.249954,   -179.961929,   399.196228,   -0.005620,   754.009521,   -221.312500
-0.077240,   0.066640,   0.096301,   -440.818329,   387.223969,   0.534529,   23.803621,   12.392490,   133.249802,   -186.844162,   381.835663,   -0.024895,   717.606201,   -345.720184
-0.055090,   0.042346,   0.066795,   -435.172516,   341.186340,   0.534528,   23.803621,   11.716190,   90.512604,   -184.498779,   363.008881,   -0.046483,   673.986755,   -399.219025
-0.036120,   0.021719,   0.041954,   -410.658691,   306.422333,   0.534529,   23.803621,   11.039889,   59.125397,   -163.361755,   340.846252,   -0.055754,   623.193542,   -391.828278
-0.032800,   0.014915,   0.032638,   -472.352753,   202.139313,   0.534528,   23.803621,   10.363589,   -138.260330,   -131.953125,   337.231293,   -0.150232,   599.548584,   -514.043152
-0.042563,   0.018999,   0.041641,   -399.052765,   89.881248,   0.534529,   23.803621,   9.687288,   -262.199554,   -46.971954,   219.507141,   -0.228627,   450.765015,   -429.904510
-0.116689,   0.261914,   0.262210,   0.000000,   779.322815,   0.535148,   24.786791,   49.127861,   744.268677,   53.898460,   159.465149,   0.345494,   770.073608,   769.554626
-0.104202,   0.237094,   0.237512,   0.000000,   764.851685,   0.535147,   24.786791,   48.444141,   730.925476,   52.850853,   155.420334,   0.345778,   755.567139,   755.033630
-0.093700,   0.213325,   0.214071,   0.000000,   749.341431,   0.535148,   24.786791,   47.760422,   715.016724,   50.778805,   154.848129,   0.344371,   741.251282,   740.840210
-0.084566,   0.190544,   0.191837,   0.000000,   732.650146,   0.535148,   24.786791,   47.076702,   696.669128,   47.472809,   157.013947,   0.341206,   726.972412,   726.768005
-0.076650,   0.168562,   0.170724,   0.000000,   714.645874,   0.535148,   24.786791,   46.392986,   676.230774,   42.816425,   160.649979,   0.336417,   712.455444,   712.424927
-0.070576,   0.147834,   0.152021,   -5.892508,   696.074036,   0.535148,   24.786791,   45.709267,   653.630127,   36.551422,   167.310287,   0.329110,   699.038940,   698.983093
-0.066478,   0.129494,   0.137257,   -18.313450,   678.843567,   0.535148,   24.786791,   45.025547,   631.268677,   29.261469,   175.794815,   0.319939,   688.183105,   687.634521
-0.065777,   0.116014,   0.128154,   -34.801624,   664.853394,   0.535147,   24.786791,   44.341827,   609.031372,   21.020401,   189.578644,   0.307529,   682.919556,   680.920166
-0.069070,   0.109037,   0.124998,   -56.760662,   654.227234,   0.535148,   24.786791,   43.658108,   586.940125,   10.526456,   208.117203,   0.291003,   684.375183,   679.049255
-0.076730,   0.108530,   0.127970,   -87.145523,   646.219543,   0.535148,   24.786791,   42.974388,   561.814514,   -2.740518,   234.041611,   0.268563,   693.908569,   681.434265
-0.087651,   0.113900,   0.136578,   -138.782532,   633.693298,   0.535150,   24.786791,   42.290668,   519.699341,   -24.788580,   273.976196,   0.231283,   713.283508,   681.907227
-0.101283,   0.124597,   0.151108,   -214.194794,   612.814392,   0.535148,   24.786791,   41.606945,   449.929016,   -51.309425,   328.901276,   0.178731,   743.426208,   668.535645
-0.115757,   0.138212,   0.169000,   -282.442688,   593.634949,   0.535147,   24.786791,   40.923229,   377.397980,   -66.205704,   377.732666,   0.133933,   774.496094,   642.261169
-0.130531,   0.153212,   0.188575,   -324.578522,   586.609741,   0.535148,   24.786791,   40.239510,   330.002991,   -67.971741,   409.841492,   0.109191,   799.914490,   623.597412
-0.144458,   0.167664,   0.207395,   -348.479126,   587.617554,   0.535148,   24.786791,   39.555790,   303.822418,   -64.683975,   430.255768,   0.097276,   819.453857,   616.255615
-0.156997,   0.180509,   0.224223,   -364.169220,   590.933960,   0.535148,   24.786791,   38.872070,   286.740417,   -59.975658,   444.974731,   0.090538,   834.878479,   613.809082
-0.168021,   0.191562,   0.238865,   -376.455200,   594.023560,   0.535148,   24.786791,   38.188351,   272.554382,   -54.985981,   456.767548,   0.085576,   847.470215,   612.015991
-0.177276,   0.200712,   0.251041,   -386.971191,   595.900330,   0.535147,   24.786791,   37.504631,   259.567352,   -50.638218,   466.317749,   0.081209,   857.578125,   609.050110
-0.184844,   0.207905,   0.260769,   -396.304535,   596.381348,   0.535148,   24.786791,   36.820915,   247.576111,   -47.499264,   473.908173,   0.077057,   865.492126,   604.416199
-0.190785,   0.213386,   0.268279,   -403.997192,   596.194397,   0.535148,   24.786791,   36.137192,   237.333954,   -45.136753,   479.737823,   0.073512,   871.505798,   599.459961
-0.195342,   0.217431,   0.273916,   -410.151062,   595.599609,   0.535148,   24.786791,   35.453476,   229.248199,   -43.799656,   483.988464,   0.070572,   875.927307,   594.617432
-0.198849,   0.220362,   0.278116,   -415.010834,   594.794006,   0.535148,   24.786791,   34.769756,   223.289505,   -43.506351,   486.961426,   0.068168,   879.124451,   590.130493
-0.201595,   0.222663,   0.281410,   -418.732269,   594.141113,   0.535148,   24.786791,   34.086037,   219.007111,   -43.598240,   489.119354,   0.066326,   881.547791,   586.527344
-0.203845,   0.224476,   0.284052,   -421.766754,   593.494812,   0.535147,   24.786791,   33.402317,   215.870712,   -44.142620,   490.700806,   0.064796,   883.424988,   583.340820
-0.205753,   0.225978,   0.286261,   -424.317047,   592.871033,   0.535148,   24.786791,   32.718597,   213.598618,   -45.044666,   491.877838,   0.063490,   884.932922,   580.482300
-0.207416,   0.227279,   0.288178,   -426.466797,   592.318909,   0.535148,   24.786791,   32.034878,   212.026947,   -46.174839,   492.761658,   0.062384,   886.182800,   577.988892
-0.208899,   0.228436,   0.289882,   -428.314331,   591.826172,   0.535148,   24.786791,   31.351158,   211.002319,   -47.490456,   493.423798,   0.061431,   887.242371,   575.784668
-0.210253,   0.229493,   0.291437,   -429.920593,   591.395691,   0.535147,   24.786791,   30.667439,   210.418457,   -48.943375,   493.917603,   0.060603,   888.163147,   573.839172
-0.211510,   0.230481,   0.292884,   -431.322021,   591.031677,   0.535149,   24.786791,   29.983719,   210.210022,   -50.500389,   494.276520,   0.059885,   888.978088,   572.139954
-0.212698,   0.231419,   0.294253,   -432.563965,   590.721985,   0.535147,   24.786791,   29.299999,   210.305679,   -52.147671,   494.528137,   0.059254,   889.712952,   570.638611
-0.213831,   0.232317,   0.295562,   -433.674622,   590.458557,   0.535148,   24.786791,   28.616280,   210.649979,   -53.866035,   494.691833,   0.058695,   890.382996,   569.304871
-0.214917,   0.233178,   0.296816,   -434.672760,   590.232361,   0.535148,   24.786791,   27.932560,   211.214539,   -55.654915,   494.775513,   0.058197,   890.995239,   568.112732
-0.215958,   0.233999,   0.298016,   -435.572998,   590.032349,   0.535147,   24.786791,   27.248842,   211.972275,   -57.512901,   494.783813,   0.057749,   891.551575,   567.035828
-0.216951,   0.234770,   0.299151,   -436.395874,   589.837524,   0.535148,   24.786791,   26.565123,   212.889175,   -59.447540,   494.719025,   0.057337,   892.049438,   566.025391
-0.217880,   0.235469,   0.300198,   -437.149658,   589.625305,   0.535148,   24.786791,   25.881403,   213.951981,   -61.476326,   494.572052,   0.056949,   892.475342,   565.040283
-0.218729,   0.236074,   0.301131,   -437.832581,   589.380127,   0.535147,   24.786791,   25.197683,   215.162384,   -63.614799,   494.330170,   0.056581,   892.813599,   564.057800
-0.219460,   0.236549,   0.301902,   -438.446899,   589.069153,   0.535148,   24.786791,   24.513964,   216.512787,   -65.890503,   493.973083,   0.056221,   893.036255,   563.024048
-0.220029,   0.236851,   0.302456,   -438.982544,   588.666626,   0.535147,   24.786791,   23.830246,   217.990112,   -68.306015,   493.481842,   0.055866,   893.111633,   561.906860
-0.220378,   0.236803,   0.302624,   -439.512451,   587.987915,   0.535148,   24.786791,   23.146526,   219.580627,   -71.105186,   492.762299,   0.055426,   892.932800,   560.343262
-0.220438,   0.236477,   0.302422,   -439.838989,   587.239380,   0.535148,   24.786791,   22.462807,   221.304489,   -73.904083,   491.869354,   0.055050,   892.524048,   558.840393
-0.220153,   0.235730,   0.301720,   -440.098541,   586.193176,   0.535148,   24.786791,   21.779087,   223.159317,   -77.064682,   490.698547,   0.054607,   891.791443,   556.907654
-0.219427,   0.234429,   0.300351,   -440.396515,   584.629944,   0.535148,   24.786791,   21.095367,   225.122391,   -80.888969,   489.141144,   0.053982,   890.623474,   554.086182
-0.218326,   0.232562,   0.298361,   -440.754211,   582.569458,   0.535148,   24.786791,   20.411648,   227.085602,   -85.270325,   487.243561,   0.053171,   889.056458,   550.374084
-0.216348,   0.229787,   0.295217,   -440.798431,   579.975708,   0.535147,   24.786791,   19.727928,   229.258270,   -90.081001,   484.768555,   0.052317,   886.751038,   546.043701
-0.213516,   0.225834,   0.290703,   -441.000763,   576.288391,   0.535148,   24.786791,   19.044209,   231.091476,   -95.803864,   481.668091,   0.051037,   883.591309,   539.694946
-0.209450,   0.220490,   0.284471,   -441.165375,   571.412964,   0.535147,   24.786791,   18.360491,   232.596634,   -102.349030,   477.788208,   0.049374,   879.333435,   531.284119
-0.203868,   0.213317,   0.276032,   -441.597748,   564.687805,   0.535148,   24.786791,   17.676771,   233.296570,   -110.206512,   472.920776,   0.046964,   873.639343,   519.236450
-0.197112,   0.204286,   0.265629,   -442.855286,   555.765747,   0.535148,   24.786791,   16.993052,   232.196716,   -119.286255,   467.360596,   0.043427,   866.671875,   501.984406
-0.188137,   0.192759,   0.252087,   -444.522705,   543.949829,   0.535147,   24.786791,   16.309332,   229.386215,   -129.959091,   460.420715,   0.038651,   857.484680,   477.931854
-0.177071,   0.178874,   0.235654,   -446.856964,   528.964355,   0.535149,   24.786791,   15.625613,   223.937714,   -141.830353,   452.338623,   0.032348,   846.082581,   444.608490
-0.163827,   0.161942,   0.215855,   -450.202667,   509.725006,   0.535148,   24.786791,   14.941894,   214.517822,   -154.995468,   442.978851,   0.023851,   831.854309,   395.100830
-0.148208,   0.142631,   0.192958,   -454.299530,   486.030670,   0.535148,   24.786791,   14.258174,   200.166870,   -168.435730,   432.536987,   0.012986,   814.504395,   316.020203
-0.130108,   0.120042,   0.166555,   -459.884216,   455.636108,   0.535148,   24.786791,   13.574455,   178.474182,   -182.722290,   420.628876,   -0.001786,   792.866699,   -158.816650
-0.110307,   0.095586,   0.138214,   -465.958923,   419.268890,   0.535148,   24.786791,   12.890736,   148.503922,   -195.193939,   407.890930,   -0.020292,   766.985168,   -345.237122
-0.088933,   0.069651,   0.109043,   -470.718964,   377.392273,   0.535148,   24.786791,   12.207016,   110.198463,   -203.525162,   393.976562,   -0.042269,   735.966675,   -422.499756
-0.069735,   0.045545,   0.083738,   -478.743988,   330.122528,   0.535148,   24.786791,   11.523296,   55.358074,   -203.979507,   383.082581,   -0.070327,   704.429443,   -477.659546
-0.060075,   0.029409,   0.066889,   -482.109589,   294.505890,   0.535148,   24.786791,   10.839578,   5.041457,   -192.645172,   375.516846,   -0.092087,   679.078430,   -501.949860
-0.071969,   0.030835,   0.072875,   -591.688965,   150.525818,   0.535148,   24.786791,   10.155858,   -283.629974,   -157.533157,   365.712433,   -0.216393,   679.572144,   -640.431946
-0.096714,   0.042011,   0.096225,   -644.875366,   52.701683,   0.535148,   24.786791,   9.472138,   -502.897522,   -89.276192,   280.860809,   -0.293398,   672.776184,   -668.108337
-0.131850,   0.297764,   0.300088,   0.000000,   804.516785,   0.535738,   25.759434,   49.385132,   753.844360,   70.040329,   192.918930,   0.345440,   795.009827,   794.478760
-0.119028,   0.273151,   0.275305,   0.000000,   792.062378,   0.535738,   25.759434,   48.692539,   744.192322,   69.791656,   185.943924,   0.347263,   781.332275,   780.639832
-0.107645,   0.249143,   0.251308,   0.000000,   778.396606,   0.535738,   25.759434,   47.999950,   731.812317,   68.358223,   181.869812,   0.347413,   767.741211,   767.046082
-0.097772,   0.226103,   0.228458,   0.000000,   764.045044,   0.535738,   25.759434,   47.307358,   717.520325,   66.460617,   180.152451,   0.346461,   754.274719,   753.681519
-0.089083,   0.203656,   0.206430,   0.000000,   748.409973,   0.535738,   25.759434,   46.614769,   700.583008,   63.352169,   181.008987,   0.343758,   740.769409,   740.403198
-0.081835,   0.181924,   0.185625,   0.000000,   731.649597,   0.535738,   25.759434,   45.922176,   681.299011,   58.938583,   184.041809,   0.339219,   727.393616,   727.279541
-0.075989,   0.161356,   0.167098,   -0.027468,   714.751221,   0.535738,   25.759434,   45.229588,   661.192688,   53.531086,   188.186066,   0.333314,   714.765015,   714.764954
-0.071990,   0.142624,   0.151863,   -11.831593,   698.361328,   0.535738,   25.759434,   44.536995,   639.850708,   46.679024,   195.269897,   0.324899,   704.351624,   704.127991
-0.070679,   0.127533,   0.140817,   -27.086212,   683.543579,   0.535738,   25.759434,   43.844406,   618.123596,   38.333759,   205.449768,   0.313728,   697.481262,   696.296509
-0.073161,   0.118548,   0.135645,   -48.253639,   671.597046,   0.535738,   25.759434,   43.151814,   595.373657,   27.969725,   221.493652,   0.298117,   696.977783,   693.204651
-0.079619,   0.115841,   0.136195,   -75.551964,   662.553467,   0.535739,   25.759434,   42.459225,   570.811096,   16.190380,   243.513580,   0.278182,   703.379272,   694.162292
-0.089488,   0.119121,   0.142490,   -118.197083,   652.037537,   0.535737,   25.759434,   41.766632,   535.065552,   -1.225101,   276.429779,   0.247676,   718.465332,   696.085693
-0.101776,   0.127464,   0.154112,   -187.770126,   632.156921,   0.535738,   25.759434,   41.074043,   471.243103,   -26.856323,   325.644470,   0.199090,   744.029663,   687.623962
-0.115547,   0.139472,   0.170152,   -262.523773,   609.047729,   0.535738,   25.759434,   40.381451,   392.303253,   -45.779305,   376.736145,   0.149152,   774.433533,   662.621277
-0.129427,   0.152954,   0.187898,   -313.482788,   595.614990,   0.535738,   25.759434,   39.688862,   333.763885,   -51.631683,   411.682220,   0.117579,   799.839783,   637.849060
-0.142652,   0.166352,   0.205474,   -341.744934,   592.961426,   0.535738,   25.759434,   38.996269,   301.219818,   -50.003315,   433.104584,   0.102224,   819.166931,   625.677368
-0.154543,   0.178277,   0.221223,   -359.325989,   594.213623,   0.535738,   25.759434,   38.303680,   281.220306,   -46.332661,   447.757416,   0.093869,   834.099121,   620.274719
-0.164846,   0.188355,   0.234667,   -372.935760,   595.443848,   0.535738,   25.759434,   37.611088,   265.291840,   -42.783741,   459.033905,   0.087672,   845.988647,   615.665466
-0.173446,   0.196493,   0.245676,   -384.739746,   595.511414,   0.535738,   25.759434,   36.918499,   250.657776,   -39.886143,   468.101624,   0.082130,   855.438721,   609.725342
-0.180197,   0.202622,   0.254114,   -394.906372,   594.443054,   0.535738,   25.759434,   36.225906,   237.513779,   -37.977074,   475.109741,   0.077108,   862.590820,   602.516785
-0.185292,   0.207072,   0.260351,   -403.067261,   592.969238,   0.535738,   25.759434,   35.533318,   226.787338,   -36.885342,   480.251343,   0.072944,   867.803101,   595.422180
-0.189119,   0.210154,   0.264834,   -409.587799,   591.201782,   0.535738,   25.759434,   34.840725,   218.743729,   -37.129734,   483.763519,   0.069468,   871.453247,   588.570435
-0.192146,   0.212516,   0.268322,   -414.577881,   589.750549,   0.535738,   25.759434,   34.148136,   213.047363,   -37.874718,   486.239044,   0.066796,   874.172729,   582.952637
-0.194604,   0.214373,   0.271107,   -418.615570,   588.426208,   0.535738,   25.759434,   33.455544,   208.986191,   -39.175564,   487.993042,   0.064598,   876.246948,   578.024170
-0.196672,   0.215896,   0.273418,   -421.945038,   587.252441,   0.535738,   25.759434,   32.762955,   206.092117,   -40.784718,   489.267670,   0.062767,   877.890259,   573.720276
-0.198466,   0.217197,   0.275406,   -424.781952,   586.184326,   0.535738,   25.759434,   32.070362,   204.069290,   -42.666935,   490.197418,   0.061191,   879.233948,   569.859802
-0.200075,   0.218357,   0.277182,   -427.222473,   585.242554,   0.535738,   25.759434,   31.377773,   202.727615,   -44.707508,   490.882202,   0.059831,   880.373047,   566.433960
-0.201549,   0.219422,   0.278808,   -429.370239,   584.397217,   0.535738,   25.759434,   30.685183,   201.908417,   -46.881474,   491.382751,   0.058631,   881.363525,   563.337769
-0.202932,   0.220428,   0.280338,   -431.275238,   583.651062,   0.535739,   25.759434,   29.992590,   201.531113,   -49.155296,   491.739685,   0.057571,   882.247742,   560.552307
-0.204254,   0.221396,   0.281806,   -432.976257,   583.000305,   0.535738,   25.759434,   29.299999,   201.529602,   -51.505531,   491.981110,   0.056631,   883.053284,   558.053406
-0.205535,   0.222342,   0.283232,   -434.527039,   582.420410,   0.535737,   25.759434,   28.607409,   201.820602,   -53.927208,   492.131897,   0.055779,   883.801331,   555.766235
-0.206784,   0.223267,   0.284626,   -435.949585,   581.901489,   0.535738,   25.759434,   27.914818,   202.359772,   -56.407860,   492.204254,   0.055004,   884.500488,   553.663391
-0.208006,   0.224171,   0.285988,   -437.259979,   581.432617,   0.535738,   25.759434,   27.222227,   203.124435,   -58.951836,   492.201843,   0.054293,   885.153870,   551.718994
-0.209196,   0.225041,   0.287309,   -438.481323,   580.989136,   0.535738,   25.759434,   26.529636,   204.073715,   -61.565876,   492.126923,   0.053629,   885.757935,   549.877014
-0.210347,   0.225861,   0.288571,   -439.629852,   580.548462,   0.535738,   25.759434,   25.837046,   205.175446,   -64.256836,   491.978149,   0.052999,   886.305420,   548.088196
-0.211437,   0.226605,   0.289743,   -440.709442,   580.084717,   0.535738,   25.759434,   25.144455,   206.428925,   -67.053658,   491.738739,   0.052390,   886.776123,   546.308594
-0.212454,   0.227246,   0.290801,   -441.720459,   579.579529,   0.535738,   25.759434,   24.451864,   207.837524,   -69.978447,   491.393921,   0.051798,   887.153625,   544.508667
-0.213388,   0.227774,   0.291729,   -442.685303,   579.001099,   0.535738,   25.759434,   23.759274,   209.398361,   -73.082588,   490.929626,   0.051203,   887.427673,   542.614441
-0.214177,   0.228064,   0.292404,   -443.689636,   578.176208,   0.535738,   25.759434,   23.066683,   211.110184,   -76.623611,   490.259888,   0.050511,   887.512817,   540.249268
-0.214744,   0.228160,   0.292819,   -444.439575,   577.386719,   0.535738,   25.759434,   22.374092,   213.036545,   -80.089386,   489.440033,   0.049938,   887.420654,   538.173950
-0.214995,   0.227808,   0.292722,   -445.170105,   576.237854,   0.535739,   25.759434,   21.681501,   215.066803,   -83.999046,   488.322083,   0.049256,   886.989502,   535.488953
-0.214814,   0.226894,   0.291971,   -445.914734,   574.608459,   0.535738,   25.759434,   20.988911,   217.102417,   -88.408691,   486.859985,   0.048410,   886.138367,   531.939880
-0.214266,   0.225407,   0.290594,   -446.720032,   572.497803,   0.535738,   25.759434,   20.296320,   218.955017,   -93.177261,   485.123291,   0.047379,   884.906067,   527.454468
-0.212897,   0.223085,   0.288145,   -447.272095,   569.828125,   0.535737,   25.759434,   19.603729,   221.067154,   -98.511108,   482.794617,   0.046267,   882.963562,   522.201111
-0.210708,   0.219735,   0.284495,   -447.842712,   566.277161,   0.535738,   25.759434,   18.911140,   223.027451,   -104.593010,   479.870789,   0.044849,   880.247681,   515.288147
-0.207716,   0.215118,   0.279468,   -448.941162,   561.265503,   0.535738,   25.759434,   18.218550,   224.212738,   -111.888382,   476.328033,   0.042709,   876.665466,   504.990631
-0.203308,   0.208714,   0.272374,   -450.077148,   554.684875,   0.535738,   25.759434,   17.525959,   224.889816,   -120.282074,   471.805878,   0.040001,   871.720032,   491.405273
-0.197683,   0.200869,   0.263519,   -451.924652,   546.146301,   0.535738,   25.759434,   16.833368,   223.990173,   -129.768539,   466.636993,   0.036282,   865.637695,   472.496490
-0.189700,   0.190094,   0.251246,   -454.294647,   534.449219,   0.535738,   25.759434,   16.140778,   221.138779,   -140.984192,   460.022125,   0.031169,   857.214722,   444.949097
-0.180181,   0.177111,   0.236571,   -458.157043,   519.371155,   0.535738,   25.759434,   15.448186,   214.537247,   -153.323135,   452.835541,   0.024087,   847.117371,   403.668091
-0.168095,   0.160959,   0.218263,   -463.619232,   499.426849,   0.535738,   25.759434,   14.755594,   203.133301,   -167.325699,   444.471008,   0.014308,   834.214539,   334.286163
-0.153933,   0.141751,   0.196892,   -470.720764,   474.430786,   0.535738,   25.759434,   14.063004,   185.588821,   -181.878784,   435.396088,   0.001511,   818.527344,   155.063919
-0.136957,   0.119346,   0.172059,   -479.325073,   442.969574,   0.535738,   25.759434,   13.370413,   160.566818,   -196.922302,   425.096741,   -0.015168,   798.937439,   -326.434113
-0.118507,   0.094764,   0.146193,   -490.292633,   405.204315,   0.535738,   25.759434,   12.677823,   125.278336,   -210.366653,   415.107574,   -0.036518,   776.689148,   -424.852539
-0.100473,   0.069439,   0.122210,   -503.408417,   363.062378,   0.535738,   25.759434,   11.985232,   80.062996,   -220.409042,   406.352112,   -0.062073,   753.659668,   -490.754456
-0.088538,   0.048376,   0.104844,   -521.560059,   319.946411,   0.535738,   25.759434,   11.292642,   21.523766,   -223.137375,   402.577332,   -0.091347,   735.705017,   -542.420532
-0.095207,   0.041126,   0.102863,   -588.257080,   236.192184,   0.535738,   25.759434,   10.600051,   -119.276009,   -232.788895,   408.298737,   -0.159585,   735.373962,   -641.314514
-0.126087,   0.051671,   0.129516,   -711.680359,   53.425274,   0.535738,   25.759434,   9.907460,   -436.539734,   -221.715378,   367.163849,   -0.296575,   739.841187,   -735.482422
-0.169985,   0.071563,   0.172334,   -764.904541,   0.000000,   0.535738,   25.759434,   9.214869,   -608.343628,   -192.167328,   299.446564,   -0.356859,   747.737427,   -745.826355
-0.143348,   0.326214,   0.331101,   0.000000,   825.442749,   0.536220,   26.719685,   49.684025,   755.931946,   89.005959,   226.252747,   0.345209,   815.869873,   815.345581
-0.130696,   0.303069,   0.307481,   0.000000,   815.367126,   0.536219,   26.719685,   48.981129,   749.889648,   90.202324,   217.903595,   0.348605,   803.290161,   802.433350
-0.118972,   0.279805,   0.283891,   0.000000,   803.918762,   0.536220,   26.719685,   48.278233,   741.363342,   90.220207,   211.295349,   0.350680,   790.449585,   789.359192
-0.108425,   0.256918,   0.260820,   0.000000,   791.461914,   0.536220,   26.719685,   47.575333,   730.784302,   89.441696,   206.390152,   0.351661,   777.479004,   776.280518
-0.099434,   0.234383,   0.238385,   0.000000,   777.682312,   0.536220,   26.719685,   46.872437,   716.817932,   87.422028,   204.968887,   0.350546,   764.749390,   763.710815
-0.091170,   0.212431,   0.216670,   0.000000,   762.993591,   0.536219,   26.719685,   46.169540,   701.248047,   84.760651,   204.640778,   0.348524,   751.750244,   750.956970
-0.084562,   0.191257,   0.196374,   0.000000,   747.291443,   0.536220,   26.719685,   45.466640,   683.302551,   80.536903,   206.554749,   0.344465,   739.156311,   738.739380
-0.079191,   0.170695,   0.177858,   0.000000,   731.085388,   0.536220,   26.719685,   44.763744,   663.854675,   75.191742,   209.990936,   0.338793,   727.137512,   727.039429
-0.075037,   0.151528,   0.161856,   -2.901013,   714.895752,   0.536220,   26.719685,   44.060844,   643.621826,   68.372932,   214.663071,   0.331306,   716.350708,   716.337463
-0.073317,   0.135566,   0.149606,   -16.921892,   699.920105,   0.536219,   26.719685,   43.357948,   622.652222,   60.346004,   222.302826,   0.321321,   708.532654,   708.077759
-0.075123,   0.125076,   0.142676,   -36.210239,   687.369629,   0.536220,   26.719685,   42.655052,   600.425110,   50.734299,   235.269989,   0.307366,   706.171387,   704.078003
-0.080544,   0.120475,   0.141107,   -61.963551,   677.027344,   0.536219,   26.719685,   41.952156,   575.973572,   39.090218,   253.901459,   0.288746,   710.039795,   703.918396
-0.089306,   0.121474,   0.144899,   -99.290680,   666.801453,   0.536220,   26.719685,   41.249256,   543.159790,   24.350962,   281.839722,   0.262158,   721.588501,   705.974121
-0.100484,   0.127741,   0.154084,   -163.118469,   648.325317,   0.536219,   26.719685,   40.546360,   484.598053,   0.608825,   325.651459,   0.217553,   743.429382,   701.450317
-0.113138,   0.137841,   0.167760,   -242.154160,   622.132385,   0.536220,   26.719685,   39.843464,   401.782227,   -21.803991,   376.684875,   0.164018,   772.230103,   678.577332
-0.126229,   0.150114,   0.184032,   -300.818512,   603.776245,   0.536220,   26.719685,   39.140564,   333.338501,   -30.380774,   414.125580,   0.126563,   797.912659,   650.627014
-0.138784,   0.162412,   0.200312,   -333.728180,   597.236450,   0.536219,   26.719685,   38.437668,   294.820312,   -31.312037,   435.985321,   0.107519,   816.933594,   633.835571
-0.150037,   0.173402,   0.214949,   -353.348633,   596.290527,   0.536220,   26.719685,   37.734772,   272.299164,   -29.357265,   450.227142,   0.097410,   831.333923,   625.461914
-0.159638,   0.182552,   0.227274,   -368.421051,   595.697693,   0.536220,   26.719685,   37.031872,   254.376312,   -27.099657,   461.057556,   0.089906,   842.649048,   618.148560
-0.167368,   0.189565,   0.236921,   -381.449493,   593.871704,   0.536220,   26.719685,   36.328976,   238.194443,   -25.772255,   469.460602,   0.083175,   851.304504,   609.234131
-0.173292,   0.194675,   0.244104,   -392.425201,   591.228821,   0.536219,   26.719685,   35.626076,   224.381165,   -25.577543,   475.682648,   0.077267,   857.649231,   599.462463
-0.177709,   0.198212,   0.249252,   -401.179199,   588.390808,   0.536220,   26.719685,   34.923180,   213.761780,   -26.550171,   479.973694,   0.072387,   862.089722,   590.041565
-0.181048,   0.200693,   0.252999,   -407.901672,   585.854980,   0.536220,   26.719685,   34.220284,   206.177048,   -28.223724,   482.858307,   0.068559,   865.205811,   581.865784
-0.183664,   0.202539,   0.255860,   -413.145660,   583.675537,   0.536220,   26.719685,   33.517384,   200.908325,   -30.378479,   484.808960,   0.065527,   867.473083,   574.898254
-0.185827,   0.203998,   0.258174,   -417.523407,   581.680359,   0.536219,   26.719685,   32.814487,   197.102081,   -32.945137,   486.180634,   0.062952,   869.219788,   568.597778
-0.187682,   0.205215,   0.260130,   -421.188660,   579.927795,   0.536220,   26.719685,   32.111591,   194.438171,   -35.699047,   487.152710,   0.060776,   870.617676,   563.028320
-0.189346,   0.206294,   0.261875,   -424.380920,   578.343140,   0.536220,   26.719685,   31.408693,   192.631577,   -38.669380,   487.841003,   0.058868,   871.789917,   557.951965
-0.190879,   0.207289,   0.263482,   -427.194458,   576.923950,   0.536220,   26.719685,   30.705795,   191.481613,   -41.752110,   488.327728,   0.057183,   872.808777,   553.331177
-0.192328,   0.208236,   0.265005,   -429.729584,   575.635010,   0.536220,   26.719685,   30.002897,   190.840347,   -44.934940,   488.663483,   0.055664,   873.722290,   549.057556
-0.193725,   0.209161,   0.266481,   -432.023895,   574.475891,   0.536220,   26.719685,   29.299999,   190.649017,   -48.196995,   488.874847,   0.054295,   874.559631,   545.121887
-0.195093,   0.210077,   0.267936,   -434.129761,   573.427856,   0.536220,   26.719685,   28.597103,   190.817337,   -51.519260,   488.990112,   0.053045,   875.345764,   541.466248
-0.196444,   0.210990,   0.269379,   -436.100708,   572.455933,   0.536220,   26.719685,   27.894205,   191.263351,   -54.908112,   489.026123,   0.051880,   876.092529,   537.997986
-0.197786,   0.211899,   0.270814,   -437.949768,   571.554688,   0.536220,   26.719685,   27.191309,   191.960861,   -58.355930,   488.988953,   0.050792,   876.804993,   534.706116
-0.199119,   0.212795,   0.272236,   -439.696442,   570.703857,   0.536220,   26.719685,   26.488411,   192.883957,   -61.876572,   488.877747,   0.049766,   877.480652,   531.546265
-0.200436,   0.213666,   0.273632,   -441.377411,   569.865784,   0.536220,   26.719685,   25.785513,   193.970108,   -65.481743,   488.696625,   0.048774,   878.115540,   528.424072
-0.201717,   0.214476,   0.274965,   -442.993439,   569.014709,   0.536220,   26.719685,   25.082615,   195.210144,   -69.188881,   488.429535,   0.047807,   878.686890,   525.297302
-0.202933,   0.215190,   0.276192,   -444.543793,   568.121277,   0.536220,   26.719685,   24.379717,   196.596680,   -73.019196,   488.056824,   0.046854,   879.167664,   522.117371
-0.204042,   0.215738,   0.277239,   -446.048126,   567.119995,   0.536220,   26.719685,   23.676821,   198.072906,   -77.001045,   487.556122,   0.045886,   879.515076,   518.747925
-0.204987,   0.216046,   0.278020,   -447.544037,   565.918701,   0.536220,   26.719685,   22.973923,   199.591965,   -81.217300,   486.891388,   0.044855,   879.677917,   514.978821
-0.205763,   0.216140,   0.278555,   -448.962036,   564.586304,   0.536220,   26.719685,   22.271025,   201.254929,   -85.630692,   486.049591,   0.043814,   879.660400,   510.999664
-0.206285,   0.215876,   0.278693,   -450.303864,   562.995789,   0.536220,   26.719685,   21.568127,   203.152145,   -90.460236,   484.914398,   0.042718,   879.350281,   506.572113
-0.206446,   0.215165,   0.278308,   -451.518463,   561.127869,   0.536220,   26.719685,   20.865231,   205.148483,   -95.539070,   483.487244,   0.041581,   878.688293,   501.706879
-0.206194,   0.213958,   0.277336,   -452.801392,   558.770874,   0.536220,   26.719685,   20.162333,   206.997269,   -101.027817,   481.767303,   0.040248,   877.648071,   495.753418
-0.205415,   0.211785,   0.275365,   -454.378662,   555.385193,   0.536219,   26.719685,   19.459436,   208.650955,   -107.644417,   479.473755,   0.038437,   875.938293,   487.325989
-0.203876,   0.208847,   0.272425,   -455.592529,   551.599792,   0.536220,   26.719685,   18.756538,   210.456146,   -114.448853,   476.674194,   0.036634,   873.574097,   478.352081
-0.201514,   0.204638,   0.268134,   -457.333221,   546.296936,   0.536220,   26.719685,   18.053640,   211.657990,   -122.694260,   473.149567,   0.034074,   870.306702,   465.276642
-0.197829,   0.198884,   0.261980,   -459.368408,   539.329773,   0.536220,   26.719685,   17.350744,   211.929993,   -131.968613,   468.810150,   0.030784,   865.821594,   447.573090
-0.192702,   0.191045,   0.253569,   -461.896118,   530.205078,   0.536220,   26.719685,   16.647846,   210.545044,   -142.236099,   463.629761,   0.026481,   859.863403,   422.835052
-0.185743,   0.180958,   0.242542,   -465.629242,   517.849243,   0.536220,   26.719685,   15.944948,   206.532913,   -154.312912,   457.444061,   0.020428,   852.117493,   384.409821
-0.177016,   0.168268,   0.228807,   -470.868591,   501.796326,   0.536220,   26.719685,   15.242051,   198.489685,   -167.561935,   450.578308,   0.012237,   842.494446,   320.474060
-0.166115,   0.152551,   0.211960,   -478.068085,   480.906281,   0.536220,   26.719685,   14.539153,   185.030640,   -182.192444,   442.938782,   0.001139,   830.497375,   143.198471
-0.152607,   0.133410,   0.191693,   -487.592133,   453.831543,   0.536220,   26.719685,   13.836256,   164.520935,   -198.281525,   434.353790,   -0.013800,   815.471558,   -322.867004
-0.136899,   0.110751,   0.169132,   -499.581268,   420.315308,   0.536220,   26.719685,   13.133358,   135.711365,   -214.977325,   425.213806,   -0.033125,   797.639038,   -422.460724
-0.120647,   0.086432,   0.147363,   -515.785522,   380.582611,   0.536220,   26.719685,   12.430461,   96.072929,   -231.275848,   417.228546,   -0.057837,   779.215515,   -495.835266
-0.108159,   0.063835,   0.130421,   -541.444946,   333.098389,   0.536220,   26.719685,   11.727564,   38.300652,   -246.647202,   413.409821,   -0.090841,   764.507385,   -562.666870
-0.107809,   0.049044,   0.123691,   -575.737488,   284.930939,   0.536220,   26.719685,   11.024666,   -30.138580,   -260.667969,   414.610168,   -0.127646,   759.410767,   -620.813843
-0.133091,   0.052863,   0.140870,   -700.210022,   126.959908,   0.536220,   26.719685,   10.321769,   -288.126892,   -285.123230,   413.582245,   -0.247657,   771.564331,   -747.520142
-0.180433,   0.071359,   0.186363,   -789.107178,   0.000000,   0.536220,   26.719685,   9.618871,   -551.367310,   -261.044037,   354.318573,   -0.348203,   777.716980,   -776.930725
-0.240439,   0.099448,   0.246266,   -826.038574,   0.000000,   0.536220,   26.719685,   8.915974,   -668.896179,   -220.024765,   308.594330,   -0.372029,   796.461304,   -790.847473
-0.149488,   0.342504,   0.350214,   0.000000,   839.555603,   0.536501,   27.665697,   50.023975,   748.552734,   107.855980,   258.044098,   0.343419,   831.257141,   830.872681
-0.137597,   0.322046,   0.329032,   0.000000,   831.995544,   0.536499,   27.665697,   49.309357,   745.388245,   110.823967,   249.917404,   0.347988,   820.155334,   819.350342
-0.126311,   0.300564,   0.306937,   0.000000,   822.910461,   0.536501,   27.665697,   48.594734,   740.290405,   112.712280,   242.232529,   0.351775,   808.284546,   807.022766
-0.115589,   0.278667,   0.284507,   0.000000,   812.421448,   0.536501,   27.665697,   47.880116,   733.218323,   113.439987,   235.290253,   0.354611,   795.855469,   794.196045
-0.106177,   0.257071,   0.262638,   0.000000,   800.819763,   0.536499,   27.665697,   47.165497,   722.996704,   113.197121,   231.328583,   0.355646,   783.731689,   781.932495
-0.097618,   0.235667,   0.241087,   0.000000,   788.193298,   0.536499,   27.665697,   46.450878,   711.030151,   112.211571,   228.387604,   0.355796,   771.266602,   769.471863
-0.090309,   0.214625,   0.220205,   0.000000,   774.272583,   0.536501,   27.665697,   45.736256,   696.268066,   109.794197,   227.667084,   0.354059,   758.877258,   757.377014
-0.084238,   0.194546,   0.200894,   0.000000,   759.934814,   0.536501,   27.665697,   45.021637,   680.047546,   106.584198,   228.460922,   0.351044,   746.944214,   745.869690
-0.079277,   0.174606,   0.182819,   0.000000,   744.598816,   0.536501,   27.665697,   44.307014,   662.035339,   101.649406,   230.399918,   0.346228,   735.241638,   734.683960
-0.075274,   0.155370,   0.166354,   0.000000,   728.528259,   0.536499,   27.665697,   43.592396,   642.869995,   94.829529,   232.983932,   0.339647,   723.986145,   723.855408
-0.073318,   0.138947,   0.153249,   -4.108384,   713.273804,   0.536501,   27.665697,   42.877777,   622.383911,   86.781487,   238.624817,   0.330458,   715.336792,   715.310242
-0.074629,   0.127407,   0.144906,   -22.277266,   699.917480,   0.536499,   27.665697,   42.163158,   600.625000,   77.015190,   248.695587,   0.317552,   711.317749,   710.532227
-0.079313,   0.121557,   0.141912,   -46.501629,   689.169617,   0.536501,   27.665697,   41.448536,   576.318604,   66.349411,   265.114899,   0.300218,   713.557739,   710.136719
-0.086941,   0.120580,   0.143359,   -81.024811,   678.059570,   0.536499,   27.665697,   40.733917,   545.073242,   51.961525,   288.552399,   0.275643,   721.989929,   711.653381
-0.097237,   0.125118,   0.150516,   -140.140091,   660.813110,   0.536501,   27.665697,   40.019299,   490.506836,   30.166201,   327.724182,   0.234255,   740.891113,   710.147522
-0.109039,   0.133786,   0.162437,   -222.389343,   632.815247,   0.536501,   27.665697,   39.304676,   404.799011,   5.626881,   378.165466,   0.178013,   768.533325,   690.382019
-0.121337,   0.144792,   0.177193,   -288.600281,   609.475586,   0.536499,   27.665697,   38.590057,   327.565948,   -6.690657,   416.777161,   0.134686,   794.131897,   659.634766
-0.133100,   0.156058,   0.192211,   -325.237732,   599.758179,   0.536501,   27.665697,   37.875439,   284.217468,   -9.697022,   438.529266,   0.112590,   812.744385,   639.605103
-0.143613,   0.166138,   0.205721,   -346.452820,   597.013489,   0.536499,   27.665697,   37.160820,   259.460663,   -8.900011,   452.247498,   0.101039,   826.614563,   629.072144
-0.152365,   0.174158,   0.216680,   -363.214996,   594.189697,   0.536501,   27.665697,   36.446198,   239.701340,   -8.726637,   462.305969,   0.091970,   837.141052,   618.533813
-0.159198,   0.180003,   0.224910,   -377.575104,   590.273499,   0.536499,   27.665697,   35.731579,   222.271179,   -9.572764,   469.834900,   0.083914,   844.901367,   606.361511
-0.164202,   0.184031,   0.230750,   -389.094238,   586.159485,   0.536501,   27.665697,   35.016960,   208.237885,   -11.172626,   475.126007,   0.077251,   850.322632,   594.302673
-0.167871,   0.186712,   0.234828,   -398.030151,   582.305725,   0.536501,   27.665697,   34.302338,   198.128677,   -13.853092,   478.571350,   0.071928,   853.980774,   583.293640
-0.170706,   0.188614,   0.237853,   -404.930634,   579.006165,   0.536501,   27.665697,   33.587719,   191.262024,   -17.186497,   480.801636,   0.067743,   856.547913,   573.813232
-0.173021,   0.190081,   0.240258,   -410.490417,   576.165710,   0.536498,   27.665697,   32.873100,   186.493851,   -20.818569,   482.315216,   0.064329,   858.475281,   565.535278
-0.174986,   0.191269,   0.242256,   -415.272827,   573.542419,   0.536502,   27.665697,   32.158482,   183.072189,   -24.802620,   483.358978,   0.061346,   859.987793,   557.845703
-0.176720,   0.192291,   0.243999,   -419.338196,   571.244446,   0.536500,   27.665697,   31.443859,   180.766037,   -28.859804,   484.074097,   0.058795,   861.225464,   550.965576
-0.178308,   0.193215,   0.245585,   -422.966736,   569.129089,   0.536500,   27.665697,   30.729240,   179.239868,   -33.077526,   484.555328,   0.056502,   862.282715,   544.522156
-0.179797,   0.194081,   0.247073,   -426.242310,   567.188843,   0.536501,   27.665697,   30.014620,   178.299713,   -37.353149,   484.870941,   0.054427,   863.218140,   538.480530
-0.181222,   0.194914,   0.248499,   -429.240784,   565.394592,   0.536499,   27.665697,   29.299999,   177.845535,   -41.691727,   485.052307,   0.052524,   864.065491,   532.764221
-0.182612,   0.195733,   0.249895,   -432.008209,   563.736694,   0.536501,   27.665697,   28.585381,   177.805862,   -46.077351,   485.124786,   0.050771,   864.852051,   527.344482
-0.183981,   0.196543,   0.251273,   -434.608185,   562.176880,   0.536500,   27.665697,   27.870760,   178.069733,   -50.501057,   485.112305,   0.049126,   865.594421,   522.119019
-0.185336,   0.197343,   0.252637,   -437.081329,   560.684998,   0.536501,   27.665697,   27.156141,   178.578461,   -54.974827,   485.023315,   0.047560,   866.298279,   517.011353
-0.186680,   0.198125,   0.253983,   -439.436493,   559.251892,   0.536499,   27.665697,   26.441521,   179.316650,   -59.501225,   484.856812,   0.046067,   866.961853,   512.007996
-0.188008,   0.198876,   0.255299,   -441.706451,   557.843506,   0.536501,   27.665697,   25.726900,   180.231903,   -64.094864,   484.614410,   0.044621,   867.581116,   507.022034
-0.189303,   0.199568,   0.256556,   -443.935516,   556.401245,   0.536500,   27.665697,   25.012281,   181.255722,   -68.790001,   484.290924,   0.043183,   868.140198,   501.901215
-0.190549,   0.200169,   0.257722,   -446.111115,   554.911560,   0.536500,   27.665697,   24.297661,   182.404190,   -73.603752,   483.866272,   0.041752,   868.616211,   496.630646
-0.191704,   0.200636,   0.258743,   -448.228027,   553.335999,   0.536500,   27.665697,   23.583042,   183.696533,   -78.588554,   483.305542,   0.040319,   868.970520,   491.139252
-0.192732,   0.200929,   0.259569,   -450.290436,   551.638611,   0.536501,   27.665697,   22.868422,   185.080536,   -83.732361,   482.597504,   0.038868,   869.174438,   485.343719
-0.193632,   0.200896,   0.260093,   -452.531342,   549.520813,   0.536499,   27.665697,   22.153801,   186.398819,   -89.409370,   481.673737,   0.037197,   869.156555,   478.338257
-0.194257,   0.200538,   0.260231,   -454.649384,   547.191772,   0.536501,   27.665697,   21.439182,   187.879028,   -95.336632,   480.487946,   0.035504,   868.852905,   470.861298
-0.194557,   0.199789,   0.259918,   -456.525299,   544.722839,   0.536500,   27.665697,   20.724562,   189.538895,   -101.341370,   479.031952,   0.033861,   868.226929,   463.204346
-0.194482,   0.198501,   0.259013,   -458.533600,   541.652893,   0.536501,   27.665697,   20.009941,   191.099655,   -107.980392,   477.211731,   0.031950,   867.183350,   453.831116
-0.193915,   0.196390,   0.257257,   -460.935486,   537.536499,   0.536499,   27.665697,   19.295322,   192.297287,   -115.696251,   474.891113,   0.029500,   865.549927,   441.155365
-0.192518,   0.193252,   0.254314,   -463.222961,   532.619019,   0.536501,   27.665697,   18.580702,   193.169800,   -123.773750,   472.029663,   0.026800,   863.122192,   426.132416
-0.189957,   0.188703,   0.249693,   -465.359650,   526.517761,   0.536500,   27.665697,   17.866083,   193.677475,   -132.519379,   468.352539,   0.023718,   859.535156,   407.486298
-0.186722,   0.182856,   0.243854,   -468.593903,   518.360657,   0.536500,   27.665697,   17.151463,   192.832794,   -143.066025,   464.018127,   0.019400,   855.089844,   379.187897
-0.181695,   0.175151,   0.235698,   -471.984497,   508.136536,   0.536500,   27.665697,   16.436844,   190.674545,   -154.522507,   458.660065,   0.014194,   849.002136,   339.307251
-0.175274,   0.164982,   0.225164,   -476.938385,   494.440094,   0.536500,   27.665697,   15.722223,   184.961212,   -167.459518,   452.596893,   0.006935,   841.283936,   264.848816
-0.166938,   0.152267,   0.212001,   -483.737274,   476.564636,   0.536501,   27.665697,   15.007604,   174.570724,   -181.743378,   445.875549,   -0.002875,   831.653564,   -195.230881
-0.156746,   0.136474,   0.196152,   -493.165619,   453.236389,   0.536500,   27.665697,   14.292984,   157.841248,   -197.770477,   438.525116,   -0.016234,   819.851318,   -342.638672
-0.143711,   0.116797,   0.177188,   -504.511383,   423.782471,   0.536501,   27.665697,   13.578364,   134.777496,   -215.506393,   429.834473,   -0.033431,   804.938782,   -427.624298
-0.129380,   0.094903,   0.157913,   -520.353088,   387.506104,   0.536500,   27.665697,   12.863744,   101.474846,   -234.321838,   421.737152,   -0.056122,   789.029968,   -497.166962
-0.116715,   0.072370,   0.141430,   -542.233521,   345.181366,   0.536500,   27.665697,   12.149125,   56.709892,   -253.762054,   415.665833,   -0.084774,   774.813721,   -557.870972
-0.112280,   0.054914,   0.132714,   -576.000305,   296.238617,   0.536500,   27.665697,   11.434505,   -8.082984,   -271.678741,   415.727692,   -0.121389,   768.223389,   -618.594910
-0.126961,   0.050359,   0.139404,   -650.451416,   209.076004,   0.536500,   27.665697,   10.719885,   -137.085754,   -304.289642,   421.553741,   -0.189497,   776.397827,   -708.796936
-0.167642,   0.063308,   0.175441,   -777.935059,   15.999584,   0.536500,   27.665697,   10.005265,   -457.173645,   -304.761810,   389.584015,   -0.323104,   786.056946,   -785.690491
-0.225192,   0.086867,   0.233340,   -834.379150,   0.000000,   0.536500,   27.665697,   9.290645,   -632.093018,   -277.231812,   335.712921,   -0.379101,   799.545044,   -791.584595
-0.294540,   0.120530,   0.303898,   -863.425598,   0.000000,   0.536500,   27.665697,   8.576026,   -708.296082,   -235.165878,   312.188416,   -0.380588,   826.319580,   -817.530762
-0.149296,   0.344139,   0.354598,   0.000000,   846.470215,   0.536478,   28.595657,   50.404324,   731.834656,   126.795853,   287.228577,   0.340542,   840.455994,   840.258057
-0.138616,   0.326652,   0.336184,   0.000000,   840.917236,   0.536478,   28.595657,   49.676586,   730.484741,   131.139282,   279.968811,   0.345718,   830.757385,   830.176453
-0.128163,   0.308407,   0.317090,   0.000000,   834.380737,   0.536478,   28.595657,   48.948853,   728.448242,   134.858978,   272.216949,   0.350810,   820.300049,   819.151367
-0.118154,   0.289050,   0.296981,   0.000000,   826.331848,   0.536478,   28.595657,   48.221115,   724.670227,   137.483139,   264.630829,   0.355227,   809.016052,   807.228882
-0.108653,   0.268925,   0.276228,   0.000000,   816.853699,   0.536477,   28.595657,   47.493382,   718.403931,   139.272400,   258.278412,   0.358608,   797.226685,   794.869995
-0.100178,   0.248906,   0.255762,   0.000000,   806.198059,   0.536478,   28.595657,   46.765648,   709.852661,   139.859818,   253.374451,   0.360653,   785.345459,   782.626282
-0.092431,   0.229001,   0.235556,   0.000000,   794.346924,   0.536478,   28.595657,   46.037910,   698.840881,   139.396622,   250.103409,   0.361308,   773.336365,   770.526550
-0.085949,   0.209400,   0.215991,   0.000000,   781.325928,   0.536478,   28.595657,   45.310177,   685.336548,   137.568176,   248.583801,   0.360265,   761.388489,   758.827820
-0.080849,   0.190454,   0.197735,   0.000000,   767.512085,   0.536478,   28.595657,   44.582439,   669.656189,   134.340973,   248.916718,   0.357363,   749.935486,   747.934753
-0.076219,   0.171373,   0.180165,   0.000000,   752.567810,   0.536478,   28.595657,   43.854706,   653.211060,   129.396988,   248.829681,   0.353478,   738.006348,   736.628845
-0.072554,   0.152827,   0.164026,   0.000000,   736.874451,   0.536478,   28.595657,   43.126968,   635.264648,   122.774673,   249.797028,   0.347793,   726.523254,   725.829163
-0.070636,   0.136693,   0.150624,   0.000000,   721.438721,   0.536477,   28.595657,   42.399235,   616.117859,   114.420380,   252.847183,   0.339659,   716.932251,   716.802307
-0.071926,   0.125304,   0.142332,   -7.787090,   708.627197,   0.536478,   28.595657,   41.671501,   595.412781,   105.427353,   261.325348,   0.327854,   712.552673,   712.456909
-0.076131,   0.118570,   0.138008,   -31.455124,   696.688782,   0.536478,   28.595657,   40.943764,   571.409546,   93.824135,   274.820740,   0.311030,   712.937012,   711.373169
-0.082889,   0.116561,   0.138211,   -63.762009,   685.627563,   0.536478,   28.595657,   40.216030,   541.384521,   80.481049,   295.445740,   0.288049,   719.630310,   713.233459
-0.092015,   0.119319,   0.143195,   -120.661446,   667.980286,   0.536478,   28.595657,   39.488293,   488.545685,   58.773178,   330.624939,   0.247958,   735.769226,   712.998596
-0.102935,   0.126754,   0.153553,   -205.750854,   638.530823,   0.536478,   28.595657,   38.760559,   399.496735,   33.283241,   380.361420,   0.189189,   762.517700,   695.838928
-0.114561,   0.136846,   0.167195,   -277.881134,   611.549500,   0.536478,   28.595657,   38.032822,   314.960327,   18.708040,   419.321320,   0.141122,   788.129944,   663.665100
-0.125746,   0.147440,   0.181369,   -317.045074,   599.701111,   0.536477,   28.595657,   37.305088,   268.916321,   13.739745,   440.258026,   0.116838,   806.406433,   641.848389
-0.135590,   0.156640,   0.193816,   -339.999390,   594.960754,   0.536478,   28.595657,   36.577354,   242.767502,   12.193848,   453.041443,   0.103684,   819.673157,   628.834839
-0.143404,   0.163540,   0.203387,   -358.235321,   590.035522,   0.536478,   28.595657,   35.849617,   221.472595,   10.327622,   462.232483,   0.093164,   829.364868,   615.289307
-0.149187,   0.168241,   0.210160,   -373.411072,   584.360168,   0.536478,   28.595657,   35.121883,   203.346481,   7.602607,   468.777679,   0.084097,   836.133484,   600.485046
-0.153298,   0.171234,   0.214712,   -385.183014,   578.951782,   0.536478,   28.595657,   34.394146,   189.832138,   3.936635,   473.021881,   0.076840,   840.567383,   586.479431
-0.156333,   0.173208,   0.217899,   -394.081116,   574.342773,   0.536478,   28.595657,   33.666412,   180.850662,   -0.589012,   475.637573,   0.071235,   843.508850,   574.341980
-0.158758,   0.174655,   0.220352,   -401.171844,   570.376953,   0.536477,   28.595657,   32.938675,   174.804276,   -5.599158,   477.326324,   0.066698,   845.628723,   563.650269
-0.160794,   0.175797,   0.222357,   -407.056122,   566.916931,   0.536479,   28.595657,   32.210941,   170.546356,   -10.685537,   478.481598,   0.062893,   847.264160,   554.066833
-0.162568,   0.176744,   0.224070,   -412.227722,   563.708130,   0.536478,   28.595657,   31.483206,   167.556931,   -16.076546,   479.251892,   0.059504,   848.572144,   544.999084
-0.164177,   0.177583,   0.225609,   -416.706451,   560.870361,   0.536479,   28.595657,   30.755470,   165.611237,   -21.447338,   479.756592,   0.056557,   849.669434,   536.726990
-0.165676,   0.178354,   0.227035,   -420.805908,   558.205261,   0.536478,   28.595657,   30.027735,   164.316544,   -26.917198,   480.076172,   0.053842,   850.627319,   528.753967
-0.167097,   0.179079,   0.228384,   -424.563446,   555.721863,   0.536478,   28.595657,   29.299999,   163.564713,   -32.406281,   480.248566,   0.051345,   851.481140,   521.110291
-0.168472,   0.179779,   0.229687,   -428.051941,   553.390137,   0.536478,   28.595657,   28.572264,   163.266312,   -37.928085,   480.299225,   0.049022,   852.261047,   513.719360
-0.169818,   0.180461,   0.230963,   -431.340118,   551.170410,   0.536478,   28.595657,   27.844528,   163.311996,   -43.481731,   480.250793,   0.046828,   852.985962,   506.475403
-0.171143,   0.181123,   0.232211,   -434.487885,   549.018250,   0.536478,   28.595657,   27.116795,   163.600418,   -49.070065,   480.118622,   0.044721,   853.664185,   499.256958
-0.172451,   0.181759,   0.233433,   -437.516113,   546.915405,   0.536478,   28.595657,   26.389059,   164.110489,   -54.711216,   479.901672,   0.042686,   854.295654,   492.017426
-0.173741,   0.182358,   0.234620,   -440.451813,   544.834167,   0.536478,   28.595657,   25.661324,   164.801147,   -60.418816,   479.599945,   0.040701,   854.877319,   484.678864
-0.175002,   0.182893,   0.235748,   -443.333679,   542.723206,   0.536478,   28.595657,   24.933588,   165.604385,   -66.214874,   479.209747,   0.038730,   855.395020,   477.092010
-0.176210,   0.183336,   0.236782,   -446.197571,   540.526489,   0.536478,   28.595657,   24.205853,   166.467270,   -72.138359,   478.720093,   0.036740,   855.828674,   469.082428
-0.177341,   0.183635,   0.237673,   -449.014008,   538.228149,   0.536478,   28.595657,   23.478117,   167.422073,   -78.207954,   478.098572,   0.034735,   856.139648,   460.623871
-0.178345,   0.183737,   0.238358,   -451.785736,   535.773560,   0.536478,   28.595657,   22.750381,   168.466217,   -84.478424,   477.308167,   0.032695,   856.281799,   451.559845
-0.179155,   0.183528,   0.238713,   -454.652222,   532.938293,   0.536478,   28.595657,   22.022648,   169.446045,   -91.159958,   476.292877,   0.030479,   856.173767,   441.125885
-0.179677,   0.182880,   0.238602,   -457.556854,   529.676575,   0.536478,   28.595657,   21.294912,   170.291534,   -98.171799,   475.015076,   0.028093,   855.729309,   429.137268
-0.179844,   0.181803,   0.237990,   -460.357239,   526.084351,   0.536478,   28.595657,   20.567177,   171.131760,   -105.404610,   473.443420,   0.025627,   854.915344,   415.855072
-0.179536,   0.179976,   0.236590,   -463.092743,   521.882019,   0.536478,   28.595657,   19.839441,   171.926544,   -113.137238,   471.411163,   0.022960,   853.519470,   400.291504
-0.178653,   0.177512,   0.234413,   -465.885498,   516.957153,   0.536478,   28.595657,   19.111706,   172.511230,   -121.439552,   468.927673,   0.019992,   851.549683,   381.408295
-0.177507,   0.174245,   0.231583,   -469.735901,   510.430511,   0.536478,   28.595657,   18.383970,   172.137268,   -131.442657,   465.984283,   0.015976,   849.092834,   352.968048
-0.174978,   0.169540,   0.227002,   -472.687256,   503.241180,   0.536478,   28.595657,   17.656237,   171.956726,   -141.402786,   462.126099,   0.012048,   845.316895,   319.891541
-0.171102,   0.163053,   0.220359,   -476.286835,   493.646057,   0.536478,   28.595657,   16.928501,   170.076462,   -152.717255,   457.322113,   0.006888,   840.031372,   263.865875
-0.166388,   0.154996,   0.212322,   -481.458466,   481.225342,   0.536479,   28.595657,   16.200766,   165.505081,   -165.738205,   451.950775,   -0.000093,   833.708618,   -62.404442
-0.159947,   0.144640,   0.201934,   -487.503662,   465.720123,   0.536478,   28.595657,   15.473030,   157.695023,   -179.478561,   445.799713,   -0.008795,   825.587830,   -281.329254
-0.152025,   0.131684,   0.189357,   -495.933838,   445.500336,   0.536478,   28.595657,   14.745295,   144.481247,   -194.914764,   439.063965,   -0.020610,   815.695801,   -369.066284
-0.141923,   0.115653,   0.174376,   -506.318573,   420.161224,   0.536478,   28.595657,   14.017559,   125.592880,   -211.750229,   431.440735,   -0.035742,   803.510681,   -436.415100
-0.129336,   0.095933,   0.157255,   -520.788818,   386.746521,   0.536478,   28.595657,   13.289824,   98.127739,   -232.170044,   422.647552,   -0.056644,   788.801086,   -498.527588
-0.117303,   0.075242,   0.141936,   -539.648804,   348.527313,   0.536478,   28.595657,   12.562089,   61.279633,   -252.401093,   415.469971,   -0.082193,   775.096375,   -552.594604
-0.110212,   0.057034,   0.131625,   -570.600281,   300.380737,   0.536478,   28.595657,   11.834353,   4.330611,   -274.550171,   412.563171,   -0.117543,   766.296692,   -611.043762
-0.116457,   0.047534,   0.132085,   -612.741699,   249.191986,   0.536478,   28.595657,   11.106618,   -65.772896,   -297.776825,   415.061401,   -0.157735,   768.270386,   -667.827820
-0.145918,   0.053292,   0.154781,   -737.731506,   83.638206,   0.536478,   28.595657,   10.378882,   -320.466797,   -333.626495,   410.632141,   -0.278489,   782.908447,   -772.761536
-0.195119,   0.071158,   0.203417,   -821.559448,   0.000000,   0.536478,   28.595657,   9.651148,   -589.585754,   -307.056152,   345.472443,   -0.379912,   786.709961,   -778.587830
-0.255802,   0.097271,   0.265934,   -859.843384,   0.000000,   0.536478,   28.595657,   8.923412,   -685.715210,   -283.681244,   316.742889,   -0.398615,   810.638000,   -793.726807
-0.327584,   0.133414,   0.340285,   -882.216309,   0.000000,   0.536478,   28.595657,   8.195677,   -724.106445,   -240.049896,   318.642212,   -0.380683,   844.233948,   -835.217285
-0.142590,   0.331092,   0.343870,   0.000000,   846.882202,   0.536039,   29.507784,   50.824341,   707.012451,   147.347610,   312.799835,   0.337758,   843.168152,   843.093506
-0.133135,   0.316382,   0.328029,   0.000000,   842.404602,   0.536039,   29.507784,   50.082123,   706.421814,   151.863297,   306.433929,   0.342802,   834.577698,   834.237671
-0.123944,   0.300938,   0.311556,   0.000000,   837.219543,   0.536040,   29.507784,   49.339905,   705.775391,   156.005020,   299.235138,   0.348104,   825.213318,   824.390320
-0.115088,   0.284676,   0.294389,   0.000000,   831.003784,   0.536039,   29.507784,   48.597683,   704.066589,   159.520966,   291.952271,   0.353119,   815.200378,   813.733337
-0.106372,   0.267474,   0.276364,   0.000000,   823.577698,   0.536039,   29.507784,   47.855469,   700.857727,   162.452347,   284.839050,   0.357724,   804.447754,   802.235657
-0.098323,   0.249427,   0.257596,   0.000000,   814.486389,   0.536040,   29.507784,   47.113247,   695.365112,   163.939270,   278.377411,   0.361191,   793.027771,   790.170837
-0.090905,   0.231237,   0.238824,   0.000000,   804.424622,   0.536039,   29.507784,   46.371029,   687.931885,   164.953568,   272.935425,   0.363864,   781.322205,   777.930176
-0.084292,   0.213444,   0.220628,   0.000000,   793.398865,   0.536039,   29.507784,   45.628811,   678.527710,   164.819351,   268.711060,   0.365255,   769.641296,   765.981934
-0.078875,   0.196492,   0.203633,   0.000000,   781.914246,   0.536040,   29.507784,   44.886593,   667.158752,   163.941788,   266.300079,   0.365230,   758.518066,   754.917603
-0.074651,   0.179865,   0.187537,   0.000000,   769.534485,   0.536039,   29.507784,   44.144371,   654.298340,   161.397446,   264.725098,   0.363732,   747.523560,   744.306702
-0.070833,   0.162357,   0.171321,   0.000000,   755.121582,   0.536039,   29.507784,   43.402153,   639.095581,   156.268387,   263.595428,   0.360304,   735.826172,   733.344238
-0.067346,   0.144593,   0.155553,   0.000000,   739.324341,   0.536040,   29.507784,   42.659935,   622.363708,   149.348633,   262.686035,   0.355460,   723.674133,   722.040710
-0.065934,   0.129361,   0.142672,   0.000000,   723.750000,   0.536039,   29.507784,   41.917717,   603.815125,   140.299805,   264.529785,   0.347497,   713.785400,   713.131226
-0.067005,   0.118354,   0.134287,   0.000000,   711.083313,   0.536039,   29.507784,   41.175499,   584.282349,   131.899673,   271.000061,   0.336925,   708.547668,   708.506409
-0.070882,   0.111603,   0.129699,   -17.660776,   698.938965,   0.536040,   29.507784,   40.433281,   561.459351,   119.818810,   282.165192,   0.320782,   707.934570,   707.438660
-0.077487,   0.109428,   0.129464,   -49.940624,   687.347046,   0.536039,   29.507784,   39.691059,   532.345154,   105.061295,   300.425385,   0.297730,   713.629150,   709.681641
-0.086051,   0.111690,   0.133797,   -106.079689,   670.074280,   0.536039,   29.507784,   38.948841,   480.186371,   83.808197,   333.653748,   0.257911,   728.926392,   711.249207
-0.096043,   0.118155,   0.142910,   -194.804031,   638.820923,   0.536040,   29.507784,   38.206623,   385.881439,   58.135437,   383.247009,   0.195955,   755.304993,   695.335449
-0.106769,   0.127257,   0.155308,   -271.373108,   608.409241,   0.536039,   29.507784,   37.464405,   295.630432,   41.405735,   421.125519,   0.143972,   780.327576,   660.916260
-0.117222,   0.137088,   0.168500,   -311.055298,   595.512085,   0.536039,   29.507784,   36.722187,   249.261520,   35.195263,   440.465668,   0.118837,   797.889221,   638.357483
-0.126127,   0.145257,   0.179636,   -334.887360,   589.206604,   0.536040,   29.507784,   35.979969,   222.326904,   31.992302,   452.140015,   0.104616,   810.328186,   623.396790
-0.132898,   0.150987,   0.187732,   -354.184875,   582.350464,   0.536039,   29.507784,   35.237751,   199.868851,   28.296751,   460.342651,   0.092858,   819.047424,   607.005310
-0.137647,   0.154567,   0.193079,   -369.700897,   575.162720,   0.536039,   29.507784,   34.495529,   182.180084,   23.281754,   465.703400,   0.083045,   824.699402,   589.899536
-0.140991,   0.156758,   0.196600,   -381.184906,   569.040100,   0.536039,   29.507784,   33.753311,   170.272415,   17.582767,   468.938538,   0.075602,   828.262085,   574.883057
-0.143559,   0.158258,   0.199174,   -389.876587,   564.028809,   0.536040,   29.507784,   33.011093,   162.750397,   11.401817,   470.911102,   0.069883,   830.682739,   562.117249
-0.145690,   0.159405,   0.201240,   -397.208862,   559.511902,   0.536039,   29.507784,   32.268875,   157.485809,   4.817220,   472.230591,   0.064985,   832.509155,   550.240845
-0.147512,   0.160318,   0.202959,   -403.380005,   555.557434,   0.536040,   29.507784,   31.526657,   153.805237,   -1.627844,   473.128296,   0.060826,   833.942566,   539.455261
-0.149137,   0.161089,   0.204462,   -408.883179,   551.877991,   0.536040,   29.507784,   30.784437,   151.324539,   -8.329746,   473.701508,   0.057076,   835.109802,   529.108154
-0.150634,   0.161780,   0.205833,   -413.789612,   548.528381,   0.536039,   29.507784,   30.042219,   149.691101,   -14.952331,   474.064453,   0.053717,   836.110352,   519.332031
-0.152036,   0.162403,   0.207100,   -418.361176,   545.320923,   0.536040,   29.507784,   29.299999,   148.594971,   -21.635193,   474.263885,   0.050562,   836.983948,   509.662415
-0.153372,   0.162983,   0.208298,   -422.593170,   542.297180,   0.536040,   29.507784,   28.557781,   148.014511,   -28.310514,   474.321320,   0.047629,   837.760315,   500.216370
-0.154667,   0.163530,   0.209450,   -426.580841,   539.392578,   0.536039,   29.507784,   27.815563,   147.805969,   -34.994228,   474.259613,   0.044849,   838.456970,   490.824432
-0.155924,   0.164038,   0.210553,   -430.410950,   536.554199,   0.536040,   29.507784,   27.073343,   147.842560,   -41.699280,   474.103241,   0.042166,   839.096436,   481.313812
-0.157145,   0.164499,   0.211602,   -434.109528,   533.749390,   0.536040,   29.507784,   26.331125,   148.075851,   -48.436012,   473.849640,   0.039555,   839.669678,   471.591492
-0.158330,   0.164900,   0.212590,   -437.702057,   530.950684,   0.536039,   29.507784,   25.588907,   148.472244,   -55.223610,   473.496613,   0.036996,   840.172607,   461.559753
-0.159466,   0.165217,   0.213492,   -441.238037,   528.095947,   0.536040,   29.507784,   24.846687,   148.950745,   -62.092831,   473.040436,   0.034443,   840.590515,   450.997070
-0.160530,   0.165408,   0.214266,   -444.750732,   525.122864,   0.536040,   29.507784,   24.104469,   149.448273,   -69.076157,   472.467407,   0.031860,   840.895935,   439.661987
-0.161493,   0.165435,   0.214869,   -448.261047,   521.974060,   0.536039,   29.507784,   23.362249,   149.939011,   -76.225990,   471.753540,   0.029214,   841.056213,   427.291290
-0.162308,   0.165214,   0.215219,   -451.766937,   518.579407,   0.536040,   29.507784,   22.620031,   150.409210,   -83.596748,   470.853821,   0.026481,   841.008362,   413.566132
-0.162914,   0.164688,   0.215242,   -455.260193,   514.879395,   0.536039,   29.507784,   21.877813,   150.868759,   -91.249527,   469.720551,   0.023639,   840.694214,   398.114838
-0.163284,   0.163828,   0.214900,   -458.747437,   510.828644,   0.536040,   29.507784,   21.135595,   151.311798,   -99.230568,   468.323151,   0.020665,   840.081238,   380.439880
-0.163516,   0.162510,   0.214188,   -462.789032,   505.872345,   0.536040,   29.507784,   20.393375,   151.369476,   -108.286163,   466.605774,   0.017114,   839.161865,   356.919342
-0.163105,   0.160621,   0.212715,   -466.237305,   500.787445,   0.536039,   29.507784,   19.651157,   151.604324,   -117.054207,   464.478058,   0.013749,   837.646118,   331.236786
-0.161981,   0.157658,   0.210107,   -469.921722,   494.431396,   0.536040,   29.507784,   18.908939,   151.270447,   -126.760765,   461.702179,   0.009781,   835.244202,   294.878876
-0.160216,   0.153687,   0.206440,   -473.990295,   486.757935,   0.536040,   29.507784,   18.166719,   149.756454,   -136.988800,   458.479645,   0.005115,   832.056885,   236.677948
-0.157500,   0.148503,   0.201445,   -478.706085,   477.099823,   0.536039,   29.507784,   17.424501,   147.338089,   -148.944351,   454.362640,   -0.000647,   827.752625,   -118.188019
-0.153057,   0.141355,   0.194205,   -482.528748,   466.048584,   0.536040,   29.507784,   16.682283,   144.632782,   -161.112946,   448.976196,   -0.006687,   821.533386,   -255.513901
-0.148564,   0.133192,   0.186388,   -489.496826,   451.256500,   0.536040,   29.507784,   15.940063,   137.142624,   -175.382950,   443.662201,   -0.015641,   814.940613,   -336.394226
-0.142142,   0.122466,   0.176164,   -496.657715,   433.628815,   0.536039,   29.507784,   15.197845,   126.488350,   -189.517242,   437.485291,   -0.026058,   806.267883,   -394.367737
-0.134277,   0.108896,   0.164049,   -507.317780,   409.783142,   0.536039,   29.507784,   14.455626,   109.562141,   -207.096786,   430.349060,   -0.040858,   795.728516,   -451.717102
-0.123699,   0.092367,   0.149626,   -519.060242,   380.921509,   0.536039,   29.507784,   13.713408,   87.883163,   -226.021927,   421.731781,   -0.058848,   782.461487,   -500.724792
-0.112501,   0.074156,   0.135521,   -534.560486,   346.650055,   0.536040,   29.507784,   12.971189,   57.609543,   -245.520004,   413.716248,   -0.081462,   768.912659,   -546.622681
-0.104280,   0.056633,   0.124796,   -558.792908,   304.637604,   0.536040,   29.507784,   12.228970,   13.428665,   -267.583984,   408.210785,   -0.111696,   758.474121,   -595.435974
-0.105062,   0.044651,   0.121534,   -593.537659,   257.721649,   0.536039,   29.507784,   11.486752,   -45.852356,   -289.963684,   407.753632,   -0.148049,   756.091858,   -645.556274
-0.123882,   0.044663,   0.133631,   -679.841248,   153.688278,   0.536040,   29.507784,   10.744533,   -195.850250,   -330.302734,   411.307068,   -0.228275,   768.301941,   -732.509827
-0.162592,   0.056931,   0.170001,   -794.950867,   0.000000,   0.536039,   29.507784,   10.002314,   -521.996094,   -323.601257,   358.688080,   -0.365643,   770.876465,   -767.119812
-0.213752,   0.076424,   0.222973,   -843.070251,   0.000000,   0.536039,   29.507784,   9.260096,   -668.696289,   -308.262970,   305.379242,   -0.414982,   784.739441,   -758.401306
-0.272544,   0.102833,   0.284462,   -871.618225,   0.000000,   0.536039,   29.507784,   8.517877,   -711.833984,   -284.243591,   306.354736,   -0.406628,   816.533813,   -794.772705
-0.340230,   0.138400,   0.355836,   -888.697571,   0.000000,   0.536039,   29.507784,   7.775658,   -719.420959,   -242.760864,   330.669006,   -0.375414,   854.329041,   -847.175049
-0.130151,   0.304414,   0.318727,   0.000000,   840.860413,   0.535065,   30.400322,   51.283226,   674.046936,   170.371246,   334.434784,   0.335451,   839.087158,   839.070190
-0.122048,   0.292573,   0.305594,   0.000000,   836.956909,   0.535064,   30.400322,   50.525185,   674.188721,   174.033966,   328.485565,   0.340086,   831.381287,   831.209595
-0.114339,   0.280247,   0.292136,   0.000000,   832.589661,   0.535065,   30.400322,   49.767139,   674.458984,   177.399170,   321.878418,   0.344969,   823.124573,   822.616882
-0.106822,   0.267161,   0.278033,   0.000000,   827.500977,   0.535064,   30.400322,   49.009098,   674.344849,   180.471390,   314.796051,   0.349967,   814.187073,   813.155151
-0.099548,   0.253276,   0.263231,   0.000000,   821.596802,   0.535064,   30.400322,   48.251057,   673.480896,   183.361038,   307.462006,   0.354997,   804.553467,   802.813782
-0.092449,   0.238778,   0.247874,   0.000000,   814.621277,   0.535065,   30.400322,   47.493015,   671.616943,   185.469223,   299.952484,   0.359709,   794.240784,   791.680542
-0.085773,   0.223554,   0.231911,   0.000000,   806.369995,   0.535064,   30.400322,   46.734970,   667.635010,   186.892059,   293.160797,   0.363596,   783.402344,   780.061646
-0.079645,   0.207805,   0.215491,   0.000000,   796.672607,   0.535064,   30.400322,   45.976933,   661.606262,   187.126511,   286.930573,   0.366484,   771.960205,   767.995728
-0.074322,   0.192195,   0.199425,   0.000000,   786.037781,   0.535066,   30.400322,   45.218887,   653.057190,   186.642151,   282.326050,   0.367985,   760.627991,   756.351685
-0.070143,   0.177400,   0.184514,   0.000000,   774.917603,   0.535064,   30.400322,   44.460846,   642.651001,   185.121521,   279.303253,   0.367954,   749.888489,   745.680298
-0.066765,   0.162974,   0.170542,   0.000000,   763.267090,   0.535064,   30.400322,   43.702801,   631.216003,   182.411377,   276.952393,   0.366809,   739.374329,   735.500732
-0.063485,   0.147757,   0.156412,   0.000000,   750.083252,   0.535065,   30.400322,   42.944759,   619.059326,   177.753479,   273.841003,   0.364919,   727.844421,   724.457825
-0.060910,   0.132179,   0.142403,   0.000000,   734.770264,   0.535064,   30.400322,   42.186718,   604.570984,   169.882797,   271.197266,   0.360670,   715.754089,   713.272644
-0.060059,   0.119029,   0.131568,   0.000000,   721.153320,   0.535064,   30.400322,   41.428677,   588.616455,   162.385040,   272.134857,   0.354228,   706.702087,   705.281860
-0.061742,   0.109084,   0.123735,   0.000000,   707.880066,   0.535065,   30.400322,   40.670635,   570.162659,   151.714600,   276.755585,   0.343267,   700.986267,   700.671814
-0.065262,   0.102777,   0.119379,   -7.214799,   696.291504,   0.535065,   30.400322,   39.912590,   548.746338,   140.330338,   286.407684,   0.328166,   699.926819,   699.843140
-0.071126,   0.100262,   0.118490,   -39.722557,   683.914795,   0.535064,   30.400322,   39.154549,   519.454407,   124.737846,   303.253143,   0.304748,   704.616333,   702.090515
-0.079245,   0.102446,   0.122540,   -97.860603,   666.049072,   0.535065,   30.400322,   38.396507,   465.422485,   102.766014,   336.168976,   0.263056,   719.984741,   704.789062
-0.088807,   0.108559,   0.131205,   -192.406082,   631.944275,   0.535064,   30.400322,   37.638466,   363.692719,   75.845444,   386.230957,   0.196143,   746.969543,   687.824463
-0.099022,   0.117432,   0.143242,   -270.309174,   600.214233,   0.535064,   30.400322,   36.880424,   270.899170,   59.005917,   422.170654,   0.142496,   771.730286,   651.686523
-0.108686,   0.126487,   0.155431,   -308.403778,   587.448853,   0.535065,   30.400322,   36.122379,   226.786545,   52.258568,   439.343811,   0.117998,   788.276917,   629.309509
-0.116417,   0.133375,   0.164938,   -332.669159,   579.462524,   0.535064,   30.400322,   35.364338,   199.382645,   47.410732,   449.691223,   0.102894,   799.509155,   611.906006
-0.121848,   0.137664,   0.171194,   -352.233551,   570.764404,   0.535064,   30.400322,   34.606297,   176.658356,   41.872478,   456.551727,   0.090290,   806.773071,   592.631042
-0.125502,   0.140117,   0.175082,   -367.027954,   562.754700,   0.535065,   30.400322,   33.848255,   160.761124,   34.965660,   460.616791,   0.080433,   811.140625,   574.302490
-0.128173,   0.141657,   0.177743,   -377.742493,   556.414978,   0.535065,   30.400322,   33.090210,   151.054169,   27.618299,   462.983185,   0.073173,   813.921753,   559.019714
-0.130353,   0.142797,   0.179834,   -386.175079,   551.181946,   0.535064,   30.400322,   32.332169,   144.781036,   20.225836,   464.522400,   0.067408,   815.956787,   545.743958
-0.132206,   0.143683,   0.181555,   -393.687164,   546.211182,   0.535064,   30.400322,   31.574127,   140.179062,   12.344920,   465.582245,   0.062188,   817.540527,   532.672119
-0.133826,   0.144400,   0.183020,   -400.023315,   541.894714,   0.535064,   30.400322,   30.816084,   137.148972,   4.722417,   466.281250,   0.057756,   818.803406,   520.785828
-0.135307,   0.145021,   0.184335,   -405.810791,   537.814636,   0.535064,   30.400322,   30.058043,   135.098007,   -3.094139,   466.725800,   0.053669,   819.864624,   509.093719
-0.136676,   0.145560,   0.185528,   -411.118042,   533.973206,   0.535065,   30.400322,   29.300001,   133.672211,   -10.817039,   466.990448,   0.049894,   820.774902,   497.613800
-0.137955,   0.146028,   0.186617,   -416.091492,   530.266235,   0.535064,   30.400322,   28.541958,   132.756638,   -18.581881,   467.089294,   0.046325,   821.555664,   486.082581
-0.139177,   0.146447,   0.187639,   -420.752441,   526.716919,   0.535064,   30.400322,   27.783916,   132.288239,   -26.323742,   467.049377,   0.042958,   822.241333,   474.547577
-0.140347,   0.146810,   0.188592,   -425.241974,   523.209412,   0.535065,   30.400322,   27.025873,   132.049805,   -34.082382,   466.894012,   0.039687,   822.842285,   462.646973
-0.141466,   0.147108,   0.189469,   -429.589661,   519.714233,   0.535064,   30.400322,   26.267830,   132.004715,   -41.880142,   466.621338,   0.036487,   823.355347,   450.253418
-0.142539,   0.147336,   0.190273,   -433.829102,   516.205627,   0.535064,   30.400322,   25.509789,   132.103745,   -49.727253,   466.235840,   0.033333,   823.784485,   437.210510
-0.143557,   0.147469,   0.190981,   -438.004974,   512.623962,   0.535064,   30.400322,   24.751747,   132.280807,   -57.661797,   465.729858,   0.030182,   824.113770,   423.229126
-0.144500,   0.147476,   0.191560,   -442.177124,   508.888397,   0.535065,   30.400322,   23.993704,   132.433624,   -65.722351,   465.096710,   0.026976,   824.322021,   407.860565
-0.145340,   0.147303,   0.191959,   -446.346252,   504.939911,   0.535064,   30.400322,   23.235661,   132.544693,   -73.951035,   464.301849,   0.023693,   824.358704,   390.673645
-0.146025,   0.146893,   0.192109,   -450.543488,   500.702179,   0.535064,   30.400322,   22.477619,   132.566483,   -82.407776,   463.318024,   0.020286,   824.184570,   370.951141
-0.146476,   0.146127,   0.191882,   -454.772736,   496.044861,   0.535064,   30.400322,   21.719578,   132.412292,   -91.140152,   462.081818,   0.016702,   823.690735,   347.513000
-0.146538,   0.144844,   0.191081,   -458.961670,   490.847382,   0.535065,   30.400322,   20.961535,   132.050400,   -100.164688,   460.492493,   0.012919,   822.713196,   318.656158
-0.146203,   0.142919,   0.189612,   -463.334290,   484.806610,   0.535064,   30.400322,   20.203493,   131.169388,   -109.697060,   458.517853,   0.008716,   821.184265,   278.987274
-0.145292,   0.140367,   0.187384,   -467.563751,   478.100281,   0.535064,   30.400322,   19.445450,   130.199829,   -119.663307,   456.028748,   0.004288,   818.986023,   219.670792
-0.144172,   0.137197,   0.184687,   -472.484344,   470.133423,   0.535064,   30.400322,   18.687408,   128.718506,   -131.069412,   453.055878,   -0.000960,   816.331787,   -132.950027
-0.142095,   0.133218,   0.180909,   -476.598450,   461.839752,   0.535065,   30.400322,   17.929365,   127.058556,   -141.817245,   449.547577,   -0.006053,   812.744812,   -244.530518
-0.139004,   0.127284,   0.175252,   -482.359863,   449.886383,   0.535064,   30.400322,   17.171324,   122.744202,   -155.217667,   444.921417,   -0.013405,   807.512207,   -316.636658
-0.134354,   0.119779,   0.167738,   -487.760864,   436.188354,   0.535065,   30.400322,   16.413282,   116.770119,   -168.342636,   439.429413,   -0.021473,   800.578857,   -367.202454
-0.129856,   0.111178,   0.160052,   -495.702423,   419.458801,   0.535064,   30.400322,   15.655239,   106.666389,   -182.910004,   434.069580,   -0.032030,   793.469177,   -415.596680
-0.123672,   0.100316,   0.150415,   -504.595398,   398.982208,   0.535064,   30.400322,   14.897197,   93.204132,   -198.817322,   427.544128,   -0.044886,   784.300903,   -459.248047
-0.115047,   0.086659,   0.138499,   -514.201538,   373.962860,   0.535064,   30.400322,   14.139154,   76.177368,   -216.416031,   419.292572,   -0.060524,   772.362427,   -498.808807
-0.105218,   0.070630,   0.126006,   -528.765564,   341.390564,   0.535064,   30.400322,   13.381112,   49.078648,   -236.453644,   410.987518,   -0.082249,   759.378723,   -541.508240
-0.096870,   0.054530,   0.115612,   -547.891907,   304.359131,   0.535064,   30.400322,   12.623070,   14.156194,   -257.688965,   403.866333,   -0.108519,   748.048096,   -582.052673
-0.094417,   0.041939,   0.110260,   -579.214478,   257.977203,   0.535064,   30.400322,   11.865027,   -40.505074,   -280.732208,   400.992767,   -0.144193,   742.607422,   -629.247620
-0.104877,   0.038085,   0.115015,   -627.790710,   200.822296,   0.535064,   30.400322,   11.106986,   -119.353310,   -307.615082,   403.471497,   -0.190098,   748.682251,   -684.041077
-0.133719,   0.045450,   0.140075,   -758.102783,   0.000000,   0.535065,   30.400322,   10.348944,   -429.351898,   -333.692078,   373.531006,   -0.336597,   755.644348,   -755.608032
-0.175832,   0.060010,   0.183491,   -818.321167,   0.000000,   0.535064,   30.400322,   9.590901,   -649.141052,   -314.394257,   291.983582,   -0.424702,   756.243896,   -723.872253
-0.224074,   0.079594,   0.234287,   -850.813721,   0.000000,   0.535064,   30.400322,   8.832859,   -702.197144,   -303.783905,   285.127502,   -0.427266,   784.819946,   -749.133301
-0.276832,   0.104478,   0.290211,   -872.972168,   0.000000,   0.535064,   30.400322,   8.074817,   -714.395935,   -279.376587,   306.806396,   -0.404328,   819.278870,   -798.873352
-0.335035,   0.136506,   0.352844,   -886.113281,   0.000000,   0.535064,   30.400322,   7.316774,   -699.300049,   -246.190384,   345.754333,   -0.367337,   857.967102,   -853.325928
-0.114285,   0.269500,   0.284448,   0.000000,   830.275513,   0.533428,   31.271563,   51.780094,   635.171021,   197.053482,   351.488892,   0.334508,   829.302673,   829.297546
-0.107651,   0.260581,   0.274145,   0.000000,   826.915649,   0.533425,   31.271563,   51.004917,   637.209167,   199.186966,   345.085785,   0.339082,   822.216431,   822.093445
-0.101428,   0.251311,   0.263693,   0.000000,   823.041016,   0.533425,   31.271563,   50.229740,   638.755676,   200.836273,   338.619568,   0.343437,   814.891602,   814.513306
-0.095475,   0.241514,   0.252847,   0.000000,   818.684326,   0.533425,   31.271563,   49.454567,   640.040405,   202.334549,   331.823975,   0.347902,   807.099854,   806.316956
-0.089657,   0.231063,   0.241443,   0.000000,   813.708557,   0.533425,   31.271563,   48.679390,   640.991821,   203.658127,   324.601166,   0.352516,   798.687500,   797.337341
-0.083966,   0.219771,   0.229247,   0.000000,   807.830200,   0.533425,   31.271563,   47.904217,   641.337952,   204.620834,   316.906433,   0.357190,   789.456787,   787.381165
-0.078463,   0.207697,   0.216376,   0.000000,   800.887268,   0.533425,   31.271563,   47.129040,   639.980225,   205.234116,   309.588104,   0.361356,   779.669373,   776.826660
-0.073234,   0.195186,   0.203104,   0.000000,   792.956055,   0.533426,   31.271563,   46.353867,   637.612122,   205.188141,   302.169098,   0.365206,   769.245972,   765.600037
-0.068427,   0.182383,   0.189675,   0.000000,   784.083862,   0.533426,   31.271563,   45.578690,   633.061768,   204.814835,   295.774292,   0.368159,   758.619263,   754.310425
-0.064371,   0.169582,   0.176450,   0.000000,   774.254333,   0.533425,   31.271563,   44.803513,   625.973877,   203.667603,   290.872589,   0.369666,   748.100098,   743.466125
-0.061327,   0.157452,   0.164202,   0.000000,   764.202332,   0.533425,   31.271563,   44.028336,   617.843262,   201.812134,   286.898804,   0.370195,   738.039917,   733.330872
-0.059001,   0.145425,   0.152529,   0.000000,   753.349182,   0.533425,   31.271563,   43.253162,   608.596802,   198.336472,   283.442047,   0.369456,   728.037537,   723.581055
-0.056431,   0.131983,   0.140017,   0.000000,   740.158142,   0.533425,   31.271563,   42.477985,   597.662476,   192.264923,   279.414368,   0.367457,   716.570923,   712.666809
-0.054470,   0.118500,   0.127995,   0.000000,   725.861633,   0.533426,   31.271563,   41.702808,   584.881287,   184.607147,   276.235870,   0.363793,   705.061279,   702.014893
-0.053976,   0.107000,   0.118428,   0.000000,   712.606262,   0.533425,   31.271563,   40.927635,   570.726624,   176.397430,   275.820831,   0.357823,   695.989685,   694.059998
-0.055792,   0.098511,   0.111893,   0.000000,   700.636963,   0.533426,   31.271563,   40.152458,   554.605774,   166.497665,   279.286591,   0.348041,   690.631226,   689.948425
-0.059911,   0.093421,   0.108531,   -1.111333,   689.468140,   0.533425,   31.271563,   39.377281,   534.467102,   153.889725,   288.123627,   0.332528,   690.024475,   690.022522
-0.065791,   0.091548,   0.108207,   -35.004848,   677.028870,   0.533425,   31.271563,   38.602108,   505.150146,   136.873871,   304.698456,   0.307840,   695.192566,   693.205566
-0.073109,   0.093474,   0.111763,   -97.929779,   657.099670,   0.533425,   31.271563,   37.826931,   445.079224,   114.090675,   339.306671,   0.262100,   711.139832,   695.726990
-0.081802,   0.099098,   0.119743,   -198.496735,   619.106689,   0.533425,   31.271563,   37.051758,   333.021149,   87.588806,   389.948181,   0.189814,   738.637085,   674.608398
-0.091362,   0.107593,   0.131228,   -274.609039,   586.901367,   0.533426,   31.271563,   36.276581,   241.508820,   70.783524,   422.212341,   0.136565,   762.254395,   635.744263
-0.100089,   0.115725,   0.142220,   -309.147003,   575.277405,   0.533425,   31.271563,   35.501404,   201.990005,   64.140411,   436.807739,   0.114110,   777.406738,   614.316711
-0.106418,   0.121080,   0.149781,   -333.325806,   565.475281,   0.533425,   31.271563,   34.726231,   174.447876,   57.701626,   445.593353,   0.098328,   786.991699,   593.843567
-0.110502,   0.123968,   0.154232,   -351.946350,   555.657959,   0.533426,   31.271563,   33.951054,   153.249252,   50.462376,   450.882599,   0.085674,   792.580505,   572.586609
-0.113280,   0.125579,   0.157004,   -365.057617,   547.811584,   0.533425,   31.271563,   33.175877,   140.657288,   42.096653,   453.766449,   0.076546,   795.831238,   554.582275
-0.115489,   0.126719,   0.159113,   -375.083710,   541.471008,   0.533425,   31.271563,   32.400703,   133.017624,   33.369682,   455.560883,   0.069492,   798.107544,   539.095215
-0.117350,   0.127589,   0.160829,   -383.381683,   536.015076,   0.533426,   31.271563,   31.625526,   127.591850,   25.041542,   456.829803,   0.063608,   799.869995,   524.999268
-0.118942,   0.128246,   0.162237,   -390.872986,   530.776611,   0.533425,   31.271563,   30.850351,   123.749176,   16.154461,   457.673828,   0.058204,   801.231384,   510.896881
-0.120377,   0.128795,   0.163479,   -397.301331,   526.183411,   0.533425,   31.271563,   30.075176,   121.324142,   7.557936,   458.225189,   0.053543,   802.353210,   497.837799
-0.121695,   0.129254,   0.164589,   -403.380981,   521.677124,   0.533426,   31.271563,   29.300001,   119.492577,   -1.196417,   458.575714,   0.049087,   803.304382,   484.421936
-0.122904,   0.129624,   0.165572,   -409.004456,   517.373779,   0.533425,   31.271563,   28.524824,   118.244217,   -9.874871,   458.737976,   0.044924,   804.094788,   470.968201
-0.124041,   0.129927,   0.166466,   -414.310150,   513.195190,   0.533425,   31.271563,   27.749649,   117.475327,   -18.590282,   458.735291,   0.040958,   804.763428,   457.216980
-0.125116,   0.130163,   0.167277,   -419.404785,   509.065491,   0.533426,   31.271563,   26.974474,   116.961647,   -27.300947,   458.597137,   0.037111,   805.327576,   442.873932
-0.126115,   0.130309,   0.167981,   -424.348541,   504.910889,   0.533425,   31.271563,   26.199297,   116.607590,   -36.045223,   458.317627,   0.033327,   805.769714,   427.627197
-0.127049,   0.130362,   0.168584,   -429.172119,   500.711945,   0.533425,   31.271563,   25.424122,   116.386818,   -44.847008,   457.899567,   0.029583,   806.097229,   411.235626
-0.127901,   0.130295,   0.169057,   -433.923706,   496.400146,   0.533426,   31.271563,   24.648947,   116.192368,   -53.715931,   457.338409,   0.025829,   806.289490,   393.223816
-0.128649,   0.130066,   0.169359,   -438.662842,   491.880920,   0.533426,   31.271563,   23.873770,   115.930443,   -62.712353,   456.617584,   0.022001,   806.313721,   372.828583
-0.129263,   0.129635,   0.169448,   -443.404663,   487.096069,   0.533425,   31.271563,   23.098595,   115.551331,   -71.859947,   455.716095,   0.018066,   806.133362,   349.106873
-0.129716,   0.128943,   0.169269,   -448.186493,   481.950867,   0.533425,   31.271563,   22.323420,   115.008484,   -81.244095,   454.598846,   0.013969,   805.699463,   320.292877
-0.129960,   0.127925,   0.168753,   -453.043182,   476.332001,   0.533426,   31.271563,   21.548244,   114.267654,   -90.978828,   453.214111,   0.009644,   804.946777,   282.846436
-0.130014,   0.126536,   0.167898,   -458.185028,   470.013794,   0.533426,   31.271563,   20.773067,   113.200500,   -101.371742,   451.528473,   0.004905,   803.865540,   225.487350
-0.129594,   0.124746,   0.166500,   -462.719482,   463.684845,   0.533425,   31.271563,   19.997892,   112.134651,   -111.169266,   449.544312,   0.000401,   802.289856,   97.683403
-0.128493,   0.121757,   0.163915,   -467.966614,   455.294006,   0.533426,   31.271563,   19.222717,   110.017624,   -122.690231,   446.726196,   -0.005283,   799.592224,   -229.907150
-0.126566,   0.117806,   0.160190,   -473.266296,   445.506592,   0.533425,   31.271563,   18.447540,   106.981575,   -134.741272,   443.202454,   -0.011628,   795.801697,   -297.609253
-0.124281,   0.113315,   0.155981,   -478.506256,   435.071289,   0.533426,   31.271563,   17.672365,   103.609367,   -147.044312,   439.259796,   -0.018293,   791.479370,   -344.184357
-0.120655,   0.107239,   0.150006,   -483.969482,   422.197388,   0.533425,   31.271563,   16.897190,   98.539505,   -160.311615,   434.204590,   -0.026218,   785.371094,   -384.927612
-0.117016,   0.099976,   0.143598,   -491.891907,   406.137024,   0.533426,   31.271563,   16.122015,   88.766907,   -174.521805,   429.282837,   -0.036699,   778.896912,   -426.760254
-0.112189,   0.090982,   0.135861,   -500.700836,   387.024872,   0.533425,   31.271563,   15.346839,   75.995407,   -189.671387,   423.520386,   -0.049153,   770.891174,   -465.081329
-0.105271,   0.079462,   0.125984,   -509.974030,   363.611725,   0.533426,   31.271563,   14.571663,   60.826408,   -207.188690,   415.728271,   -0.064187,   760.078613,   -500.355560
-0.096906,   0.066188,   0.115367,   -521.134460,   335.910919,   0.533425,   31.271563,   13.796487,   39.510754,   -224.734329,   407.646088,   -0.082544,   747.978638,   -533.988892
-0.088955,   0.051877,   0.105682,   -536.278198,   303.192566,   0.533426,   31.271563,   13.021312,   11.513051,   -244.598709,   399.724274,   -0.105523,   736.285034,   -567.955566
-0.084764,   0.039511,   0.099298,   -563.647156,   259.304749,   0.533425,   31.271563,   12.246136,   -38.151566,   -266.190857,   395.363098,   -0.139205,   728.761597,   -611.229858
-0.089503,   0.033271,   0.099547,   -589.856384,   225.734985,   0.533426,   31.271563,   11.470961,   -82.137360,   -281.984070,   395.363953,   -0.166400,   729.409424,   -643.486267
-0.110152,   0.036844,   0.115636,   -712.109070,   51.096771,   0.533425,   31.271563,   10.695785,   -330.492126,   -330.520142,   381.602905,   -0.298163,   738.983521,   -734.993286
-0.144380,   0.047695,   0.150397,   -790.470337,   0.000000,   0.533425,   31.271563,   9.920609,   -620.265381,   -311.375732,   285.559601,   -0.425295,   730.192627,   -698.492737
-0.184436,   0.062583,   0.192763,   -825.526794,   0.000000,   0.533425,   31.271563,   9.145433,   -691.229126,   -308.621979,   263.475037,   -0.442232,   753.640503,   -706.108154
-0.226818,   0.080824,   0.237846,   -849.462952,   0.000000,   0.533425,   31.271563,   8.370258,   -707.141724,   -291.885376,   281.700409,   -0.423981,   785.434631,   -752.388794
-0.270636,   0.102645,   0.285058,   -866.685547,   0.000000,   0.533425,   31.271563,   7.595082,   -700.407166,   -271.925598,   314.476868,   -0.395745,   818.988525,   -803.443542
-0.315314,   0.128811,   0.334407,   -876.614014,   0.000000,   0.533425,   31.271563,   6.819907,   -668.973022,   -251.968109,   360.141785,   -0.358910,   855.312378,   -852.722290
-0.097840,   0.232713,   0.247530,   0.000000,   816.440918,   0.530986,   32.119831,   52.313992,   592.815125,   225.251022,   363.600464,   0.334329,   815.629517,   815.625854
-0.092693,   0.226755,   0.240192,   0.000000,   814.085754,   0.530986,   32.119831,   51.520405,   598.678467,   225.546249,   356.055756,   0.339580,   809.063904,   808.920959
-0.087881,   0.220403,   0.232669,   0.000000,   810.993652,   0.530985,   32.119831,   50.726818,   602.846436,   225.330887,   349.147614,   0.343982,   802.539795,   802.125671
-0.083334,   0.213567,   0.224807,   0.000000,   807.268433,   0.530985,   32.119831,   49.933235,   605.942261,   224.774780,   342.448853,   0.347957,   795.803284,   795.025452
-0.078938,   0.206118,   0.216425,   0.000000,   802.917786,   0.530986,   32.119831,   49.139648,   608.432373,   223.978790,   335.552032,   0.351859,   788.584839,   787.342529
-0.074614,   0.197942,   0.207381,   0.000000,   797.879944,   0.530985,   32.119831,   48.346062,   610.371399,   223.059479,   328.304382,   0.355842,   780.711792,   778.887512
-0.070295,   0.189005,   0.197643,   0.000000,   792.099304,   0.530986,   32.119831,   47.552475,   611.410645,   222.202927,   320.895355,   0.359853,   772.179626,   769.662842
-0.066117,   0.179286,   0.187148,   0.000000,   785.232849,   0.530986,   32.119831,   46.758888,   611.417358,   220.793213,   313.222504,   0.363651,   762.829651,   759.564819
-0.062097,   0.168910,   0.176074,   0.000000,   777.377808,   0.530986,   32.119831,   45.965305,   609.544373,   219.334641,   306.036407,   0.366948,   752.949341,   748.971191
-0.058454,   0.158361,   0.164972,   0.000000,   768.791382,   0.530985,   32.119831,   45.171719,   605.444763,   217.821747,   299.998413,   0.369317,   743.053040,   738.540344
-0.055468,   0.148091,   0.154278,   0.000000,   759.689880,   0.530985,   32.119831,   44.378132,   600.282349,   215.602234,   294.502441,   0.370919,   733.209412,   728.340881
-0.053499,   0.138256,   0.144346,   0.000000,   750.171448,   0.530986,   32.119831,   43.584549,   593.290039,   212.453888,   290.444305,   0.370975,   723.986633,   719.164551
-0.051652,   0.128019,   0.134485,   0.000000,   739.956604,   0.530985,   32.119831,   42.790962,   585.793884,   208.529083,   286.227692,   0.370663,   714.326721,   709.649658
-0.049792,   0.116455,   0.123694,   0.000000,   727.054504,   0.530987,   32.119831,   41.997375,   576.738953,   201.197968,   281.148376,   0.368868,   702.995667,   698.834778
-0.048516,   0.105365,   0.114097,   0.000000,   714.529785,   0.530985,   32.119831,   41.203789,   566.676086,   194.014038,   277.416992,   0.366101,   692.604309,   689.130737
-0.049121,   0.096002,   0.106481,   0.000000,   702.085022,   0.530986,   32.119831,   40.410202,   553.986694,   184.409454,   276.887848,   0.359500,   684.651978,   682.480591
-0.050952,   0.088702,   0.100972,   0.000000,   691.194946,   0.530985,   32.119831,   39.616615,   539.071228,   175.543320,   280.076508,   0.350411,   679.787842,   678.879272
-0.054620,   0.083897,   0.097602,   0.000000,   679.373413,   0.530985,   32.119831,   38.823032,   519.384705,   161.660660,   287.798889,   0.334565,   678.539001,   678.534363
-0.060339,   0.082751,   0.097809,   -33.749317,   667.135132,   0.530986,   32.119831,   38.029446,   488.819153,   144.566635,   305.257751,   0.308382,   684.633911,   682.758545
-0.067565,   0.084993,   0.101651,   -107.158516,   643.244202,   0.530985,   32.119831,   37.235859,   417.385864,   118.699829,   344.198669,   0.254198,   702.975891,   684.238281
-0.075890,   0.090834,   0.109824,   -213.416641,   601.119141,   0.530987,   32.119831,   36.442272,   294.510132,   93.192383,   394.632660,   0.176656,   731.559814,   655.842712
-0.084766,   0.098952,   0.120758,   -283.048767,   570.741028,   0.530985,   32.119831,   35.648685,   210.108566,   77.583687,   421.720917,   0.127309,   753.265869,   615.303772
-0.092082,   0.105592,   0.129848,   -312.951721,   560.105713,   0.530986,   32.119831,   34.855103,   176.182999,   70.970963,   433.347351,   0.107535,   766.122192,   594.438721
-0.096656,   0.109040,   0.134986,   -336.321625,   548.183533,   0.530985,   32.119831,   34.061516,   149.186630,   62.675262,   440.132111,   0.091324,   773.293823,   570.089355
-0.099497,   0.110699,   0.137823,   -352.460297,   538.435242,   0.530985,   32.119831,   33.267929,   131.971970,   54.002956,   443.738556,   0.079771,   777.121460,   548.762207
-0.101644,   0.111759,   0.139836,   -363.560059,   531.372070,   0.530986,   32.119831,   32.474346,   122.932861,   44.879169,   445.760925,   0.071755,   779.562622,   532.049377
-0.103478,   0.112593,   0.141511,   -373.324554,   524.805603,   0.530985,   32.119831,   31.680758,   116.402740,   35.078312,   447.220337,   0.064613,   781.482544,   515.550842
-0.105019,   0.113193,   0.142851,   -381.449921,   519.120300,   0.530985,   32.119831,   30.887173,   111.790970,   25.879406,   448.231506,   0.058612,   782.948486,   500.379730
-0.106382,   0.113661,   0.143995,   -388.773651,   513.762085,   0.530985,   32.119831,   30.093586,   108.791634,   16.196793,   448.886658,   0.053134,   784.113281,   485.297729
-0.107634,   0.114048,   0.145019,   -395.375580,   508.813080,   0.530986,   32.119831,   29.299999,   106.654549,   6.782958,   449.328064,   0.048163,   785.101807,   470.495728
-0.108759,   0.114323,   0.145889,   -401.690491,   503.863678,   0.530985,   32.119831,   28.506414,   104.962646,   -2.789453,   449.560303,   0.043336,   785.895142,   454.884583
-0.109797,   0.114518,   0.146652,   -407.527802,   499.142456,   0.530985,   32.119831,   27.712828,   103.915070,   -12.300412,   449.595642,   0.038826,   786.534546,   439.043732
-0.110767,   0.114640,   0.147325,   -413.176666,   494.424469,   0.530986,   32.119831,   26.919241,   103.096619,   -21.848804,   449.479828,   0.034410,   787.054749,   422.139282
-0.111650,   0.114660,   0.147876,   -418.667175,   489.652283,   0.530985,   32.119831,   26.125656,   102.432938,   -31.447844,   449.199341,   0.030049,   787.428040,   403.800995
-0.112461,   0.114583,   0.148319,   -424.004547,   484.838562,   0.530985,   32.119831,   25.332071,   101.918564,   -41.084530,   448.761047,   0.025744,   787.668762,   383.725098
-0.113193,   0.114386,   0.148636,   -429.306488,   479.857239,   0.530986,   32.119831,   24.538485,   101.389816,   -50.839062,   448.164337,   0.021390,   787.764465,   360.859680
-0.113828,   0.114040,   0.148797,   -434.570984,   474.679352,   0.530985,   32.119831,   23.744898,   100.798927,   -60.690563,   447.397278,   0.016973,   787.689209,   334.107941
-0.114324,   0.113484,   0.148737,   -439.886169,   469.147522,   0.530985,   32.119831,   22.951313,   100.013084,   -70.751747,   446.425140,   0.012388,   787.382202,   300.736145
-0.114651,   0.112669,   0.148409,   -445.219635,   463.239929,   0.530985,   32.119831,   22.157726,   98.978249,   -80.957947,   445.230774,   0.007634,   786.800659,   255.761765
-0.114620,   0.111381,   0.147553,   -450.562988,   456.662018,   0.530986,   32.119831,   21.364141,   97.544586,   -91.445557,   443.660889,   0.002588,   785.685852,   178.079132
-0.114201,   0.109500,   0.146075,   -456.060669,   449.155731,   0.530985,   32.119831,   20.570555,   95.418007,   -102.322929,   441.677277,   -0.002936,   783.947998,   -185.326492
-0.113344,   0.107179,   0.144052,   -461.161591,   441.300629,   0.530985,   32.119831,   19.776970,   93.357231,   -113.218193,   439.250671,   -0.008470,   781.618286,   -263.024200
-0.112407,   0.104340,   0.141720,   -467.556244,   431.617432,   0.530986,   32.119831,   18.983383,   90.232758,   -126.171570,   436.372101,   -0.015380,   778.914551,   -319.724121
-0.110252,   0.100488,   0.137984,   -471.760223,   422.355438,   0.530985,   32.119831,   18.189796,   87.631332,   -137.036118,   432.714508,   -0.021257,   774.720825,   -354.149963
-0.107888,   0.095493,   0.133463,   -479.988647,   407.755615,   0.530985,   32.119831,   17.396212,   80.506630,   -152.739685,   428.277374,   -0.031284,   769.656921,   -399.989166
-0.104100,   0.089006,   0.127313,   -485.343903,   393.850403,   0.530985,   32.119831,   16.602625,   73.123489,   -164.616989,   423.220428,   -0.039983,   762.777649,   -429.928802
-0.100880,   0.082023,   0.121673,   -494.902069,   375.745728,   0.530985,   32.119831,   15.809039,   60.890377,   -180.046707,   418.323120,   -0.052514,   756.353271,   -466.319153
-0.095189,   0.072610,   0.113488,   -501.659485,   356.321259,   0.530986,   32.119831,   15.015453,   48.775337,   -194.113556,   411.441345,   -0.064891,   746.578186,   -493.211853
-0.088354,   0.061370,   0.104605,   -512.512878,   330.175079,   0.530985,   32.119831,   14.221868,   29.860451,   -212.198242,   403.587219,   -0.082641,   735.461731,   -525.249756
-0.081577,   0.049125,   0.096394,   -525.221436,   301.460388,   0.530985,   32.119831,   13.428282,   6.666292,   -230.427353,   395.976471,   -0.102933,   724.616699,   -554.652954
-0.076852,   0.037598,   0.089977,   -547.494507,   263.013123,   0.530986,   32.119831,   12.634696,   -35.798069,   -248.683289,   391.025085,   -0.132405,   716.187378,   -591.895325
-0.077957,   0.030050,   0.087647,   -565.395081,   235.568985,   0.530985,   32.119831,   11.841109,   -69.320610,   -260.505493,   388.906097,   -0.154199,   712.989380,   -615.839661
-0.091974,   0.030647,   0.096909,   -662.152161,   106.460403,   0.530985,   32.119831,   11.047523,   -241.931107,   -313.760651,   382.624420,   -0.256801,   721.299011,   -703.297058
-0.119443,   0.038669,   0.124014,   -761.259888,   0.000000,   0.530986,   32.119831,   10.253938,   -578.482056,   -302.325714,   289.625610,   -0.414058,   709.084839,   -685.860474
-0.153320,   0.050310,   0.159901,   -798.215393,   0.000000,   0.530985,   32.119831,   9.460352,   -677.821289,   -301.000916,   244.666489,   -0.450042,   724.985168,   -671.514526
-0.188393,   0.064220,   0.197313,   -823.214111,   0.000000,   0.530985,   32.119831,   8.666766,   -697.211975,   -289.696960,   259.276459,   -0.435837,   754.799011,   -713.202209
-0.222794,   0.079968,   0.234414,   -841.864258,   0.000000,   0.530986,   32.119831,   7.873180,   -696.171997,   -276.632812,   286.966614,   -0.413275,   784.631592,   -759.464905
-0.255276,   0.097396,   0.270253,   -854.780151,   0.000000,   0.530986,   32.119831,   7.079594,   -675.773682,   -265.793396,   324.703613,   -0.385165,   814.860291,   -804.364014
-0.284285,   0.116425,   0.303612,   -861.213013,   0.000000,   0.530985,   32.119831,   6.286008,   -630.547913,   -261.058777,   372.068085,   -0.351126,   846.425598,   -845.196472
-0.082275,   0.197255,   0.211310,   0.000000,   799.690613,   0.527611,   32.943504,   52.883896,   548.231628,   252.931885,   370.792938,   0.334255,   798.955200,   798.952148
-0.078503,   0.194125,   0.206917,   0.000000,   798.802185,   0.527612,   32.943504,   52.070660,   559.394226,   250.985367,   362.148712,   0.340606,   793.076843,   792.886658
-0.074972,   0.190411,   0.202109,   0.000000,   796.905090,   0.527612,   32.943504,   51.257420,   567.522949,   248.901245,   354.545197,   0.345652,   787.327026,   786.782349
-0.071619,   0.186125,   0.196867,   0.000000,   794.059570,   0.527611,   32.943504,   50.444183,   573.403320,   246.358246,   347.640198,   0.349642,   781.525574,   780.573792
-0.068422,   0.181248,   0.191120,   0.000000,   790.439697,   0.527613,   32.943504,   49.630943,   577.821716,   243.527863,   341.003387,   0.353065,   775.446960,   774.059021
-0.065233,   0.175663,   0.184732,   0.000000,   786.116455,   0.527611,   32.943504,   48.817707,   581.219055,   240.654602,   334.310791,   0.356316,   768.861694,   766.987549
-0.062076,   0.169340,   0.177643,   0.000000,   781.087646,   0.527612,   32.943504,   48.004471,   583.834717,   237.819168,   327.355011,   0.359610,   761.615234,   759.178833
-0.058907,   0.162259,   0.169836,   0.000000,   775.190002,   0.527612,   32.943504,   47.191231,   585.523254,   234.792786,   320.149017,   0.362824,   753.640930,   750.592224
-0.055758,   0.154423,   0.161314,   0.000000,   768.406616,   0.527612,   32.943504,   46.377995,   585.908386,   231.854889,   312.921295,   0.365911,   744.955566,   741.263428
-0.052794,   0.146096,   0.152382,   0.000000,   760.889709,   0.527612,   32.943504,   45.564754,   584.439697,   229.235001,   306.284943,   0.368553,   735.918335,   731.641052
-0.050194,   0.137637,   0.143396,   0.000000,   752.664001,   0.527611,   32.943504,   44.751518,   581.739014,   226.130295,   299.996277,   0.370598,   726.635864,   721.895081
-0.048176,   0.129450,   0.134883,   0.000000,   744.179749,   0.527612,   32.943504,   43.938282,   577.316040,   222.884018,   294.932770,   0.371593,   717.810974,   712.867798
-0.046793,   0.121670,   0.127087,   0.000000,   735.954224,   0.527612,   32.943504,   43.125042,   572.535706,   219.751770,   290.442810,   0.372245,   709.466919,   704.408752
-0.045672,   0.112975,   0.118709,   0.000000,   725.636597,   0.527612,   32.943504,   42.311806,   566.460876,   213.560104,   285.499847,   0.371422,   700.030640,   695.253967
-0.044258,   0.102730,   0.109271,   0.000000,   713.100281,   0.527612,   32.943504,   41.498566,   557.925110,   206.075211,   280.495422,   0.369585,   689.061646,   684.812866
-0.043326,   0.092853,   0.100758,   0.000000,   700.450989,   0.527612,   32.943504,   40.685329,   548.243408,   197.798248,   276.600006,   0.366351,   678.804871,   675.347412
-0.044137,   0.085199,   0.094872,   0.000000,   690.147400,   0.527611,   32.943504,   39.872089,   537.719666,   190.226196,   276.046844,   0.361060,   672.045837,   669.648010
-0.046650,   0.079405,   0.090637,   0.000000,   679.445312,   0.527612,   32.943504,   39.058853,   524.258179,   178.872635,   278.715698,   0.350907,   667.917603,   666.971680
-0.050809,   0.075925,   0.088554,   0.000000,   668.639160,   0.527612,   32.943504,   38.245617,   504.923218,   164.664383,   287.243286,   0.334043,   668.165466,   668.163940
-0.056077,   0.075095,   0.088856,   -39.079262,   654.915405,   0.527612,   32.943504,   37.432377,   469.462372,   146.373795,   307.100311,   0.303980,   675.303650,   672.752502
-0.062630,   0.077303,   0.092516,   -126.218575,   624.634705,   0.527612,   32.943504,   36.619141,   379.684570,   118.731544,   352.024200,   0.238576,   696.376404,   669.912415
-0.070482,   0.083310,   0.100812,   -235.261810,   577.975220,   0.527611,   32.943504,   35.805901,   248.423218,   94.290199,   399.248505,   0.157606,   724.830322,   629.923096
-0.078540,   0.090817,   0.110919,   -293.206482,   552.487732,   0.527613,   32.943504,   34.992664,   177.970291,   81.310936,   420.076080,   0.116200,   743.778015,   591.012817
-0.083989,   0.095392,   0.117403,   -318.196136,   542.108521,   0.527611,   32.943504,   34.179428,   149.672653,   74.239754,   428.495636,   0.099066,   753.410461,   569.837891
-0.086934,   0.097128,   0.120346,   -339.560944,   528.883911,   0.527612,   32.943504,   33.366188,   125.428444,   63.894524,   433.131042,   0.083252,   758.029114,   542.642273
-0.089023,   0.098138,   0.122286,   -352.491913,   520.507019,   0.527612,   32.943504,   32.552952,   114.234474,   53.780655,   435.451630,   0.073624,   760.692200,   523.494873
-0.090795,   0.098917,   0.123886,   -362.597534,   513.805115,   0.527611,   32.943504,   31.739714,   107.025276,   44.182335,   437.073334,   0.066081,   762.743164,   506.871948
-0.092273,   0.099458,   0.125147,   -372.150360,   506.954865,   0.527611,   32.943504,   30.926476,   101.233238,   33.571262,   438.248749,   0.058792,   764.305298,   488.953430
-0.093542,   0.099839,   0.126176,   -379.897095,   501.236145,   0.527612,   32.943504,   30.113239,   97.778793,   23.560265,   439.000977,   0.052837,   765.491760,   472.904480
-0.094710,   0.100151,   0.127099,   -387.238770,   495.623566,   0.527612,   32.943504,   29.299999,   95.202484,   13.182313,   439.522064,   0.047134,   766.499329,   456.099579
-0.095747,   0.100345,   0.127863,   -394.051056,   490.199036,   0.527612,   32.943504,   28.486761,   93.145157,   3.002823,   439.821716,   0.041769,   767.290527,   438.756927
-0.096678,   0.100441,   0.128495,   -400.463257,   484.877472,   0.527612,   32.943504,   27.673523,   91.722084,   -7.307889,   439.892395,   0.036643,   767.888367,   420.516785
-0.097542,   0.100465,   0.129040,   -406.573242,   479.643768,   0.527611,   32.943504,   26.860287,   90.654289,   -17.583780,   439.791168,   0.031700,   768.355530,   401.065735
-0.098304,   0.100370,   0.129442,   -412.562073,   474.276184,   0.527611,   32.943504,   26.047049,   89.624886,   -27.910774,   439.507538,   0.026763,   768.644104,   379.312653
-0.098977,   0.100164,   0.129716,   -418.366608,   468.843292,   0.527612,   32.943504,   25.233810,   88.806664,   -38.329960,   439.026672,   0.021887,   768.760681,   354.851562
-0.099561,   0.099830,   0.129854,   -424.104126,   463.239349,   0.527612,   32.943504,   24.420572,   87.915085,   -48.779858,   438.375671,   0.016970,   768.711060,   326.039368
-0.100018,   0.099316,   0.129795,   -429.842407,   457.320343,   0.527612,   32.943504,   23.607334,   86.882416,   -59.404465,   437.509399,   0.011920,   768.428345,   289.755951
-0.100333,   0.098591,   0.129515,   -435.555969,   451.078674,   0.527611,   32.943504,   22.794098,   85.684189,   -70.161476,   436.415253,   0.006738,   767.887329,   239.440781
-0.100525,   0.097653,   0.129028,   -441.457642,   444.321991,   0.527612,   32.943504,   21.980860,   84.088310,   -81.223953,   435.108429,   0.001245,   767.109009,   136.231049
-0.100576,   0.096426,   0.128286,   -447.503418,   437.011169,   0.527612,   32.943504,   21.167622,   82.180031,   -92.672302,   433.529907,   -0.004566,   766.030090,   -209.801514
-0.100244,   0.094881,   0.127111,   -452.985016,   429.657013,   0.527611,   32.943504,   20.354383,   80.010155,   -103.338150,   431.694427,   -0.010172,   764.479370,   -273.435638
-0.099314,   0.092220,   0.124864,   -459.401093,   419.801697,   0.527611,   32.943504,   19.541147,   76.618820,   -116.218231,   428.897247,   -0.017330,   761.669373,   -325.317261
-0.097811,   0.088947,   0.121883,   -465.632111,   409.010559,   0.527612,   32.943504,   18.727909,   72.417313,   -129.038879,   425.562927,   -0.024900,   757.991699,   -365.200317
-0.095371,   0.084688,   0.117747,   -470.997955,   397.335876,   0.527612,   32.943504,   17.914671,   67.626411,   -141.288498,   421.413757,   -0.032613,   752.900574,   -396.710938
-0.093038,   0.079885,   0.113516,   -478.196167,   383.421906,   0.527612,   32.943504,   17.101433,   59.585602,   -154.359879,   417.316742,   -0.042252,   747.686279,   -429.170135
-0.090254,   0.073856,   0.108591,   -486.760986,   366.638489,   0.527612,   32.943504,   16.288195,   48.769722,   -168.892197,   412.587555,   -0.054000,   741.502136,   -461.361664
-0.086248,   0.066333,   0.102415,   -494.590851,   348.138885,   0.527612,   32.943504,   15.474957,   36.487255,   -182.939224,   406.830872,   -0.066555,   733.489685,   -488.564087
-0.080395,   0.056679,   0.094661,   -503.957458,   324.244751,   0.527612,   32.943504,   14.661719,   20.603533,   -200.316254,   399.096893,   -0.082872,   722.850830,   -516.704224
-0.074680,   0.046433,   0.087759,   -513.790222,   300.221649,   0.527612,   32.943504,   13.848482,   1.307523,   -214.876083,   392.390106,   -0.099846,   712.996765,   -540.595337
-0.070237,   0.036160,   0.082065,   -530.857544,   268.712128,   0.527612,   32.943504,   13.035244,   -32.019424,   -230.125992,   387.319458,   -0.123991,   704.743774,   -571.123108
-0.069341,   0.028101,   0.078630,   -548.541992,   239.118271,   0.527612,   32.943504,   12.222006,   -66.440521,   -242.983231,   383.810303,   -0.147459,   699.458557,   -596.518921
-0.078262,   0.026340,   0.082962,   -612.969421,   156.342545,   0.527612,   32.943504,   11.408768,   -170.615799,   -286.011108,   380.304108,   -0.216121,   704.278137,   -663.527588
-0.100136,   0.032056,   0.103535,   -730.748352,   0.000000,   0.527611,   32.943504,   10.595531,   -522.838562,   -289.504089,   302.884460,   -0.390422,   693.560303,   -682.636841
-0.129252,   0.041379,   0.134348,   -770.894775,   0.000000,   0.527612,   32.943504,   9.782292,   -662.019348,   -284.931183,   230.020599,   -0.451134,   699.681213,   -646.970032
-0.159031,   0.052387,   0.166146,   -796.917114,   0.000000,   0.527612,   32.943504,   8.969054,   -685.618530,   -278.955353,   240.100800,   -0.441824,   727.720459,   -682.206848
-0.186845,   0.064081,   0.196203,   -816.002380,   0.000000,   0.527611,   32.943504,   8.155817,   -689.190063,   -270.257965,   263.072449,   -0.423836,   754.575745,   -722.938660
-0.211548,   0.076385,   0.223463,   -830.016602,   0.000000,   0.527612,   32.943504,   7.342579,   -675.930725,   -264.940948,   295.076538,   -0.401816,   780.515747,   -762.502625
-0.231701,   0.088833,   0.246647,   -838.596191,   0.000000,   0.527612,   32.943504,   6.529341,   -642.656555,   -265.169739,   335.196899,   -0.375346,   806.213562,   -799.484985
-0.245938,   0.100875,   0.264449,   -840.947388,   0.000000,   0.527612,   32.943504,   5.716104,   -584.832581,   -274.953796,   380.735291,   -0.344595,   831.687988,   -831.207703
-0.068089,   0.164357,   0.177119,   0.000000,   780.046875,   0.523154,   33.740997,   53.488712,   502.414948,   278.900055,   373.007202,   0.334147,   779.413574,   779.411316
-0.065603,   0.163820,   0.175558,   0.000000,   781.024658,   0.523154,   33.740997,   52.654621,   519.497681,   274.309845,   364.032410,   0.341549,   774.712341,   774.474976
-0.063167,   0.162449,   0.173255,   0.000000,   780.723999,   0.523154,   33.740997,   51.820526,   532.390442,   270.333893,   356.015411,   0.347518,   769.959595,   769.251831
-0.060821,   0.160358,   0.170320,   0.000000,   779.126526,   0.523154,   33.740997,   50.986435,   542.088745,   265.940552,   348.775696,   0.352044,   765.084717,   763.854919
-0.058577,   0.157646,   0.166830,   0.000000,   776.571228,   0.523155,   33.740997,   50.152340,   549.306335,   261.447601,   342.154236,   0.355567,   760.056580,   758.324219
-0.056370,   0.154268,   0.162737,   0.000000,   773.141968,   0.523154,   33.740997,   49.318245,   554.600464,   256.850525,   335.903442,   0.358391,   754.717041,   752.524780
-0.054197,   0.150219,   0.157994,   0.000000,   768.916931,   0.523154,   33.740997,   48.484154,   558.753784,   252.100342,   329.569122,   0.360943,   748.829590,   746.180664
-0.051960,   0.145409,   0.152525,   0.000000,   763.932861,   0.523155,   33.740997,   47.650059,   561.852478,   247.489609,   323.052734,   0.363453,   742.270752,   739.135986
-0.049681,   0.139830,   0.146307,   0.000000,   758.127991,   0.523154,   33.740997,   46.815964,   563.882080,   243.025620,   316.317139,   0.365968,   734.953247,   731.297852
-0.047386,   0.133589,   0.139472,   0.000000,   751.614624,   0.523155,   33.740997,   45.981869,   564.492859,   239.058563,   309.694061,   0.368413,   727.038879,   722.847595
-0.045213,   0.126797,   0.132132,   0.000000,   744.145325,   0.523152,   33.740997,   45.147778,   563.520081,   234.859268,   303.298401,   0.370358,   718.565002,   713.938477
-0.043313,   0.119732,   0.124630,   0.000000,   736.009033,   0.523154,   33.740997,   44.313686,   560.527344,   230.779663,   297.755798,   0.371518,   709.977051,   705.107483
-0.042043,   0.113085,   0.117714,   0.000000,   727.992554,   0.523155,   33.740997,   43.479591,   556.858337,   226.694061,   292.898132,   0.372129,   701.863892,   696.890564
-0.041243,   0.106697,   0.111347,   0.000000,   719.989258,   0.523154,   33.740997,   42.645496,   553.320129,   221.933441,   288.115509,   0.372355,   694.009399,   689.032837
-0.040340,   0.099176,   0.104246,   0.000000,   710.267883,   0.523155,   33.740997,   41.811405,   548.125793,   215.763565,   283.160675,   0.371704,   685.032959,   680.287292
-0.039177,   0.090287,   0.096219,   0.000000,   698.562378,   0.523154,   33.740997,   40.977310,   541.468567,   208.342346,   277.507721,   0.370606,   674.400085,   669.998169
-0.039186,   0.082207,   0.089558,   0.000000,   687.074585,   0.523154,   33.740997,   40.143215,   532.884705,   199.570587,   274.168182,   0.366845,   665.545654,   662.051208
-0.040403,   0.075757,   0.084670,   0.000000,   676.852905,   0.523154,   33.740997,   39.309124,   522.827148,   190.474457,   273.705719,   0.360590,   659.384521,   657.112244
-0.042855,   0.070821,   0.081177,   0.000000,   666.852844,   0.523154,   33.740997,   38.475029,   509.974487,   179.573471,   276.484314,   0.350487,   655.799866,   654.915405
-0.046941,   0.068192,   0.079720,   -1.433126,   656.227356,   0.523155,   33.740997,   37.640938,   489.909393,   164.884842,   285.865509,   0.332242,   656.945068,   656.941589
-0.052309,   0.068040,   0.080617,   -52.803097,   639.046875,   0.523154,   33.740997,   36.806843,   443.551727,   142.692032,   311.504333,   0.292968,   667.017761,   662.291016
-0.058641,   0.070843,   0.084905,   -156.892181,   600.475037,   0.523154,   33.740997,   35.972748,   328.860962,   114.721893,   363.231873,   0.213553,   692.383728,   650.560730
-0.066151,   0.077161,   0.093520,   -261.582733,   551.672302,   0.523155,   33.740997,   35.138653,   198.331116,   91.758423,   403.120941,   0.134473,   719.079834,   597.014465
-0.072746,   0.083218,   0.101766,   -303.730499,   533.100037,   0.523154,   33.740997,   34.304562,   148.110504,   81.259033,   417.078003,   0.104202,   733.734680,   563.777344
-0.075935,   0.085294,   0.105095,   -324.265442,   521.709290,   0.523154,   33.740997,   33.470467,   124.325333,   73.118477,   422.211761,   0.089028,   739.257019,   540.619141
-0.077789,   0.086012,   0.106673,   -341.575684,   509.671631,   0.523154,   33.740997,   32.636375,   106.130005,   61.965954,   425.050446,   0.075517,   741.977478,   514.807861
-0.079506,   0.086770,   0.108226,   -352.179901,   502.658142,   0.523154,   33.740997,   31.802280,   99.717056,   50.761177,   426.717529,   0.067407,   744.125000,   497.697357
-0.080893,   0.087233,   0.109378,   -362.488586,   495.237061,   0.523154,   33.740997,   30.968187,   92.264267,   40.484219,   428.080627,   0.059334,   745.771729,   478.527771
-0.082059,   0.087529,   0.110285,   -371.122620,   488.705658,   0.523154,   33.740997,   30.134094,   88.285126,   29.297916,   428.901276,   0.052472,   746.950439,   460.404022
-0.083129,   0.087762,   0.111096,   -378.782532,   482.789368,   0.523154,   33.740997,   29.300001,   85.370483,   18.636356,   429.491760,   0.046352,   747.953186,   442.620209
-0.084077,   0.087886,   0.111759,   -386.254272,   476.730591,   0.523154,   33.740997,   28.465906,   82.845268,   7.631024,   429.850464,   0.040280,   748.734680,   423.046021
-0.084903,   0.087895,   0.112271,   -393.088318,   470.937653,   0.523154,   33.740997,   27.631813,   81.101318,   -3.251980,   429.949249,   0.034633,   749.280212,   402.738434
-0.085669,   0.087841,   0.112705,   -399.653625,   465.190887,   0.523154,   33.740997,   26.797718,   79.756783,   -14.219529,   429.861755,   0.029140,   749.693787,   380.551300
-0.086335,   0.087671,   0.113001,   -406.120117,   459.265930,   0.523154,   33.740997,   25.963625,   78.393883,   -25.248085,   429.578674,   0.023623,   749.917236,   355.047485
-0.086905,   0.087385,   0.113163,   -412.320618,   453.316315,   0.523154,   33.740997,   25.129532,   77.301872,   -36.306179,   429.074738,   0.018222,   749.943726,   325.700226
-0.087410,   0.086997,   0.113221,   -418.540649,   447.127441,   0.523154,   33.740997,   24.295439,   76.077354,   -47.490559,   428.401733,   0.012708,   749.826782,   288.839172
-0.087769,   0.086419,   0.113065,   -424.647552,   440.671204,   0.523154,   33.740997,   23.461344,   74.726631,   -58.702976,   427.484833,   0.007127,   749.430908,   238.094772
-0.087999,   0.085642,   0.112705,   -430.847107,   433.760498,   0.523153,   33.740997,   22.627251,   73.041748,   -70.128357,   426.335724,   0.001297,   748.773560,   134.812302
-0.087996,   0.084542,   0.111997,   -436.976288,   426.343506,   0.523154,   33.740997,   21.793158,   71.008438,   -81.641235,   424.858551,   -0.004740,   747.675781,   -207.353821
-0.087684,   0.082997,   0.110814,   -443.398804,   417.864532,   0.523154,   33.740997,   20.959064,   68.145653,   -93.679932,   422.961884,   -0.011410,   745.985168,   -277.226715
-0.087134,   0.081106,   0.109283,   -449.642883,   408.944824,   0.523154,   33.740997,   20.124969,   64.993965,   -105.692032,   420.725311,   -0.018238,   743.837158,   -323.143677
-0.086284,   0.078724,   0.107308,   -456.127594,   399.003571,   0.523154,   33.740997,   19.290876,   60.859665,   -117.983711,   418.110138,   -0.025693,   741.115906,   -360.806061
-0.084344,   0.075278,   0.103955,   -461.322784,   388.077454,   0.523154,   33.740997,   18.456783,   57.043781,   -130.289124,   414.242432,   -0.033150,   736.513245,   -390.181030
-0.082708,   0.071330,   0.100645,   -469.952667,   373.428223,   0.523154,   33.740997,   17.622690,   48.568127,   -145.092575,   410.422607,   -0.043956,   731.982056,   -425.665314
-0.080708,   0.066519,   0.096887,   -478.087982,   358.358765,   0.523154,   33.740997,   16.788595,   38.134621,   -157.863861,   406.579559,   -0.054908,   726.853577,   -454.722565
-0.077983,   0.060658,   0.092341,   -486.279572,   341.441040,   0.523154,   33.740997,   15.954503,   25.912025,   -170.750565,   402.009094,   -0.067011,   720.475952,   -480.958984
-0.073420,   0.052753,   0.086111,   -494.441833,   320.498535,   0.523154,   33.740997,   15.120409,   13.702374,   -187.645676,   394.837555,   -0.081537,   711.097717,   -505.672516
-0.068662,   0.044094,   0.080288,   -502.593353,   299.718475,   0.523154,   33.740997,   14.286316,   -3.368397,   -199.506485,   388.983978,   -0.096306,   702.187866,   -526.409363
-0.064878,   0.035047,   0.075601,   -515.907776,   274.023254,   0.523154,   33.740997,   13.452222,   -27.899330,   -213.985214,   383.849945,   -0.116060,   694.708801,   -551.819275
-0.063485,   0.027303,   0.072484,   -536.553345,   241.280212,   0.523154,   33.740997,   12.618128,   -66.673973,   -228.599167,   380.396271,   -0.142724,   689.612488,   -582.612732
-0.068555,   0.023673,   0.073409,   -568.822876,   199.451904,   0.523154,   33.740997,   11.784035,   -116.724693,   -252.646271,   378.077850,   -0.178310,   690.502258,   -620.558655
-0.085649,   0.027285,   0.088217,   -698.688904,   0.000000,   0.523154,   33.740997,   10.949941,   -453.653351,   -276.263733,   321.728455,   -0.355913,   683.610046,   -682.002380
-0.110991,   0.034901,   0.114877,   -745.623352,   0.000000,   0.523154,   33.740997,   10.115848,   -643.857422,   -265.955841,   220.938507,   -0.446911,   678.593201,   -631.539429
-0.136660,   0.043726,   0.142314,   -772.875061,   0.000000,   0.523154,   33.740997,   9.281754,   -673.652222,   -266.156311,   224.227722,   -0.444730,   704.403259,   -657.652039
-0.159596,   0.052714,   0.167111,   -791.318787,   0.000000,   0.523154,   33.740997,   8.447660,   -681.183350,   -258.874481,   242.159012,   -0.430176,   728.428955,   -693.015991
-0.178625,   0.061479,   0.188186,   -805.600037,   0.000000,   0.523154,   33.740997,   7.613567,   -673.073792,   -257.957214,   269.401245,   -0.413359,   750.784363,   -726.648682
-0.193011,   0.069917,   0.204802,   -814.837585,   0.000000,   0.523154,   33.740997,   6.779473,   -647.481750,   -261.324036,   304.357849,   -0.392325,   772.153748,   -759.129944
-0.201904,   0.077627,   0.216127,   -818.672485,   0.000000,   0.523154,   33.740997,   5.945380,   -601.422607,   -271.908508,   344.651123,   -0.367212,   792.757629,   -788.501465
-0.204941,   0.084026,   0.221693,   -816.862244,   0.000000,   0.523154,   33.740997,   5.111286,   -534.178467,   -293.549988,   384.619141,   -0.340006,   811.483704,   -811.320007
-0.055378,   0.134103,   0.145110,   0.000000,   756.730408,   0.517472,   34.510784,   54.127285,   455.820831,   301.401672,   370.152344,   0.333659,   756.484436,   756.484009
-0.054031,   0.135951,   0.146276,   0.000000,   760.236755,   0.517472,   34.510784,   53.271168,   479.122162,   294.296356,   361.915222,   0.342039,   753.732300,   753.472839
-0.052540,   0.136667,   0.146315,   0.000000,   761.974121,   0.517471,   34.510784,   52.415058,   496.983917,   288.533722,   354.199188,   0.348896,   750.479370,   749.647827
-0.051119,   0.136606,   0.145567,   0.000000,   762.106873,   0.517472,   34.510784,   51.558945,   511.285828,   282.365112,   346.885162,   0.354229,   746.834595,   745.333496
-0.049734,   0.135881,   0.144204,   0.000000,   761.101318,   0.517472,   34.510784,   50.702831,   522.093811,   276.499176,   340.328613,   0.358243,   743.065247,   740.932678
-0.048357,   0.134444,   0.142159,   0.000000,   758.969604,   0.517472,   34.510784,   49.846718,   530.145813,   270.553925,   334.306915,   0.361169,   738.988708,   736.330811
-0.046966,   0.132344,   0.139465,   0.000000,   755.912842,   0.517472,   34.510784,   48.990604,   536.346497,   264.516022,   328.472504,   0.363465,   734.470276,   731.365967
-0.045514,   0.129491,   0.136038,   0.000000,   751.970215,   0.517472,   34.510784,   48.134491,   540.890808,   258.598267,   322.708344,   0.365378,   729.372681,   725.877686
-0.043983,   0.125866,   0.131851,   0.000000,   747.193665,   0.517472,   34.510784,   47.278378,   544.193420,   252.881958,   316.773438,   0.367209,   723.543579,   719.659729
-0.042338,   0.121416,   0.126853,   0.000000,   741.566589,   0.517472,   34.510784,   46.422264,   546.123169,   247.615829,   310.707947,   0.369058,   716.905579,   712.615601
-0.040654,   0.116252,   0.121173,   0.000000,   735.011353,   0.517471,   34.510784,   45.566151,   546.567871,   242.482056,   304.653778,   0.370688,   709.537048,   704.885010
-0.039058,   0.110668,   0.115132,   0.000000,   727.885376,   0.517472,   34.510784,   44.710037,   545.534546,   237.858810,   298.925964,   0.372098,   701.779724,   696.815002
-0.037765,   0.104979,   0.109065,   0.000000,   720.267273,   0.517472,   34.510784,   43.853924,   543.358826,   233.069916,   293.580200,   0.372982,   693.893250,   688.752014
-0.036929,   0.099417,   0.103305,   0.000000,   712.510986,   0.517472,   34.510784,   42.997814,   540.262451,   228.105820,   288.856506,   0.373199,   686.289307,   681.146912
-0.036543,   0.093821,   0.097824,   0.000000,   704.461792,   0.517472,   34.510784,   42.141701,   536.464294,   222.478363,   284.555817,   0.372654,   678.862915,   673.918152
-0.035850,   0.087059,   0.091558,   0.000000,   694.887817,   0.517472,   34.510784,   41.285587,   532.111816,   215.859863,   279.238678,   0.372167,   669.925049,   665.168579
-0.035204,   0.079354,   0.084769,   0.000000,   683.190002,   0.517472,   34.510784,   40.429474,   526.022339,   206.643082,   273.674561,   0.370120,   659.844910,   655.652283
-0.035496,   0.072595,   0.079513,   0.000000,   673.263123,   0.517471,   34.510784,   39.573360,   518.939697,   198.962097,   270.547180,   0.366974,   652.090759,   648.639832
-0.037121,   0.067330,   0.075694,   0.000000,   663.643311,   0.517472,   34.510784,   38.717247,   509.669769,   188.958710,   270.349518,   0.360010,   646.860657,   644.726868
-0.040218,   0.063717,   0.073410,   0.000000,   654.219482,   0.517472,   34.510784,   37.861134,   496.967804,   176.444595,   274.100159,   0.348105,   644.837280,   644.194153
-0.044215,   0.061776,   0.072436,   -9.629253,   642.527588,   0.517472,   34.510784,   37.005020,   472.975098,   159.923218,   286.053772,   0.325869,   647.395935,   647.234741
-0.049191,   0.061953,   0.073516,   -78.526382,   618.828857,   0.517473,   34.510784,   36.148907,   405.527313,   134.775177,   321.324463,   0.272222,   661.596558,   650.988098
-0.055154,   0.065319,   0.078411,   -197.960709,   569.436279,   0.517472,   34.510784,   35.292793,   262.931091,   108.544487,   375.853333,   0.179443,   690.052246,   621.186401
-0.062070,   0.071493,   0.086796,   -285.955963,   525.020325,   0.517472,   34.510784,   34.436680,   149.419022,   89.645340,   404.385223,   0.111855,   712.425354,   559.529968
-0.066323,   0.074964,   0.091792,   -311.257782,   513.150940,   0.517471,   34.510784,   33.580566,   123.030228,   78.862915,   411.612366,   0.093332,   721.059998,   535.244080
-0.067870,   0.075317,   0.092909,   -329.649780,   499.912018,   0.517472,   34.510784,   32.724453,   102.079308,   68.182938,   414.434509,   0.078449,   723.447937,   508.132507
-0.069521,   0.076040,   0.094396,   -341.986206,   491.687714,   0.517471,   34.510784,   31.868340,   92.159126,   57.542385,   416.477448,   0.068747,   725.852478,   488.582001
-0.070855,   0.076481,   0.095500,   -352.531799,   484.114502,   0.517472,   34.510784,   31.012226,   85.948730,   45.633965,   417.837219,   0.060287,   727.537842,   469.259705
-0.071907,   0.076684,   0.096273,   -362.358185,   476.533081,   0.517473,   34.510784,   30.156113,   79.580353,   34.594528,   418.842102,   0.052225,   728.740601,   448.483582
-0.072894,   0.076865,   0.096999,   -370.130585,   470.480377,   0.517471,   34.510784,   29.299999,   77.384903,   22.964882,   419.423798,   0.045840,   729.717468,   430.252716
-0.073744,   0.076918,   0.097555,   -378.273224,   463.772827,   0.517472,   34.510784,   28.443888,   73.795464,   11.704120,   419.876831,   0.039015,   730.485229,   408.410400
-0.074462,   0.076848,   0.097948,   -385.381317,   457.608643,   0.517472,   34.510784,   27.587774,   72.048889,   0.178443,   419.960327,   0.032938,   730.943420,   386.409851
-0.075110,   0.076703,   0.098250,   -392.392242,   451.310577,   0.517472,   34.510784,   26.731661,   70.193314,   -11.274980,   419.880157,   0.026857,   731.261719,   361.284119
-0.075650,   0.076439,   0.098407,   -399.119690,   444.954590,   0.517471,   34.510784,   25.875547,   68.626862,   -22.791958,   419.554535,   0.020891,   731.348938,   332.396118
-0.076076,   0.076036,   0.098402,   -405.762207,   438.334961,   0.517472,   34.510784,   25.019434,   67.047760,   -34.475029,   418.984833,   0.014849,   731.190979,   296.646942
-0.076446,   0.075549,   0.098312,   -412.181274,   431.699615,   0.517472,   34.510784,   24.163321,   65.673912,   -46.155548,   418.219177,   0.008902,   730.887451,   250.059906
-0.076705,   0.074884,   0.098041,   -418.922546,   424.385010,   0.517472,   34.510784,   23.307207,   63.673466,   -58.210976,   417.226501,   0.002493,   730.330872,   163.494949
-0.076872,   0.074106,   0.097648,   -425.194214,   417.245880,   0.517471,   34.510784,   22.451094,   61.890862,   -69.839203,   416.038605,   -0.003631,   729.585327,   -185.140411
-0.076862,   0.073042,   0.096973,   -431.992798,   409.053467,   0.517472,   34.510784,   21.594982,   59.046089,   -81.985428,   414.568726,   -0.010497,   728.457703,   -263.296906
-0.076652,   0.071727,   0.096023,   -438.340057,   400.762695,   0.517472,   34.510784,   20.738867,   56.268871,   -93.846230,   412.782898,   -0.017231,   726.927185,   -309.887543
-0.076049,   0.069660,   0.094376,   -445.920258,   389.925262,   0.517471,   34.510784,   19.882755,   51.620960,   -107.615967,   410.268616,   -0.025766,   724.404663,   -353.003571
-0.074929,   0.067164,   0.092141,   -452.018921,   379.459167,   0.517472,   34.510784,   19.026642,   47.539677,   -120.099426,   407.201721,   -0.033546,   720.994507,   -383.466492
-0.073129,   0.063591,   0.088895,   -458.983673,   366.230682,   0.517473,   34.510784,   18.170528,   39.963505,   -132.716507,   403.472534,   -0.043171,   716.159790,   -414.000916
-0.072125,   0.060087,   0.086447,   -468.253143,   351.555511,   0.517472,   34.510784,   17.314415,   30.879091,   -147.576736,   400.074921,   -0.054605,   712.368774,   -444.856812
-0.070091,   0.055351,   0.082870,   -476.232727,   336.069580,   0.517471,   34.510784,   16.458302,   18.682356,   -158.845505,   396.332855,   -0.066088,   706.956665,   -469.815704
-0.066930,   0.049040,   0.078209,   -484.495117,   317.199219,   0.517472,   34.510784,   15.602188,   7.980037,   -175.275925,   390.234253,   -0.079743,   699.308472,   -493.760498
-0.063184,   0.041776,   0.073541,   -492.663879,   298.084381,   0.517472,   34.510784,   14.746075,   -8.838737,   -185.740753,   385.353241,   -0.093771,   691.684448,   -514.199280
-0.060231,   0.034008,   0.069975,   -503.036102,   277.522400,   0.517472,   34.510784,   13.889962,   -23.974281,   -201.539413,   380.046783,   -0.109687,   685.323120,   -535.011658
-0.059336,   0.027158,   0.068090,   -526.235168,   244.550903,   0.517472,   34.510784,   13.033849,   -66.007599,   -215.676666,   378.057648,   -0.137632,   682.216919,   -570.291138
-0.061987,   0.022322,   0.067372,   -533.555481,   233.186295,   0.517472,   34.510784,   12.177735,   -78.374664,   -221.994553,   376.585419,   -0.147069,   680.790100,   -580.157104
-0.075103,   0.023929,   0.077220,   -665.158630,   25.454834,   0.517472,   34.510784,   11.321622,   -372.318024,   -267.385803,   341.297607,   -0.314392,   678.244446,   -677.168396
-0.097265,   0.030128,   0.100222,   -724.246399,   0.000000,   0.517472,   34.510784,   10.465509,   -621.617249,   -250.589905,   220.478973,   -0.438667,   662.770874,   -623.966675
-0.119786,   0.037380,   0.124273,   -752.457703,   0.000000,   0.517472,   34.510784,   9.609395,   -662.451660,   -255.402603,   211.513489,   -0.446706,   684.904846,   -637.607239
-0.138883,   0.044357,   0.144946,   -769.790771,   0.000000,   0.517472,   34.510784,   8.753282,   -673.378845,   -248.556122,   224.172318,   -0.435211,   706.120728,   -667.731506
-0.153642,   0.050729,   0.161323,   -783.346680,   0.000000,   0.517472,   34.510784,   7.897169,   -669.128845,   -249.765472,   246.869385,   -0.422400,   725.137512,   -695.773010
-0.163638,   0.056355,   0.173042,   -792.052002,   0.000000,   0.517472,   34.510784,   7.041056,   -648.549561,   -254.697556,   277.689911,   -0.405376,   742.723694,   -723.641113
-0.168976,   0.061301,   0.180131,   -796.276245,   0.000000,   0.517472,   34.510784,   6.184943,   -610.204285,   -265.796204,   314.177429,   -0.384434,   759.558594,   -750.058838
-0.169606,   0.065296,   0.182469,   -795.555725,   0.000000,   0.517472,   34.510784,   5.328829,   -553.570801,   -285.067139,   351.469147,   -0.360745,   774.913391,   -772.211975
-0.165798,   0.067996,   0.180162,   -789.787292,   0.000000,   0.517472,   34.510784,   4.472716,   -481.580719,   -314.265533,   382.830139,   -0.337176,   786.775269,   -786.722839
-0.042623,   0.102800,   0.111327,   -1.166921,   724.555237,   0.522564,   35.259705,   54.819710,   403.334351,   320.053986,   360.463959,   0.332528,   725.139404,   725.137329
-0.042754,   0.107933,   0.116299,   0.000000,   733.052063,   0.522564,   35.259705,   53.939720,   435.224548,   310.595398,   354.710022,   0.342079,   726.752197,   726.499817
-0.042481,   0.111235,   0.119303,   0.000000,   738.149353,   0.522564,   35.259705,   53.059731,   459.245819,   302.747772,   348.475281,   0.349609,   726.520691,   725.639587
-0.042101,   0.113503,   0.121148,   0.000000,   740.988831,   0.522564,   35.259705,   52.179741,   478.997864,   294.664948,   341.954407,   0.355607,   725.204102,   723.545166
-0.041586,   0.114828,   0.122041,   0.000000,   742.205933,   0.522564,   35.259705,   51.299751,   494.154419,   287.419159,   335.872803,   0.360176,   723.325989,   720.909729
-0.040991,   0.115410,   0.122175,   0.000000,   742.143799,   0.522565,   35.259705,   50.419762,   506.053864,   280.456360,   330.151123,   0.363628,   720.985107,   717.904236
-0.040319,   0.115180,   0.121493,   0.000000,   740.791992,   0.522564,   35.259705,   49.539768,   514.931641,   273.574005,   324.847656,   0.366002,   718.124939,   714.545593
-0.039534,   0.114153,   0.120009,   0.000000,   738.388489,   0.522564,   35.259705,   48.659779,   521.571655,   266.937225,   319.716400,   0.367784,   714.647705,   710.677246
-0.038624,   0.112315,   0.117715,   0.000000,   734.982910,   0.522564,   35.259705,   47.779793,   526.357605,   260.513947,   314.620758,   0.369184,   710.461121,   706.179016
-0.037564,   0.109593,   0.114536,   0.000000,   730.571960,   0.522564,   35.259705,   46.899803,   529.462341,   254.457916,   309.436737,   0.370431,   705.412354,   700.852173
-0.036376,   0.106021,   0.110512,   0.000000,   725.174072,   0.522564,   35.259705,   46.019814,   531.054993,   248.759201,   304.107239,   0.371629,   699.456482,   694.630432
-0.035144,   0.101767,   0.105824,   0.000000,   718.945984,   0.522565,   35.259705,   45.139820,   531.208801,   243.514420,   298.757721,   0.372780,   692.743530,   687.664307
-0.034006,   0.097056,   0.100716,   0.000000,   711.887024,   0.522564,   35.259705,   44.259830,   529.993896,   238.173309,   293.539215,   0.373541,   685.481934,   680.254700
-0.033133,   0.092268,   0.095632,   0.000000,   704.568176,   0.522564,   35.259705,   43.379841,   527.791565,   233.043457,   288.711853,   0.373955,   678.187561,   672.906067
-0.032700,   0.087773,   0.091011,   0.000000,   697.588623,   0.522564,   35.259705,   42.499851,   525.658386,   228.046722,   284.127533,   0.374256,   671.291809,   665.984070
-0.032509,   0.082870,   0.086325,   0.000000,   689.880432,   0.522564,   35.259705,   41.619862,   522.635864,   222.115112,   279.698395,   0.373788,   664.147278,   659.018738
-0.032004,   0.076471,   0.080472,   0.000000,   679.386292,   0.522565,   35.259705,   40.739872,   518.452942,   213.307175,   273.875275,   0.372527,   654.772217,   650.034485
-0.031778,   0.069905,   0.075040,   0.000000,   668.995117,   0.522564,   35.259705,   39.859882,   512.959229,   204.952515,   269.086060,   0.370481,   645.927551,   641.740356
-0.032753,   0.064401,   0.070958,   0.000000,   659.248596,   0.522564,   35.259705,   38.979893,   506.490356,   194.883011,   266.337524,   0.365740,   639.228088,   636.093933
-0.034555,   0.060027,   0.067947,   0.000000,   650.209045,   0.522564,   35.259705,   38.099903,   497.507111,   184.584396,   266.649200,   0.358127,   634.868530,   633.063599
-0.037586,   0.057083,   0.066083,   0.000000,   640.691162,   0.522564,   35.259705,   37.219910,   484.102783,   171.361328,   271.093353,   0.344926,   633.433960,   633.046143
-0.041658,   0.055819,   0.065612,   -25.295950,   625.747864,   0.522565,   35.259705,   36.339920,   449.832764,   150.619171,   289.106079,   0.313337,   638.771606,   637.643250
-0.046476,   0.056672,   0.067354,   -120.348511,   591.042419,   0.522565,   35.259705,   35.459930,   348.257294,   122.436615,   337.298859,   0.237903,   659.504333,   634.089355
-0.052452,   0.060969,   0.073385,   -246.462646,   531.177490,   0.522564,   35.259705,   34.579941,   187.634933,   97.079941,   386.174835,   0.137876,   688.337708,   575.706238
-0.057869,   0.065786,   0.080021,   -303.193451,   501.160706,   0.522564,   35.259705,   33.699951,   112.369598,   85.597641,   401.954254,   0.093789,   703.588623,   523.081299
-0.059396,   0.066231,   0.081201,   -315.267090,   493.149689,   0.522564,   35.259705,   32.819962,   104.026360,   73.856239,   403.926819,   0.084017,   705.736389,   506.684937
-0.060664,   0.066489,   0.082111,   -333.543152,   479.362885,   0.522564,   35.259705,   31.939970,   84.848099,   60.971630,   406.277649,   0.068676,   707.762695,   476.245972
-0.062127,   0.067163,   0.083466,   -342.335114,   473.919281,   0.522564,   35.259705,   31.059980,   80.937660,   50.646523,   407.846069,   0.061781,   709.952148,   461.583740
-0.062952,   0.067136,   0.083935,   -353.683167,   464.634369,   0.522564,   35.259705,   30.179991,   72.627029,   38.324184,   408.799133,   0.052027,   710.851807,   436.931580
-0.063900,   0.067334,   0.084652,   -361.474579,   458.695557,   0.522564,   35.259705,   29.299999,   70.155510,   27.065464,   409.518707,   0.045519,   711.949646,   418.806976
-0.064630,   0.067295,   0.085071,   -369.928284,   451.553802,   0.522564,   35.259705,   28.420010,   66.518776,   15.106764,   409.935852,   0.038182,   712.594055,   395.578522
-0.065269,   0.067187,   0.085391,   -377.567200,   444.864624,   0.522564,   35.259705,   27.540020,   63.886738,   3.410672,   410.102661,   0.031460,   713.041260,   371.257996
-0.065818,   0.066978,   0.085591,   -384.587616,   438.412384,   0.522564,   35.259705,   26.660030,   62.308918,   -8.484135,   409.974792,   0.025155,   713.246826,   344.806946
-0.066281,   0.066675,   0.085676,   -391.936523,   431.377991,   0.522564,   35.259705,   25.780041,   59.889111,   -20.447662,   409.692810,   0.018432,   713.283936,   310.963013
-0.066620,   0.066225,   0.085588,   -398.556488,   424.608398,   0.522564,   35.259705,   24.900049,   58.495823,   -32.443905,   409.063080,   0.012179,   713.000732,   270.794128
-0.066898,   0.065683,   0.085408,   -405.561523,   417.224670,   0.522564,   35.259705,   24.020060,   56.308575,   -44.645428,   408.284637,   0.005456,   712.577576,   207.098831
-0.066966,   0.064887,   0.084931,   -412.147339,   409.623016,   0.522564,   35.259705,   23.140070,   54.231441,   -56.755741,   407.120483,   -0.001182,   711.675110,   -124.240837
-0.066933,   0.063941,   0.084303,   -419.002228,   401.381561,   0.522564,   35.259705,   22.260080,   51.578773,   -69.199425,   405.722260,   -0.008266,   710.527832,   -237.171295
-0.066744,   0.062736,   0.083422,   -425.808807,   392.616058,   0.522564,   35.259705,   21.380089,   48.567554,   -81.760315,   403.990692,   -0.015606,   708.971008,   -292.431854
-0.066498,   0.061319,   0.082400,   -433.348297,   382.728088,   0.522564,   35.259705,   20.500099,   44.273468,   -94.893692,   402.061310,   -0.023860,   707.195923,   -335.931641
-0.065880,   0.059522,   0.080926,   -439.681763,   373.096344,   0.522564,   35.259705,   19.620110,   40.430412,   -107.015816,   399.646057,   -0.031497,   704.673401,   -367.043182
-0.064639,   0.056774,   0.078492,   -447.497375,   359.873474,   0.522564,   35.259705,   18.740120,   33.903736,   -121.527634,   396.134064,   -0.041691,   700.574951,   -400.360107
-0.063479,   0.053570,   0.076005,   -455.769440,   345.830688,   0.522564,   35.259705,   17.860130,   25.214327,   -135.153091,   392.697418,   -0.052624,   696.379028,   -429.638733
-0.062840,   0.050360,   0.074184,   -466.035675,   330.800415,   0.522564,   35.259705,   16.980139,   12.239931,   -147.475204,   390.332825,   -0.065012,   693.385193,   -458.348816
-0.060706,   0.045296,   0.070693,   -473.800903,   314.251984,   0.522563,   35.259705,   16.100149,   3.367778,   -162.916702,   385.154785,   -0.077400,   687.120422,   -480.534851
-0.057776,   0.039059,   0.066885,   -484.115875,   293.817505,   0.522564,   35.259705,   15.220160,   -15.025618,   -175.272751,   380.624878,   -0.093229,   680.395935,   -504.884155
-0.055607,   0.032633,   0.064372,   -491.598236,   278.389465,   0.522564,   35.259705,   14.340169,   -21.265816,   -191.942963,   375.416565,   -0.105242,   675.296448,   -520.478943
-0.055578,   0.026793,   0.063920,   -515.118469,   248.729462,   0.522564,   35.259705,   13.460179,   -62.553284,   -203.835754,   375.334167,   -0.131592,   674.787781,   -556.661560
-0.057252,   0.021617,   0.063218,   -511.334900,   251.698746,   0.522564,   35.259705,   12.580190,   -57.280678,   -202.355469,   374.557617,   -0.128513,   673.437439,   -551.646118
-0.067352,   0.021452,   0.069450,   -630.755188,   80.130211,   0.522564,   35.259705,   11.700199,   -288.024261,   -262.600739,   355.215332,   -0.272155,   674.400085,   -663.563354
-0.086868,   0.026457,   0.089161,   -707.549500,   0.000000,   0.522564,   35.259705,   10.820210,   -592.042969,   -243.583298,   231.497574,   -0.426557,   653.000244,   -623.795105
-0.107113,   0.032523,   0.110760,   -736.730469,   0.000000,   0.522564,   35.259705,   9.940220,   -653.139099,   -250.385117,   201.629028,   -0.450112,   669.111267,   -619.694885
-0.123439,   0.038160,   0.128415,   -753.424072,   0.000000,   0.522564,   35.259705,   9.060229,   -666.936951,   -244.943741,   209.706940,   -0.441790,   688.019836,   -645.019714
-0.134894,   0.042897,   0.141157,   -765.460632,   0.000000,   0.522564,   35.259705,   8.180239,   -665.088318,   -246.257843,   228.283997,   -0.431540,   703.948059,   -668.655884
-0.141522,   0.046768,   0.149045,   -772.144836,   0.000000,   0.522564,   35.259705,   7.300249,   -647.429077,   -249.537537,   255.298553,   -0.416466,   717.918884,   -692.872070
-0.143585,   0.049662,   0.152354,   -774.665039,   0.000000,   0.522564,   35.259705,   6.420259,   -613.776428,   -258.604462,   288.146240,   -0.397953,   730.723755,   -715.803223
-0.141660,   0.051695,   0.151556,   -772.814819,   0.000000,   0.522564,   35.259705,   5.540269,   -564.226074,   -274.263092,   322.478333,   -0.376598,   742.160217,   -735.580078
-0.136194,   0.052754,   0.146959,   -766.356567,   0.000000,   0.522564,   35.259705,   4.660279,   -500.700806,   -297.772797,   352.820068,   -0.354493,   750.813477,   -749.265564
-0.126894,   0.052502,   0.138086,   -753.912842,   0.000000,   0.522564,   35.259705,   3.780289,   -425.982300,   -328.014526,   373.717896,   -0.333389,   753.870850,   -753.870850
-0.032572,   0.078419,   0.084581,   -1.028822,   691.767639,   0.537509,   36.001991,   55.549416,   362.449371,   328.289459,   345.976898,   0.332590,   692.282654,   692.280945
-0.034152,   0.084846,   0.091241,   0.000000,   702.150757,   0.537508,   36.001991,   54.644264,   394.637543,   315.189789,   344.957397,   0.338815,   698.344116,   698.249146
-0.034780,   0.090028,   0.096452,   0.000000,   710.937317,   0.537508,   36.001991,   53.739113,   423.405701,   306.284485,   341.101837,   0.346606,   701.748779,   701.184692
-0.035100,   0.093936,   0.100210,   0.000000,   716.891602,   0.537509,   36.001991,   52.833961,   447.676636,   297.686981,   335.940704,   0.353376,   703.088074,   701.789246
-0.035118,   0.096752,   0.102795,   0.000000,   720.736328,   0.537508,   36.001991,   51.928806,   467.148407,   290.123871,   330.451416,   0.358975,   703.180603,   701.040283
-0.035061,   0.098810,   0.104570,   0.000000,   723.007629,   0.537509,   36.001991,   51.023655,   482.727997,   283.067993,   325.128510,   0.363320,   702.591370,   699.650879
-0.034870,   0.100084,   0.105545,   0.000000,   723.907776,   0.537509,   36.001991,   50.118504,   494.716797,   276.561035,   320.199677,   0.366530,   701.423462,   697.810974
-0.034517,   0.100544,   0.105682,   0.000000,   723.553406,   0.537508,   36.001991,   49.213352,   503.922729,   270.388794,   315.481964,   0.368953,   699.556824,   695.395691
-0.034021,   0.100132,   0.104933,   0.000000,   721.869812,   0.537508,   36.001991,   48.308201,   510.484802,   264.281799,   311.010040,   0.370562,   696.928650,   692.390564
-0.033378,   0.098874,   0.103324,   0.000000,   719.060486,   0.537509,   36.001991,   47.403046,   514.964539,   258.448578,   306.608917,   0.371753,   693.483521,   688.666992
-0.032568,   0.096742,   0.100832,   0.000000,   715.183167,   0.537508,   36.001991,   46.497894,   517.714600,   253.004211,   302.102325,   0.372817,   689.095764,   684.033691
-0.031633,   0.093724,   0.097442,   0.000000,   710.133667,   0.537509,   36.001991,   45.592743,   518.743530,   247.805008,   297.464539,   0.373740,   683.674194,   678.407776
-0.030644,   0.089956,   0.093304,   0.000000,   704.001648,   0.537508,   36.001991,   44.687592,   518.304565,   242.734741,   292.670319,   0.374553,   677.286499,   671.851196
-0.029736,   0.085748,   0.088760,   0.000000,   697.164917,   0.537509,   36.001991,   43.782436,   516.613342,   237.937180,   287.948395,   0.375221,   670.316895,   664.756714
-0.029115,   0.081461,   0.084208,   0.000000,   689.950195,   0.537508,   36.001991,   42.877285,   514.447388,   232.866104,   283.230530,   0.375648,   663.131958,   657.515198
-0.028961,   0.077457,   0.080153,   0.000000,   682.964783,   0.537508,   36.001991,   41.972134,   512.152954,   227.422287,   278.948090,   0.375518,   656.492676,   650.967285
-0.028859,   0.072898,   0.075860,   0.000000,   674.909912,   0.537510,   36.001991,   41.066982,   510.075470,   220.209824,   273.770416,   0.375084,   648.996460,   643.649170
-0.028583,   0.066981,   0.070637,   0.000000,   664.405334,   0.537508,   36.001991,   40.161827,   505.825714,   211.062775,   268.124756,   0.373508,   639.780273,   634.909973
-0.028677,   0.061208,   0.066053,   0.000000,   653.956238,   0.537508,   36.001991,   39.256676,   501.314301,   200.778946,   263.009247,   0.370733,   631.265747,   627.116516
-0.030007,   0.056815,   0.063049,   0.000000,   645.221985,   0.537509,   36.001991,   38.351524,   495.605774,   190.387238,   260.865173,   0.365376,   625.833252,   622.834717
-0.032379,   0.053548,   0.061036,   0.000000,   636.500488,   0.537508,   36.001991,   37.446369,   486.453125,   178.069916,   262.271423,   0.355572,   622.962097,   621.541626
-0.035548,   0.051391,   0.059754,   0.000000,   626.352966,   0.537508,   36.001991,   36.541222,   470.073761,   162.995544,   269.096893,   0.338709,   623.021973,   622.940491
-0.039493,   0.050569,   0.059561,   -53.663265,   604.507141,   0.537511,   36.001991,   35.636066,   413.599030,   137.244843,   298.670654,   0.290049,   633.046936,   627.899048
-0.044037,   0.052070,   0.062040,   -177.522552,   553.131958,   0.537508,   36.001991,   34.730915,   266.448242,   109.161140,   356.762085,   0.189688,   660.047424,   602.730591
-0.049668,   0.056699,   0.068474,   -290.628448,   490.496521,   0.537508,   36.001991,   33.825764,   114.770554,   85.097504,   390.280579,   0.097428,   683.815735,   514.503967
-0.052326,   0.058652,   0.071443,   -308.783630,   481.428589,   0.537509,   36.001991,   32.920609,   95.965691,   76.679268,   394.988403,   0.083432,   689.766663,   494.115112
-0.052804,   0.058025,   0.071230,   -319.548492,   471.923706,   0.537509,   36.001991,   32.015457,   86.667297,   65.707901,   395.597321,   0.073648,   689.656250,   474.659271
-0.054486,   0.058973,   0.072913,   -335.759369,   461.105835,   0.537509,   36.001991,   31.110304,   72.308701,   53.037769,   398.316071,   0.060296,   692.945557,   446.971252
-0.055174,   0.058877,   0.073252,   -343.240479,   454.999084,   0.537508,   36.001991,   30.205153,   69.709389,   42.049232,   398.880096,   0.053713,   693.550537,   430.775574
-0.056016,   0.058988,   0.073842,   -354.066498,   446.314240,   0.537509,   36.001991,   29.300001,   62.421417,   29.826313,   399.858368,   0.044264,   694.682983,   404.905182
-0.056706,   0.058979,   0.074260,   -360.875824,   440.709778,   0.537509,   36.001991,   28.394848,   61.376751,   18.457195,   400.217865,   0.038271,   695.340149,   386.296112
-0.057180,   0.058735,   0.074384,   -369.814758,   432.557526,   0.537508,   36.001991,   27.489697,   56.269135,   6.473643,   400.412811,   0.030067,   695.582581,   356.772186
-0.057639,   0.058501,   0.074512,   -376.103088,   426.674744,   0.537509,   36.001991,   26.584543,   55.826950,   -5.255288,   400.225311,   0.024231,   695.685669,   332.164307
-0.057901,   0.058034,   0.074361,   -383.988342,   418.726685,   0.537508,   36.001991,   25.679390,   51.967159,   -17.228813,   399.863525,   0.016652,   695.388550,   293.087982
-0.058082,   0.057486,   0.074109,   -390.365387,   411.843414,   0.537509,   36.001991,   24.774239,   50.854069,   -29.376032,   399.093384,   0.010304,   694.816223,   249.591156
-0.058150,   0.056786,   0.073690,   -397.501190,   403.842468,   0.537509,   36.001991,   23.869085,   47.894001,   -41.552734,   398.167969,   0.003046,   693.991211,   166.081451
-0.058194,   0.056018,   0.073222,   -404.469177,   395.753082,   0.537508,   36.001991,   22.963934,   45.565128,   -54.281219,   396.984375,   -0.004192,   693.026489,   -184.485886
-0.058123,   0.055069,   0.072574,   -411.416229,   387.223755,   0.537509,   36.001991,   22.058783,   42.633389,   -66.825844,   395.551666,   -0.011658,   691.748291,   -258.918732
-0.057875,   0.053861,   0.071659,   -419.006165,   377.378326,   0.537509,   36.001991,   21.153629,   38.422009,   -80.049866,   393.761566,   -0.020110,   690.003174,   -309.658783
-0.057399,   0.052265,   0.070381,   -426.106384,   367.110260,   0.537508,   36.001991,   20.248476,   34.208595,   -93.204720,   391.458344,   -0.028601,   687.578857,   -346.867981
-0.056404,   0.050074,   0.068408,   -434.032623,   354.356964,   0.537509,   36.001991,   19.343325,   27.304676,   -106.980339,   388.434570,   -0.038832,   683.926636,   -381.787994
-0.055401,   0.047479,   0.066295,   -441.239014,   341.678619,   0.537509,   36.001991,   18.438171,   21.689579,   -121.249969,   384.879303,   -0.048815,   679.851501,   -409.226166
-0.055212,   0.044871,   0.065003,   -454.302917,   324.421204,   0.537508,   36.001991,   17.533020,   6.137414,   -136.019150,   382.819397,   -0.063901,   677.514404,   -445.356506
-0.054154,   0.041208,   0.062851,   -461.740845,   310.695343,   0.537509,   36.001991,   16.627869,   -0.849898,   -150.195587,   378.930573,   -0.074790,   673.199036,   -465.634827
-0.052179,   0.036274,   0.060085,   -474.039001,   289.686554,   0.537508,   36.001991,   15.722715,   -19.157499,   -165.194946,   374.816559,   -0.092020,   667.797913,   -493.497620
-0.050599,   0.030767,   0.058296,   -479.804443,   277.622772,   0.537509,   36.001991,   14.817563,   -20.656471,   -181.525192,   370.073395,   -0.101543,   663.695251,   -505.872833
-0.051312,   0.025773,   0.058933,   -503.614929,   250.635147,   0.537509,   36.001991,   13.912411,   -61.103279,   -191.876511,   371.413361,   -0.126743,   665.334167,   -542.752808
-0.053204,   0.021046,   0.059669,   -499.355225,   257.528015,   0.537508,   36.001991,   13.007258,   -46.232208,   -195.595016,   370.999664,   -0.120937,   666.539062,   -536.109802
-0.061065,   0.019436,   0.063574,   -591.415405,   136.043961,   0.537509,   36.001991,   12.102106,   -202.926483,   -252.444946,   362.886017,   -0.226594,   669.879578,   -637.677490
-0.077922,   0.023127,   0.079776,   -692.630859,   0.000000,   0.537509,   36.001991,   11.196954,   -551.650574,   -243.494812,   251.633316,   -0.409348,   647.489014,   -628.841187
-0.096339,   0.028193,   0.099386,   -723.682861,   0.000000,   0.537509,   36.001991,   10.291800,   -644.636047,   -250.582687,   193.383179,   -0.455593,   654.983826,   -601.253723
-0.110616,   0.032903,   0.114783,   -740.822998,   0.000000,   0.537508,   36.001991,   9.386649,   -661.054321,   -249.290924,   198.012299,   -0.451367,   672.287598,   -621.411499
-0.119824,   0.036716,   0.124998,   -751.024353,   0.000000,   0.537509,   36.001991,   8.481497,   -660.536072,   -248.412308,   213.261536,   -0.441771,   685.837219,   -642.990662
-0.124382,   0.039660,   0.130472,   -755.594482,   0.000000,   0.537509,   36.001991,   7.576344,   -644.419067,   -248.438721,   237.451614,   -0.426895,   697.172058,   -665.744080
-0.124871,   0.041741,   0.131828,   -756.065735,   0.000000,   0.537509,   36.001991,   6.671192,   -613.648254,   -253.077316,   267.645905,   -0.408491,   707.258667,   -687.376160
-0.121899,   0.042948,   0.129637,   -752.790405,   0.000000,   0.537509,   36.001991,   5.766040,   -568.606140,   -264.202698,   299.983643,   -0.387637,   716.141968,   -705.979248
-0.115994,   0.043265,   0.124316,   -745.507019,   0.000000,   0.537509,   36.001991,   4.860888,   -511.142639,   -282.394379,   329.449677,   -0.366011,   722.690002,   -719.085938
-0.107643,   0.042696,   0.116215,   -734.094849,   0.000000,   0.537509,   36.001991,   3.955735,   -445.407806,   -307.216339,   351.047424,   -0.346030,   725.007812,   -724.474792
-0.097071,   0.040372,   0.105384,   -719.895142,   0.957352,   0.537509,   36.001991,   3.050583,   -380.815460,   -338.122314,   359.793549,   -0.332669,   720.374268,   -720.372864
-0.025838,   0.061943,   0.066275,   -2.144906,   662.215027,   0.552449,   36.744282,   56.279121,   339.078217,   320.991913,   332.056854,   0.331715,   663.290100,   663.282288
-0.028019,   0.068073,   0.072807,   0.000000,   672.235352,   0.552447,   36.744282,   55.348808,   365.267548,   307.308563,   334.695038,   0.333587,   672.065002,   672.064880
-0.029400,   0.073684,   0.078634,   0.000000,   682.354675,   0.552447,   36.744282,   54.418495,   393.223450,   297.440948,   333.602417,   0.339441,   678.237976,   678.123413
-0.030131,   0.078467,   0.083480,   0.000000,   690.945557,   0.552449,   36.744282,   53.488178,   419.268707,   289.559998,   330.222870,   0.346355,   682.179749,   681.652039
-0.030558,   0.082334,   0.087280,   0.000000,   697.511108,   0.552447,   36.744282,   52.557865,   442.027832,   282.614532,   325.575073,   0.352959,   684.348938,   683.137390
-0.030797,   0.085448,   0.090264,   0.000000,   702.503052,   0.552448,   36.744282,   51.627552,   460.987366,   276.883942,   320.614563,   0.358798,   685.503601,   683.446228
-0.030843,   0.087782,   0.092440,   0.000000,   705.987732,   0.552448,   36.744282,   50.697235,   476.066010,   272.076141,   315.857086,   0.363591,   685.882751,   682.959045
-0.030712,   0.089268,   0.093737,   0.000000,   707.865967,   0.552448,   36.744282,   49.766922,   487.638489,   267.517578,   311.410980,   0.367234,   685.445435,   681.760681
-0.030385,   0.089904,   0.094156,   0.000000,   708.320557,   0.552447,   36.744282,   48.836605,   496.384125,   263.138977,   307.164764,   0.370053,   684.157837,   679.827026
-0.029893,   0.089671,   0.093685,   0.000000,   707.386658,   0.552449,   36.744282,   47.906292,   502.487732,   258.849609,   303.157990,   0.372103,   682.013611,   677.187683
-0.029231,   0.088506,   0.092254,   0.000000,   705.023987,   0.552447,   36.744282,   46.975975,   506.218903,   254.579636,   299.250092,   0.373568,   678.857300,   673.673523
-0.028435,   0.086420,   0.089875,   0.000000,   701.266296,   0.552448,   36.744282,   46.045662,   507.853302,   250.324234,   295.327026,   0.374623,   674.613525,   669.180664
-0.027538,   0.083495,   0.086635,   0.000000,   696.275208,   0.552447,   36.744282,   45.115349,   507.829773,   246.228622,   291.220215,   0.375570,   669.257080,   663.610107
-0.026661,   0.079896,   0.082712,   0.000000,   690.189026,   0.552450,   36.744282,   44.185036,   506.218994,   242.298370,   287.051331,   0.376356,   662.952148,   657.141968
-0.025930,   0.075934,   0.078437,   0.000000,   683.311462,   0.552447,   36.744282,   43.254719,   503.969208,   238.086166,   282.573364,   0.377109,   655.915405,   649.957581
-0.025548,   0.072047,   0.074311,   0.000000,   676.304260,   0.552448,   36.744282,   42.324406,   501.817230,   233.539429,   277.950928,   0.377805,   648.796753,   642.708740
-0.025528,   0.068311,   0.070564,   0.000000,   669.352295,   0.552448,   36.744282,   41.394089,   500.526215,   227.977600,   272.975403,   0.378351,   641.824097,   635.648315
-0.025447,   0.063874,   0.066474,   0.000000,   661.015808,   0.552447,   36.744282,   40.463776,   498.996399,   220.465668,   267.166016,   0.378375,   633.817017,   627.711304
-0.025429,   0.058548,   0.061967,   0.000000,   650.585938,   0.552448,   36.744282,   39.533463,   496.245636,   209.940125,   260.786163,   0.376847,   624.644714,   619.040771
-0.026170,   0.053735,   0.058415,   0.000000,   640.516235,   0.552448,   36.744282,   38.603146,   491.694305,   198.069305,   256.604370,   0.372422,   617.367493,   612.924866
-0.027795,   0.050147,   0.056073,   0.000000,   631.406616,   0.552448,   36.744282,   37.672832,   486.033051,   184.804214,   254.802231,   0.364996,   612.643677,   609.778992
-0.030386,   0.047646,   0.054631,   0.000000,   622.131165,   0.552447,   36.744282,   36.742519,   475.696289,   169.763931,   257.375885,   0.352248,   610.800903,   609.797363
-0.033665,   0.046140,   0.053815,   -9.156667,   608.826050,   0.552450,   36.744282,   35.812202,   450.043243,   149.626144,   270.024170,   0.325842,   613.455627,   613.301880
-0.037439,   0.045830,   0.054051,   -103.393280,   573.838806,   0.552447,   36.744282,   34.881889,   349.526947,   120.918571,   318.740295,   0.248160,   631.911560,   612.446228
-0.041893,   0.048157,   0.057625,   -245.394180,   502.748474,   0.552448,   36.744282,   33.951572,   160.378815,   96.975471,   372.725586,   0.129866,   660.564819,   542.793884
-0.045734,   0.051265,   0.062100,   -310.941162,   461.516785,   0.552448,   36.744282,   33.021259,   73.427528,   77.148087,   386.224487,   0.074558,   673.191406,   465.164368
-0.046100,   0.050786,   0.061949,   -306.775146,   464.197449,   0.552448,   36.744282,   32.090942,   93.054512,   64.367775,   385.219360,   0.078051,   672.305359,   471.440308
-0.047634,   0.051520,   0.063378,   -328.792480,   448.510162,   0.552448,   36.744282,   31.160629,   65.778267,   53.939404,   388.606232,   0.059048,   675.819946,   432.960541
-0.048634,   0.051894,   0.064250,   -336.039337,   443.728912,   0.552448,   36.744282,   30.230314,   65.714439,   41.975159,   389.703400,   0.052988,   677.442322,   418.901581
-0.049218,   0.051778,   0.064519,   -345.961700,   435.327820,   0.552448,   36.744282,   29.299999,   57.963871,   31.402250,   390.418945,   0.043930,   678.090393,   394.250793
-0.050042,   0.052006,   0.065191,   -353.666718,   429.546783,   0.552448,   36.744282,   28.369686,   55.639256,   20.240810,   391.206573,   0.037232,   679.343018,   373.992126
-0.050281,   0.051587,   0.065047,   -361.462891,   421.919067,   0.552448,   36.744282,   27.439371,   51.107407,   9.348784,   391.134094,   0.029675,   679.101746,   346.804199
-0.050725,   0.051414,   0.065211,   -368.041199,   415.910034,   0.552448,   36.744282,   26.509056,   49.609142,   -1.740287,   391.133850,   0.023488,   679.343445,   321.021851
-0.050764,   0.050802,   0.064819,   -375.216431,   408.119995,   0.552448,   36.744282,   25.578741,   45.684132,   -12.780549,   390.575806,   0.016163,   678.588684,   283.184235
-0.050810,   0.050200,   0.064445,   -381.139160,   401.404999,   0.552448,   36.744282,   24.648426,   44.298576,   -24.032738,   389.777557,   0.009967,   677.778870,   240.787598
-0.050651,   0.049319,   0.063760,   -388.391266,   392.664856,   0.552448,   36.744282,   23.718113,   40.225922,   -35.952328,   388.666168,   0.002106,   676.417847,   143.142929
-0.050357,   0.048275,   0.062887,   -394.404755,   384.541992,   0.552448,   36.744282,   22.787798,   38.206367,   -48.069118,   387.077057,   -0.004873,   674.605713,   -188.822128
-0.049889,   0.047016,   0.061773,   -401.845978,   374.368134,   0.552448,   36.744282,   21.857483,   33.182236,   -60.660080,   385.260284,   -0.013623,   672.361511,   -265.061035
-0.049343,   0.045532,   0.060488,   -408.372345,   364.481934,   0.552448,   36.744282,   20.927168,   29.842768,   -73.733177,   382.941162,   -0.021847,   669.671082,   -308.925598
-0.048831,   0.044024,   0.059238,   -417.247711,   352.106323,   0.552448,   36.744282,   19.996855,   22.713255,   -87.854668,   380.683716,   -0.032551,   667.075806,   -351.268066
-0.047754,   0.041682,   0.057145,   -424.131805,   339.422424,   0.552448,   36.744282,   19.066540,   17.592327,   -102.301712,   377.041260,   -0.042614,   662.612427,   -381.408020
-0.047306,   0.039228,   0.055602,   -438.066925,   320.293640,   0.552448,   36.744282,   18.136225,   1.701168,   -119.474464,   374.308441,   -0.059536,   659.394226,   -423.573212
-0.046871,   0.036670,   0.054267,   -445.004211,   308.756195,   0.552448,   36.744282,   17.205910,   -3.332160,   -132.915848,   371.269043,   -0.069198,   656.320740,   -442.714020
-0.045665,   0.032709,   0.052224,   -459.460419,   286.538757,   0.552448,   36.744282,   16.275597,   -22.490271,   -150.431396,   367.473083,   -0.088431,   651.814087,   -475.655731
-0.044510,   0.028007,   0.050894,   -464.918243,   275.831573,   0.552448,   36.744282,   15.345281,   -23.763241,   -165.323410,   363.548828,   -0.097201,   648.437439,   -487.528778
-0.045249,   0.023437,   0.051655,   -488.672180,   249.239899,   0.552448,   36.744282,   14.414967,   -58.245674,   -181.186600,   363.799316,   -0.122754,   650.167358,   -525.304810
-0.048429,   0.019961,   0.054959,   -496.961670,   247.597244,   0.552448,   36.744282,   13.484652,   -50.239010,   -199.125412,   364.760468,   -0.126565,   656.750793,   -535.524658
-0.054918,   0.017552,   0.058363,   -541.119202,   198.385513,   0.552448,   36.744282,   12.554337,   -109.517662,   -233.216049,   364.542847,   -0.172325,   662.960815,   -590.427856
-0.069103,   0.019643,   0.070746,   -673.807861,   0.000000,   0.552448,   36.744282,   11.624022,   -486.484955,   -246.672699,   282.864258,   -0.378201,   646.180359,   -640.005249
-0.086058,   0.023686,   0.088754,   -711.587891,   0.000000,   0.552448,   36.744282,   10.693707,   -635.534729,   -255.171265,   186.311340,   -0.463129,   641.079041,   -580.653809
-0.099023,   0.027666,   0.102730,   -731.433899,   0.000000,   0.552448,   36.744282,   9.763393,   -656.404907,   -263.992371,   187.274277,   -0.466516,   657.638550,   -591.779724
-0.107153,   0.031051,   0.111657,   -741.277039,   0.000000,   0.552448,   36.744282,   8.833078,   -656.888550,   -262.442627,   201.017731,   -0.457222,   670.229431,   -613.544067
-0.111026,   0.033810,   0.116173,   -744.997375,   0.000000,   0.552448,   36.744282,   7.902764,   -641.734924,   -259.534607,   223.897461,   -0.441503,   680.455505,   -638.179749
-0.111195,   0.035856,   0.116911,   -743.730530,   0.000000,   0.552448,   36.744282,   6.972449,   -612.853088,   -257.883606,   252.163422,   -0.421218,   689.062622,   -661.955872
-0.108315,   0.037097,   0.114562,   -738.569153,   0.000000,   0.552448,   36.744282,   6.042135,   -571.135376,   -261.100647,   282.744354,   -0.398308,   696.475769,   -682.089355
-0.103009,   0.037527,   0.109674,   -730.214172,   0.000000,   0.552448,   36.744282,   5.111820,   -518.668884,   -271.709167,   311.439514,   -0.375262,   702.068298,   -696.233032
-0.095810,   0.037137,   0.102686,   -718.805908,   0.000000,   0.552448,   36.744282,   4.181505,   -459.327881,   -289.308228,   333.834076,   -0.354284,   704.364685,   -702.941345
-0.087508,   0.035644,   0.094306,   -705.885742,   0.000000,   0.552448,   36.744282,   3.251191,   -401.137909,   -312.656219,   346.173157,   -0.338951,   701.964966,   -701.864746
-0.078831,   0.032852,   0.085147,   -693.848328,   0.443947,   0.552448,   36.744282,   2.320876,   -354.897430,   -338.506927,   347.049377,   -0.333013,   694.070374,   -694.070068
-0.020076,   0.047557,   0.050173,   -7.508543,   627.284485,   0.567390,   37.486568,   57.008831,   324.661102,   295.114838,   317.052521,   0.327367,   631.072266,   630.971741
-0.022623,   0.053461,   0.056591,   -10.198994,   637.938232,   0.567390,   37.486568,   56.053352,   343.123108,   284.616150,   322.745575,   0.325372,   643.098389,   642.916443
-0.024710,   0.059336,   0.062832,   -6.861139,   649.132202,   0.567390,   37.486568,   55.097878,   367.593964,   274.677124,   324.689758,   0.328063,   652.589844,   652.508667
-0.026272,   0.065045,   0.068792,   0.000000,   660.544189,   0.567390,   37.486568,   54.142399,   393.506073,   267.825043,   323.837891,   0.333929,   660.151062,   660.150024
-0.027396,   0.070325,   0.074197,   0.000000,   670.942505,   0.567390,   37.486568,   53.186924,   418.623047,   262.624390,   320.977570,   0.341042,   665.849792,   665.670410
-0.028029,   0.074698,   0.078625,   0.000000,   679.636780,   0.567390,   37.486568,   52.231445,   440.332642,   259.564026,   317.057007,   0.348344,   669.736694,   669.046692
-0.028291,   0.078080,   0.082003,   0.000000,   686.376953,   0.567390,   37.486568,   51.275970,   458.166962,   257.688507,   312.779449,   0.355022,   672.122681,   670.665894
-0.028256,   0.080573,   0.084459,   0.000000,   691.358948,   0.567391,   37.486568,   50.320492,   472.515533,   256.349274,   308.543335,   0.360794,   673.389832,   671.033752
-0.027951,   0.082123,   0.085933,   0.000000,   694.565857,   0.567389,   37.486568,   49.365013,   483.673431,   255.124908,   304.425293,   0.365630,   673.539795,   670.260315
-0.027409,   0.082665,   0.086366,   0.000000,   695.939392,   0.567391,   37.486568,   48.409538,   491.615723,   253.776062,   300.573486,   0.369420,   672.578064,   668.469360
-0.026693,   0.082254,   0.085807,   0.000000,   695.608582,   0.567390,   37.486568,   47.454060,   496.821106,   252.133591,   296.912903,   0.372320,   670.528931,   665.729492
-0.025840,   0.080908,   0.084271,   0.000000,   693.660278,   0.567390,   37.486568,   46.498585,   499.595978,   250.235168,   293.347870,   0.374532,   667.350159,   662.000244
-0.024908,   0.078638,   0.081761,   0.000000,   690.091370,   0.567390,   37.486568,   45.543106,   500.081207,   248.087585,   289.802032,   0.376174,   662.963318,   657.203430
-0.023947,   0.075521,   0.078364,   0.000000,   685.042175,   0.567390,   37.486568,   44.587631,   498.517517,   245.905472,   286.198944,   0.377477,   657.366394,   651.291382
-0.023049,   0.071748,   0.074271,   0.000000,   678.713562,   0.567390,   37.486568,   43.632153,   495.776154,   243.484375,   282.169617,   0.378784,   650.556641,   644.171936
-0.022347,   0.067602,   0.069784,   0.000000,   671.381836,   0.567391,   37.486568,   42.676678,   492.650085,   240.468628,   277.520966,   0.380204,   642.741028,   636.018982
-0.021969,   0.063524,   0.065436,   0.000000,   663.777161,   0.567389,   37.486568,   41.721199,   490.317810,   236.596298,   272.210449,   0.381842,   634.568787,   627.443909
-0.021885,   0.059582,   0.061464,   0.000000,   656.177307,   0.567390,   37.486568,   40.765724,   489.299225,   231.464203,   266.224152,   0.383556,   626.386475,   618.828796
-0.021885,   0.055096,   0.057315,   0.000000,   647.127380,   0.567390,   37.486568,   39.810246,   488.180573,   223.770920,   259.405426,   0.384460,   617.273499,   609.545044
-0.022198,   0.050350,   0.053453,   0.000000,   637.518738,   0.567390,   37.486568,   38.854771,   486.196045,   214.459015,   253.018829,   0.383871,   608.412476,   600.976013
-0.023516,   0.046362,   0.050711,   0.000000,   628.164185,   0.567391,   37.486568,   37.899292,   482.615051,   201.920959,   249.076950,   0.379059,   601.961182,   595.979309
-0.025503,   0.043367,   0.048846,   0.000000,   618.451477,   0.567389,   37.486568,   36.943813,   476.809875,   185.559250,   247.619751,   0.369396,   597.703979,   594.057495
-0.028266,   0.041438,   0.047782,   0.000000,   605.799438,   0.567391,   37.486568,   35.988338,   463.602173,   161.182114,   251.442566,   0.349119,   596.533630,   595.853333
-0.031822,   0.040785,   0.047758,   -44.587555,   581.630615,   0.567389,   37.486568,   35.032864,   413.478333,   123.564705,   277.533447,   0.295814,   605.157593,   601.445312
-0.035649,   0.041505,   0.049216,   -189.309006,   518.662964,   0.567391,   37.486568,   34.077385,   240.344360,   89.009598,   345.804169,   0.172930,   634.851746,   565.925049
-0.039516,   0.044104,   0.053154,   -307.422546,   444.768127,   0.567390,   37.486568,   33.121906,   63.534729,   73.810875,   376.060242,   0.069893,   655.026001,   443.272125
-0.040521,   0.044567,   0.054084,   -302.526520,   450.652405,   0.567390,   37.486568,   32.166431,   85.675468,   62.450420,   376.410370,   0.075214,   656.463379,   454.886566
-0.041636,   0.044866,   0.054947,   -318.046112,   439.294800,   0.567390,   37.486568,   31.210953,   71.778816,   49.469894,   378.506134,   0.061360,   658.672363,   427.291870
-0.043169,   0.045879,   0.056601,   -334.266602,   428.791656,   0.567390,   37.486568,   30.255476,   55.246357,   39.278706,   381.445587,   0.047559,   662.515808,   395.389008
-0.043644,   0.045785,   0.056825,   -338.192383,   425.516571,   0.567390,   37.486568,   29.299999,   59.439762,   27.884418,   381.528381,   0.043915,   662.830994,   385.333832
-0.044682,   0.046317,   0.057845,   -350.235657,   416.840851,   0.567390,   37.486568,   28.344522,   48.050552,   18.554630,   383.254608,   0.033379,   665.141968,   353.176117
-0.044868,   0.045991,   0.057735,   -354.458282,   412.479523,   0.567391,   37.486568,   27.389046,   49.301189,   8.720043,   382.931702,   0.029091,   664.820862,   337.283051
-0.045266,   0.045877,   0.057911,   -362.451385,   405.314178,   0.567390,   37.486568,   26.433569,   43.090160,   -0.227355,   383.271301,   0.021477,   665.249817,   305.149963
-0.045103,   0.045197,   0.057346,   -366.849945,   399.667053,   0.567390,   37.486568,   25.478092,   42.078671,   -9.261539,   382.397858,   0.016474,   664.025940,   278.870575
-0.044955,   0.044487,   0.056775,   -373.154602,   392.168915,   0.567390,   37.486568,   24.522615,   37.372025,   -18.357721,   381.645874,   0.009562,   662.857788,   232.254669
-0.044455,   0.043401,   0.055729,   -377.479187,   385.318787,   0.567391,   37.486568,   23.567139,   35.241619,   -27.402033,   380.110687,   0.003956,   660.614075,   172.485779
-0.043818,   0.042150,   0.054490,   -383.289642,   376.467285,   0.567390,   37.486568,   22.611660,   30.210276,   -37.032612,   378.387695,   -0.003456,   657.977661,   -164.239288
-0.043074,   0.040646,   0.053032,   -388.374878,   367.573792,   0.567390,   37.486568,   21.656183,   26.853167,   -47.654251,   376.133972,   -0.010590,   654.753357,   -237.353470
-0.042075,   0.038886,   0.051254,   -394.735107,   356.446625,   0.567390,   37.486568,   20.700708,   19.807833,   -58.096317,   373.565582,   -0.019610,   650.824097,   -289.642181
-0.040702,   0.036560,   0.048893,   -400.240173,   344.269958,   0.567390,   37.486568,   19.745232,   14.185324,   -70.155548,   369.858734,   -0.028909,   645.371704,   -326.732758
-0.039162,   0.033625,   0.046131,   -410.550598,   325.521759,   0.567391,   37.486568,   18.789755,   -0.480556,   -84.548264,   365.627930,   -0.044364,   638.873535,   -372.653412
-0.038529,   0.031222,   0.044512,   -419.510803,   310.757538,   0.567390,   37.486568,   17.834278,   -8.982103,   -99.771172,   362.301392,   -0.057110,   634.764282,   -402.250031
-0.037579,   0.027921,   0.042591,   -434.925476,   287.120239,   0.567390,   37.486568,   16.878801,   -24.628954,   -123.176300,   357.644531,   -0.078246,   629.661865,   -441.890839
-0.037058,   0.024395,   0.041880,   -446.224304,   271.141357,   0.567390,   37.486568,   15.923324,   -30.388271,   -144.694672,   354.100098,   -0.093021,   627.394287,   -465.226593
-0.037856,   0.020327,   0.042803,   -466.378937,   249.331604,   0.567390,   37.486568,   14.967846,   -45.983158,   -171.064178,   352.347961,   -0.114976,   629.252441,   -498.395020
-0.042131,   0.017957,   0.047816,   -497.811462,   225.554794,   0.567390,   37.486568,   14.012369,   -78.100517,   -194.156143,   356.997833,   -0.141563,   641.073303,   -540.321777
-0.047846,   0.015478,   0.052406,   -482.785461,   256.874481,   0.567390,   37.486568,   13.056892,   -22.545595,   -203.365387,   358.608795,   -0.115772,   650.447266,   -516.269409
-0.059440,   0.015674,   0.061158,   -643.011658,   5.527495,   0.567390,   37.486568,   12.101416,   -387.160400,   -250.323761,   316.969543,   -0.329045,   645.793152,   -645.739990
-0.074935,   0.018502,   0.077514,   -698.599060,   0.000000,   0.567390,   37.486568,   11.145939,   -622.396362,   -264.814026,   181.811981,   -0.472438,   625.980164,   -556.454346
-0.087054,   0.021720,   0.090671,   -722.776184,   0.000000,   0.567390,   37.486568,   10.190462,   -652.769897,   -289.544098,   174.152115,   -0.489401,   641.814209,   -547.234985
-0.094925,   0.024928,   0.099216,   -734.168213,   0.000000,   0.567390,   37.486568,   9.234985,   -653.834290,   -289.844208,   188.929352,   -0.480212,   655.043335,   -572.037781
-0.099166,   0.027941,   0.103895,   -739.293030,   0.000000,   0.567390,   37.486568,   8.279508,   -639.271362,   -286.590302,   212.791168,   -0.463458,   665.907776,   -602.767822
-0.100309,   0.030597,   0.105355,   -738.383728,   0.000000,   0.567390,   37.486568,   7.324031,   -611.798157,   -279.850220,   240.922668,   -0.440365,   674.931458,   -633.979614
-0.098672,   0.032641,   0.103989,   -732.282715,   0.000000,   0.567390,   37.486568,   6.368554,   -572.706177,   -273.874268,   270.464874,   -0.413560,   682.351624,   -660.297607
-0.094419,   0.033772,   0.099964,   -721.617126,   0.000000,   0.567390,   37.486568,   5.413077,   -524.012024,   -272.024017,   298.063599,   -0.385993,   687.435486,   -678.284180
-0.088172,   0.033849,   0.093839,   -707.775696,   0.000000,   0.567390,   37.486568,   4.457601,   -469.822693,   -276.489807,   320.352570,   -0.360895,   689.315674,   -686.885742
-0.080846,   0.032826,   0.086454,   -692.914429,   0.000000,   0.567390,   37.486568,   3.502124,   -416.608856,   -287.676178,   334.618591,   -0.341571,   687.299683,   -687.088074
-0.073006,   0.030640,   0.078281,   -678.608948,   4.145197,   0.567390,   37.486568,   2.546647,   -371.446198,   -303.017578,   339.658203,   -0.330284,   680.691040,   -680.662720
-0.065452,   0.027744,   0.070132,   -666.031982,   8.222981,   0.567390,   37.486568,   1.591170,   -341.468475,   -316.340515,   336.893280,   -0.327180,   670.181335,   -670.067810
-0.013363,   0.030296,   0.030833,   -23.034525,   566.767151,   0.582331,   38.228855,   57.738537,   312.528992,   231.203644,   292.083984,   0.313231,   578.628357,   577.595459
-0.017286,   0.038067,   0.039349,   -34.363590,   584.482788,   0.582333,   38.228855,   56.757896,   326.500183,   223.619003,   305.117310,   0.304404,   602.400146,   600.188965
-0.021101,   0.046203,   0.048173,   -37.524376,   602.554382,   0.582333,   38.228855,   55.777256,   347.416992,   217.613022,   313.389435,   0.302722,   622.165833,   619.612183
-0.024168,   0.054049,   0.056567,   -32.373234,   620.725098,   0.582332,   38.228855,   54.796619,   372.148407,   216.203476,   317.103546,   0.307621,   637.528503,   635.675232
-0.026254,   0.061117,   0.064013,   -21.827847,   637.617188,   0.582332,   38.228855,   53.815979,   397.769623,   218.019714,   317.237183,   0.316370,   648.806519,   647.979675
-0.027390,   0.067043,   0.070201,   -9.062739,   652.197510,   0.582332,   38.228855,   52.835342,   421.129456,   222.005310,   315.283478,   0.326410,   656.775757,   656.635071
-0.027775,   0.071752,   0.075093,   0.000000,   664.340149,   0.582333,   38.228855,   51.854702,   441.756165,   227.087158,   311.970367,   0.336728,   662.100037,   662.065613
-0.027637,   0.075171,   0.078637,   0.000000,   673.667725,   0.582333,   38.228855,   50.874062,   458.689636,   232.068542,   308.113861,   0.346095,   665.287170,   664.792969
-0.027097,   0.077369,   0.080911,   0.000000,   680.351807,   0.582331,   38.228855,   49.893421,   471.969147,   236.469666,   304.133759,   0.354174,   666.752136,   665.419128
-0.026237,   0.078429,   0.082004,   0.000000,   684.693237,   0.582333,   38.228855,   48.912785,   481.915741,   240.214798,   300.216980,   0.361013,   666.763306,   664.392456
-0.025188,   0.078431,   0.081989,   0.000000,   686.844177,   0.582333,   38.228855,   47.932144,   488.808960,   243.088409,   296.444366,   0.366611,   665.462402,   662.018066
-0.024014,   0.077430,   0.080913,   0.000000,   686.936584,   0.582332,   38.228855,   46.951504,   492.887024,   245.076263,   292.818695,   0.371079,   662.897766,   658.457581
-0.022791,   0.075469,   0.078811,   0.000000,   685.001892,   0.582332,   38.228855,   45.970867,   494.243439,   246.132294,   289.340790,   0.374459,   659.061951,   653.797546
-0.021581,   0.072625,   0.075755,   0.000000,   681.141724,   0.582332,   38.228855,   44.990227,   493.066956,   246.363220,   285.956024,   0.376905,   653.948669,   648.065552
-0.020495,   0.069048,   0.071888,   0.000000,   675.498413,   0.582333,   38.228855,   44.009590,   489.872467,   245.703049,   282.455597,   0.378643,   647.553406,   641.238464
-0.019620,   0.064982,   0.067459,   0.000000,   668.466187,   0.582333,   38.228855,   43.028946,   485.712006,   244.242981,   278.439545,   0.380220,   639.941223,   633.243958
-0.019042,   0.060812,   0.062892,   0.000000,   660.906555,   0.582331,   38.228855,   42.048309,   482.212891,   242.419418,   273.461182,   0.382517,   631.459961,   624.164062
-0.018730,   0.056842,   0.058589,   0.000000,   653.697754,   0.582333,   38.228855,   41.067673,   480.636322,   240.712708,   267.342072,   0.386181,   622.634705,   614.284485
-0.018444,   0.052802,   0.054429,   0.000000,   646.442505,   0.582332,   38.228855,   40.087032,   480.278870,   238.844193,   260.246063,   0.390823,   613.340515,   603.538086
-0.018231,   0.048093,   0.049933,   0.000000,   637.715454,   0.582333,   38.228855,   39.106392,   478.751648,   236.046555,   252.687180,   0.395212,   602.881287,   591.642334
-0.018512,   0.043107,   0.045655,   0.000000,   627.927307,   0.582332,   38.228855,   38.125751,   475.528229,   231.078415,   245.925598,   0.397516,   592.518555,   580.591431
-0.019638,   0.038859,   0.042327,   0.000000,   618.882324,   0.582332,   38.228855,   37.145115,   472.104828,   224.332214,   240.647186,   0.397523,   583.980164,   572.222046
-0.021646,   0.035596,   0.039894,   0.000000,   608.105347,   0.582333,   38.228855,   36.164474,   465.767212,   208.933273,   238.363998,   0.389307,   577.693787,   568.961853
-0.024453,   0.033616,   0.038648,   0.000000,   591.904724,   0.582332,   38.228855,   35.183834,   445.219086,   177.892838,   246.433746,   0.360013,   576.934448,   575.030884
-0.027991,   0.033243,   0.038967,   -89.979439,   545.991699,   0.582332,   38.228855,   34.203197,   336.951660,   119.060593,   298.740173,   0.254999,   596.096680,   580.522583
-0.031967,   0.035071,   0.042064,   -284.582581,   435.510681,   0.582333,   38.228855,   33.222557,   86.747398,   64.180695,   359.869781,   0.080089,   628.168396,   444.145233
-0.034561,   0.037259,   0.045195,   -315.304749,   417.578888,   0.582332,   38.228855,   32.241917,   59.232487,   43.041641,   366.352386,   0.053539,   636.752563,   395.077759
-0.036316,   0.038593,   0.047214,   -309.715179,   426.951691,   0.582332,   38.228855,   31.261278,   86.568245,   30.668253,   367.271454,   0.060998,   640.659546,   414.805603
-0.038372,   0.040176,   0.049593,   -342.223755,   404.452087,   0.582332,   38.228855,   30.280640,   43.982502,   18.245832,   373.116089,   0.032041,   647.388367,   339.122467
-0.039489,   0.041021,   0.050888,   -338.594788,   410.594543,   0.582332,   38.228855,   29.300001,   61.596176,   10.403585,   373.719147,   0.036933,   649.815002,   356.785278
-0.040709,   0.041858,   0.052236,   -353.834198,   399.981354,   0.582333,   38.228855,   28.319361,   43.389378,   2.757790,   376.359863,   0.023548,   653.231079,   308.945801
-0.041262,   0.042127,   0.052777,   -355.373840,   399.676147,   0.582332,   38.228855,   27.338722,   47.376091,   -3.073782,   376.681335,   0.022571,   654.267578,   305.108795
-0.041705,   0.042234,   0.053137,   -362.474518,   393.847717,   0.582332,   38.228855,   26.358082,   39.797024,   -8.423817,   377.391724,   0.015962,   655.182068,   272.278900
-0.041652,   0.041838,   0.052837,   -365.258423,   390.359833,   0.582332,   38.228855,   25.377443,   38.547749,   -13.446364,   376.913635,   0.012784,   654.504944,   252.619766
-0.041343,   0.041161,   0.052183,   -369.118042,   384.996552,   0.582332,   38.228855,   24.396805,   33.723606,   -17.845102,   376.174652,   0.008104,   653.130676,   216.573395
-0.040610,   0.040032,   0.050952,   -371.429047,   379.584351,   0.582332,   38.228855,   23.416164,   30.542219,   -22.386896,   374.572968,   0.004180,   650.409485,   172.966125
-0.039588,   0.038541,   0.049296,   -374.170990,   372.589447,   0.582333,   38.228855,   22.435526,   24.946903,   -26.528419,   372.492096,   -0.000815,   646.713989,   -99.738541
-0.038178,   0.036575,   0.047078,   -376.184326,   364.586884,   0.582332,   38.228855,   21.454885,   20.434258,   -32.031712,   369.455444,   -0.006026,   641.552917,   -192.733475
-0.036420,   0.034317,   0.044446,   -378.116547,   355.299744,   0.582332,   38.228855,   20.474247,   12.426452,   -35.243248,   365.932739,   -0.011972,   635.259583,   -239.894623
-0.034562,   0.031529,   0.041443,   -381.401550,   343.021576,   0.582332,   38.228855,   19.493608,   4.288912,   -42.668892,   361.449799,   -0.020383,   627.662231,   -282.945068
-0.032842,   0.028458,   0.038446,   -390.486450,   324.068573,   0.582333,   38.228855,   18.512968,   -15.734380,   -50.683495,   356.849915,   -0.035725,   619.713257,   -336.535248
-0.031098,   0.025413,   0.035578,   -390.919983,   313.817017,   0.582332,   38.228855,   17.532330,   -17.086092,   -60.016895,   351.714081,   -0.042027,   611.536499,   -350.402039
-0.029325,   0.021521,   0.032843,   -407.303497,   285.585266,   0.582333,   38.228855,   16.551691,   -49.563423,   -72.154816,   346.260193,   -0.067269,   603.137634,   -403.132538
-0.028639,   0.017147,   0.031872,   -404.008667,   285.359253,   0.582333,   38.228855,   15.571051,   -24.424171,   -94.225243,   342.912506,   -0.065922,   599.950439,   -398.378754
-0.030338,   0.013117,   0.033504,   -463.959808,   217.518448,   0.582332,   38.228855,   14.590412,   -123.529808,   -122.911552,   340.738983,   -0.136252,   602.903625,   -502.501984
-0.034876,   0.010640,   0.038757,   -427.513153,   279.628021,   0.582332,   38.228855,   13.609773,   18.455683,   -166.340790,   341.283936,   -0.079914,   616.850037,   -435.837463
-0.045070,   0.010017,   0.046957,   -587.044128,   80.363716,   0.582332,   38.228855,   12.629134,   -247.288193,   -259.392242,   333.649048,   -0.267628,   631.075439,   -619.406433
-0.059866,   0.011791,   0.062450,   -682.837646,   0.000000,   0.582332,   38.228855,   11.648495,   -595.589783,   -296.853790,   183.510910,   -0.491001,   605.867188,   -514.249756
-0.072313,   0.014366,   0.076178,   -710.081116,   0.000000,   0.582332,   38.228855,   10.667855,   -647.692810,   -331.867310,   153.610275,   -0.525906,   620.872070,   -458.587067
-0.081031,   0.017543,   0.085597,   -725.947083,   0.000000,   0.582332,   38.228855,   9.687216,   -649.626648,   -334.638397,   172.814484,   -0.514778,   637.339905,   -497.250061
-0.086805,   0.021032,   0.091713,   -735.914062,   0.000000,   0.582332,   38.228855,   8.706576,   -636.020874,   -334.078644,   200.351242,   -0.496564,   651.208069,   -543.573792
-0.090182,   0.024689,   0.095241,   -739.265259,   0.000000,   0.582332,   38.228855,   7.725937,   -609.904114,   -326.100372,   231.187088,   -0.470479,   663.156799,   -591.958374
-0.091237,   0.028243,   0.096359,   -735.945374,   0.000000,   0.582332,   38.228855,   6.745298,   -572.728333,   -314.132416,   262.387207,   -0.439065,   673.294556,   -633.541138
-0.089813,   0.031267,   0.094961,   -725.564880,   0.000000,   0.582332,   38.228855,   5.764659,   -526.754272,   -299.784821,   290.946014,   -0.404739,   680.717896,   -663.554871
-0.085802,   0.033128,   0.090921,   -708.856201,   0.000000,   0.582332,   38.228855,   4.784020,   -476.120728,   -285.406982,   313.929382,   -0.371092,   684.043030,   -679.458191
-0.079269,   0.033279,   0.084205,   -687.422546,   0.000000,   0.582332,   38.228855,   3.803381,   -426.209595,   -272.599304,   329.176544,   -0.341649,   681.800659,   -681.586731
-0.070653,   0.031332,   0.075125,   -664.066589,   17.480350,   0.582332,   38.228855,   2.822742,   -383.418396,   -263.167816,   335.427338,   -0.320262,   672.977051,   -672.466003
-0.060963,   0.027574,   0.064656,   -642.177185,   30.223108,   0.582332,   38.228855,   1.842103,   -353.598236,   -258.355835,   332.810394,   -0.310097,   657.809692,   -656.244751
-0.051346,   0.022962,   0.054081,   -623.228821,   28.145798,   0.582332,   38.228855,   0.861463,   -339.248322,   -255.834702,   323.005829,   -0.311024,   637.767700,   -636.368103
