MinPrincipalStrain,MaxPrincipalStrain,EqPlasticStrain,MinPrincipalStress,MaxPrincipalStress,ElemVolume,IntegrationPoint_CoordX,IntegrationPoint_CoordY,Stress_xx,Stress_yy,Stress_xy,StressTriaxility,MisesStress,ThirdInvStress
-0.002607,   0.006285,   0.004689,   -16.454844,   448.549805,   0.582331,   0.371144,   57.738537,   184.561111,   247.533859,   230.360458,   0.315168,   456.999481,   456.332214
-0.003938,   0.008865,   0.007521,   -25.738073,   467.067200,   0.582334,   0.371144,   56.757896,   177.642410,   263.686707,   242.617706,   0.306189,   480.453552,   478.898804
-0.005411,   0.011698,   0.010651,   -30.221802,   485.783295,   0.582334,   0.371144,   55.777256,   171.653687,   283.907806,   251.823486,   0.302752,   501.577545,   499.522858
-0.006728,   0.014594,   0.013846,   -24.568758,   506.533173,   0.582333,   0.371144,   54.796619,   170.447311,   311.517090,   256.011993,   0.309396,   519.253662,   517.943481
-0.007711,   0.017341,   0.016867,   -10.683944,   527.839478,   0.582333,   0.371144,   53.815979,   174.365646,   342.789917,   255.754166,   0.323266,   533.261780,   533.020874
-0.008376,   0.019780,   0.019553,   0.000000,   547.199280,   0.582333,   0.371144,   52.835342,   180.038727,   373.557678,   252.496231,   0.339195,   544.028931,   543.944275
-0.008717,   0.021812,   0.021802,   0.000000,   563.967224,   0.582334,   0.371144,   51.854702,   186.890030,   401.937317,   247.179657,   0.355600,   551.957214,   550.695496
-0.008820,   0.023413,   0.023593,   0.000000,   577.869202,   0.582334,   0.371144,   50.874062,   193.969193,   426.981537,   240.677750,   0.371219,   557.578125,   553.814941
-0.008733,   0.024685,   0.025041,   0.000000,   589.584412,   0.582331,   0.371144,   49.893421,   200.996262,   449.403961,   233.393372,   0.386005,   561.651428,   554.171143
-0.008471,   0.025666,   0.026189,   0.000000,   599.598328,   0.582334,   0.371144,   48.912785,   207.994385,   470.054535,   225.232880,   0.400400,   564.476562,   552.011719
-0.008093,   0.026331,   0.027003,   0.000000,   607.690491,   0.582334,   0.371144,   47.932144,   214.594894,   488.393219,   216.553070,   0.413944,   566.090027,   547.605591
-0.007619,   0.026742,   0.027555,   0.000000,   614.253479,   0.582333,   0.371144,   46.951504,   220.888077,   504.803955,   207.493713,   0.426769,   566.810669,   541.334290
-0.007079,   0.026946,   0.027892,   0.000000,   619.521667,   0.582333,   0.371144,   45.970867,   226.825317,   519.572815,   198.115005,   0.438927,   566.835083,   533.464722
-0.006496,   0.026972,   0.028045,   0.000000,   623.650085,   0.582333,   0.371144,   44.990227,   232.401199,   532.861755,   188.469742,   0.450459,   566.283325,   524.176941
-0.005894,   0.026855,   0.028047,   0.000000,   626.783081,   0.582334,   0.371144,   44.009590,   237.583481,   544.788757,   178.639755,   0.461346,   565.282593,   513.696716
-0.005288,   0.026628,   0.027933,   0.000000,   629.079407,   0.582334,   0.371144,   43.028946,   242.382812,   555.533936,   168.640991,   0.471627,   563.945740,   502.180725
-0.004692,   0.026312,   0.027725,   0.000000,   630.649292,   0.582331,   0.371144,   42.048309,   246.825928,   565.214172,   158.478760,   0.481345,   562.340759,   489.724091
-0.004115,   0.025929,   0.027441,   0.000000,   631.579773,   0.582334,   0.371144,   41.067673,   250.905701,   573.920410,   148.153412,   0.490509,   560.523621,   476.431519
-0.003567,   0.025494,   0.027097,   0.000000,   631.956055,   0.582333,   0.371144,   40.087032,   254.638062,   581.718262,   137.679459,   0.499125,   558.548096,   462.407654
-0.003056,   0.025026,   0.026708,   0.000000,   631.860779,   0.582334,   0.371144,   39.106392,   258.032806,   588.701660,   127.020042,   0.507214,   556.460693,   447.721832
-0.002586,   0.024538,   0.026288,   0.000000,   631.369019,   0.582333,   0.371144,   38.125751,   261.142700,   594.927917,   116.152725,   0.514806,   554.299561,   432.408264
-0.002161,   0.024042,   0.025849,   0.000000,   630.506409,   0.582333,   0.371144,   37.145115,   263.970245,   600.408936,   105.032394,   0.521906,   552.065674,   416.502930
-0.001783,   0.023552,   0.025403,   0.000000,   629.274597,   0.582334,   0.371144,   36.164474,   266.529175,   605.125916,   93.593925,   0.528528,   549.737122,   400.002838
-0.001454,   0.023081,   0.024965,   0.000000,   627.615173,   0.582333,   0.371144,   35.183834,   268.792755,   609.007019,   81.712997,   0.534681,   547.241699,   382.881958
-0.001176,   0.022643,   0.024550,   0.000000,   625.767761,   0.582333,   0.371144,   34.203197,   270.812927,   612.213379,   69.362801,   0.540297,   544.778076,   365.525665
-0.000948,   0.022254,   0.024175,   0.000000,   623.823425,   0.582334,   0.371144,   33.222557,   272.537384,   614.732239,   56.511990,   0.545257,   542.416504,   348.490112
-0.000771,   0.021932,   0.023862,   0.000000,   621.716858,   0.582333,   0.371144,   32.241917,   273.950836,   616.375488,   43.099209,   0.549505,   540.077637,   332.223724
-0.000645,   0.021690,   0.023628,   0.000000,   619.711304,   0.582333,   0.371144,   31.261278,   274.942352,   617.256531,   29.091646,   0.552803,   537.985046,   318.263214
-0.000569,   0.021541,   0.023482,   0.000000,   618.304749,   0.582333,   0.371144,   30.280640,   275.516876,   617.678833,   14.648056,   0.554888,   536.562622,   308.745117
-0.000544,   0.021491,   0.023434,   0.000000,   617.503113,   0.582333,   0.371144,   29.300001,   275.689301,   617.503113,   0.000003,   0.555681,   535.794434,   304.845551
-0.000569,   0.021541,   0.023482,   0.000000,   618.304749,   0.582333,   0.371144,   28.319361,   275.516846,   617.678833,   -14.648052,   0.554888,   536.562622,   308.745117
-0.000645,   0.021690,   0.023628,   0.000000,   619.711304,   0.582333,   0.371144,   27.338722,   274.942322,   617.256531,   -29.091648,   0.552803,   537.985046,   318.263214
-0.000771,   0.021932,   0.023862,   0.000000,   621.716797,   0.582333,   0.371144,   26.358082,   273.950806,   616.375427,   -43.099213,   0.549505,   540.077576,   332.223450
-0.000948,   0.022254,   0.024175,   0.000000,   623.823425,   0.582333,   0.371144,   25.377443,   272.537384,   614.732239,   -56.511974,   0.545257,   542.416504,   348.490082
-0.001176,   0.022643,   0.024550,   0.000000,   625.767761,   0.582333,   0.371144,   24.396805,   270.812988,   612.213379,   -69.362816,   0.540297,   544.778076,   365.525574
-0.001454,   0.023081,   0.024965,   0.000000,   627.615173,   0.582333,   0.371144,   23.416164,   268.792694,   609.007019,   -81.712997,   0.534681,   547.241699,   382.882263
-0.001783,   0.023552,   0.025403,   0.000000,   629.274597,   0.582333,   0.371144,   22.435526,   266.529175,   605.125916,   -93.593933,   0.528528,   549.737183,   400.002838
-0.002161,   0.024042,   0.025849,   0.000000,   630.506348,   0.582333,   0.371144,   21.454885,   263.970184,   600.408936,   -105.032372,   0.521906,   552.065613,   416.502838
-0.002586,   0.024538,   0.026288,   0.000000,   631.368958,   0.582333,   0.371144,   20.474247,   261.142761,   594.927856,   -116.152740,   0.514806,   554.299561,   432.408203
-0.003056,   0.025026,   0.026708,   0.000000,   631.860779,   0.582333,   0.371144,   19.493608,   258.032806,   588.701660,   -127.020035,   0.507214,   556.460693,   447.721802
-0.003567,   0.025494,   0.027096,   0.000000,   631.956055,   0.582334,   0.371144,   18.512968,   254.638016,   581.718262,   -137.679459,   0.499125,   558.548096,   462.407623
-0.004115,   0.025929,   0.027441,   0.000000,   631.579773,   0.582333,   0.371144,   17.532330,   250.905685,   573.920410,   -148.153397,   0.490509,   560.523621,   476.431488
-0.004692,   0.026312,   0.027725,   0.000000,   630.649231,   0.582333,   0.371144,   16.551691,   246.825928,   565.214111,   -158.478760,   0.481345,   562.340698,   489.723969
-0.005288,   0.026628,   0.027933,   0.000000,   629.079407,   0.582333,   0.371144,   15.571051,   242.382797,   555.533936,   -168.640991,   0.471627,   563.945740,   502.180725
-0.005894,   0.026855,   0.028047,   0.000000,   626.783142,   0.582333,   0.371144,   14.590412,   237.583496,   544.788818,   -178.639725,   0.461346,   565.282593,   513.696655
-0.006496,   0.026972,   0.028045,   0.000000,   623.650085,   0.582333,   0.371144,   13.609773,   232.401184,   532.861755,   -188.469727,   0.450459,   566.283264,   524.176941
-0.007079,   0.026946,   0.027892,   0.000000,   619.521729,   0.582333,   0.371144,   12.629134,   226.825348,   519.572876,   -198.114975,   0.438927,   566.835144,   533.464783
-0.007619,   0.026742,   0.027555,   0.000000,   614.253418,   0.582333,   0.371144,   11.648495,   220.888046,   504.803925,   -207.493713,   0.426769,   566.810669,   541.334290
-0.008093,   0.026331,   0.027003,   0.000000,   607.690491,   0.582333,   0.371144,   10.667855,   214.594879,   488.393188,   -216.553070,   0.413944,   566.090027,   547.605591
-0.008471,   0.025666,   0.026189,   0.000000,   599.598328,   0.582333,   0.371144,   9.687216,   207.994370,   470.054535,   -225.232880,   0.400400,   564.476562,   552.011780
-0.008733,   0.024685,   0.025041,   0.000000,   589.584351,   0.582333,   0.371144,   8.706576,   200.996231,   449.403900,   -233.393387,   0.386005,   561.651428,   554.171082
-0.008820,   0.023413,   0.023593,   0.000000,   577.869141,   0.582333,   0.371144,   7.725937,   193.969147,   426.981445,   -240.677780,   0.371219,   557.578125,   553.815002
-0.008717,   0.021812,   0.021802,   0.000000,   563.967163,   0.582333,   0.371144,   6.745298,   186.890015,   401.937225,   -247.179688,   0.355600,   551.957214,   550.695435
-0.008376,   0.019780,   0.019553,   0.000000,   547.199219,   0.582333,   0.371144,   5.764659,   180.038727,   373.557587,   -252.496246,   0.339195,   544.028870,   543.944275
-0.007711,   0.017341,   0.016867,   -10.683970,   527.839478,   0.582333,   0.371144,   4.784020,   174.365601,   342.789886,   -255.754150,   0.323266,   533.261719,   533.020813
-0.006728,   0.014594,   0.013846,   -24.568647,   506.533203,   0.582333,   0.371144,   3.803381,   170.447403,   311.517151,   -256.011963,   0.309396,   519.253662,   517.943481
-0.005411,   0.011698,   0.010651,   -30.221603,   485.783356,   0.582333,   0.371144,   2.822742,   171.653793,   283.907959,   -251.823410,   0.302753,   501.577484,   499.522797
-0.003938,   0.008865,   0.007521,   -25.737997,   467.067200,   0.582333,   0.371144,   1.842103,   177.642487,   263.686707,   -242.617676,   0.306189,   480.453522,   478.898743
-0.002607,   0.006285,   0.004689,   -16.454811,   448.549713,   0.582333,   0.371144,   0.861463,   184.561249,   247.533646,   -230.360413,   0.315168,   456.999329,   456.332123
-0.005005,   0.012275,   0.011195,   -4.761634,   498.648407,   0.567391,   1.113431,   57.008831,   236.521194,   257.365570,   251.489151,   0.328570,   501.046204,   500.995270
-0.005852,   0.014173,   0.013300,   -5.208949,   511.042236,   0.567391,   1.113431,   56.053352,   231.294998,   274.538300,   257.218445,   0.328250,   513.666504,   513.607117
-0.006648,   0.016172,   0.015532,   -0.909811,   525.282715,   0.567391,   1.113431,   55.097878,   222.324768,   302.048157,   260.059021,   0.332468,   525.738220,   525.736450
-0.007280,   0.018143,   0.017735,   0.000000,   540.466431,   0.567391,   1.113431,   54.142399,   214.740723,   334.655579,   258.916779,   0.341628,   536.057312,   535.889954
-0.007760,   0.020017,   0.019832,   0.000000,   554.956299,   0.567391,   1.113431,   53.186924,   209.672607,   366.613556,   255.013062,   0.352724,   544.604675,   543.663696
-0.008136,   0.021758,   0.021780,   0.000000,   567.991760,   0.567391,   1.113431,   52.231445,   205.768204,   396.488861,   249.243637,   0.363907,   551.657837,   549.255859
-0.008396,   0.023273,   0.023478,   0.000000,   579.296021,   0.567391,   1.113431,   51.275970,   203.785278,   422.795013,   242.420761,   0.374865,   557.160767,   552.619568
-0.008535,   0.024646,   0.025028,   0.000000,   589.537109,   0.567392,   1.113431,   50.320492,   203.574615,   446.443542,   235.007950,   0.385714,   561.743774,   554.347656
-0.008523,   0.025800,   0.026347,   0.000000,   598.568115,   0.567390,   1.113431,   49.365013,   204.631287,   467.824646,   226.946381,   0.396548,   565.257690,   554.236877
-0.008397,   0.026688,   0.027378,   0.000000,   606.143677,   0.567392,   1.113431,   48.409538,   206.222336,   486.958374,   218.322540,   0.407046,   567.651855,   552.339905
-0.008174,   0.027381,   0.028207,   0.000000,   612.659973,   0.567391,   1.113431,   47.454060,   208.407928,   504.168732,   209.422546,   0.417212,   569.315918,   549.067627
-0.007855,   0.027880,   0.028833,   0.000000,   618.187256,   0.567391,   1.113431,   46.498585,   211.075699,   519.658264,   200.280548,   0.427102,   570.304565,   544.471436
-0.007469,   0.028203,   0.029277,   0.000000,   622.796265,   0.567391,   1.113431,   45.543106,   214.000504,   533.604065,   190.948700,   0.436644,   570.720764,   538.716980
-0.007034,   0.028380,   0.029570,   0.000000,   626.602295,   0.567391,   1.113431,   44.587631,   217.055359,   546.188538,   181.475128,   0.445806,   570.685120,   531.979187
-0.006564,   0.028429,   0.029731,   0.000000,   629.687866,   0.567391,   1.113431,   43.632153,   220.155502,   557.553101,   171.876495,   0.454583,   570.271973,   524.375122
-0.006074,   0.028365,   0.029772,   0.000000,   632.101929,   0.567392,   1.113431,   42.676678,   223.208313,   567.804871,   162.143967,   0.462967,   569.523987,   515.999207
-0.005576,   0.028209,   0.029716,   0.000000,   633.941772,   0.567390,   1.113431,   41.721199,   226.205063,   577.074524,   152.272293,   0.470983,   568.513062,   506.939514
-0.005081,   0.027978,   0.029579,   0.000000,   635.271484,   0.567391,   1.113431,   40.765724,   229.122528,   585.445557,   142.255966,   0.478633,   567.287537,   497.277100
-0.004600,   0.027689,   0.029377,   0.000000,   636.162537,   0.567391,   1.113431,   39.810246,   231.975113,   592.982422,   132.109222,   0.485927,   565.899292,   487.088959
-0.004141,   0.027359,   0.029125,   0.000000,   636.685974,   0.567391,   1.113431,   38.854771,   234.771317,   599.802856,   121.753265,   0.492906,   564.390015,   476.391846
-0.003710,   0.026999,   0.028836,   0.000000,   636.873535,   0.567392,   1.113431,   37.899292,   237.530243,   605.912231,   111.194321,   0.499570,   562.779053,   465.227936
-0.003311,   0.026625,   0.028523,   0.000000,   636.805969,   0.567390,   1.113431,   36.943813,   240.256317,   611.396301,   100.380280,   0.505916,   561.128601,   453.676636
-0.002950,   0.026250,   0.028199,   0.000000,   636.361511,   0.567392,   1.113431,   35.988338,   242.979996,   616.118408,   89.237053,   0.512000,   559.308899,   441.561768
-0.002630,   0.025886,   0.027878,   0.000000,   635.734070,   0.567390,   1.113431,   35.032864,   245.687393,   620.247375,   77.720856,   0.517751,   557.497742,   429.167389
-0.002354,   0.025548,   0.027576,   0.000000,   634.803040,   0.567392,   1.113431,   34.077385,   248.277878,   623.616394,   65.756508,   0.523104,   555.590576,   416.591431
-0.002123,   0.025251,   0.027307,   0.000000,   633.758057,   0.567391,   1.113431,   33.121906,   250.717896,   626.317261,   53.386574,   0.527924,   553.763672,   404.360870
-0.001942,   0.025006,   0.027084,   0.000000,   632.590027,   0.567391,   1.113431,   32.166431,   252.839508,   628.248901,   40.602295,   0.532041,   552.018127,   393.070862
-0.001810,   0.024822,   0.026917,   0.000000,   631.380310,   0.567391,   1.113431,   31.210953,   254.496826,   629.394592,   27.356512,   0.535274,   550.429260,   383.530762
-0.001731,   0.024709,   0.026814,   0.000000,   630.554199,   0.567391,   1.113431,   30.255476,   255.518967,   630.047913,   13.779207,   0.537302,   549.391235,   377.259705
-0.001704,   0.024671,   0.026781,   0.000000,   629.975281,   0.567391,   1.113431,   29.299999,   255.871735,   629.975281,   0.000003,   0.538082,   548.768005,   374.636627
-0.001731,   0.024709,   0.026814,   0.000000,   630.554199,   0.567391,   1.113431,   28.344522,   255.518967,   630.047913,   -13.779203,   0.537302,   549.391235,   377.259705
-0.001810,   0.024822,   0.026917,   0.000000,   631.380310,   0.567391,   1.113431,   27.389046,   254.496841,   629.394592,   -27.356520,   0.535274,   550.429321,   383.530823
-0.001942,   0.025006,   0.027084,   0.000000,   632.590027,   0.567391,   1.113431,   26.433569,   252.839508,   628.248901,   -40.602299,   0.532041,   552.018127,   393.070862
-0.002123,   0.025251,   0.027307,   0.000000,   633.757996,   0.567391,   1.113431,   25.478092,   250.717850,   626.317200,   -53.386566,   0.527924,   553.763611,   404.360992
-0.002354,   0.025548,   0.027576,   0.000000,   634.802979,   0.567391,   1.113431,   24.522615,   248.277878,   623.616333,   -65.756516,   0.523104,   555.590576,   416.591431
-0.002630,   0.025886,   0.027878,   0.000000,   635.734070,   0.567391,   1.113431,   23.567139,   245.687408,   620.247375,   -77.720871,   0.517751,   557.497742,   429.167419
-0.002950,   0.026250,   0.028199,   0.000000,   636.361511,   0.567391,   1.113431,   22.611660,   242.979996,   616.118408,   -89.237076,   0.512000,   559.308960,   441.561829
-0.003311,   0.026625,   0.028523,   0.000000,   636.805908,   0.567391,   1.113431,   21.656183,   240.256287,   611.396240,   -100.380280,   0.505916,   561.128601,   453.676483
-0.003710,   0.026999,   0.028836,   0.000000,   636.873474,   0.567390,   1.113431,   20.700708,   237.530258,   605.912170,   -111.194328,   0.499570,   562.779053,   465.227814
-0.004141,   0.027359,   0.029125,   0.000000,   636.685913,   0.567391,   1.113431,   19.745232,   234.771301,   599.802795,   -121.753250,   0.492906,   564.389954,   476.391663
-0.004600,   0.027689,   0.029377,   0.000000,   636.162476,   0.567391,   1.113431,   18.789755,   231.975159,   592.982422,   -132.109207,   0.485927,   565.899231,   487.088837
-0.005081,   0.027978,   0.029579,   0.000000,   635.271484,   0.567391,   1.113431,   17.834278,   229.122467,   585.445557,   -142.255951,   0.478633,   567.287537,   497.277161
-0.005576,   0.028209,   0.029716,   0.000000,   633.941772,   0.567391,   1.113431,   16.878801,   226.205063,   577.074524,   -152.272308,   0.470983,   568.513123,   506.939545
-0.006074,   0.028365,   0.029772,   0.000000,   632.101929,   0.567391,   1.113431,   15.923324,   223.208313,   567.804871,   -162.143951,   0.462967,   569.523987,   515.999207
-0.006564,   0.028429,   0.029731,   0.000000,   629.687866,   0.567391,   1.113431,   14.967846,   220.155487,   557.553101,   -171.876465,   0.454584,   570.271912,   524.375061
-0.007034,   0.028380,   0.029570,   0.000000,   626.602356,   0.567391,   1.113431,   14.012369,   217.055389,   546.188599,   -181.475098,   0.445806,   570.685120,   531.979065
-0.007469,   0.028203,   0.029277,   0.000000,   622.796265,   0.567391,   1.113431,   13.056892,   214.000488,   533.604065,   -190.948669,   0.436644,   570.720703,   538.716919
-0.007855,   0.027880,   0.028833,   0.000000,   618.187256,   0.567391,   1.113431,   12.101416,   211.075729,   519.658264,   -200.280518,   0.427102,   570.304565,   544.471375
-0.008174,   0.027381,   0.028207,   0.000000,   612.659973,   0.567391,   1.113431,   11.145939,   208.407913,   504.168732,   -209.422546,   0.417212,   569.315918,   549.067566
-0.008397,   0.026688,   0.027378,   0.000000,   606.143616,   0.567391,   1.113431,   10.190462,   206.222305,   486.958374,   -218.322540,   0.407046,   567.651855,   552.339905
-0.008523,   0.025800,   0.026347,   0.000000,   598.568115,   0.567391,   1.113431,   9.234985,   204.631241,   467.824646,   -226.946396,   0.396548,   565.257690,   554.236938
-0.008535,   0.024646,   0.025028,   0.000000,   589.537048,   0.567391,   1.113431,   8.279508,   203.574600,   446.443481,   -235.007965,   0.385714,   561.743774,   554.347717
-0.008396,   0.023273,   0.023478,   0.000000,   579.296021,   0.567391,   1.113431,   7.324031,   203.785263,   422.794952,   -242.420792,   0.374865,   557.160767,   552.619629
-0.008136,   0.021758,   0.021780,   0.000000,   567.991760,   0.567391,   1.113431,   6.368554,   205.768173,   396.488800,   -249.243668,   0.363907,   551.657837,   549.255920
-0.007760,   0.020017,   0.019832,   0.000000,   554.956238,   0.567391,   1.113431,   5.413077,   209.672623,   366.613464,   -255.013092,   0.352724,   544.604675,   543.663757
-0.007280,   0.018143,   0.017735,   0.000000,   540.466431,   0.567391,   1.113431,   4.457601,   214.740692,   334.655579,   -258.916779,   0.341628,   536.057312,   535.889954
-0.006648,   0.016172,   0.015532,   -0.909680,   525.282776,   0.567391,   1.113431,   3.502124,   222.324875,   302.048248,   -260.058990,   0.332468,   525.738220,   525.736511
-0.005852,   0.014173,   0.013300,   -5.208763,   511.042358,   0.567391,   1.113431,   2.546647,   231.295181,   274.538422,   -257.218414,   0.328250,   513.666565,   513.607117
-0.005005,   0.012275,   0.011195,   -4.761641,   498.648407,   0.567391,   1.113431,   1.591170,   236.521210,   257.365570,   -251.489166,   0.328570,   501.046204,   500.995331
-0.006756,   0.016674,   0.016015,   -0.187456,   525.515015,   0.552450,   1.855719,   56.279121,   258.002258,   267.325317,   262.809906,   0.333155,   525.608765,   525.608704
-0.007543,   0.018697,   0.018290,   0.000000,   538.832214,   0.552448,   1.855719,   55.348808,   248.612671,   293.495514,   266.836090,   0.336378,   537.201721,   537.179260
-0.008087,   0.020577,   0.020420,   0.000000,   553.308716,   0.552448,   1.855719,   54.418495,   238.515060,   328.008606,   266.313812,   0.345344,   546.821045,   546.461548
-0.008398,   0.022211,   0.022276,   0.000000,   566.550659,   0.552450,   1.855719,   53.488178,   230.475906,   361.938141,   262.230988,   0.356400,   554.071838,   552.711243
-0.008626,   0.023681,   0.023945,   0.000000,   577.985107,   0.552448,   1.855719,   52.557865,   223.416260,   392.841003,   256.215393,   0.366930,   559.831055,   556.876282
-0.008809,   0.024935,   0.025364,   0.000000,   587.362854,   0.552449,   1.855719,   51.627552,   216.656052,   420.374817,   248.804337,   0.376382,   564.170959,   559.220337
-0.008940,   0.026145,   0.026734,   0.000000,   595.902100,   0.552449,   1.855719,   50.697235,   211.638031,   444.982819,   240.817032,   0.385353,   567.982056,   560.610596
-0.008994,   0.027230,   0.027966,   0.000000,   603.522034,   0.552449,   1.855719,   49.766922,   208.067032,   467.119690,   232.252029,   0.394105,   571.072266,   560.821838
-0.008965,   0.028113,   0.028974,   0.000000,   610.043396,   0.552448,   1.855719,   48.836605,   205.699814,   486.810181,   223.223129,   0.402662,   573.276062,   559.697815
-0.008861,   0.028872,   0.029852,   0.000000,   615.813477,   0.552450,   1.855719,   47.906292,   204.212982,   504.573639,   213.977539,   0.410896,   574.992371,   557.704102
-0.008683,   0.029507,   0.030602,   0.000000,   620.990356,   0.552448,   1.855719,   46.975975,   203.760117,   520.688477,   204.570190,   0.419045,   576.269043,   554.794739
-0.008441,   0.030000,   0.031205,   0.000000,   625.480530,   0.552449,   1.855719,   46.045662,   203.986633,   535.179077,   195.093628,   0.426944,   577.098267,   551.053406
-0.008136,   0.030359,   0.031670,   0.000000,   629.351440,   0.552448,   1.855719,   45.115349,   204.793457,   548.237427,   185.573746,   0.434627,   577.531006,   546.530212
-0.007786,   0.030600,   0.032015,   0.000000,   632.658203,   0.552450,   1.855719,   44.185036,   205.995087,   560.033936,   176.028641,   0.442047,   577.638306,   541.345093
-0.007400,   0.030737,   0.032251,   0.000000,   635.461060,   0.552448,   1.855719,   43.254719,   207.508255,   570.736206,   166.430756,   0.449231,   577.463928,   535.544006
-0.006991,   0.030780,   0.032393,   0.000000,   637.808228,   0.552449,   1.855719,   42.324406,   209.252182,   580.472717,   156.752884,   0.456187,   577.047852,   529.179810
-0.006564,   0.030738,   0.032445,   0.000000,   639.729797,   0.552449,   1.855719,   41.394089,   211.188431,   589.311951,   146.990219,   0.462921,   576.412720,   522.286133
-0.006131,   0.030624,   0.032422,   0.000000,   641.282593,   0.552448,   1.855719,   40.463776,   213.284805,   597.376282,   137.083160,   0.469460,   575.597839,   514.888367
-0.005704,   0.030451,   0.032333,   0.000000,   642.489014,   0.552449,   1.855719,   39.533463,   215.508957,   604.676880,   127.063080,   0.475776,   574.630371,   507.055420
-0.005287,   0.030233,   0.032194,   0.000000,   643.423035,   0.552449,   1.855719,   38.603146,   217.882797,   611.339233,   116.845848,   0.481918,   573.556580,   498.783478
-0.004889,   0.029984,   0.032018,   0.000000,   644.121399,   0.552449,   1.855719,   37.672832,   220.402374,   617.384827,   106.436775,   0.487870,   572.411133,   490.127625
-0.004518,   0.029718,   0.031818,   0.000000,   644.557861,   0.552448,   1.855719,   36.742519,   223.023193,   622.800842,   95.767151,   0.493621,   571.170044,   481.090424
-0.004177,   0.029447,   0.031605,   0.000000,   644.777832,   0.552450,   1.855719,   35.812202,   225.709473,   627.616577,   84.804184,   0.499126,   569.880310,   471.788300
-0.003872,   0.029184,   0.031393,   0.000000,   644.805115,   0.552448,   1.855719,   34.881889,   228.428162,   631.818970,   73.533180,   0.504335,   568.569031,   462.352264
-0.003607,   0.028942,   0.031196,   0.000000,   644.569641,   0.552449,   1.855719,   33.951572,   231.070877,   635.290894,   61.941460,   0.509157,   567.187134,   452.945984
-0.003385,   0.028731,   0.031023,   0.000000,   644.253174,   0.552449,   1.855719,   33.021259,   233.502075,   638.150940,   50.064983,   0.513410,   565.923828,   444.145355
-0.003210,   0.028560,   0.030882,   0.000000,   643.673035,   0.552448,   1.855719,   32.090942,   235.602936,   640.153748,   37.896210,   0.517021,   564.616577,   436.111298
-0.003083,   0.028433,   0.030777,   0.000000,   643.218994,   0.552449,   1.855719,   31.160629,   237.272598,   641.622681,   25.455956,   0.519780,   563.633301,   429.735016
-0.003006,   0.028355,   0.030715,   0.000000,   642.645142,   0.552448,   1.855719,   30.230314,   238.321732,   642.238892,   12.816289,   0.521571,   562.762207,   425.292938
-0.002980,   0.028329,   0.030694,   0.000000,   642.437317,   0.552449,   1.855719,   29.299999,   238.665131,   642.437317,   0.000003,   0.522173,   562.458313,   423.766815
-0.003006,   0.028355,   0.030715,   0.000000,   642.645142,   0.552449,   1.855719,   28.369686,   238.321701,   642.238892,   -12.816285,   0.521571,   562.762268,   425.292938
-0.003083,   0.028433,   0.030777,   0.000000,   643.218933,   0.552448,   1.855719,   27.439371,   237.272614,   641.622620,   -25.455957,   0.519780,   563.633240,   429.734863
-0.003210,   0.028560,   0.030882,   0.000000,   643.673035,   0.552449,   1.855719,   26.509056,   235.602921,   640.153748,   -37.896206,   0.517022,   564.616516,   436.111481
-0.003385,   0.028731,   0.031023,   0.000000,   644.253174,   0.552448,   1.855719,   25.578741,   233.502121,   638.150940,   -50.064991,   0.513410,   565.923828,   444.145233
-0.003607,   0.028942,   0.031196,   0.000000,   644.569641,   0.552449,   1.855719,   24.648426,   231.070847,   635.290894,   -61.941444,   0.509157,   567.187134,   452.945984
-0.003872,   0.029184,   0.031393,   0.000000,   644.805054,   0.552449,   1.855719,   23.718113,   228.428162,   631.818909,   -73.533195,   0.504335,   568.569031,   462.352264
-0.004177,   0.029447,   0.031605,   0.000000,   644.777771,   0.552448,   1.855719,   22.787798,   225.709473,   627.616516,   -84.804192,   0.499126,   569.880249,   471.788269
-0.004518,   0.029718,   0.031818,   0.000000,   644.557861,   0.552449,   1.855719,   21.857483,   223.023178,   622.800842,   -95.767151,   0.493621,   571.170044,   481.090424
-0.004889,   0.029984,   0.032018,   0.000000,   644.121399,   0.552448,   1.855719,   20.927168,   220.402298,   617.384827,   -106.436768,   0.487870,   572.411133,   490.127838
-0.005287,   0.030233,   0.032194,   0.000000,   643.423035,   0.552448,   1.855719,   19.996855,   217.882843,   611.339233,   -116.845848,   0.481918,   573.556519,   498.783508
-0.005704,   0.030451,   0.032333,   0.000000,   642.489014,   0.552449,   1.855719,   19.066540,   215.508926,   604.676880,   -127.063065,   0.475776,   574.630371,   507.055481
-0.006131,   0.030624,   0.032422,   0.000000,   641.282532,   0.552449,   1.855719,   18.136225,   213.284805,   597.376282,   -137.083145,   0.469460,   575.597839,   514.888367
-0.006564,   0.030738,   0.032445,   0.000000,   639.729797,   0.552448,   1.855719,   17.205910,   211.188477,   589.311951,   -146.990234,   0.462921,   576.412781,   522.286194
-0.006991,   0.030780,   0.032393,   0.000000,   637.808167,   0.552449,   1.855719,   16.275597,   209.252151,   580.472717,   -156.752869,   0.456187,   577.047852,   529.179871
-0.007400,   0.030737,   0.032251,   0.000000,   635.461060,   0.552449,   1.855719,   15.345281,   207.508255,   570.736206,   -166.430740,   0.449231,   577.463928,   535.543945
-0.007786,   0.030600,   0.032015,   0.000000,   632.658142,   0.552449,   1.855719,   14.414967,   205.995102,   560.033936,   -176.028625,   0.442047,   577.638245,   541.345093
-0.008136,   0.030359,   0.031670,   0.000000,   629.351440,   0.552449,   1.855719,   13.484652,   204.793472,   548.237427,   -185.573700,   0.434627,   577.530945,   546.530151
-0.008441,   0.030000,   0.031205,   0.000000,   625.480530,   0.552449,   1.855719,   12.554337,   203.986618,   535.179077,   -195.093597,   0.426944,   577.098267,   551.053406
-0.008683,   0.029507,   0.030602,   0.000000,   620.990295,   0.552449,   1.855719,   11.624022,   203.760117,   520.688477,   -204.570160,   0.419045,   576.269043,   554.794678
-0.008861,   0.028872,   0.029852,   0.000000,   615.813538,   0.552449,   1.855719,   10.693707,   204.212967,   504.573669,   -213.977524,   0.410896,   574.992371,   557.704163
-0.008965,   0.028113,   0.028974,   0.000000,   610.043396,   0.552449,   1.855719,   9.763393,   205.699783,   486.810181,   -223.223114,   0.402662,   573.276062,   559.697815
-0.008994,   0.027230,   0.027966,   0.000000,   603.522034,   0.552449,   1.855719,   8.833078,   208.067001,   467.119629,   -232.252060,   0.394105,   571.072205,   560.821838
-0.008940,   0.026145,   0.026734,   0.000000,   595.902039,   0.552449,   1.855719,   7.902764,   211.637985,   444.982788,   -240.817047,   0.385353,   567.982056,   560.610535
-0.008809,   0.024935,   0.025364,   0.000000,   587.362793,   0.552449,   1.855719,   6.972449,   216.655975,   420.374725,   -248.804382,   0.376382,   564.170959,   559.220398
-0.008626,   0.023681,   0.023945,   0.000000,   577.985107,   0.552449,   1.855719,   6.042135,   223.416214,   392.840942,   -256.215454,   0.366930,   559.831055,   556.876404
-0.008398,   0.022211,   0.022276,   0.000000,   566.550598,   0.552449,   1.855719,   5.111820,   230.475830,   361.938080,   -262.231018,   0.356400,   554.071838,   552.711243
-0.008087,   0.020577,   0.020420,   0.000000,   553.308716,   0.552449,   1.855719,   4.181505,   238.514969,   328.008606,   -266.313843,   0.345344,   546.821045,   546.461609
-0.007543,   0.018698,   0.018290,   0.000000,   538.832275,   0.552449,   1.855719,   3.251191,   248.612595,   293.495667,   -266.836121,   0.336378,   537.201782,   537.179321
-0.006756,   0.016674,   0.016015,   -0.187460,   525.515198,   0.552449,   1.855719,   2.320876,   258.002136,   267.325623,   -262.809998,   0.333155,   525.608948,   525.608887
-0.008703,   0.021437,   0.021285,   0.000000,   549.662170,   0.537507,   2.598006,   55.549416,   266.567566,   284.791534,   273.831085,   0.334878,   548.815735,   548.809753
-0.009327,   0.023584,   0.023738,   0.000000,   564.782043,   0.537506,   2.598006,   54.644264,   254.313431,   321.453278,   274.856232,   0.343104,   559.370605,   559.127869
-0.009634,   0.025330,   0.025745,   0.000000,   578.572815,   0.537506,   2.598006,   53.739113,   244.008621,   358.854187,   271.127258,   0.354530,   566.818298,   565.645508
-0.009827,   0.026776,   0.027404,   0.000000,   589.666504,   0.537507,   2.598006,   52.833961,   234.882797,   391.494965,   265.156616,   0.364898,   572.194824,   569.536133
-0.009934,   0.027891,   0.028677,   0.000000,   598.247131,   0.537506,   2.598006,   51.928806,   226.429352,   419.798340,   257.585785,   0.374131,   575.758240,   571.234314
-0.009994,   0.028943,   0.029874,   0.000000,   605.791748,   0.537507,   2.598006,   51.023655,   219.017059,   445.361206,   249.099304,   0.382667,   578.726868,   571.998047
-0.010004,   0.029876,   0.030935,   0.000000,   612.366394,   0.537507,   2.598006,   50.118504,   213.077744,   468.108704,   240.000946,   0.390798,   581.021240,   571.743774
-0.009965,   0.030646,   0.031808,   0.000000,   617.882996,   0.537506,   2.598006,   49.213352,   208.112000,   488.299133,   230.433716,   0.398449,   582.601746,   570.512695
-0.009874,   0.031353,   0.032616,   0.000000,   622.915955,   0.537506,   2.598006,   48.308201,   204.352386,   506.571991,   220.674744,   0.405843,   583.907471,   568.698059
-0.009736,   0.031968,   0.033327,   0.000000,   627.419373,   0.537507,   2.598006,   47.403046,   201.556427,   523.106323,   210.767792,   0.412989,   584.892273,   566.275391
-0.009545,   0.032472,   0.033922,   0.000000,   631.361755,   0.537506,   2.598006,   46.497894,   199.650696,   537.847473,   200.925766,   0.419830,   585.552856,   563.298462
-0.009318,   0.032899,   0.034438,   0.000000,   634.905762,   0.537507,   2.598006,   45.592743,   198.458298,   551.225769,   191.107132,   0.426435,   586.008545,   559.874451
-0.009045,   0.033237,   0.034866,   0.000000,   638.069519,   0.537506,   2.598006,   44.687592,   197.926727,   563.361023,   181.335068,   0.432854,   586.253906,   555.988647
-0.008734,   0.033488,   0.035207,   0.000000,   640.878052,   0.537507,   2.598006,   43.782436,   197.983887,   574.387573,   171.604889,   0.439124,   586.296814,   551.636902
-0.008394,   0.033658,   0.035467,   0.000000,   643.328308,   0.537506,   2.598006,   42.877285,   198.423157,   584.412354,   161.901199,   0.445177,   586.160889,   546.905212
-0.008030,   0.033757,   0.035656,   0.000000,   645.501038,   0.537506,   2.598006,   41.972134,   199.296982,   593.627197,   152.139099,   0.451138,   585.869751,   541.729431
-0.007651,   0.033784,   0.035773,   0.000000,   647.379639,   0.537508,   2.598006,   41.066982,   200.513321,   602.024963,   142.363876,   0.456951,   585.429810,   536.166382
-0.007267,   0.033762,   0.035838,   0.000000,   649.039246,   0.537506,   2.598006,   40.161827,   202.039871,   609.779846,   132.472351,   0.462661,   584.891846,   530.226624
-0.006882,   0.033690,   0.035851,   0.000000,   650.469543,   0.537506,   2.598006,   39.256676,   203.812057,   616.918640,   122.416382,   0.468252,   584.251526,   523.920959
-0.006501,   0.033566,   0.035808,   0.000000,   651.657715,   0.537507,   2.598006,   38.351524,   205.844330,   623.426514,   112.186714,   0.473741,   583.490601,   517.215393
-0.006135,   0.033412,   0.035730,   0.000000,   652.658569,   0.537506,   2.598006,   37.446369,   208.123352,   629.339844,   101.813599,   0.479097,   582.667725,   510.197449
-0.005791,   0.033246,   0.035634,   0.000000,   653.521179,   0.537506,   2.598006,   36.541222,   210.578674,   634.719727,   91.257599,   0.484267,   581.840149,   502.986176
-0.005475,   0.033078,   0.035531,   0.000000,   654.237488,   0.537508,   2.598006,   35.636066,   213.107239,   639.558777,   80.468857,   0.489180,   581.017395,   495.703400
-0.005192,   0.032917,   0.035429,   0.000000,   654.662598,   0.537506,   2.598006,   34.730915,   215.598648,   643.679077,   69.444054,   0.493767,   580.083313,   488.383850
-0.004946,   0.032770,   0.035335,   0.000000,   655.027588,   0.537506,   2.598006,   33.825764,   218.003082,   647.260010,   58.263458,   0.497907,   579.266846,   481.462524
-0.004741,   0.032645,   0.035255,   0.000000,   655.120361,   0.537507,   2.598006,   32.920609,   220.195526,   650.063904,   46.895420,   0.501548,   578.381836,   474.952850
-0.004578,   0.032544,   0.035191,   0.000000,   655.086914,   0.537507,   2.598006,   32.015457,   222.081940,   652.200378,   35.353722,   0.504570,   577.575500,   469.277344
-0.004461,   0.032470,   0.035145,   0.000000,   655.010620,   0.537507,   2.598006,   31.110304,   223.478790,   653.710571,   23.685495,   0.506796,   576.951294,   464.942261
-0.004390,   0.032426,   0.035119,   0.000000,   654.701111,   0.537506,   2.598006,   30.205153,   224.397308,   654.371826,   11.903673,   0.508266,   576.317993,   461.836578
-0.004366,   0.032411,   0.035109,   0.000000,   654.711853,   0.537507,   2.598006,   29.300001,   224.733704,   654.711853,   0.000004,   0.508754,   576.209167,   460.877289
-0.004390,   0.032426,   0.035119,   0.000000,   654.701111,   0.537507,   2.598006,   28.394848,   224.397324,   654.371826,   -11.903671,   0.508266,   576.317993,   461.836578
-0.004461,   0.032470,   0.035145,   0.000000,   655.010620,   0.537506,   2.598006,   27.489697,   223.478760,   653.710571,   -23.685492,   0.506796,   576.951294,   464.942261
-0.004578,   0.032544,   0.035191,   0.000000,   655.086914,   0.537507,   2.598006,   26.584543,   222.081955,   652.200378,   -35.353725,   0.504570,   577.575500,   469.277344
-0.004741,   0.032645,   0.035255,   0.000000,   655.120300,   0.537506,   2.598006,   25.679390,   220.195480,   650.063843,   -46.895409,   0.501548,   578.381775,   474.952606
-0.004946,   0.032770,   0.035335,   0.000000,   655.027588,   0.537507,   2.598006,   24.774239,   218.003067,   647.260010,   -58.263451,   0.497907,   579.266846,   481.462524
-0.005192,   0.032917,   0.035429,   0.000000,   654.662537,   0.537507,   2.598006,   23.869085,   215.598663,   643.679016,   -69.444077,   0.493767,   580.083252,   488.383698
-0.005475,   0.033078,   0.035531,   0.000000,   654.237427,   0.537506,   2.598006,   22.963934,   213.107239,   639.558716,   -80.468849,   0.489180,   581.017334,   495.703400
-0.005791,   0.033246,   0.035634,   0.000000,   653.521118,   0.537507,   2.598006,   22.058783,   210.578674,   634.719666,   -91.257599,   0.484267,   581.840088,   502.986176
-0.006135,   0.033412,   0.035730,   0.000000,   652.658569,   0.537507,   2.598006,   21.153629,   208.123352,   629.339844,   -101.813599,   0.479097,   582.667725,   510.197449
-0.006501,   0.033566,   0.035808,   0.000000,   651.657715,   0.537506,   2.598006,   20.248476,   205.844284,   623.426514,   -112.186707,   0.473741,   583.490601,   517.215393
-0.006882,   0.033690,   0.035851,   0.000000,   650.469543,   0.537507,   2.598006,   19.343325,   203.812042,   616.918640,   -122.416382,   0.468252,   584.251526,   523.920959
-0.007267,   0.033762,   0.035838,   0.000000,   649.039246,   0.537507,   2.598006,   18.438171,   202.039871,   609.779846,   -132.472366,   0.462661,   584.891907,   530.226624
-0.007651,   0.033784,   0.035773,   0.000000,   647.379639,   0.537506,   2.598006,   17.533020,   200.513321,   602.024963,   -142.363876,   0.456951,   585.429810,   536.166382
-0.008030,   0.033757,   0.035656,   0.000000,   645.500977,   0.537507,   2.598006,   16.627869,   199.296967,   593.627197,   -152.139084,   0.451138,   585.869751,   541.729431
-0.008394,   0.033658,   0.035467,   0.000000,   643.328247,   0.537506,   2.598006,   15.722715,   198.423157,   584.412354,   -161.901184,   0.445177,   586.160889,   546.905212
-0.008734,   0.033488,   0.035207,   0.000000,   640.878052,   0.537507,   2.598006,   14.817563,   197.983856,   574.387573,   -171.604874,   0.439124,   586.296814,   551.636902
-0.009045,   0.033237,   0.034866,   0.000000,   638.069519,   0.537507,   2.598006,   13.912411,   197.926743,   563.361023,   -181.335052,   0.432854,   586.253906,   555.988586
-0.009318,   0.032899,   0.034438,   0.000000,   634.905823,   0.537506,   2.598006,   13.007258,   198.458344,   551.225830,   -191.107086,   0.426435,   586.008545,   559.874512
-0.009545,   0.032472,   0.033922,   0.000000,   631.361816,   0.537507,   2.598006,   12.102106,   199.650696,   537.847534,   -200.925720,   0.419830,   585.552856,   563.298340
-0.009736,   0.031968,   0.033327,   0.000000,   627.419373,   0.537507,   2.598006,   11.196954,   201.556427,   523.106323,   -210.767761,   0.412989,   584.892212,   566.275330
-0.009874,   0.031353,   0.032616,   0.000000,   622.915955,   0.537507,   2.598006,   10.291800,   204.352356,   506.572021,   -220.674713,   0.405843,   583.907410,   568.698059
-0.009965,   0.030646,   0.031808,   0.000000,   617.882996,   0.537506,   2.598006,   9.386649,   208.111969,   488.299133,   -230.433716,   0.398449,   582.601746,   570.512695
-0.010004,   0.029876,   0.030935,   0.000000,   612.366333,   0.537507,   2.598006,   8.481497,   213.077667,   468.108643,   -240.000961,   0.390798,   581.021240,   571.743835
-0.009994,   0.028943,   0.029874,   0.000000,   605.791687,   0.537507,   2.598006,   7.576344,   219.017014,   445.361145,   -249.099319,   0.382667,   578.726807,   571.997986
-0.009934,   0.027891,   0.028677,   0.000000,   598.247070,   0.537507,   2.598006,   6.671192,   226.429245,   419.798248,   -257.585815,   0.374131,   575.758240,   571.234314
-0.009827,   0.026776,   0.027404,   0.000000,   589.666382,   0.537507,   2.598006,   5.766040,   234.882721,   391.494843,   -265.156616,   0.364898,   572.194763,   569.536072
-0.009634,   0.025330,   0.025745,   0.000000,   578.572754,   0.537507,   2.598006,   4.860888,   244.008499,   358.854126,   -271.127258,   0.354530,   566.818237,   565.645508
-0.009327,   0.023584,   0.023738,   0.000000,   564.781982,   0.537507,   2.598006,   3.955735,   254.313248,   321.453217,   -274.856262,   0.343104,   559.370605,   559.127808
-0.008703,   0.021437,   0.021285,   0.000000,   549.662231,   0.537507,   2.598006,   3.050583,   266.567474,   284.791718,   -273.831085,   0.334878,   548.815735,   548.809875
-0.011556,   0.028205,   0.028864,   0.000000,   578.535278,   0.522564,   3.340294,   54.819710,   263.103271,   317.595093,   286.895233,   0.335205,   577.456726,   577.447632
-0.011786,   0.030020,   0.030970,   0.000000,   593.051331,   0.522564,   3.340294,   53.939720,   251.625946,   358.992188,   282.690155,   0.348248,   584.465942,   583.871460
-0.011795,   0.031198,   0.032339,   0.000000,   603.065796,   0.522564,   3.340294,   53.059731,   241.121231,   392.484131,   276.077667,   0.358948,   588.390686,   586.603516
-0.011789,   0.032122,   0.033404,   0.000000,   610.852539,   0.522564,   3.340294,   52.179741,   231.314560,   421.609344,   268.001801,   0.368296,   590.941101,   587.557495
-0.011730,   0.033008,   0.034418,   0.000000,   617.869690,   0.522564,   3.340294,   51.299751,   223.203079,   448.048981,   258.887177,   0.377330,   592.983398,   587.540955
-0.011647,   0.033743,   0.035253,   0.000000,   623.634888,   0.522565,   3.340294,   50.419762,   216.110275,   471.309509,   249.151245,   0.385553,   594.315186,   586.540222
-0.011515,   0.034330,   0.035918,   0.000000,   628.370483,   0.522564,   3.340294,   49.539768,   210.022232,   491.794342,   239.032196,   0.393137,   595.056641,   584.728699
-0.011349,   0.034882,   0.036546,   0.000000,   632.718506,   0.522564,   3.340294,   48.659779,   205.124039,   510.468231,   228.634079,   0.400474,   595.621521,   582.438354
-0.011158,   0.035355,   0.037088,   0.000000,   636.480530,   0.522564,   3.340294,   47.779793,   201.112701,   527.059814,   218.261887,   0.407290,   595.948547,   579.759583
-0.010950,   0.035773,   0.037571,   0.000000,   639.822021,   0.522564,   3.340294,   46.899803,   197.856796,   542.001526,   207.926086,   0.413699,   596.132568,   576.793640
-0.010714,   0.036145,   0.038012,   0.000000,   642.867981,   0.522564,   3.340294,   46.019814,   195.399368,   555.500854,   197.722183,   0.419799,   596.238037,   573.595215
-0.010457,   0.036471,   0.038409,   0.000000,   645.661011,   0.522565,   3.340294,   45.139820,   193.633682,   567.786682,   187.620178,   0.425658,   596.269348,   570.159912
-0.010179,   0.036746,   0.038758,   0.000000,   648.185242,   0.522564,   3.340294,   44.259830,   192.402847,   578.944214,   177.648071,   0.431241,   596.222473,   566.531189
-0.009872,   0.036978,   0.039071,   0.000000,   650.576050,   0.522564,   3.340294,   43.379841,   191.863342,   589.218140,   167.766693,   0.436747,   596.135193,   562.631592
-0.009549,   0.037159,   0.039335,   0.000000,   652.770691,   0.522564,   3.340294,   42.499851,   191.783752,   598.715393,   157.856827,   0.442140,   595.964417,   558.447571
-0.009205,   0.037271,   0.039530,   0.000000,   654.721558,   0.522564,   3.340294,   41.619862,   192.132156,   607.400879,   147.952881,   0.447416,   595.667297,   553.947266
-0.008849,   0.037336,   0.039680,   0.000000,   656.510071,   0.522565,   3.340294,   40.739872,   192.901825,   615.417480,   138.024826,   0.452608,   595.304260,   549.163574
-0.008491,   0.037360,   0.039788,   0.000000,   658.145508,   0.522564,   3.340294,   39.859882,   194.053391,   622.802246,   128.072418,   0.457709,   594.886658,   544.114563
-0.008139,   0.037355,   0.039867,   0.000000,   659.654968,   0.522564,   3.340294,   38.979893,   195.531952,   629.676758,   117.955849,   0.462747,   594.427795,   538.784729
-0.007793,   0.037325,   0.039920,   0.000000,   661.071655,   0.522564,   3.340294,   38.099903,   197.307846,   636.056396,   107.708672,   0.467679,   593.971924,   533.253601
-0.007458,   0.037269,   0.039944,   0.000000,   662.300720,   0.522564,   3.340294,   37.219910,   199.314301,   641.829529,   97.354385,   0.472462,   593.446838,   527.506714
-0.007143,   0.037198,   0.039950,   0.000000,   663.434753,   0.522565,   3.340294,   36.339920,   201.516510,   647.092041,   86.885010,   0.477058,   592.945435,   521.684875
-0.006855,   0.037127,   0.039950,   0.000000,   664.469055,   0.522565,   3.340294,   35.459930,   203.806808,   651.822815,   76.325859,   0.481377,   592.487305,   515.936951
-0.006599,   0.037062,   0.039951,   0.000000,   665.316406,   0.522564,   3.340294,   34.579941,   206.057922,   655.932373,   65.648315,   0.485346,   592.010315,   510.343750
-0.006377,   0.037006,   0.039955,   0.000000,   665.878601,   0.522564,   3.340294,   33.699951,   208.125137,   659.306274,   54.849796,   0.488876,   591.445801,   505.026672
-0.006192,   0.036959,   0.039959,   0.000000,   666.398743,   0.522564,   3.340294,   32.819962,   209.979401,   662.154297,   44.014153,   0.491875,   591.026733,   500.387878
-0.006044,   0.036923,   0.039965,   0.000000,   666.701660,   0.522564,   3.340294,   31.939970,   211.564377,   664.295471,   33.093170,   0.494345,   590.586304,   496.360504
-0.005940,   0.036898,   0.039971,   0.000000,   666.754089,   0.522564,   3.340294,   31.059980,   212.766983,   665.675903,   22.124401,   0.496204,   590.109131,   493.130310
-0.005876,   0.036882,   0.039975,   0.000000,   666.790344,   0.522565,   3.340294,   30.179991,   213.497345,   666.520264,   11.064257,   0.497330,   589.828186,   491.147125
-0.005855,   0.036877,   0.039976,   0.000000,   666.773254,   0.522565,   3.340294,   29.299999,   213.737503,   666.773254,   0.000002,   0.497710,   589.708252,   490.451569
-0.005876,   0.036882,   0.039975,   0.000000,   666.790344,   0.522564,   3.340294,   28.420010,   213.497360,   666.520264,   -11.064250,   0.497330,   589.828186,   491.147125
-0.005940,   0.036898,   0.039971,   0.000000,   666.754089,   0.522564,   3.340294,   27.540020,   212.766983,   665.675903,   -22.124392,   0.496204,   590.109131,   493.130310
-0.006044,   0.036923,   0.039965,   0.000000,   666.701660,   0.522565,   3.340294,   26.660030,   211.564346,   664.295471,   -33.093170,   0.494345,   590.586304,   496.360504
-0.006192,   0.036959,   0.039959,   0.000000,   666.398743,   0.522564,   3.340294,   25.780041,   209.979385,   662.154297,   -44.014156,   0.491875,   591.026733,   500.387878
-0.006377,   0.037006,   0.039955,   0.000000,   665.878540,   0.522565,   3.340294,   24.900049,   208.125137,   659.306213,   -54.849808,   0.488876,   591.445740,   505.026611
-0.006599,   0.037062,   0.039951,   0.000000,   665.316345,   0.522564,   3.340294,   24.020060,   206.057907,   655.932312,   -65.648338,   0.485346,   592.010254,   510.343781
-0.006855,   0.037127,   0.039950,   0.000000,   664.468994,   0.522564,   3.340294,   23.140070,   203.806763,   651.822754,   -76.325851,   0.481377,   592.487244,   515.936951
-0.007143,   0.037198,   0.039950,   0.000000,   663.434753,   0.522565,   3.340294,   22.260080,   201.516556,   647.092041,   -86.885025,   0.477058,   592.945435,   521.684814
-0.007458,   0.037269,   0.039944,   0.000000,   662.300720,   0.522564,   3.340294,   21.380089,   199.314301,   641.829529,   -97.354385,   0.472462,   593.446838,   527.506714
-0.007793,   0.037325,   0.039920,   0.000000,   661.071533,   0.522564,   3.340294,   20.500099,   197.307831,   636.056335,   -107.708656,   0.467679,   593.971924,   533.253540
-0.008139,   0.037355,   0.039867,   0.000000,   659.654968,   0.522565,   3.340294,   19.620110,   195.531967,   629.676758,   -117.955849,   0.462747,   594.427795,   538.784790
-0.008491,   0.037360,   0.039788,   0.000000,   658.145508,   0.522564,   3.340294,   18.740120,   194.053375,   622.802246,   -128.072418,   0.457709,   594.886658,   544.114685
-0.008849,   0.037336,   0.039680,   0.000000,   656.510010,   0.522565,   3.340294,   17.860130,   192.901764,   615.417480,   -138.024811,   0.452608,   595.304321,   549.163757
-0.009205,   0.037271,   0.039530,   0.000000,   654.721558,   0.522565,   3.340294,   16.980139,   192.132172,   607.400879,   -147.952866,   0.447416,   595.667236,   553.947266
-0.009549,   0.037159,   0.039335,   0.000000,   652.770691,   0.522564,   3.340294,   16.100149,   191.783752,   598.715393,   -157.856812,   0.442140,   595.964417,   558.447510
-0.009872,   0.036978,   0.039071,   0.000000,   650.575989,   0.522565,   3.340294,   15.220160,   191.863327,   589.218079,   -167.766678,   0.436747,   596.135132,   562.631531
-0.010179,   0.036746,   0.038758,   0.000000,   648.185242,   0.522565,   3.340294,   14.340169,   192.402847,   578.944214,   -177.648056,   0.431241,   596.222473,   566.531189
-0.010457,   0.036471,   0.038409,   0.000000,   645.661011,   0.522564,   3.340294,   13.460179,   193.633652,   567.786682,   -187.620163,   0.425658,   596.269348,   570.159912
-0.010714,   0.036145,   0.038012,   0.000000,   642.868042,   0.522565,   3.340294,   12.580190,   195.399399,   555.500916,   -197.722122,   0.419799,   596.238037,   573.595032
-0.010950,   0.035773,   0.037571,   0.000000,   639.821960,   0.522565,   3.340294,   11.700199,   197.856842,   542.001526,   -207.926025,   0.413699,   596.132507,   576.793579
-0.011158,   0.035355,   0.037088,   0.000000,   636.480530,   0.522565,   3.340294,   10.820210,   201.112717,   527.059875,   -218.261841,   0.407290,   595.948608,   579.759583
-0.011348,   0.034882,   0.036546,   0.000000,   632.718506,   0.522564,   3.340294,   9.940220,   205.124039,   510.468262,   -228.634033,   0.400474,   595.621521,   582.438354
-0.011515,   0.034330,   0.035918,   0.000000,   628.370422,   0.522565,   3.340294,   9.060229,   210.022202,   491.794342,   -239.032166,   0.393137,   595.056641,   584.728699
-0.011647,   0.033743,   0.035253,   0.000000,   623.634827,   0.522564,   3.340294,   8.180239,   216.110199,   471.309448,   -249.151245,   0.385553,   594.315125,   586.540161
-0.011730,   0.033008,   0.034418,   0.000000,   617.869629,   0.522565,   3.340294,   7.300249,   223.203033,   448.048920,   -258.887146,   0.377330,   592.983337,   587.540833
-0.011789,   0.032122,   0.033404,   0.000000,   610.852356,   0.522564,   3.340294,   6.420259,   231.314484,   421.609192,   -268.001801,   0.368296,   590.941040,   587.557373
-0.011795,   0.031198,   0.032339,   0.000000,   603.065674,   0.522565,   3.340294,   5.540269,   241.121201,   392.484009,   -276.077637,   0.358948,   588.390625,   586.603455
-0.011786,   0.030019,   0.030970,   0.000000,   593.051147,   0.522564,   3.340294,   4.660279,   251.625931,   358.992065,   -282.690094,   0.348248,   584.465820,   583.871399
-0.011556,   0.028205,   0.028864,   0.000000,   578.535034,   0.522565,   3.340294,   3.780289,   263.103180,   317.594910,   -286.895142,   0.335204,   577.456543,   577.447388
-0.015091,   0.036513,   0.038233,   0.000000,   608.769287,   0.517473,   4.089216,   54.127285,   252.433060,   361.213318,   297.007019,   0.337347,   606.345459,   606.301392
-0.014888,   0.037293,   0.039153,   0.000000,   617.507996,   0.517473,   4.089216,   53.271168,   240.563263,   395.417145,   289.337158,   0.348397,   608.482178,   607.850830
-0.014642,   0.037961,   0.039928,   0.000000,   625.079712,   0.517472,   4.089216,   52.415058,   231.135437,   425.883545,   280.128906,   0.359181,   609.737793,   607.851440
-0.014322,   0.038488,   0.040533,   0.000000,   631.356628,   0.517473,   4.089216,   51.558945,   222.868683,   453.114410,   269.832886,   0.369227,   610.268372,   606.580994
-0.014017,   0.038839,   0.040931,   0.000000,   636.056213,   0.517473,   4.089216,   50.702831,   215.500885,   476.137726,   259.334839,   0.377841,   610.166687,   604.431580
-0.013707,   0.039191,   0.041327,   0.000000,   640.383972,   0.517473,   4.089216,   49.846718,   209.546097,   497.113800,   248.447617,   0.386183,   609.952515,   601.771667
-0.013409,   0.039528,   0.041706,   0.000000,   644.174316,   0.517473,   4.089216,   48.990604,   204.340729,   516.018921,   237.417450,   0.393857,   609.662292,   598.812378
-0.013100,   0.039786,   0.041999,   0.000000,   647.303955,   0.517473,   4.089216,   48.134491,   199.928024,   532.590271,   226.539474,   0.400820,   609.183289,   595.552795
-0.012791,   0.040031,   0.042282,   0.000000,   650.116577,   0.517473,   4.089216,   47.278378,   196.245148,   547.545288,   215.764191,   0.407304,   608.709656,   592.167480
-0.012487,   0.040270,   0.042564,   0.000000,   652.690857,   0.517473,   4.089216,   46.422264,   193.228989,   561.097534,   205.142960,   0.413369,   608.274963,   588.715332
-0.012186,   0.040495,   0.042836,   0.000000,   655.024658,   0.517472,   4.089216,   45.566151,   190.741882,   573.346924,   194.734619,   0.418994,   607.875488,   585.252502
-0.011868,   0.040712,   0.043112,   0.000000,   657.282104,   0.517473,   4.089216,   44.710037,   188.956604,   584.639526,   184.446152,   0.424446,   607.534058,   581.686523
-0.011548,   0.040910,   0.043373,   0.000000,   659.426758,   0.517473,   4.089216,   43.853924,   187.728149,   595.093445,   174.200821,   0.429739,   607.206787,   577.978760
-0.011217,   0.041063,   0.043593,   0.000000,   661.349365,   0.517473,   4.089216,   42.997814,   186.936722,   604.517944,   164.199692,   0.434735,   606.848694,   574.197144
-0.010883,   0.041207,   0.043811,   0.000000,   663.241150,   0.517473,   4.089216,   42.141701,   186.632172,   613.394531,   154.134140,   0.439675,   606.528870,   570.255188
-0.010543,   0.041333,   0.044018,   0.000000,   665.084717,   0.517473,   4.089216,   41.285587,   186.822906,   621.674744,   144.087982,   0.444544,   606.236938,   566.152100
-0.010200,   0.041428,   0.044195,   0.000000,   666.832092,   0.517473,   4.089216,   40.429474,   187.437744,   629.388855,   133.977951,   0.449357,   605.922668,   561.828247
-0.009853,   0.041485,   0.044337,   0.000000,   668.459167,   0.517472,   4.089216,   39.573360,   188.436356,   636.485107,   123.888222,   0.454065,   605.581970,   557.320251
-0.009516,   0.041528,   0.044465,   0.000000,   670.013916,   0.517473,   4.089216,   38.717247,   189.741043,   643.096863,   113.699234,   0.458669,   605.256897,   552.671875
-0.009195,   0.041562,   0.044583,   0.000000,   671.497742,   0.517473,   4.089216,   37.861134,   191.311081,   649.209900,   103.452110,   0.463126,   604.962341,   547.944092
-0.008891,   0.041590,   0.044695,   0.000000,   672.871399,   0.517473,   4.089216,   37.005020,   193.089523,   654.785583,   93.151756,   0.467403,   604.671204,   543.159363
-0.008605,   0.041615,   0.044803,   0.000000,   674.209045,   0.517474,   4.089216,   36.148907,   195.014221,   659.892456,   82.827751,   0.471438,   604.467957,   538.481934
-0.008345,   0.041636,   0.044902,   0.000000,   675.409851,   0.517473,   4.089216,   35.292793,   196.981186,   664.425110,   72.494141,   0.475173,   604.275818,   533.940125
-0.008114,   0.041657,   0.044994,   0.000000,   676.481018,   0.517473,   4.089216,   34.436680,   198.899689,   668.383118,   62.188507,   0.478540,   604.117676,   529.679016
-0.007916,   0.041678,   0.045080,   0.000000,   677.380127,   0.517472,   4.089216,   33.580566,   200.702194,   671.738525,   51.857632,   0.481515,   603.955505,   525.744812
-0.007752,   0.041700,   0.045159,   0.000000,   677.961548,   0.517473,   4.089216,   32.724453,   202.292465,   674.342834,   41.488533,   0.484064,   603.663757,   522.125671
-0.007624,   0.041721,   0.045225,   0.000000,   678.442627,   0.517472,   4.089216,   31.868340,   203.558578,   676.397705,   31.162716,   0.486053,   603.470581,   519.254578
-0.007530,   0.041735,   0.045273,   0.000000,   678.781738,   0.517473,   4.089216,   31.012226,   204.469833,   677.869324,   20.803041,   0.487481,   603.331726,   517.150208
-0.007474,   0.041744,   0.045302,   0.000000,   678.918091,   0.517473,   4.089216,   30.156113,   205.054916,   678.689758,   10.401359,   0.488383,   603.177551,   515.746643
-0.007456,   0.041748,   0.045313,   0.000000,   678.811340,   0.517472,   4.089216,   29.299999,   205.266937,   678.811340,   0.000003,   0.488729,   602.977478,   515.083008
-0.007474,   0.041744,   0.045302,   0.000000,   678.918091,   0.517473,   4.089216,   28.443888,   205.054886,   678.689758,   -10.401350,   0.488383,   603.177612,   515.746765
-0.007530,   0.041735,   0.045273,   0.000000,   678.781738,   0.517473,   4.089216,   27.587774,   204.469833,   677.869324,   -20.803030,   0.487481,   603.331726,   517.150208
-0.007624,   0.041721,   0.045225,   0.000000,   678.442627,   0.517473,   4.089216,   26.731661,   203.558594,   676.397705,   -31.162714,   0.486053,   603.470581,   519.254578
-0.007752,   0.041700,   0.045159,   0.000000,   677.961548,   0.517472,   4.089216,   25.875547,   202.292465,   674.342834,   -41.488533,   0.484064,   603.663757,   522.125671
-0.007916,   0.041678,   0.045080,   0.000000,   677.380127,   0.517473,   4.089216,   25.019434,   200.702118,   671.738525,   -51.857635,   0.481515,   603.955505,   525.744812
-0.008114,   0.041657,   0.044994,   0.000000,   676.480957,   0.517473,   4.089216,   24.163321,   198.899673,   668.383057,   -62.188522,   0.478540,   604.117554,   529.679016
-0.008345,   0.041636,   0.044902,   0.000000,   675.409790,   0.517473,   4.089216,   23.307207,   196.981155,   664.425049,   -72.494148,   0.475173,   604.275757,   533.940125
-0.008605,   0.041615,   0.044803,   0.000000,   674.209045,   0.517472,   4.089216,   22.451094,   195.014175,   659.892456,   -82.827759,   0.471438,   604.467957,   538.482056
-0.008891,   0.041590,   0.044695,   0.000000,   672.871399,   0.517473,   4.089216,   21.594982,   193.089508,   654.785583,   -93.151749,   0.467403,   604.671204,   543.159302
-0.009195,   0.041562,   0.044583,   0.000000,   671.497742,   0.517473,   4.089216,   20.738867,   191.311066,   649.209900,   -103.452095,   0.463126,   604.962341,   547.944092
-0.009516,   0.041528,   0.044465,   0.000000,   670.013794,   0.517472,   4.089216,   19.882755,   189.741058,   643.096802,   -113.699219,   0.458669,   605.256836,   552.671753
-0.009853,   0.041485,   0.044337,   0.000000,   668.459167,   0.517473,   4.089216,   19.026642,   188.436310,   636.485107,   -123.888214,   0.454065,   605.581970,   557.320312
-0.010200,   0.041428,   0.044195,   0.000000,   666.832092,   0.517473,   4.089216,   18.170528,   187.437744,   629.388855,   -133.977951,   0.449357,   605.922668,   561.828247
-0.010543,   0.041333,   0.044018,   0.000000,   665.084717,   0.517473,   4.089216,   17.314415,   186.822891,   621.674683,   -144.087997,   0.444544,   606.236877,   566.152222
-0.010883,   0.041207,   0.043811,   0.000000,   663.241150,   0.517472,   4.089216,   16.458302,   186.632172,   613.394531,   -154.134140,   0.439675,   606.528870,   570.255188
-0.011217,   0.041063,   0.043593,   0.000000,   661.349365,   0.517473,   4.089216,   15.602188,   186.936722,   604.517944,   -164.199677,   0.434735,   606.848633,   574.197144
-0.011548,   0.040910,   0.043373,   0.000000,   659.426758,   0.517473,   4.089216,   14.746075,   187.728165,   595.093445,   -174.200806,   0.429739,   607.206787,   577.978760
-0.011868,   0.040712,   0.043112,   0.000000,   657.282043,   0.517473,   4.089216,   13.889962,   188.956604,   584.639465,   -184.446121,   0.424446,   607.533997,   581.686523
-0.012186,   0.040495,   0.042836,   0.000000,   655.024658,   0.517473,   4.089216,   13.033849,   190.741852,   573.346924,   -194.734589,   0.418994,   607.875488,   585.252625
-0.012487,   0.040270,   0.042564,   0.000000,   652.690857,   0.517473,   4.089216,   12.177735,   193.229004,   561.097534,   -205.142929,   0.413369,   608.274963,   588.715271
-0.012791,   0.040031,   0.042282,   0.000000,   650.116577,   0.517473,   4.089216,   11.321622,   196.245193,   547.545288,   -215.764145,   0.407305,   608.709595,   592.167297
-0.013100,   0.039786,   0.041999,   0.000000,   647.303955,   0.517473,   4.089216,   10.465509,   199.928055,   532.590332,   -226.539429,   0.400820,   609.183289,   595.552795
-0.013409,   0.039528,   0.041706,   0.000000,   644.174255,   0.517473,   4.089216,   9.609395,   204.340759,   516.018921,   -237.417404,   0.393857,   609.662231,   598.812317
-0.013707,   0.039191,   0.041327,   0.000000,   640.383972,   0.517473,   4.089216,   8.753282,   209.546097,   497.113831,   -248.447586,   0.386183,   609.952515,   601.771729
-0.014017,   0.038839,   0.040931,   0.000000,   636.056152,   0.517473,   4.089216,   7.897169,   215.500854,   476.137695,   -259.334839,   0.377841,   610.166626,   604.431580
-0.014322,   0.038488,   0.040533,   0.000000,   631.356567,   0.517473,   4.089216,   7.041056,   222.868637,   453.114349,   -269.832886,   0.369227,   610.268311,   606.580994
-0.014642,   0.037961,   0.039928,   0.000000,   625.079590,   0.517473,   4.089216,   6.184943,   231.135330,   425.883331,   -280.128967,   0.359181,   609.737793,   607.851440
-0.014888,   0.037293,   0.039153,   0.000000,   617.507935,   0.517473,   4.089216,   5.328829,   240.563248,   395.416992,   -289.337158,   0.348397,   608.482117,   607.850769
-0.015091,   0.036513,   0.038233,   0.000000,   608.769287,   0.517473,   4.089216,   4.472716,   252.433044,   361.213318,   -297.006989,   0.337347,   606.345459,   606.301331
-0.018738,   0.044407,   0.047137,   0.000000,   631.566589,   0.523154,   4.859001,   53.488712,   236.590942,   399.819824,   302.546417,   0.337176,   629.158508,   629.116577
-0.018207,   0.044788,   0.047569,   0.000000,   638.868713,   0.523154,   4.859001,   52.654621,   226.847488,   431.809357,   292.083618,   0.348934,   629.208008,   628.507324
-0.017708,   0.045036,   0.047840,   0.000000,   644.474976,   0.523154,   4.859001,   51.820526,   218.510742,   458.800568,   281.230591,   0.359107,   628.700195,   626.766541
-0.017216,   0.045206,   0.048016,   0.000000,   649.186218,   0.523154,   4.859001,   50.986435,   211.411926,   482.928802,   269.783661,   0.368647,   627.828003,   624.158997
-0.016685,   0.045316,   0.048128,   0.000000,   653.259460,   0.523155,   4.859001,   50.152340,   205.776794,   504.392090,   258.099945,   0.377702,   626.745544,   620.892700
-0.016158,   0.045328,   0.048135,   0.000000,   656.471863,   0.523154,   4.859001,   49.318245,   201.073044,   522.910767,   246.624344,   0.385844,   625.454651,   617.177246
-0.015680,   0.045351,   0.048154,   0.000000,   659.209595,   0.523154,   4.859001,   48.484154,   196.803192,   539.572754,   235.203812,   0.393228,   624.213989,   613.345337
-0.015217,   0.045397,   0.048210,   0.000000,   661.731812,   0.523155,   4.859001,   47.650059,   193.396255,   554.581116,   224.014435,   0.400137,   623.101746,   609.456055
-0.014802,   0.045456,   0.048281,   0.000000,   663.885010,   0.523154,   4.859001,   46.815964,   190.271515,   567.984924,   213.118668,   0.406294,   622.091248,   605.672302
-0.014385,   0.045541,   0.048394,   0.000000,   665.991150,   0.523155,   4.859001,   45.981869,   187.865860,   580.329590,   202.378281,   0.412193,   621.226868,   601.874512
-0.013980,   0.045630,   0.048519,   0.000000,   667.978516,   0.523152,   4.859001,   45.147778,   185.969666,   591.722534,   191.718719,   0.417817,   620.440186,   598.028809
-0.013594,   0.045697,   0.048624,   0.000000,   669.703430,   0.523154,   4.859001,   44.313686,   184.382965,   601.908875,   181.389282,   0.422949,   619.690125,   594.258545
-0.013214,   0.045807,   0.048790,   0.000000,   671.537537,   0.523155,   4.859001,   43.479591,   183.380951,   611.592712,   171.062775,   0.428014,   619.118103,   590.473389
-0.012833,   0.045916,   0.048965,   0.000000,   673.350098,   0.523154,   4.859001,   42.645496,   182.881714,   620.638184,   160.790344,   0.432961,   618.623230,   586.611084
-0.012459,   0.045997,   0.049113,   0.000000,   675.022888,   0.523155,   4.859001,   41.811405,   182.709839,   628.985596,   150.548187,   0.437719,   618.124695,   582.655334
-0.012097,   0.046082,   0.049272,   0.000000,   676.680664,   0.523154,   4.859001,   40.977310,   182.952011,   636.767822,   140.378448,   0.442344,   617.709534,   578.660339
-0.011746,   0.046174,   0.049445,   0.000000,   678.349487,   0.523154,   4.859001,   40.143215,   183.593185,   644.110291,   130.153976,   0.446895,   617.373840,   574.579285
-0.011407,   0.046262,   0.049617,   0.000000,   679.969116,   0.523154,   4.859001,   39.309124,   184.547943,   650.910828,   119.983688,   0.451286,   617.095520,   570.469666
-0.011079,   0.046351,   0.049794,   0.000000,   681.570618,   0.523154,   4.859001,   38.475029,   185.811798,   657.268799,   109.762589,   0.455560,   616.882080,   566.309143
-0.010772,   0.046452,   0.049986,   0.000000,   683.151245,   0.523155,   4.859001,   37.640938,   187.308502,   663.159302,   99.563271,   0.459646,   616.755920,   562.197754
-0.010486,   0.046554,   0.050179,   0.000000,   684.654175,   0.523154,   4.859001,   36.806843,   188.912170,   668.548401,   89.355003,   0.463478,   616.685364,   558.191833
-0.010223,   0.046646,   0.050357,   0.000000,   686.033325,   0.523154,   4.859001,   35.972748,   190.561981,   673.374451,   79.196609,   0.467014,   616.639099,   554.339905
-0.009986,   0.046737,   0.050532,   0.000000,   687.302002,   0.523155,   4.859001,   35.138653,   192.234772,   677.651550,   69.120316,   0.470238,   616.628357,   550.702637
-0.009778,   0.046828,   0.050699,   0.000000,   688.428650,   0.523154,   4.859001,   34.304562,   193.857407,   681.362549,   59.115868,   0.473120,   616.629944,   547.333679
-0.009599,   0.046911,   0.050851,   0.000000,   689.434998,   0.523154,   4.859001,   33.470467,   195.338501,   684.537109,   49.193848,   0.475600,   616.678040,   544.375427
-0.009451,   0.046985,   0.050984,   0.000000,   690.258362,   0.523154,   4.859001,   32.636375,   196.591141,   687.124451,   39.333279,   0.477641,   616.722656,   541.872070
-0.009340,   0.047049,   0.051096,   0.000000,   690.785767,   0.523154,   4.859001,   31.802280,   197.647446,   689.024170,   29.473717,   0.479305,   616.636902,   539.673706
-0.009258,   0.047100,   0.051182,   0.000000,   691.186890,   0.523154,   4.859001,   30.968187,   198.512512,   690.404297,   19.635880,   0.480565,   616.577759,   537.984802
-0.009209,   0.047130,   0.051235,   0.000000,   691.378174,   0.523154,   4.859001,   30.134094,   199.010315,   691.182312,   9.820104,   0.481314,   616.502197,   536.933411
-0.009192,   0.047140,   0.051253,   0.000000,   691.421814,   0.523154,   4.859001,   29.300001,   199.147690,   691.421814,   0.000009,   0.481547,   616.464844,   536.592102
-0.009209,   0.047130,   0.051235,   0.000000,   691.378174,   0.523154,   4.859001,   28.465906,   199.010300,   691.182312,   -9.820086,   0.481314,   616.502197,   536.933350
-0.009258,   0.047100,   0.051182,   0.000000,   691.186890,   0.523154,   4.859001,   27.631813,   198.512482,   690.404297,   -19.635868,   0.480565,   616.577759,   537.984924
-0.009340,   0.047049,   0.051096,   0.000000,   690.785767,   0.523154,   4.859001,   26.797718,   197.647461,   689.024170,   -29.473709,   0.479305,   616.636902,   539.673706
-0.009451,   0.046985,   0.050984,   0.000000,   690.258362,   0.523154,   4.859001,   25.963625,   196.591080,   687.124451,   -39.333267,   0.477641,   616.722656,   541.872131
-0.009599,   0.046911,   0.050851,   0.000000,   689.435059,   0.523154,   4.859001,   25.129532,   195.338562,   684.537170,   -49.193848,   0.475600,   616.678101,   544.375427
-0.009778,   0.046828,   0.050699,   0.000000,   688.428650,   0.523154,   4.859001,   24.295439,   193.857361,   681.362549,   -59.115879,   0.473120,   616.629944,   547.333740
-0.009986,   0.046737,   0.050532,   0.000000,   687.302002,   0.523154,   4.859001,   23.461344,   192.234772,   677.651550,   -69.120331,   0.470238,   616.628357,   550.702637
-0.010223,   0.046646,   0.050357,   0.000000,   686.033325,   0.523153,   4.859001,   22.627251,   190.561935,   673.374451,   -79.196609,   0.467014,   616.639099,   554.339905
-0.010486,   0.046554,   0.050179,   0.000000,   684.654114,   0.523154,   4.859001,   21.793158,   188.912125,   668.548340,   -89.355011,   0.463478,   616.685303,   558.191772
-0.010772,   0.046452,   0.049986,   0.000000,   683.151245,   0.523154,   4.859001,   20.959064,   187.308502,   663.159302,   -99.563286,   0.459646,   616.755981,   562.197754
-0.011079,   0.046351,   0.049794,   0.000000,   681.570557,   0.523154,   4.859001,   20.124969,   185.811722,   657.268738,   -109.762596,   0.455560,   616.882019,   566.309143
-0.011407,   0.046262,   0.049617,   0.000000,   679.969177,   0.523154,   4.859001,   19.290876,   184.548019,   650.910889,   -119.983696,   0.451286,   617.095520,   570.469666
-0.011746,   0.046174,   0.049445,   0.000000,   678.349426,   0.523154,   4.859001,   18.456783,   183.593155,   644.110229,   -130.153976,   0.446895,   617.373779,   574.579285
-0.012097,   0.046082,   0.049272,   0.000000,   676.680603,   0.523154,   4.859001,   17.622690,   182.951965,   636.767761,   -140.378464,   0.442344,   617.709473,   578.660400
-0.012459,   0.045997,   0.049113,   0.000000,   675.022827,   0.523154,   4.859001,   16.788595,   182.709824,   628.985535,   -150.548203,   0.437719,   618.124695,   582.655396
-0.012833,   0.045916,   0.048965,   0.000000,   673.350098,   0.523154,   4.859001,   15.954503,   182.881699,   620.638184,   -160.790344,   0.432961,   618.623230,   586.611084
-0.013214,   0.045807,   0.048790,   0.000000,   671.537476,   0.523154,   4.859001,   15.120409,   183.380966,   611.592651,   -171.062759,   0.428014,   619.117981,   590.473206
-0.013594,   0.045696,   0.048624,   0.000000,   669.703369,   0.523154,   4.859001,   14.286316,   184.382950,   601.908875,   -181.389267,   0.422949,   619.690125,   594.258606
-0.013980,   0.045630,   0.048519,   0.000000,   667.978455,   0.523154,   4.859001,   13.452222,   185.969666,   591.722473,   -191.718719,   0.417817,   620.440125,   598.028809
-0.014385,   0.045541,   0.048394,   0.000000,   665.991150,   0.523154,   4.859001,   12.618128,   187.865891,   580.329529,   -202.378281,   0.412193,   621.226807,   601.874390
-0.014802,   0.045456,   0.048281,   0.000000,   663.884949,   0.523154,   4.859001,   11.784035,   190.271515,   567.984863,   -213.118652,   0.406294,   622.091125,   605.672180
-0.015217,   0.045397,   0.048210,   0.000000,   661.731750,   0.523154,   4.859001,   10.949941,   193.396347,   554.581116,   -224.014374,   0.400137,   623.101685,   609.455933
-0.015680,   0.045351,   0.048154,   0.000000,   659.209534,   0.523154,   4.859001,   10.115848,   196.803238,   539.572754,   -235.203735,   0.393228,   624.213867,   613.345215
-0.016158,   0.045328,   0.048135,   0.000000,   656.471863,   0.523154,   4.859001,   9.281754,   201.073074,   522.910828,   -246.624268,   0.385844,   625.454590,   617.177246
-0.016685,   0.045316,   0.048128,   0.000000,   653.259460,   0.523154,   4.859001,   8.447660,   205.776840,   504.392120,   -258.099884,   0.377702,   626.745544,   620.892639
-0.017216,   0.045206,   0.048016,   0.000000,   649.186218,   0.523154,   4.859001,   7.613567,   211.411911,   482.928772,   -269.783661,   0.368647,   627.828003,   624.158936
-0.017708,   0.045036,   0.047840,   0.000000,   644.474915,   0.523154,   4.859001,   6.779473,   218.510757,   458.800476,   -281.230591,   0.359107,   628.700195,   626.766541
-0.018207,   0.044788,   0.047569,   0.000000,   638.868530,   0.523154,   4.859001,   5.945380,   226.847397,   431.809021,   -292.083679,   0.348934,   629.207947,   628.507263
-0.018738,   0.044407,   0.047137,   0.000000,   631.566467,   0.523154,   4.859001,   5.111286,   236.591049,   399.819611,   -302.546356,   0.337176,   629.158325,   629.116333
-0.023043,   0.053406,   0.057243,   0.000000,   653.187012,   0.527610,   5.656495,   52.883896,   218.423889,   439.511688,   304.791992,   0.336975,   650.825745,   650.786804
-0.022187,   0.053309,   0.057088,   0.000000,   658.827271,   0.527611,   5.656495,   52.070660,   210.809448,   467.828125,   292.525269,   0.348476,   649.148926,   648.468262
-0.021327,   0.053113,   0.056827,   0.000000,   663.374695,   0.527611,   5.656495,   51.257420,   204.711609,   492.374146,   280.056488,   0.359039,   647.177979,   645.198120
-0.020560,   0.052883,   0.056531,   0.000000,   666.877197,   0.527610,   5.656495,   50.444183,   199.282471,   513.490112,   267.811493,   0.368269,   645.154968,   641.466675
-0.019836,   0.052646,   0.056234,   0.000000,   669.860291,   0.527612,   5.656495,   49.630943,   194.935211,   532.174744,   255.715332,   0.376849,   643.149353,   637.378845
-0.019086,   0.052408,   0.055956,   0.000000,   672.516541,   0.527610,   5.656495,   48.817707,   191.667969,   548.833557,   243.870392,   0.384936,   641.232666,   633.048279
-0.018449,   0.052202,   0.055714,   0.000000,   674.644653,   0.527611,   5.656495,   48.004471,   188.491531,   563.573730,   232.373566,   0.392032,   639.459106,   628.785217
-0.017835,   0.052047,   0.055543,   0.000000,   676.665283,   0.527611,   5.656495,   47.191231,   186.007706,   577.008423,   221.127533,   0.398720,   637.888550,   624.536133
-0.017241,   0.051902,   0.055393,   0.000000,   678.522278,   0.527611,   5.656495,   46.377995,   184.008224,   589.383789,   209.952957,   0.405079,   636.413025,   620.204773
-0.016695,   0.051745,   0.055236,   0.000000,   680.007996,   0.527611,   5.656495,   45.564754,   182.178909,   600.270081,   199.238174,   0.410725,   635.015198,   616.012634
-0.016175,   0.051672,   0.055186,   0.000000,   681.648376,   0.527610,   5.656495,   44.751518,   180.922913,   610.635193,   188.568588,   0.416250,   633.880798,   611.889587
-0.015674,   0.051644,   0.055196,   0.000000,   683.321533,   0.527611,   5.656495,   43.938282,   180.118011,   620.364807,   177.988907,   0.421577,   632.926758,   607.807129
-0.015201,   0.051600,   0.055195,   0.000000,   684.813232,   0.527611,   5.656495,   43.125042,   179.549911,   629.226440,   167.588699,   0.426559,   632.016174,   603.748474
-0.014756,   0.051592,   0.055240,   0.000000,   686.348938,   0.527611,   5.656495,   42.311806,   179.384766,   637.592651,   157.218658,   0.431404,   631.254272,   599.703125
-0.014328,   0.051618,   0.055333,   0.000000,   687.945435,   0.527611,   5.656495,   41.498566,   179.622375,   645.513916,   146.863586,   0.436135,   630.642822,   595.664001
-0.013928,   0.051666,   0.055455,   0.000000,   689.527954,   0.527611,   5.656495,   40.685329,   180.147842,   652.892029,   136.607529,   0.440657,   630.149963,   591.681641
-0.013552,   0.051755,   0.055626,   0.000000,   691.180481,   0.527610,   5.656495,   39.872089,   181.004822,   659.895874,   126.335503,   0.445054,   629.811829,   587.737061
-0.013197,   0.051865,   0.055828,   0.000000,   692.852783,   0.527611,   5.656495,   39.058853,   182.155518,   666.471069,   116.073486,   0.449302,   629.588806,   583.821533
-0.012862,   0.051979,   0.056034,   0.000000,   694.452209,   0.527611,   5.656495,   38.245617,   183.455338,   672.512451,   105.882713,   0.453301,   629.433350,   579.996521
-0.012558,   0.052103,   0.056252,   0.000000,   695.989075,   0.527611,   5.656495,   37.432377,   184.867844,   678.026794,   95.816978,   0.457022,   629.359802,   576.328979
-0.012282,   0.052245,   0.056486,   0.000000,   697.478638,   0.527611,   5.656495,   36.619141,   186.355835,   683.076660,   85.797401,   0.460475,   629.373108,   572.844482
-0.012034,   0.052395,   0.056729,   0.000000,   698.892029,   0.527610,   5.656495,   35.805901,   187.863922,   687.620300,   75.895851,   0.463619,   629.456970,   569.600525
-0.011812,   0.052543,   0.056964,   0.000000,   700.187134,   0.527612,   5.656495,   34.992664,   189.314880,   691.629578,   66.119659,   0.466419,   629.580200,   566.640015
-0.011619,   0.052684,   0.057186,   0.000000,   701.348145,   0.527610,   5.656495,   34.179428,   190.670334,   695.106812,   56.456364,   0.468869,   629.725647,   563.990723
-0.011453,   0.052812,   0.057386,   0.000000,   702.356201,   0.527611,   5.656495,   33.366188,   191.934387,   698.048218,   46.892342,   0.470993,   629.862976,   561.633057
-0.011318,   0.052923,   0.057559,   0.000000,   703.165039,   0.527611,   5.656495,   32.552952,   193.033020,   700.415588,   37.450951,   0.472755,   629.958862,   559.607849
-0.011214,   0.053014,   0.057699,   0.000000,   703.826599,   0.527610,   5.656495,   31.739714,   193.852783,   702.282776,   28.059200,   0.474085,   630.081299,   558.092163
-0.011139,   0.053081,   0.057802,   0.000000,   704.265686,   0.527610,   5.656495,   30.926476,   194.381027,   703.580261,   18.694754,   0.474995,   630.154724,   557.028625
-0.011095,   0.053125,   0.057868,   0.000000,   704.555664,   0.527611,   5.656495,   30.113239,   194.738113,   704.383972,   9.356074,   0.475563,   630.215759,   556.371826
-0.011081,   0.053140,   0.057891,   0.000000,   704.466553,   0.527611,   5.656495,   29.299999,   194.880432,   704.466553,   0.000009,   0.475806,   630.051392,   555.921082
-0.011095,   0.053125,   0.057868,   0.000000,   704.555664,   0.527611,   5.656495,   28.486761,   194.738113,   704.383972,   -9.356057,   0.475563,   630.215759,   556.371826
-0.011139,   0.053081,   0.057802,   0.000000,   704.265686,   0.527611,   5.656495,   27.673523,   194.381042,   703.580261,   -18.694742,   0.474995,   630.154724,   557.028625
-0.011214,   0.053014,   0.057699,   0.000000,   703.826599,   0.527610,   5.656495,   26.860287,   193.852722,   702.282776,   -28.059195,   0.474085,   630.081299,   558.092285
-0.011318,   0.052923,   0.057559,   0.000000,   703.165039,   0.527610,   5.656495,   26.047049,   193.033081,   700.415588,   -37.450943,   0.472755,   629.958801,   559.607727
-0.011453,   0.052812,   0.057386,   0.000000,   702.356201,   0.527611,   5.656495,   25.233810,   191.934326,   698.048218,   -46.892334,   0.470993,   629.862976,   561.632996
-0.011619,   0.052684,   0.057186,   0.000000,   701.348145,   0.527611,   5.656495,   24.420572,   190.670319,   695.106812,   -56.456364,   0.468869,   629.725647,   563.990784
-0.011812,   0.052543,   0.056964,   0.000000,   700.187073,   0.527611,   5.656495,   23.607334,   189.314865,   691.629517,   -66.119659,   0.466419,   629.580200,   566.640015
-0.012034,   0.052395,   0.056729,   0.000000,   698.892029,   0.527610,   5.656495,   22.794098,   187.863876,   687.620300,   -75.895851,   0.463619,   629.456970,   569.600647
-0.012282,   0.052245,   0.056486,   0.000000,   697.478638,   0.527611,   5.656495,   21.980860,   186.355865,   683.076599,   -85.797417,   0.460475,   629.372986,   572.844421
-0.012558,   0.052103,   0.056252,   0.000000,   695.989075,   0.527611,   5.656495,   21.167622,   184.867767,   678.026794,   -95.816986,   0.457022,   629.359802,   576.329163
-0.012862,   0.051979,   0.056034,   0.000000,   694.452209,   0.527610,   5.656495,   20.354383,   183.455383,   672.512451,   -105.882729,   0.453301,   629.433289,   579.996521
-0.013197,   0.051865,   0.055828,   0.000000,   692.852722,   0.527610,   5.656495,   19.541147,   182.155426,   666.471069,   -116.073486,   0.449302,   629.588806,   583.821594
-0.013552,   0.051755,   0.055626,   0.000000,   691.180481,   0.527611,   5.656495,   18.727909,   181.004807,   659.895874,   -126.335510,   0.445054,   629.811829,   587.737061
-0.013928,   0.051666,   0.055455,   0.000000,   689.527954,   0.527611,   5.656495,   17.914671,   180.147888,   652.892029,   -136.607559,   0.440657,   630.149963,   591.681702
-0.014328,   0.051618,   0.055333,   0.000000,   687.945374,   0.527611,   5.656495,   17.101433,   179.622330,   645.513855,   -146.863602,   0.436135,   630.642822,   595.664124
-0.014756,   0.051592,   0.055240,   0.000000,   686.348999,   0.527610,   5.656495,   16.288195,   179.384796,   637.592651,   -157.218674,   0.431404,   631.254333,   599.703186
-0.015201,   0.051600,   0.055195,   0.000000,   684.813171,   0.527610,   5.656495,   15.474957,   179.549881,   629.226379,   -167.588699,   0.426559,   632.016113,   603.748535
-0.015674,   0.051644,   0.055196,   0.000000,   683.321472,   0.527610,   5.656495,   14.661719,   180.118057,   620.364746,   -177.988907,   0.421577,   632.926697,   607.807007
-0.016175,   0.051672,   0.055186,   0.000000,   681.648315,   0.527611,   5.656495,   13.848482,   180.922928,   610.635132,   -188.568588,   0.416250,   633.880737,   611.889465
-0.016695,   0.051745,   0.055236,   0.000000,   680.007935,   0.527611,   5.656495,   13.035244,   182.178879,   600.270020,   -199.238174,   0.410725,   635.015137,   616.012512
-0.017241,   0.051902,   0.055393,   0.000000,   678.522278,   0.527610,   5.656495,   12.222006,   184.008301,   589.383789,   -209.952942,   0.405079,   636.413025,   620.204651
-0.017835,   0.052047,   0.055543,   0.000000,   676.665222,   0.527611,   5.656495,   11.408768,   186.007721,   577.008362,   -221.127533,   0.398720,   637.888428,   624.536011
-0.018449,   0.052202,   0.055714,   0.000000,   674.644653,   0.527610,   5.656495,   10.595531,   188.491669,   563.573730,   -232.373505,   0.392032,   639.459045,   628.785034
-0.019086,   0.052408,   0.055956,   0.000000,   672.516541,   0.527611,   5.656495,   9.782292,   191.668091,   548.833618,   -243.870316,   0.384937,   641.232666,   633.048157
-0.019836,   0.052645,   0.056234,   0.000000,   669.860291,   0.527611,   5.656495,   8.969054,   194.935364,   532.174805,   -255.715240,   0.376849,   643.149292,   637.378784
-0.020560,   0.052883,   0.056531,   0.000000,   666.877197,   0.527610,   5.656495,   8.155817,   199.282608,   513.490173,   -267.811371,   0.368270,   645.154907,   641.466553
-0.021327,   0.053113,   0.056827,   0.000000,   663.374634,   0.527611,   5.656495,   7.342579,   204.711685,   492.374084,   -280.056427,   0.359039,   647.177856,   645.197937
-0.022187,   0.053309,   0.057088,   0.000000,   658.827148,   0.527611,   5.656495,   6.529341,   210.809586,   467.827942,   -292.525238,   0.348476,   649.148743,   648.468079
-0.023043,   0.053406,   0.057242,   0.000000,   653.186646,   0.527611,   5.656495,   5.716104,   218.423965,   439.510986,   -304.792053,   0.336975,   650.825500,   650.786499
-0.028067,   0.063745,   0.068779,   0.000000,   674.250977,   0.530988,   6.480167,   52.313992,   199.577621,   480.115875,   303.563446,   0.337377,   671.546265,   671.496643
-0.026828,   0.063097,   0.067960,   0.000000,   678.378235,   0.530988,   6.480167,   51.520405,   194.159256,   504.416565,   290.233582,   0.348326,   668.508301,   667.821350
-0.025683,   0.062448,   0.067157,   0.000000,   681.713501,   0.530986,   6.480167,   50.726818,   189.879578,   525.476196,   277.205383,   0.358289,   665.530457,   663.613342
-0.024599,   0.061817,   0.066393,   0.000000,   684.446899,   0.530986,   6.480167,   49.933235,   186.437454,   543.950378,   264.515808,   0.367395,   662.671875,   659.074829
-0.023597,   0.061247,   0.065714,   0.000000,   686.777771,   0.530988,   6.480167,   49.139648,   183.650818,   560.338257,   252.220398,   0.375732,   660.034424,   654.421021
-0.022663,   0.060714,   0.065092,   0.000000,   688.799744,   0.530986,   6.480167,   48.346062,   181.476410,   575.029602,   240.246231,   0.383488,   657.566101,   649.654602
-0.021733,   0.060183,   0.064494,   0.000000,   690.554260,   0.530988,   6.480167,   47.552475,   179.811203,   588.362732,   228.459229,   0.390808,   655.201782,   644.736267
-0.020927,   0.059681,   0.063933,   0.000000,   691.851990,   0.530988,   6.480167,   46.758888,   178.164856,   599.949219,   217.276917,   0.397195,   653.008179,   640.001343
-0.020157,   0.059306,   0.063533,   0.000000,   693.350159,   0.530988,   6.480167,   45.965305,   177.153595,   610.968384,   206.216400,   0.403447,   651.157532,   635.363098
-0.019438,   0.059021,   0.063247,   0.000000,   694.875366,   0.530986,   6.480167,   45.171719,   176.477600,   621.271912,   195.335266,   0.409369,   649.576904,   630.858154
-0.018769,   0.058739,   0.062974,   0.000000,   696.211670,   0.530986,   6.480167,   44.378132,   176.012207,   630.629211,   184.705032,   0.414880,   648.091736,   626.398376
-0.018151,   0.058518,   0.062775,   0.000000,   697.581116,   0.530988,   6.480167,   43.584549,   175.861557,   639.469238,   174.120956,   0.420190,   646.795532,   621.991699
-0.017561,   0.058359,   0.062659,   0.000000,   699.030762,   0.530986,   6.480167,   42.790962,   176.090866,   647.825989,   163.636856,   0.425329,   645.709900,   617.655090
-0.017030,   0.058258,   0.062610,   0.000000,   700.496826,   0.530989,   6.480167,   41.997375,   176.532959,   655.691040,   153.220825,   0.430220,   644.804932,   613.426147
-0.016533,   0.058225,   0.062646,   0.000000,   702.072754,   0.530986,   6.480167,   41.203789,   177.316360,   663.187927,   142.846237,   0.434968,   644.112122,   609.278992
-0.016068,   0.058237,   0.062739,   0.000000,   703.692322,   0.530988,   6.480167,   40.410202,   178.368515,   670.260498,   132.523727,   0.439534,   643.582703,   605.206970
-0.015647,   0.058279,   0.062865,   0.000000,   705.266479,   0.530986,   6.480167,   39.616615,   179.544388,   676.811951,   122.307686,   0.443819,   643.172058,   601.266724
-0.015261,   0.058362,   0.063039,   0.000000,   706.858093,   0.530986,   6.480167,   38.823032,   180.891739,   682.943115,   112.153755,   0.447879,   642.907227,   597.463013
-0.014908,   0.058479,   0.063253,   0.000000,   708.435364,   0.530988,   6.480167,   38.029446,   182.347321,   688.613220,   102.118591,   0.451669,   642.772583,   593.845703
-0.014586,   0.058619,   0.063493,   0.000000,   709.958191,   0.530986,   6.480167,   37.235859,   183.841019,   693.782898,   92.250137,   0.455146,   642.741577,   590.458679
-0.014304,   0.058781,   0.063752,   0.000000,   711.409607,   0.530989,   6.480167,   36.442272,   185.301880,   698.478699,   82.480675,   0.458299,   642.797852,   587.332825
-0.014054,   0.058954,   0.064022,   0.000000,   712.782837,   0.530986,   6.480167,   35.648685,   186.743439,   702.690125,   72.863953,   0.461140,   642.923950,   584.472595
-0.013835,   0.059127,   0.064286,   0.000000,   714.036438,   0.530988,   6.480167,   34.855103,   188.088409,   706.391113,   63.411751,   0.463636,   643.090027,   581.918213
-0.013646,   0.059293,   0.064535,   0.000000,   715.159668,   0.530986,   6.480167,   34.061516,   189.324402,   709.596191,   54.087524,   0.465804,   643.275208,   579.664856
-0.013482,   0.059443,   0.064760,   0.000000,   716.133789,   0.530986,   6.480167,   33.267929,   190.415833,   712.301941,   44.882816,   0.467637,   643.460999,   577.732605
-0.013354,   0.059572,   0.064951,   0.000000,   716.935303,   0.530988,   6.480167,   32.474346,   191.322372,   714.496521,   35.802956,   0.469122,   643.627197,   576.143127
-0.013252,   0.059677,   0.065106,   0.000000,   717.591797,   0.530987,   6.480167,   31.680758,   192.100693,   716.223572,   26.813957,   0.470310,   643.776978,   574.862549
-0.013180,   0.059755,   0.065222,   0.000000,   718.018372,   0.530987,   6.480167,   30.887173,   192.720596,   717.410278,   17.873022,   0.471206,   643.830200,   573.828186
-0.013136,   0.059803,   0.065292,   0.000000,   718.318054,   0.530987,   6.480167,   30.093586,   193.069550,   718.165833,   8.942510,   0.471719,   643.911438,   573.276733
-0.013122,   0.059818,   0.065315,   0.000000,   718.382690,   0.530988,   6.480167,   29.299999,   193.170364,   718.382690,   0.000010,   0.471885,   643.908569,   573.070435
-0.013136,   0.059803,   0.065292,   0.000000,   718.318054,   0.530987,   6.480167,   28.506414,   193.069550,   718.165833,   -8.942491,   0.471719,   643.911438,   573.276733
-0.013180,   0.059755,   0.065222,   0.000000,   718.018372,   0.530987,   6.480167,   27.712828,   192.720596,   717.410278,   -17.873003,   0.471206,   643.830200,   573.828186
-0.013252,   0.059677,   0.065106,   0.000000,   717.591797,   0.530988,   6.480167,   26.919241,   192.100723,   716.223572,   -26.813944,   0.470310,   643.776917,   574.862549
-0.013354,   0.059572,   0.064951,   0.000000,   716.935303,   0.530986,   6.480167,   26.125656,   191.322327,   714.496521,   -35.802940,   0.469122,   643.627136,   576.143188
-0.013482,   0.059443,   0.064760,   0.000000,   716.133789,   0.530987,   6.480167,   25.332071,   190.415848,   712.301941,   -44.882797,   0.467637,   643.460999,   577.732605
-0.013646,   0.059293,   0.064535,   0.000000,   715.159607,   0.530988,   6.480167,   24.538485,   189.324387,   709.596130,   -54.087524,   0.465804,   643.275146,   579.664795
-0.013835,   0.059127,   0.064286,   0.000000,   714.036377,   0.530987,   6.480167,   23.744898,   188.088364,   706.391052,   -63.411755,   0.463636,   643.090027,   581.918091
-0.014054,   0.058954,   0.064022,   0.000000,   712.782837,   0.530987,   6.480167,   22.951313,   186.743454,   702.690125,   -72.863960,   0.461140,   642.923950,   584.472595
-0.014304,   0.058781,   0.063752,   0.000000,   711.409607,   0.530987,   6.480167,   22.157726,   185.301895,   698.478699,   -82.480682,   0.458299,   642.797791,   587.332825
-0.014586,   0.058619,   0.063493,   0.000000,   709.958130,   0.530988,   6.480167,   21.364141,   183.841003,   693.782837,   -92.250137,   0.455146,   642.741516,   590.458557
-0.014908,   0.058479,   0.063253,   0.000000,   708.435303,   0.530986,   6.480167,   20.570555,   182.347244,   688.613159,   -102.118599,   0.451669,   642.772522,   593.845764
-0.015261,   0.058362,   0.063039,   0.000000,   706.858032,   0.530987,   6.480167,   19.776970,   180.891754,   682.943054,   -112.153755,   0.447879,   642.907227,   597.462830
-0.015647,   0.058279,   0.062865,   0.000000,   705.266418,   0.530988,   6.480167,   18.983383,   179.544373,   676.811890,   -122.307709,   0.443819,   643.172058,   601.266724
-0.016068,   0.058237,   0.062739,   0.000000,   703.692322,   0.530987,   6.480167,   18.189796,   178.368484,   670.260437,   -132.523773,   0.439534,   643.582703,   605.206909
-0.016533,   0.058225,   0.062646,   0.000000,   702.072693,   0.530987,   6.480167,   17.396212,   177.316376,   663.187866,   -142.846252,   0.434968,   644.112061,   609.278870
-0.017030,   0.058258,   0.062610,   0.000000,   700.496765,   0.530987,   6.480167,   16.602625,   176.532990,   655.690979,   -153.220840,   0.430220,   644.804871,   613.426025
-0.017561,   0.058359,   0.062659,   0.000000,   699.030762,   0.530987,   6.480167,   15.809039,   176.090881,   647.825989,   -163.636856,   0.425329,   645.709900,   617.655090
-0.018151,   0.058518,   0.062775,   0.000000,   697.581055,   0.530987,   6.480167,   15.015453,   175.861542,   639.469177,   -174.120972,   0.420190,   646.795532,   621.991821
-0.018769,   0.058739,   0.062974,   0.000000,   696.211609,   0.530987,   6.480167,   14.221868,   176.012238,   630.629150,   -184.705048,   0.414880,   648.091675,   626.398254
-0.019438,   0.059021,   0.063247,   0.000000,   694.875366,   0.530987,   6.480167,   13.428282,   176.477661,   621.271851,   -195.335297,   0.409369,   649.576843,   630.858093
-0.020157,   0.059306,   0.063533,   0.000000,   693.350159,   0.530987,   6.480167,   12.634696,   177.153610,   610.968323,   -206.216446,   0.403447,   651.157532,   635.363037
-0.020926,   0.059681,   0.063933,   0.000000,   691.851990,   0.530987,   6.480167,   11.841109,   178.165009,   599.949219,   -217.276947,   0.397195,   653.008179,   640.001282
-0.021733,   0.060183,   0.064494,   0.000000,   690.554260,   0.530987,   6.480167,   11.047523,   179.811234,   588.362671,   -228.459259,   0.390808,   655.201782,   644.736267
-0.022663,   0.060714,   0.065092,   0.000000,   688.799805,   0.530987,   6.480167,   10.253938,   181.476578,   575.029602,   -240.246246,   0.383488,   657.566101,   649.654541
-0.023597,   0.061247,   0.065714,   0.000000,   686.777771,   0.530987,   6.480167,   9.460352,   183.650986,   560.338257,   -252.220352,   0.375733,   660.034363,   654.420898
-0.024599,   0.061817,   0.066393,   0.000000,   684.447021,   0.530987,   6.480167,   8.666766,   186.437714,   543.950500,   -264.515747,   0.367396,   662.671875,   659.074768
-0.025683,   0.062448,   0.067157,   0.000000,   681.713684,   0.530987,   6.480167,   7.873180,   189.879868,   525.476379,   -277.205353,   0.358289,   665.530457,   663.613281
-0.026828,   0.063097,   0.067960,   0.000000,   678.378418,   0.530987,   6.480167,   7.079594,   194.159485,   504.416718,   -290.233612,   0.348326,   668.508423,   667.821411
-0.028067,   0.063745,   0.068779,   0.000000,   674.251099,   0.530987,   6.480167,   6.286008,   199.577774,   480.115723,   -303.563629,   0.337377,   671.546448,   671.496826
-0.034316,   0.076059,   0.082429,   0.000000,   694.823914,   0.533427,   7.328438,   51.780094,   179.496780,   520.426636,   299.786011,   0.337010,   692.288269,   692.246033
-0.032532,   0.074643,   0.080706,   0.000000,   697.702576,   0.533425,   7.328438,   51.004917,   176.602737,   541.044983,   285.717072,   0.347724,   687.946899,   687.295959
-0.030884,   0.073336,   0.079141,   0.000000,   700.068054,   0.533425,   7.328438,   50.229740,   174.531891,   559.065247,   272.216949,   0.357545,   683.920166,   682.067261
-0.029364,   0.072141,   0.077732,   0.000000,   702.041687,   0.533425,   7.328438,   49.454567,   173.068375,   574.958374,   259.275269,   0.366563,   680.215942,   676.705505
-0.027975,   0.071063,   0.076483,   0.000000,   703.700073,   0.533425,   7.328438,   48.679390,   171.991898,   589.071167,   246.878769,   0.374810,   676.844116,   671.342590
-0.026787,   0.070106,   0.075381,   0.000000,   704.953064,   0.533425,   7.328438,   47.904217,   170.842773,   601.484314,   235.082352,   0.382077,   673.797058,   666.155579
-0.025645,   0.069288,   0.074464,   0.000000,   706.339722,   0.533425,   7.328438,   47.129040,   170.389709,   613.078979,   223.568970,   0.389142,   671.107544,   661.025879
-0.024555,   0.068582,   0.073695,   0.000000,   707.758972,   0.533426,   7.328438,   46.353867,   170.355621,   623.896240,   212.292496,   0.395906,   668.720886,   655.959473
-0.023572,   0.067928,   0.072998,   0.000000,   708.927979,   0.533426,   7.328438,   45.578690,   170.350098,   633.553345,   201.482239,   0.402031,   666.534607,   651.049805
-0.022674,   0.067373,   0.072420,   0.000000,   710.181030,   0.533425,   7.328438,   44.803513,   170.660416,   642.805481,   190.658020,   0.408007,   664.585510,   646.157898
-0.021821,   0.066909,   0.071962,   0.000000,   711.500244,   0.533425,   7.328438,   44.028336,   171.288574,   651.512695,   180.016632,   0.413741,   662.895081,   641.366028
-0.021060,   0.066539,   0.071613,   0.000000,   712.834595,   0.533425,   7.328438,   43.253162,   172.040024,   659.716675,   169.487137,   0.419164,   661.440735,   636.718689
-0.020351,   0.066268,   0.071387,   0.000000,   714.311951,   0.533425,   7.328438,   42.477985,   173.140320,   667.583252,   159.022797,   0.424450,   660.245544,   632.152771
-0.019696,   0.066072,   0.071252,   0.000000,   715.838501,   0.533426,   7.328438,   41.702808,   174.428528,   675.052002,   148.600861,   0.429515,   659.256287,   627.684814
-0.019108,   0.065934,   0.071183,   0.000000,   717.347168,   0.533425,   7.328438,   40.927635,   175.824631,   682.015869,   138.320984,   0.434279,   658.439697,   623.363281
-0.018566,   0.065863,   0.071194,   0.000000,   718.906799,   0.533426,   7.328438,   40.152458,   177.405167,   688.598572,   128.109100,   0.438831,   657.811096,   619.163513
-0.018073,   0.065851,   0.071274,   0.000000,   720.462158,   0.533425,   7.328438,   39.377281,   179.048401,   694.722412,   118.050140,   0.443074,   657.355408,   615.172729
-0.017632,   0.065894,   0.071415,   0.000000,   722.008850,   0.533425,   7.328438,   38.602108,   180.727417,   700.414429,   108.114143,   0.447014,   657.057617,   611.403992
-0.017239,   0.065985,   0.071607,   0.000000,   723.533630,   0.533425,   7.328438,   37.826931,   182.423050,   705.667053,   98.325020,   0.450647,   656.900024,   607.877319
-0.016889,   0.066108,   0.071833,   0.000000,   724.992188,   0.533425,   7.328438,   37.051758,   184.064651,   710.431519,   88.748405,   0.453930,   656.853271,   604.640259
-0.016579,   0.066255,   0.072082,   0.000000,   726.376099,   0.533426,   7.328438,   36.276581,   185.633789,   714.747803,   79.296417,   0.456890,   656.891724,   601.677917
-0.016303,   0.066413,   0.072340,   0.000000,   727.666504,   0.533425,   7.328438,   35.501404,   187.116379,   718.599976,   70.006569,   0.459526,   656.992676,   599.002686
-0.016070,   0.066574,   0.072594,   0.000000,   728.830017,   0.533425,   7.328438,   34.726231,   188.449097,   721.967407,   60.896690,   0.461814,   657.130981,   596.650330
-0.015869,   0.066733,   0.072837,   0.000000,   729.871216,   0.533426,   7.328438,   33.951054,   189.646774,   724.878723,   51.933235,   0.463783,   657.293945,   594.605530
-0.015703,   0.066885,   0.073065,   0.000000,   730.791321,   0.533425,   7.328438,   33.175877,   190.707932,   727.353577,   43.089100,   0.465450,   657.472961,   592.867920
-0.015566,   0.067018,   0.073263,   0.000000,   731.562927,   0.533425,   7.328438,   32.400703,   191.608749,   729.379517,   34.335766,   0.466815,   657.639465,   591.430847
-0.015459,   0.067119,   0.073415,   0.000000,   732.151062,   0.533425,   7.328438,   31.625526,   192.301514,   730.929504,   25.679647,   0.467861,   657.766907,   590.310425
-0.015383,   0.067191,   0.073523,   0.000000,   732.566467,   0.533425,   7.328438,   30.850351,   192.789795,   732.025330,   17.091164,   0.468599,   657.858887,   589.512756
-0.015337,   0.067235,   0.073589,   0.000000,   732.825256,   0.533425,   7.328438,   30.075176,   193.115723,   732.690247,   8.535997,   0.469060,   657.915833,   589.008484
-0.015321,   0.067250,   0.073612,   0.000000,   732.875183,   0.533426,   7.328438,   29.300001,   193.242874,   732.875183,   0.000010,   0.469233,   657.895081,   588.780945
-0.015337,   0.067235,   0.073589,   0.000000,   732.825256,   0.533425,   7.328438,   28.524824,   193.115723,   732.690247,   -8.535979,   0.469060,   657.915833,   589.008484
-0.015383,   0.067191,   0.073523,   0.000000,   732.566467,   0.533425,   7.328438,   27.749649,   192.789795,   732.025330,   -17.091146,   0.468599,   657.858887,   589.512756
-0.015459,   0.067119,   0.073415,   0.000000,   732.151062,   0.533426,   7.328438,   26.974474,   192.301498,   730.929504,   -25.679634,   0.467861,   657.766907,   590.310425
-0.015566,   0.067018,   0.073263,   0.000000,   731.562927,   0.533425,   7.328438,   26.199297,   191.608749,   729.379517,   -34.335758,   0.466815,   657.639465,   591.430847
-0.015703,   0.066885,   0.073065,   0.000000,   730.791321,   0.533425,   7.328438,   25.424122,   190.707932,   727.353577,   -43.089092,   0.465450,   657.472961,   592.867920
-0.015869,   0.066733,   0.072837,   0.000000,   729.871277,   0.533425,   7.328438,   24.648947,   189.646866,   724.878784,   -51.933228,   0.463783,   657.294006,   594.605408
-0.016070,   0.066574,   0.072594,   0.000000,   728.829956,   0.533425,   7.328438,   23.873770,   188.449066,   721.967407,   -60.896683,   0.461814,   657.130981,   596.650330
-0.016303,   0.066413,   0.072340,   0.000000,   727.666504,   0.533425,   7.328438,   23.098595,   187.116379,   718.599976,   -70.006569,   0.459526,   656.992676,   599.002686
-0.016579,   0.066255,   0.072082,   0.000000,   726.376099,   0.533425,   7.328438,   22.323420,   185.633713,   714.747803,   -79.296417,   0.456890,   656.891724,   601.678040
-0.016889,   0.066108,   0.071833,   0.000000,   724.992188,   0.533425,   7.328438,   21.548244,   184.064682,   710.431519,   -88.748405,   0.453930,   656.853271,   604.640198
-0.017239,   0.065985,   0.071607,   0.000000,   723.533569,   0.533425,   7.328438,   20.773067,   182.423004,   705.666992,   -98.325020,   0.450647,   656.900024,   607.877319
-0.017632,   0.065894,   0.071415,   0.000000,   722.008850,   0.533425,   7.328438,   19.997892,   180.727417,   700.414429,   -108.114166,   0.447014,   657.057617,   611.403992
-0.018073,   0.065851,   0.071274,   0.000000,   720.462097,   0.533425,   7.328438,   19.222717,   179.048431,   694.722351,   -118.050179,   0.443074,   657.355347,   615.172668
-0.018566,   0.065863,   0.071194,   0.000000,   718.906738,   0.533425,   7.328438,   18.447540,   177.405212,   688.598511,   -128.109131,   0.438831,   657.811096,   619.163452
-0.019108,   0.065934,   0.071183,   0.000000,   717.347168,   0.533425,   7.328438,   17.672365,   175.824600,   682.015869,   -138.321030,   0.434279,   658.439758,   623.363403
-0.019696,   0.066072,   0.071252,   0.000000,   715.838440,   0.533425,   7.328438,   16.897190,   174.428452,   675.051941,   -148.600876,   0.429514,   659.256287,   627.684875
-0.020351,   0.066268,   0.071387,   0.000000,   714.311890,   0.533425,   7.328438,   16.122015,   173.140320,   667.583191,   -159.022812,   0.424450,   660.245422,   632.152710
-0.021060,   0.066539,   0.071613,   0.000000,   712.834656,   0.533425,   7.328438,   15.346839,   172.040054,   659.716675,   -169.487167,   0.419164,   661.440735,   636.718689
-0.021821,   0.066909,   0.071962,   0.000000,   711.500244,   0.533425,   7.328438,   14.571663,   171.288589,   651.512634,   -180.016663,   0.413741,   662.895020,   641.366028
-0.022674,   0.067373,   0.072420,   0.000000,   710.180969,   0.533425,   7.328438,   13.796487,   170.660431,   642.805420,   -190.658066,   0.408007,   664.585449,   646.157898
-0.023572,   0.067928,   0.072998,   0.000000,   708.927979,   0.533425,   7.328438,   13.021312,   170.350204,   633.553345,   -201.482285,   0.402031,   666.534607,   651.049744
-0.024555,   0.068582,   0.073695,   0.000000,   707.758972,   0.533425,   7.328438,   12.246136,   170.355591,   623.896240,   -212.292526,   0.395906,   668.720886,   655.959534
-0.025645,   0.069288,   0.074464,   0.000000,   706.339783,   0.533425,   7.328438,   11.470961,   170.389740,   613.079041,   -223.569016,   0.389142,   671.107666,   661.025940
-0.026787,   0.070106,   0.075381,   0.000000,   704.953125,   0.533425,   7.328438,   10.695785,   170.842834,   601.484314,   -235.082458,   0.382077,   673.797180,   666.155640
-0.027975,   0.071063,   0.076483,   0.000000,   703.700134,   0.533425,   7.328438,   9.920609,   171.991898,   589.071167,   -246.878845,   0.374810,   676.844238,   671.342712
-0.029364,   0.072141,   0.077733,   0.000000,   702.041870,   0.533425,   7.328438,   9.145433,   173.068481,   574.958496,   -259.275360,   0.366563,   680.216064,   676.705566
-0.030884,   0.073337,   0.079141,   0.000000,   700.068237,   0.533425,   7.328438,   8.370258,   174.532028,   559.065430,   -272.217010,   0.357545,   683.920349,   682.067566
-0.032532,   0.074643,   0.080706,   0.000000,   697.702942,   0.533425,   7.328438,   7.595082,   176.602921,   541.045410,   -285.717102,   0.347725,   687.947144,   687.296143
-0.034316,   0.076059,   0.082429,   0.000000,   694.824585,   0.533425,   7.328438,   6.819907,   179.497025,   520.427429,   -299.786011,   0.337010,   692.288757,   692.246399
-0.041674,   0.090026,   0.097786,   0.000000,   714.493225,   0.535065,   8.199678,   51.283226,   158.963577,   560.571838,   292.417358,   0.336868,   711.985535,   711.945374
-0.039259,   0.087848,   0.095180,   0.000000,   716.470276,   0.535064,   8.199678,   50.525185,   158.484894,   577.673584,   278.292145,   0.347163,   706.831848,   706.214478
-0.037074,   0.085869,   0.092848,   0.000000,   718.084900,   0.535065,   8.199678,   49.767139,   158.522430,   592.641174,   264.940735,   0.356612,   702.130188,   700.373779
-0.035094,   0.084079,   0.090771,   0.000000,   719.423523,   0.535064,   8.199678,   49.009098,   158.877136,   605.894348,   252.266434,   0.365296,   697.855408,   694.528809
-0.033289,   0.082476,   0.088940,   0.000000,   720.614197,   0.535064,   8.199678,   48.251057,   159.510635,   617.831787,   240.149048,   0.373368,   693.991150,   688.745789
-0.031643,   0.081077,   0.087367,   0.000000,   721.734863,   0.535065,   8.199678,   47.493015,   160.259125,   628.774292,   228.462524,   0.380872,   690.549561,   683.113159
-0.030183,   0.079855,   0.086013,   0.000000,   722.779419,   0.535064,   8.199678,   46.734970,   161.154083,   638.677551,   217.333221,   0.387798,   687.499329,   677.682861
-0.028807,   0.078786,   0.084857,   0.000000,   723.983948,   0.535064,   8.199678,   45.976933,   162.448425,   648.218018,   206.264984,   0.394617,   684.769897,   672.260376
-0.027583,   0.077858,   0.083872,   0.000000,   725.117126,   0.535066,   8.199678,   45.218887,   163.741028,   656.985046,   195.570221,   0.400928,   682.354919,   667.035461
-0.026456,   0.077081,   0.083071,   0.000000,   726.375854,   0.535064,   8.199678,   44.460846,   165.230972,   665.443909,   184.909882,   0.407044,   680.249939,   661.901611
-0.025417,   0.076442,   0.082439,   0.000000,   727.780029,   0.535064,   8.199678,   43.702801,   167.015762,   673.569397,   174.354233,   0.412994,   678.447876,   656.850281
-0.024461,   0.075910,   0.081937,   0.000000,   729.232910,   0.535065,   8.199678,   42.944759,   168.935547,   681.307068,   163.867981,   0.418701,   676.889709,   651.884338
-0.023601,   0.075466,   0.081537,   0.000000,   730.671753,   0.535064,   8.199678,   42.186718,   170.921738,   688.555359,   153.540390,   0.424092,   675.542480,   647.043884
-0.022808,   0.075120,   0.081254,   0.000000,   732.165894,   0.535064,   8.199678,   41.428677,   173.027771,   695.447266,   143.285721,   0.429244,   674.422852,   642.324524
-0.022092,   0.074868,   0.081080,   0.000000,   733.682373,   0.535065,   8.199678,   40.670635,   175.181168,   701.916992,   133.195419,   0.434083,   673.525269,   637.799255
-0.021448,   0.074703,   0.081005,   0.000000,   735.212463,   0.535065,   8.199678,   39.912590,   177.349747,   707.984924,   123.244614,   0.438611,   672.831604,   633.484741
-0.020867,   0.074612,   0.081013,   0.000000,   736.741150,   0.535064,   8.199678,   39.154549,   179.524979,   713.640808,   113.454292,   0.442829,   672.318115,   629.391174
-0.020350,   0.074585,   0.081089,   0.000000,   738.223816,   0.535065,   8.199678,   38.396507,   181.604782,   718.849182,   103.847488,   0.446680,   671.960510,   625.581177
-0.019885,   0.074610,   0.081224,   0.000000,   739.675110,   0.535064,   8.199678,   37.638466,   183.637161,   723.650208,   94.395164,   0.450218,   671.739929,   622.026917
-0.019482,   0.074671,   0.081391,   0.000000,   741.033630,   0.535064,   8.199678,   36.880424,   185.526596,   727.977539,   85.163078,   0.453385,   671.617798,   618.782898
-0.019123,   0.074763,   0.081588,   0.000000,   742.315308,   0.535065,   8.199678,   36.122379,   187.287323,   731.884155,   76.089394,   0.456220,   671.585510,   615.840820
-0.018809,   0.074879,   0.081806,   0.000000,   743.511475,   0.535064,   8.199678,   35.364338,   188.907578,   735.375061,   67.174980,   0.458729,   671.626404,   613.211060
-0.018536,   0.075003,   0.082027,   0.000000,   744.598572,   0.535064,   8.199678,   34.606297,   190.371048,   738.443176,   58.408100,   0.460920,   671.711060,   610.887756
-0.018304,   0.075123,   0.082234,   0.000000,   745.551270,   0.535065,   8.199678,   33.848255,   191.655685,   741.076477,   49.785172,   0.462795,   671.811279,   608.870117
-0.018116,   0.075234,   0.082418,   0.000000,   746.358276,   0.535065,   8.199678,   33.090210,   192.737045,   743.277283,   41.300213,   0.464352,   671.914246,   607.173157
-0.017961,   0.075334,   0.082582,   0.000000,   747.039734,   0.535064,   8.199678,   32.332169,   193.653732,   745.083252,   32.904297,   0.465630,   672.019897,   605.773315
-0.017841,   0.075418,   0.082717,   0.000000,   747.584229,   0.535064,   8.199678,   31.574127,   194.391129,   746.490479,   24.597937,   0.466627,   672.116089,   604.675720
-0.017755,   0.075481,   0.082818,   0.000000,   747.985352,   0.535064,   8.199678,   30.816084,   194.951782,   747.502441,   16.341953,   0.467355,   672.190735,   603.868530
-0.017704,   0.075520,   0.082879,   0.000000,   748.226990,   0.535064,   8.199678,   30.058043,   195.287888,   748.106445,   8.164872,   0.467788,   672.238403,   603.387390
-0.017687,   0.075533,   0.082899,   0.000000,   748.304504,   0.535065,   8.199678,   29.300001,   195.390686,   748.304504,   0.000007,   0.467926,   672.253967,   603.233398
-0.017704,   0.075520,   0.082879,   0.000000,   748.226990,   0.535064,   8.199678,   28.541958,   195.287857,   748.106445,   -8.164862,   0.467788,   672.238403,   603.387512
-0.017755,   0.075481,   0.082818,   0.000000,   747.985413,   0.535064,   8.199678,   27.783916,   194.951813,   747.502502,   -16.341942,   0.467355,   672.190735,   603.868408
-0.017841,   0.075418,   0.082717,   0.000000,   747.584229,   0.535065,   8.199678,   27.025873,   194.391159,   746.490479,   -24.597925,   0.466627,   672.116089,   604.675598
-0.017961,   0.075334,   0.082582,   0.000000,   747.039734,   0.535064,   8.199678,   26.267830,   193.653702,   745.083252,   -32.904293,   0.465630,   672.019897,   605.773315
-0.018116,   0.075234,   0.082418,   0.000000,   746.358276,   0.535064,   8.199678,   25.509789,   192.737122,   743.277283,   -41.300209,   0.464352,   671.914246,   607.173157
-0.018304,   0.075123,   0.082233,   0.000000,   745.551270,   0.535064,   8.199678,   24.751747,   191.655594,   741.076477,   -49.785156,   0.462795,   671.811340,   608.870300
-0.018536,   0.075003,   0.082027,   0.000000,   744.598572,   0.535065,   8.199678,   23.993704,   190.371048,   738.443176,   -58.408092,   0.460920,   671.711060,   610.887756
-0.018809,   0.074879,   0.081806,   0.000000,   743.511475,   0.535064,   8.199678,   23.235661,   188.907578,   735.375061,   -67.174980,   0.458729,   671.626404,   613.211060
-0.019123,   0.074763,   0.081588,   0.000000,   742.315308,   0.535064,   8.199678,   22.477619,   187.287354,   731.884155,   -76.089394,   0.456220,   671.585510,   615.840881
-0.019482,   0.074671,   0.081391,   0.000000,   741.033630,   0.535064,   8.199678,   21.719578,   185.526596,   727.977539,   -85.163078,   0.453385,   671.617798,   618.782898
-0.019885,   0.074610,   0.081224,   0.000000,   739.675110,   0.535065,   8.199678,   20.961535,   183.637161,   723.650208,   -94.395172,   0.450218,   671.739929,   622.026917
-0.020350,   0.074585,   0.081089,   0.000000,   738.223816,   0.535064,   8.199678,   20.203493,   181.604797,   718.849182,   -103.847519,   0.446680,   671.960510,   625.581177
-0.020867,   0.074612,   0.081013,   0.000000,   736.741150,   0.535064,   8.199678,   19.445450,   179.524948,   713.640808,   -113.454315,   0.442829,   672.318115,   629.391174
-0.021448,   0.074703,   0.081005,   0.000000,   735.212402,   0.535064,   8.199678,   18.687408,   177.349640,   707.984863,   -123.244629,   0.438611,   672.831543,   633.484802
-0.022092,   0.074868,   0.081080,   0.000000,   733.682434,   0.535065,   8.199678,   17.929365,   175.181213,   701.916992,   -133.195450,   0.434083,   673.525269,   637.799316
-0.022808,   0.075120,   0.081254,   0.000000,   732.165894,   0.535064,   8.199678,   17.171324,   173.027740,   695.447266,   -143.285736,   0.429244,   674.422852,   642.324463
-0.023601,   0.075466,   0.081537,   0.000000,   730.671692,   0.535065,   8.199678,   16.413282,   170.921692,   688.555298,   -153.540421,   0.424092,   675.542419,   647.043823
-0.024461,   0.075910,   0.081937,   0.000000,   729.232849,   0.535064,   8.199678,   15.655239,   168.935547,   681.307007,   -163.868011,   0.418701,   676.889709,   651.884338
-0.025417,   0.076442,   0.082439,   0.000000,   727.780029,   0.535064,   8.199678,   14.897197,   167.015717,   673.569336,   -174.354248,   0.412994,   678.447815,   656.850220
-0.026456,   0.077081,   0.083071,   0.000000,   726.375916,   0.535064,   8.199678,   14.139154,   165.230896,   665.443909,   -184.909912,   0.407044,   680.249939,   661.901672
-0.027583,   0.077858,   0.083872,   0.000000,   725.117126,   0.535064,   8.199678,   13.381112,   163.740967,   656.985046,   -195.570236,   0.400928,   682.354919,   667.035400
-0.028807,   0.078786,   0.084857,   0.000000,   723.983826,   0.535064,   8.199678,   12.623070,   162.448303,   648.217957,   -206.264954,   0.394617,   684.769836,   672.260376
-0.030183,   0.079855,   0.086013,   0.000000,   722.779358,   0.535064,   8.199678,   11.865027,   161.153976,   638.677551,   -217.333206,   0.387797,   687.499329,   677.682922
-0.031643,   0.081077,   0.087367,   0.000000,   721.734924,   0.535064,   8.199678,   11.106986,   160.259064,   628.774292,   -228.462540,   0.380872,   690.549561,   683.113220
-0.033289,   0.082476,   0.088940,   0.000000,   720.614136,   0.535065,   8.199678,   10.348944,   159.510422,   617.831726,   -240.149063,   0.373368,   693.991150,   688.745850
-0.035094,   0.084079,   0.090771,   0.000000,   719.423401,   0.535064,   8.199678,   9.590901,   158.876892,   605.894226,   -252.266479,   0.365296,   697.855469,   694.528870
-0.037074,   0.085869,   0.092848,   0.000000,   718.084778,   0.535064,   8.199678,   8.832859,   158.522308,   592.641052,   -264.940735,   0.356612,   702.130127,   700.373840
-0.039260,   0.087848,   0.095180,   0.000000,   716.470154,   0.535064,   8.199678,   8.074817,   158.484711,   577.673584,   -278.292084,   0.347163,   706.831787,   706.214478
-0.041674,   0.090026,   0.097786,   0.000000,   714.493286,   0.535064,   8.199678,   7.316774,   158.963486,   560.572144,   -292.417114,   0.336868,   711.985474,   711.945312
-0.049819,   0.105201,   0.114325,   0.000000,   732.709290,   0.536039,   9.092217,   50.824341,   138.628876,   599.528687,   281.282776,   0.337058,   730.000427,   729.954590
-0.046813,   0.102366,   0.110978,   0.000000,   734.188782,   0.536039,   9.092217,   50.082123,   140.455917,   613.414673,   267.782684,   0.346823,   724.548401,   723.946533
-0.044100,   0.099830,   0.108030,   0.000000,   735.498718,   0.536040,   9.092217,   49.339905,   142.632416,   625.695007,   255.144913,   0.355882,   719.646179,   717.958618
-0.041654,   0.097585,   0.105458,   0.000000,   736.705688,   0.536039,   9.092217,   48.597683,   144.932419,   636.802368,   243.146271,   0.364315,   715.254944,   712.055420
-0.039433,   0.095571,   0.103187,   0.000000,   737.783569,   0.536039,   9.092217,   47.855469,   147.230453,   646.905151,   231.664703,   0.372161,   711.283752,   706.235168
-0.037407,   0.093759,   0.101176,   0.000000,   738.829163,   0.536040,   9.092217,   47.113247,   149.617020,   656.297485,   220.519043,   0.379607,   707.675293,   700.467834
-0.035551,   0.092145,   0.099416,   0.000000,   739.920898,   0.536039,   9.092217,   46.371029,   152.162384,   665.137634,   209.653244,   0.386745,   704.426025,   694.767883
-0.033869,   0.090759,   0.097930,   0.000000,   741.164001,   0.536039,   9.092217,   45.628811,   154.890686,   673.665894,   198.927963,   0.393672,   701.562012,   689.156372
-0.032309,   0.089549,   0.096665,   0.000000,   742.527893,   0.536040,   9.092217,   44.886593,   157.803543,   681.913879,   188.261780,   0.400427,   699.018982,   683.570190
-0.030883,   0.088465,   0.095555,   0.000000,   743.840698,   0.536039,   9.092217,   44.144371,   160.678391,   689.659790,   177.753418,   0.406827,   696.723450,   678.048096
-0.029608,   0.087531,   0.094621,   0.000000,   745.167236,   0.536039,   9.092217,   43.402153,   163.553421,   696.973022,   167.422867,   0.412896,   694.708618,   672.652039
-0.028429,   0.086749,   0.093869,   0.000000,   746.607056,   0.536040,   9.092217,   42.659935,   166.576172,   704.016052,   157.175430,   0.418765,   692.983582,   667.341919
-0.027365,   0.086111,   0.093284,   0.000000,   748.073120,   0.536039,   9.092217,   41.917717,   169.556381,   710.668762,   147.102188,   0.424287,   691.533203,   662.223816
-0.026408,   0.085601,   0.092845,   0.000000,   749.570190,   0.536039,   9.092217,   41.175499,   172.519958,   716.967102,   137.162766,   0.429499,   690.329407,   657.281738
-0.025539,   0.085203,   0.092535,   0.000000,   751.084229,   0.536040,   9.092217,   40.433281,   175.459549,   722.889038,   127.396431,   0.434393,   689.352112,   652.537842
-0.024761,   0.084903,   0.092333,   0.000000,   752.568359,   0.536039,   9.092217,   39.691059,   178.276703,   728.398315,   117.816254,   0.438915,   688.572632,   648.045654
-0.024057,   0.084688,   0.092226,   0.000000,   754.036804,   0.536039,   9.092217,   38.948841,   181.021027,   733.530090,   108.400497,   0.443116,   687.969971,   643.784729
-0.023437,   0.084541,   0.092188,   0.000000,   755.428833,   0.536040,   9.092217,   38.206623,   183.581589,   738.220703,   99.198975,   0.446928,   687.509705,   639.821899
-0.022884,   0.084468,   0.092230,   0.000000,   756.791443,   0.536039,   9.092217,   37.464405,   186.010010,   742.542664,   90.182770,   0.450402,   687.202881,   636.162476
-0.022389,   0.084444,   0.092322,   0.000000,   758.087097,   0.536039,   9.092217,   36.722187,   188.280640,   746.477661,   81.333565,   0.453542,   687.005615,   632.797546
-0.021951,   0.084442,   0.092430,   0.000000,   759.262329,   0.536040,   9.092217,   35.979969,   190.342346,   749.980103,   72.669510,   0.456332,   686.869690,   629.735779
-0.021578,   0.084464,   0.092554,   0.000000,   760.321228,   0.536039,   9.092217,   35.237751,   192.176178,   753.072021,   64.176353,   0.458775,   686.791443,   627.005737
-0.021249,   0.084504,   0.092690,   0.000000,   761.285156,   0.536039,   9.092217,   34.495529,   193.830261,   755.796509,   55.808117,   0.460918,   686.764832,   624.580139
-0.020970,   0.084555,   0.092829,   0.000000,   762.136597,   0.536039,   9.092217,   33.753311,   195.275620,   758.143921,   47.574055,   0.462753,   686.773376,   622.478760
-0.020738,   0.084610,   0.092959,   0.000000,   762.861328,   0.536040,   9.092217,   33.011093,   196.488663,   760.110779,   39.469528,   0.464277,   686.801697,   620.714844
-0.020551,   0.084663,   0.093077,   0.000000,   763.467773,   0.536039,   9.092217,   32.268875,   197.498825,   761.720886,   31.443132,   0.465522,   686.841675,   619.263672
-0.020409,   0.084712,   0.093177,   0.000000,   763.948303,   0.536040,   9.092217,   31.526657,   198.289490,   762.972168,   23.497765,   0.466483,   686.885925,   618.138855
-0.020308,   0.084751,   0.093253,   0.000000,   764.289673,   0.536040,   9.092217,   30.784437,   198.835953,   763.857727,   15.628063,   0.467152,   686.924072,   617.353943
-0.020248,   0.084776,   0.093301,   0.000000,   764.494995,   0.536039,   9.092217,   30.042219,   199.161469,   764.387390,   7.800035,   0.467550,   686.949341,   616.886047
-0.020228,   0.084784,   0.093317,   0.000000,   764.565857,   0.536040,   9.092217,   29.299999,   199.277603,   764.565857,   0.000002,   0.467687,   686.958252,   616.724792
-0.020248,   0.084776,   0.093301,   0.000000,   764.494995,   0.536040,   9.092217,   28.557781,   199.161514,   764.387390,   -7.800035,   0.467550,   686.949341,   616.886047
-0.020308,   0.084751,   0.093253,   0.000000,   764.289673,   0.536039,   9.092217,   27.815563,   198.835953,   763.857727,   -15.628059,   0.467152,   686.924072,   617.353943
-0.020409,   0.084712,   0.093177,   0.000000,   763.948303,   0.536040,   9.092217,   27.073343,   198.289505,   762.972168,   -23.497753,   0.466483,   686.885925,   618.138855
-0.020551,   0.084663,   0.093077,   0.000000,   763.467773,   0.536040,   9.092217,   26.331125,   197.498871,   761.720886,   -31.443127,   0.465522,   686.841675,   619.263672
-0.020738,   0.084610,   0.092959,   0.000000,   762.861328,   0.536039,   9.092217,   25.588907,   196.488602,   760.110779,   -39.469509,   0.464277,   686.801697,   620.714905
-0.020970,   0.084555,   0.092829,   0.000000,   762.136597,   0.536040,   9.092217,   24.846687,   195.275665,   758.143921,   -47.574036,   0.462753,   686.773315,   622.478760
-0.021249,   0.084504,   0.092690,   0.000000,   761.285156,   0.536040,   9.092217,   24.104469,   193.830307,   755.796509,   -55.808109,   0.460918,   686.764832,   624.580139
-0.021578,   0.084464,   0.092554,   0.000000,   760.321228,   0.536039,   9.092217,   23.362249,   192.176193,   753.072021,   -64.176353,   0.458775,   686.791443,   627.005737
-0.021951,   0.084442,   0.092430,   0.000000,   759.262329,   0.536040,   9.092217,   22.620031,   190.342316,   749.980103,   -72.669502,   0.456332,   686.869690,   629.735840
-0.022389,   0.084444,   0.092322,   0.000000,   758.087097,   0.536039,   9.092217,   21.877813,   188.280655,   746.477661,   -81.333549,   0.453542,   687.005554,   632.797485
-0.022884,   0.084468,   0.092230,   0.000000,   756.791504,   0.536040,   9.092217,   21.135595,   186.010040,   742.542725,   -90.182770,   0.450402,   687.202942,   636.162537
-0.023437,   0.084541,   0.092188,   0.000000,   755.428833,   0.536040,   9.092217,   20.393375,   183.581543,   738.220703,   -99.198975,   0.446928,   687.509766,   639.821899
-0.024057,   0.084688,   0.092226,   0.000000,   754.036743,   0.536039,   9.092217,   19.651157,   181.020996,   733.530029,   -108.400490,   0.443116,   687.969910,   643.784668
-0.024761,   0.084903,   0.092333,   0.000000,   752.568420,   0.536040,   9.092217,   18.908939,   178.276718,   728.398315,   -117.816269,   0.438915,   688.572632,   648.045715
-0.025539,   0.085203,   0.092535,   0.000000,   751.084167,   0.536040,   9.092217,   18.166719,   175.459473,   722.888977,   -127.396439,   0.434393,   689.352112,   652.537781
-0.026408,   0.085601,   0.092845,   0.000000,   749.570129,   0.536039,   9.092217,   17.424501,   172.519897,   716.967041,   -137.162766,   0.429499,   690.329346,   657.281799
-0.027365,   0.086111,   0.093284,   0.000000,   748.073059,   0.536040,   9.092217,   16.682283,   169.556366,   710.668701,   -147.102203,   0.424287,   691.533203,   662.223816
-0.028429,   0.086749,   0.093869,   0.000000,   746.606995,   0.536040,   9.092217,   15.940063,   166.576019,   704.015991,   -157.175430,   0.418765,   692.983582,   667.341919
-0.029608,   0.087531,   0.094621,   0.000000,   745.167175,   0.536039,   9.092217,   15.197845,   163.553375,   696.972961,   -167.422882,   0.412896,   694.708557,   672.651917
-0.030883,   0.088465,   0.095555,   0.000000,   743.840637,   0.536039,   9.092217,   14.455626,   160.678314,   689.659729,   -177.753433,   0.406827,   696.723450,   678.048157
-0.032309,   0.089549,   0.096665,   0.000000,   742.527832,   0.536039,   9.092217,   13.713408,   157.803375,   681.913818,   -188.261749,   0.400427,   699.018982,   683.570190
-0.033869,   0.090759,   0.097930,   0.000000,   741.163879,   0.536040,   9.092217,   12.971189,   154.890640,   673.665833,   -198.927917,   0.393672,   701.561951,   689.156250
-0.035551,   0.092145,   0.099416,   0.000000,   739.920715,   0.536040,   9.092217,   12.228970,   152.162262,   665.137512,   -209.653214,   0.386745,   704.425903,   694.767883
-0.037407,   0.093759,   0.101176,   0.000000,   738.828979,   0.536039,   9.092217,   11.486752,   149.616806,   656.297363,   -220.518967,   0.379606,   707.675171,   700.467712
-0.039433,   0.095571,   0.103187,   0.000000,   737.783386,   0.536040,   9.092217,   10.744533,   147.230347,   646.905029,   -231.664627,   0.372161,   711.283569,   706.235107
-0.041654,   0.097585,   0.105458,   0.000000,   736.705444,   0.536039,   9.092217,   10.002314,   144.932266,   636.802185,   -243.146210,   0.364315,   715.254822,   712.055298
-0.044100,   0.099830,   0.108030,   0.000000,   735.498352,   0.536039,   9.092217,   9.260096,   142.632111,   625.694702,   -255.144852,   0.355882,   719.645996,   717.958435
-0.046813,   0.102366,   0.110978,   0.000000,   734.188354,   0.536039,   9.092217,   8.517877,   140.455673,   613.414246,   -267.782654,   0.346823,   724.548157,   723.946289
-0.049819,   0.105200,   0.114324,   0.000000,   732.708618,   0.536039,   9.092217,   7.775658,   138.628433,   599.527954,   -281.282776,   0.337058,   730.000000,   729.954285
-0.059534,   0.123045,   0.133681,   0.000000,   751.229553,   0.536478,   10.004342,   50.404324,   118.965240,   638.048828,   267.507263,   0.337191,   748.354065,   748.303772
-0.055780,   0.119354,   0.129385,   0.000000,   752.309998,   0.536478,   10.004342,   49.676586,   123.062363,   649.004517,   254.960251,   0.346547,   742.628662,   742.037048
-0.052348,   0.116010,   0.125558,   0.000000,   753.306519,   0.536478,   10.004342,   48.948853,   127.344475,   658.815552,   243.203125,   0.355361,   737.428833,   735.779541
-0.049269,   0.113035,   0.122198,   0.000000,   754.267517,   0.536478,   10.004342,   48.221115,   131.543152,   667.869446,   231.952972,   0.363664,   732.738770,   729.599915
-0.046484,   0.110401,   0.119264,   0.000000,   755.257019,   0.536476,   10.004342,   47.493382,   135.604034,   676.485779,   220.931778,   0.371578,   728.505188,   723.492310
-0.043956,   0.108079,   0.116719,   0.000000,   756.370300,   0.536478,   10.004342,   46.765648,   139.755707,   684.722534,   210.188110,   0.379217,   724.720520,   717.467346
-0.041641,   0.106042,   0.114527,   0.000000,   757.628784,   0.536478,   10.004342,   46.037910,   144.005798,   692.694153,   199.613113,   0.386636,   721.350830,   711.502869
-0.039593,   0.104241,   0.112617,   0.000000,   758.881348,   0.536478,   10.004342,   45.310177,   148.170578,   700.180786,   189.338486,   0.393664,   718.337463,   705.638672
-0.037693,   0.102672,   0.110991,   0.000000,   760.286804,   0.536478,   10.004342,   44.582439,   152.422409,   707.549072,   179.045822,   0.400544,   715.670471,   699.795349
-0.035967,   0.101318,   0.109621,   0.000000,   761.762085,   0.536478,   10.004342,   43.854706,   156.666626,   714.605835,   168.920151,   0.407133,   713.339417,   694.049011
-0.034402,   0.100151,   0.108472,   0.000000,   763.263123,   0.536478,   10.004342,   43.126968,   160.834686,   721.319580,   158.959076,   0.413395,   711.309021,   688.420532
-0.032972,   0.099156,   0.107524,   0.000000,   764.832336,   0.536476,   10.004342,   42.399235,   165.036896,   727.749878,   149.137177,   0.419408,   709.561218,   682.877563
-0.031689,   0.098321,   0.106757,   0.000000,   766.377197,   0.536478,   10.004342,   41.671501,   169.054596,   733.794678,   139.507217,   0.425026,   708.074524,   677.530640
-0.030528,   0.097626,   0.106148,   0.000000,   767.919861,   0.536478,   10.004342,   40.943764,   172.957840,   739.506531,   130.018692,   0.430314,   706.820679,   672.350586
-0.029469,   0.097048,   0.105673,   0.000000,   769.436951,   0.536478,   10.004342,   40.216030,   176.729080,   744.852905,   120.711121,   0.435259,   705.772888,   667.362671
-0.028527,   0.096576,   0.105310,   0.000000,   770.884644,   0.536478,   10.004342,   39.488293,   180.274048,   749.790833,   111.616516,   0.439806,   704.905640,   662.632507
-0.027677,   0.096209,   0.105062,   0.000000,   772.302368,   0.536478,   10.004342,   38.760559,   183.642746,   754.380005,   102.713997,   0.444000,   704.221497,   658.169617
-0.026910,   0.095922,   0.104900,   0.000000,   773.653992,   0.536478,   10.004342,   38.032822,   186.798874,   758.600464,   93.990700,   0.447836,   703.679993,   653.982849
-0.026235,   0.095685,   0.104780,   0.000000,   774.878296,   0.536476,   10.004342,   37.305088,   189.678665,   762.391479,   85.482552,   0.451285,   703.229065,   650.095825
-0.025625,   0.095502,   0.104716,   0.000000,   776.030884,   0.536478,   10.004342,   36.577354,   192.353897,   765.844788,   77.106339,   0.454415,   702.880676,   646.491455
-0.025088,   0.095371,   0.104700,   0.000000,   777.097473,   0.536478,   10.004342,   35.849617,   194.789536,   768.943115,   68.908150,   0.457207,   702.623230,   643.214844
-0.024622,   0.095278,   0.104714,   0.000000,   778.058716,   0.536478,   10.004342,   35.121883,   196.955521,   771.682495,   60.870724,   0.459658,   702.434326,   640.283386
-0.024218,   0.095216,   0.104751,   0.000000,   778.924500,   0.536478,   10.004342,   34.394146,   198.881470,   774.090149,   52.954006,   0.461800,   702.303040,   637.680542
-0.023876,   0.095180,   0.104804,   0.000000,   779.686157,   0.536478,   10.004342,   33.666412,   200.552948,   776.164856,   45.158585,   0.463635,   702.217285,   635.422424
-0.023590,   0.095159,   0.104861,   0.000000,   780.334595,   0.536476,   10.004342,   32.938675,   201.962097,   777.906677,   37.473259,   0.465167,   702.162781,   633.513489
-0.023359,   0.095148,   0.104916,   0.000000,   780.865906,   0.536479,   10.004342,   32.210941,   203.105728,   779.321655,   29.869801,   0.466404,   702.129700,   631.955750
-0.023181,   0.095145,   0.104964,   0.000000,   781.277039,   0.536477,   10.004342,   31.483206,   203.978836,   780.412231,   22.344196,   0.467348,   702.111694,   630.756836
-0.023056,   0.095145,   0.105002,   0.000000,   781.572266,   0.536479,   10.004342,   30.755470,   204.601044,   781.189148,   14.868220,   0.468018,   702.103333,   629.901733
-0.022981,   0.095147,   0.105026,   0.000000,   781.749207,   0.536478,   10.004342,   30.027735,   204.970657,   781.653625,   7.425928,   0.468416,   702.100220,   629.391602
-0.022956,   0.095147,   0.105034,   0.000000,   781.806824,   0.536477,   10.004342,   29.299999,   205.088486,   781.806824,   -0.000000,   0.468545,   702.099426,   629.225647
-0.022981,   0.095147,   0.105026,   0.000000,   781.749207,   0.536478,   10.004342,   28.572264,   204.970657,   781.653625,   -7.425928,   0.468416,   702.100220,   629.391602
-0.023056,   0.095145,   0.105002,   0.000000,   781.572266,   0.536478,   10.004342,   27.844528,   204.601013,   781.189148,   -14.868214,   0.468018,   702.103394,   629.901733
-0.023181,   0.095145,   0.104964,   0.000000,   781.277039,   0.536478,   10.004342,   27.116795,   203.978806,   780.412231,   -22.344189,   0.467348,   702.111694,   630.756836
-0.023359,   0.095148,   0.104916,   0.000000,   780.865906,   0.536477,   10.004342,   26.389059,   203.105804,   779.321655,   -29.869791,   0.466404,   702.129700,   631.955688
-0.023590,   0.095159,   0.104861,   0.000000,   780.334595,   0.536478,   10.004342,   25.661324,   201.962036,   777.906677,   -37.473244,   0.465167,   702.162781,   633.513550
-0.023876,   0.095180,   0.104804,   0.000000,   779.686157,   0.536478,   10.004342,   24.933588,   200.552948,   776.164856,   -45.158581,   0.463635,   702.217285,   635.422424
-0.024218,   0.095216,   0.104751,   0.000000,   778.924500,   0.536477,   10.004342,   24.205853,   198.881500,   774.090149,   -52.953999,   0.461800,   702.303040,   637.680542
-0.024622,   0.095278,   0.104714,   0.000000,   778.058716,   0.536478,   10.004342,   23.478117,   196.955536,   771.682495,   -60.870708,   0.459658,   702.434326,   640.283264
-0.025088,   0.095371,   0.104700,   0.000000,   777.097473,   0.536478,   10.004342,   22.750381,   194.789536,   768.943115,   -68.908127,   0.457207,   702.623230,   643.214844
-0.025625,   0.095502,   0.104716,   0.000000,   776.030884,   0.536477,   10.004342,   22.022648,   192.353928,   765.844788,   -77.106323,   0.454415,   702.880615,   646.491455
-0.026235,   0.095685,   0.104780,   0.000000,   774.878235,   0.536478,   10.004342,   21.294912,   189.678589,   762.391479,   -85.482529,   0.451285,   703.229126,   650.095886
-0.026910,   0.095922,   0.104900,   0.000000,   773.653992,   0.536478,   10.004342,   20.567177,   186.798859,   758.600464,   -93.990692,   0.447836,   703.679993,   653.982971
-0.027677,   0.096209,   0.105062,   0.000000,   772.302368,   0.536478,   10.004342,   19.839441,   183.642715,   754.380005,   -102.713989,   0.444000,   704.221497,   658.169678
-0.028527,   0.096576,   0.105310,   0.000000,   770.884705,   0.536477,   10.004342,   19.111706,   180.274078,   749.790833,   -111.616524,   0.439806,   704.905640,   662.632507
-0.029469,   0.097048,   0.105673,   0.000000,   769.436951,   0.536478,   10.004342,   18.383970,   176.729050,   744.852905,   -120.711113,   0.435259,   705.772888,   667.362610
-0.030528,   0.097626,   0.106148,   0.000000,   767.919861,   0.536478,   10.004342,   17.656237,   172.957809,   739.506531,   -130.018692,   0.430314,   706.820679,   672.350586
-0.031689,   0.098321,   0.106757,   0.000000,   766.377136,   0.536477,   10.004342,   16.928501,   169.054611,   733.794617,   -139.507233,   0.425026,   708.074463,   677.530518
-0.032972,   0.099156,   0.107524,   0.000000,   764.832275,   0.536478,   10.004342,   16.200766,   165.036789,   727.749817,   -149.137177,   0.419408,   709.561218,   682.877502
-0.034402,   0.100151,   0.108472,   0.000000,   763.263123,   0.536477,   10.004342,   15.473030,   160.834671,   721.319519,   -158.959122,   0.413395,   711.308960,   688.420593
-0.035967,   0.101318,   0.109621,   0.000000,   761.762024,   0.536478,   10.004342,   14.745295,   156.666580,   714.605774,   -168.920181,   0.407133,   713.339355,   694.049133
-0.037693,   0.102672,   0.110991,   0.000000,   760.286804,   0.536477,   10.004342,   14.017559,   152.422409,   707.549011,   -179.045853,   0.400544,   715.670410,   699.795349
-0.039593,   0.104241,   0.112617,   0.000000,   758.881287,   0.536478,   10.004342,   13.289824,   148.170593,   700.180725,   -189.338531,   0.393664,   718.337341,   705.638550
-0.041641,   0.106042,   0.114527,   0.000000,   757.628784,   0.536478,   10.004342,   12.562089,   144.005890,   692.694092,   -199.613159,   0.386636,   721.350830,   711.502808
-0.043956,   0.108079,   0.116719,   0.000000,   756.370300,   0.536478,   10.004342,   11.834353,   139.755783,   684.722534,   -210.188110,   0.379217,   724.720520,   717.467285
-0.046484,   0.110401,   0.119264,   0.000000,   755.257019,   0.536478,   10.004342,   11.106618,   135.604034,   676.485718,   -220.931793,   0.371578,   728.505188,   723.492432
-0.049269,   0.113035,   0.122198,   0.000000,   754.267517,   0.536478,   10.004342,   10.378882,   131.543320,   667.869385,   -231.953003,   0.363664,   732.738708,   729.599792
-0.052348,   0.116010,   0.125558,   0.000000,   753.306580,   0.536478,   10.004342,   9.651148,   127.344604,   658.815552,   -243.203156,   0.355361,   737.428833,   735.779602
-0.055780,   0.119354,   0.129385,   0.000000,   752.310059,   0.536478,   10.004342,   8.923412,   123.062492,   649.004517,   -254.960297,   0.346547,   742.628662,   742.036987
-0.059534,   0.123045,   0.133681,   0.000000,   751.229553,   0.536478,   10.004342,   8.195677,   118.965302,   638.048767,   -267.507355,   0.337191,   748.354126,   748.303833
-0.069883,   0.141504,   0.153516,   0.000000,   767.781433,   0.536501,   10.934303,   50.023975,   100.111305,   674.248413,   249.898422,   0.337626,   764.513550,   764.449890
-0.065472,   0.137197,   0.148568,   0.000000,   768.914246,   0.536499,   10.934303,   49.309357,   106.329109,   682.872742,   238.767273,   0.346609,   758.973816,   758.363342
-0.061408,   0.133397,   0.144276,   0.000000,   770.236877,   0.536501,   10.934303,   48.594734,   112.701012,   691.053589,   228.179398,   0.355312,   754.036926,   752.358154
-0.057746,   0.130055,   0.140558,   0.000000,   771.670410,   0.536501,   10.934303,   47.880116,   118.961266,   698.941345,   217.878204,   0.363694,   749.624268,   746.406616
-0.054492,   0.127080,   0.137290,   0.000000,   773.052795,   0.536499,   10.934303,   47.165497,   124.808174,   706.531494,   207.658585,   0.371655,   745.619995,   740.468323
-0.051473,   0.124374,   0.134367,   0.000000,   774.559814,   0.536499,   10.934303,   46.450878,   130.844467,   713.931763,   197.553055,   0.379531,   741.947754,   734.416748
-0.048713,   0.121918,   0.131757,   0.000000,   776.067017,   0.536501,   10.934303,   45.736256,   136.796600,   721.026245,   187.579178,   0.387144,   738.590576,   728.306213
-0.046145,   0.119730,   0.129483,   0.000000,   777.672607,   0.536501,   10.934303,   45.021637,   142.803635,   727.868286,   177.817978,   0.394543,   735.595398,   722.191589
-0.043855,   0.117823,   0.127534,   0.000000,   779.283936,   0.536501,   10.934303,   44.307014,   148.546143,   734.472290,   168.120163,   0.401586,   732.943115,   716.148071
-0.041778,   0.116159,   0.125869,   0.000000,   780.946655,   0.536499,   10.934303,   43.592396,   154.201370,   740.842407,   158.540695,   0.408354,   730.610718,   710.151123
-0.039891,   0.114702,   0.124447,   0.000000,   782.598938,   0.536501,   10.934303,   42.877777,   159.677551,   746.911926,   149.097931,   0.414786,   728.560120,   704.233765
-0.038151,   0.113432,   0.123246,   0.000000,   784.250305,   0.536499,   10.934303,   42.163158,   165.004654,   752.686096,   139.807037,   0.420895,   726.776550,   698.413208
-0.036607,   0.112331,   0.122227,   0.000000,   785.812866,   0.536501,   10.934303,   41.448536,   170.021683,   758.059570,   130.729568,   0.426574,   725.221191,   692.773499
-0.035200,   0.111387,   0.121385,   0.000000,   787.339783,   0.536499,   10.934303,   40.733917,   174.813080,   763.109375,   121.826866,   0.431889,   723.891846,   687.315552
-0.033924,   0.110584,   0.120700,   0.000000,   788.820557,   0.536501,   10.934303,   40.019299,   179.369019,   767.828247,   113.109657,   0.436839,   722.765747,   682.065125
-0.032763,   0.109893,   0.120136,   0.000000,   790.224854,   0.536501,   10.934303,   39.304676,   183.661423,   772.193787,   104.579964,   0.441419,   721.805664,   677.039307
-0.031728,   0.109293,   0.119663,   0.000000,   791.516785,   0.536499,   10.934303,   38.590057,   187.644226,   776.171631,   96.262726,   0.445606,   720.977234,   672.273438
-0.030786,   0.108786,   0.119287,   0.000000,   792.745422,   0.536501,   10.934303,   37.875439,   191.381149,   779.841553,   88.090523,   0.449461,   720.286316,   667.762085
-0.029946,   0.108362,   0.118994,   0.000000,   793.881775,   0.536499,   10.934303,   37.160820,   194.806824,   783.164795,   80.126595,   0.452943,   719.716431,   663.574036
-0.029199,   0.108011,   0.118770,   0.000000,   794.938354,   0.536501,   10.934303,   36.446198,   197.956161,   786.181946,   72.300789,   0.456094,   719.250549,   659.689819
-0.028541,   0.107725,   0.118606,   0.000000,   795.907471,   0.536499,   10.934303,   35.731579,   200.813660,   788.887085,   64.635880,   0.458911,   718.876221,   656.140015
-0.027964,   0.107491,   0.118486,   0.000000,   796.778442,   0.536501,   10.934303,   35.016960,   203.363449,   791.281860,   57.111759,   0.461397,   718.575745,   652.940125
-0.027464,   0.107302,   0.118401,   0.000000,   797.551758,   0.536501,   10.934303,   34.302338,   205.613434,   793.378418,   49.702763,   0.463567,   718.336975,   650.092590
-0.027038,   0.107152,   0.118343,   0.000000,   798.224548,   0.536501,   10.934303,   33.587719,   207.557816,   795.180176,   42.405205,   0.465426,   718.150757,   647.613037
-0.026682,   0.107034,   0.118306,   0.000000,   798.794250,   0.536498,   10.934303,   32.873100,   209.196335,   796.692078,   35.205494,   0.466981,   718.007385,   645.507996
-0.026394,   0.106942,   0.118282,   0.000000,   799.259521,   0.536502,   10.934303,   32.158482,   210.530396,   797.920227,   28.080172,   0.468242,   717.898865,   643.781067
-0.026172,   0.106875,   0.118268,   0.000000,   799.622131,   0.536500,   10.934303,   31.443859,   211.568939,   798.871399,   21.011379,   0.469217,   717.819641,   642.430725
-0.026014,   0.106828,   0.118260,   0.000000,   799.880798,   0.536500,   10.934303,   30.729240,   212.308960,   799.547913,   13.985439,   0.469910,   717.765686,   641.464050
-0.025920,   0.106801,   0.118256,   0.000000,   800.036133,   0.536501,   10.934303,   30.014620,   212.753281,   799.953003,   6.986772,   0.470326,   717.734314,   640.882202
-0.025888,   0.106792,   0.118254,   0.000000,   800.088623,   0.536499,   10.934303,   29.299999,   212.903793,   800.088623,   0.000003,   0.470465,   717.724121,   640.686157
-0.025920,   0.106801,   0.118256,   0.000000,   800.036133,   0.536501,   10.934303,   28.585381,   212.753296,   799.953003,   -6.986765,   0.470326,   717.734314,   640.882202
-0.026014,   0.106828,   0.118260,   0.000000,   799.880798,   0.536500,   10.934303,   27.870760,   212.308960,   799.547913,   -13.985430,   0.469910,   717.765686,   641.464050
-0.026172,   0.106875,   0.118268,   0.000000,   799.622131,   0.536501,   10.934303,   27.156141,   211.568985,   798.871399,   -21.011374,   0.469217,   717.819580,   642.430725
-0.026394,   0.106942,   0.118282,   0.000000,   799.259521,   0.536499,   10.934303,   26.441521,   210.530365,   797.920227,   -28.080156,   0.468242,   717.898865,   643.781189
-0.026682,   0.107034,   0.118306,   0.000000,   798.794250,   0.536501,   10.934303,   25.726900,   209.196335,   796.692078,   -35.205482,   0.466981,   718.007385,   645.507996
-0.027038,   0.107152,   0.118343,   0.000000,   798.224548,   0.536500,   10.934303,   25.012281,   207.557861,   795.180176,   -42.405205,   0.465426,   718.150757,   647.613037
-0.027464,   0.107302,   0.118401,   0.000000,   797.551758,   0.536500,   10.934303,   24.297661,   205.613403,   793.378418,   -49.702751,   0.463567,   718.336975,   650.092590
-0.027964,   0.107491,   0.118486,   0.000000,   796.778442,   0.536500,   10.934303,   23.583042,   203.363495,   791.281860,   -57.111748,   0.461397,   718.575745,   652.939941
-0.028541,   0.107725,   0.118606,   0.000000,   795.907471,   0.536501,   10.934303,   22.868422,   200.813583,   788.887085,   -64.635849,   0.458911,   718.876221,   656.140015
-0.029199,   0.108011,   0.118770,   0.000000,   794.938293,   0.536499,   10.934303,   22.153801,   197.956177,   786.181946,   -72.300766,   0.456094,   719.250549,   659.689819
-0.029946,   0.108362,   0.118994,   0.000000,   793.881836,   0.536501,   10.934303,   21.439182,   194.806915,   783.164856,   -80.126579,   0.452943,   719.716431,   663.573975
-0.030786,   0.108786,   0.119287,   0.000000,   792.745422,   0.536500,   10.934303,   20.724562,   191.381195,   779.841553,   -88.090515,   0.449461,   720.286316,   667.761963
-0.031728,   0.109293,   0.119663,   0.000000,   791.516724,   0.536501,   10.934303,   20.009941,   187.644150,   776.171570,   -96.262703,   0.445606,   720.977173,   672.273376
-0.032763,   0.109893,   0.120136,   0.000000,   790.224854,   0.536499,   10.934303,   19.295322,   183.661438,   772.193787,   -104.579971,   0.441419,   721.805664,   677.039368
-0.033924,   0.110584,   0.120700,   0.000000,   788.820496,   0.536501,   10.934303,   18.580702,   179.369019,   767.828186,   -113.109650,   0.436839,   722.765625,   682.065063
-0.035200,   0.111387,   0.121385,   0.000000,   787.339783,   0.536500,   10.934303,   17.866083,   174.813034,   763.109375,   -121.826866,   0.431889,   723.891846,   687.315674
-0.036607,   0.112331,   0.122227,   0.000000,   785.812866,   0.536500,   10.934303,   17.151463,   170.021637,   758.059570,   -130.729568,   0.426574,   725.221191,   692.773560
-0.038151,   0.113432,   0.123246,   0.000000,   784.250366,   0.536500,   10.934303,   16.436844,   165.004791,   752.686157,   -139.807068,   0.420895,   726.776611,   698.413147
-0.039891,   0.114702,   0.124447,   0.000000,   782.598877,   0.536500,   10.934303,   15.722223,   159.677551,   746.911865,   -149.097977,   0.414786,   728.560059,   704.233765
-0.041778,   0.116159,   0.125869,   0.000000,   780.946594,   0.536501,   10.934303,   15.007604,   154.201294,   740.842346,   -158.540726,   0.408354,   730.610718,   710.151184
-0.043855,   0.117823,   0.127534,   0.000000,   779.283875,   0.536500,   10.934303,   14.292984,   148.546143,   734.472229,   -168.120224,   0.401586,   732.943115,   716.148071
-0.046145,   0.119730,   0.129483,   0.000000,   777.672607,   0.536501,   10.934303,   13.578364,   142.803680,   727.868225,   -177.818054,   0.394543,   735.595398,   722.191528
-0.048713,   0.121918,   0.131757,   0.000000,   776.067017,   0.536500,   10.934303,   12.863744,   136.796616,   721.026184,   -187.579239,   0.387144,   738.590576,   728.306152
-0.051473,   0.124374,   0.134367,   0.000000,   774.559753,   0.536500,   10.934303,   12.149125,   130.844391,   713.931702,   -197.553085,   0.379531,   741.947693,   734.416687
-0.054492,   0.127080,   0.137290,   0.000000,   773.052917,   0.536500,   10.934303,   11.434505,   124.808372,   706.531494,   -207.658691,   0.371655,   745.619995,   740.468323
-0.057746,   0.130055,   0.140558,   0.000000,   771.670410,   0.536500,   10.934303,   10.719885,   118.961319,   698.941345,   -217.878265,   0.363694,   749.624329,   746.406616
-0.061408,   0.133397,   0.144276,   0.000000,   770.236938,   0.536500,   10.934303,   10.005265,   112.701149,   691.053650,   -228.179428,   0.355312,   754.036926,   752.358093
-0.065472,   0.137197,   0.148568,   0.000000,   768.914307,   0.536500,   10.934303,   9.290645,   106.329193,   682.872864,   -238.767212,   0.346609,   758.973816,   758.363403
-0.069883,   0.141504,   0.153516,   0.000000,   767.781799,   0.536500,   10.934303,   8.576026,   100.111641,   674.248779,   -249.898361,   0.337627,   764.513672,   764.449951
-0.081136,   0.161075,   0.174405,   0.000000,   783.497009,   0.536220,   11.880316,   49.684025,   82.919998,   708.574585,   229.104599,   0.338450,   779.528992,   779.436707
-0.075803,   0.156207,   0.168908,   0.000000,   785.183777,   0.536219,   11.880316,   48.981129,   91.710350,   715.616272,   219.643341,   0.347529,   774.349792,   773.637085
-0.071112,   0.152037,   0.164266,   0.000000,   787.064453,   0.536220,   11.880316,   48.278233,   100.145531,   722.675171,   210.309799,   0.356288,   769.809387,   767.937744
-0.066861,   0.148300,   0.160171,   0.000000,   789.001099,   0.536220,   11.880316,   47.575333,   108.347740,   729.658569,   200.976822,   0.364822,   765.675537,   762.135315
-0.063145,   0.144951,   0.156538,   0.000000,   790.832703,   0.536220,   11.880316,   46.872437,   116.056213,   736.400269,   191.649994,   0.372956,   761.892212,   756.254700
-0.059614,   0.141960,   0.153364,   0.000000,   792.889587,   0.536219,   11.880316,   46.169540,   123.942047,   743.186218,   182.342972,   0.381072,   758.500000,   750.260925
-0.056400,   0.139289,   0.150582,   0.000000,   794.963928,   0.536220,   11.880316,   45.466640,   131.656921,   749.774048,   173.132187,   0.388921,   755.450867,   744.195740
-0.053365,   0.136887,   0.148145,   0.000000,   797.095093,   0.536220,   11.880316,   44.763744,   139.336304,   756.194824,   164.019836,   0.396576,   752.719971,   738.030823
-0.050702,   0.134725,   0.145973,   0.000000,   799.038208,   0.536220,   11.880316,   44.060844,   146.515808,   762.212341,   155.015106,   0.403755,   750.231567,   731.864258
-0.048260,   0.132792,   0.144073,   0.000000,   800.921082,   0.536219,   11.880316,   43.357948,   153.435410,   767.925598,   146.164703,   0.410584,   748.009094,   725.712036
-0.046027,   0.131071,   0.142420,   0.000000,   802.744263,   0.536220,   11.880316,   42.655052,   160.075287,   773.340881,   137.465057,   0.417053,   746.041138,   719.615784
-0.043990,   0.129539,   0.140981,   0.000000,   804.478210,   0.536219,   11.880316,   41.952156,   166.417740,   778.433472,   128.911255,   0.423157,   744.286682,   713.587219
-0.042116,   0.128163,   0.139719,   0.000000,   806.114807,   0.536220,   11.880316,   41.249256,   172.461090,   783.193359,   120.516617,   0.428897,   742.722717,   707.653259
-0.040409,   0.126925,   0.138609,   0.000000,   807.630310,   0.536219,   11.880316,   40.546360,   178.159637,   787.589172,   112.317833,   0.434243,   741.327759,   701.867432
-0.038873,   0.125830,   0.137646,   0.000000,   809.035400,   0.536220,   11.880316,   39.843464,   183.496399,   791.642700,   104.306419,   0.439194,   740.097961,   696.281860
-0.037466,   0.124868,   0.136830,   0.000000,   810.375305,   0.536220,   11.880316,   39.140564,   188.544205,   795.415710,   96.448677,   0.443805,   739.033875,   690.897034
-0.036199,   0.124028,   0.136137,   0.000000,   811.614929,   0.536219,   11.880316,   38.437668,   193.226547,   798.865295,   88.793098,   0.448030,   738.114441,   685.784912
-0.035058,   0.123297,   0.135555,   0.000000,   812.772156,   0.536220,   11.880316,   37.734772,   197.585480,   802.031738,   81.285797,   0.451912,   737.324402,   680.936401
-0.034035,   0.122665,   0.135068,   0.000000,   813.838562,   0.536220,   11.880316,   37.031872,   201.598495,   804.906372,   73.950272,   0.455442,   736.650696,   676.393311
-0.033123,   0.122119,   0.134662,   0.000000,   814.812683,   0.536220,   11.880316,   36.328976,   205.265274,   807.503174,   66.749382,   0.458633,   736.076965,   672.168457
-0.032316,   0.121651,   0.134326,   0.000000,   815.692993,   0.536219,   11.880316,   35.626076,   208.582611,   809.824341,   59.690174,   0.461491,   735.592041,   668.286682
-0.031607,   0.121252,   0.134049,   0.000000,   816.479370,   0.536220,   11.880316,   34.923180,   211.550705,   811.878723,   52.754585,   0.464024,   735.184570,   664.763367
-0.030991,   0.120914,   0.133823,   0.000000,   817.170593,   0.536220,   11.880316,   34.220284,   214.165649,   813.672852,   45.925594,   0.466238,   734.844971,   661.616638
-0.030465,   0.120632,   0.133641,   0.000000,   817.767517,   0.536220,   11.880316,   33.517384,   216.429062,   815.212891,   39.194252,   0.468142,   734.565430,   658.860413
-0.030024,   0.120400,   0.133496,   0.000000,   818.272583,   0.536219,   11.880316,   32.814487,   218.348755,   816.507202,   32.543549,   0.469745,   734.339233,   656.501160
-0.029667,   0.120216,   0.133383,   0.000000,   818.686707,   0.536220,   11.880316,   32.111591,   219.925735,   817.561523,   25.956123,   0.471053,   734.161072,   654.549194
-0.029392,   0.120076,   0.133299,   0.000000,   819.008545,   0.536220,   11.880316,   31.408693,   221.154129,   818.377625,   19.421555,   0.472068,   734.026672,   653.018860
-0.029196,   0.119977,   0.133241,   0.000000,   819.238770,   0.536220,   11.880316,   30.705795,   222.034592,   818.958984,   12.925892,   0.472792,   733.932678,   651.917480
-0.029079,   0.119918,   0.133207,   0.000000,   819.377136,   0.536220,   11.880316,   30.002897,   222.564423,   819.307312,   6.455965,   0.473227,   733.877197,   651.252991
-0.029040,   0.119899,   0.133196,   0.000000,   819.422974,   0.536220,   11.880316,   29.299999,   222.740280,   819.422974,   0.000000,   0.473371,   733.858826,   651.031677
-0.029079,   0.119918,   0.133207,   0.000000,   819.377136,   0.536220,   11.880316,   28.597103,   222.564468,   819.307312,   -6.455962,   0.473227,   733.877197,   651.252808
-0.029196,   0.119977,   0.133241,   0.000000,   819.238770,   0.536220,   11.880316,   27.894205,   222.034592,   818.958984,   -12.925884,   0.472792,   733.932678,   651.917480
-0.029392,   0.120076,   0.133299,   0.000000,   819.008545,   0.536220,   11.880316,   27.191309,   221.154144,   818.377625,   -19.421549,   0.472068,   734.026611,   653.018860
-0.029667,   0.120216,   0.133383,   0.000000,   818.686646,   0.536220,   11.880316,   26.488411,   219.925690,   817.561462,   -25.956108,   0.471053,   734.161072,   654.549194
-0.030024,   0.120400,   0.133496,   0.000000,   818.272644,   0.536220,   11.880316,   25.785513,   218.348846,   816.507263,   -32.543545,   0.469745,   734.339233,   656.501221
-0.030465,   0.120632,   0.133641,   0.000000,   817.767517,   0.536220,   11.880316,   25.082615,   216.429031,   815.212891,   -39.194244,   0.468142,   734.565491,   658.860413
-0.030991,   0.120914,   0.133823,   0.000000,   817.170593,   0.536220,   11.880316,   24.379717,   214.165649,   813.672852,   -45.925583,   0.466238,   734.844971,   661.616638
-0.031607,   0.121252,   0.134049,   0.000000,   816.479309,   0.536220,   11.880316,   23.676821,   211.550674,   811.878723,   -52.754566,   0.464024,   735.184631,   664.763428
-0.032316,   0.121651,   0.134326,   0.000000,   815.693054,   0.536220,   11.880316,   22.973923,   208.582703,   809.824402,   -59.690170,   0.461491,   735.592102,   668.286682
-0.033123,   0.122119,   0.134662,   0.000000,   814.812683,   0.536220,   11.880316,   22.271025,   205.265244,   807.503174,   -66.749367,   0.458633,   736.076965,   672.168457
-0.034035,   0.122665,   0.135068,   0.000000,   813.838562,   0.536220,   11.880316,   21.568127,   201.598526,   804.906372,   -73.950264,   0.455442,   736.650696,   676.393372
-0.035058,   0.123297,   0.135555,   0.000000,   812.772156,   0.536220,   11.880316,   20.865231,   197.585464,   802.031738,   -81.285767,   0.451912,   737.324402,   680.936401
-0.036199,   0.124028,   0.136137,   0.000000,   811.614929,   0.536220,   11.880316,   20.162333,   193.226654,   798.865295,   -88.793098,   0.448030,   738.114441,   685.784912
-0.037466,   0.124868,   0.136830,   0.000000,   810.375305,   0.536219,   11.880316,   19.459436,   188.544235,   795.415710,   -96.448654,   0.443805,   739.033875,   690.896973
-0.038873,   0.125830,   0.137646,   0.000000,   809.035461,   0.536220,   11.880316,   18.756538,   183.496429,   791.642761,   -104.306381,   0.439194,   740.098022,   696.281921
-0.040409,   0.126925,   0.138609,   0.000000,   807.630371,   0.536220,   11.880316,   18.053640,   178.159714,   787.589233,   -112.317818,   0.434243,   741.327820,   701.867432
-0.042116,   0.128163,   0.139719,   0.000000,   806.114807,   0.536220,   11.880316,   17.350744,   172.461090,   783.193359,   -120.516602,   0.428897,   742.722717,   707.653259
-0.043990,   0.129539,   0.140981,   0.000000,   804.478149,   0.536220,   11.880316,   16.647846,   166.417587,   778.433411,   -128.911240,   0.423157,   744.286682,   713.587280
-0.046027,   0.131071,   0.142420,   0.000000,   802.744202,   0.536220,   11.880316,   15.944948,   160.075256,   773.340820,   -137.465073,   0.417053,   746.041077,   719.615662
-0.048260,   0.132792,   0.144073,   0.000000,   800.921143,   0.536220,   11.880316,   15.242051,   153.435440,   767.925598,   -146.164734,   0.410584,   748.009033,   725.712036
-0.050702,   0.134725,   0.145973,   0.000000,   799.038147,   0.536220,   11.880316,   14.539153,   146.515686,   762.212280,   -155.015121,   0.403754,   750.231567,   731.864319
-0.053365,   0.136887,   0.148145,   0.000000,   797.094971,   0.536220,   11.880316,   13.836256,   139.336182,   756.194702,   -164.019852,   0.396576,   752.719910,   738.030884
-0.056400,   0.139289,   0.150582,   0.000000,   794.963806,   0.536220,   11.880316,   13.133358,   131.656769,   749.773926,   -173.132202,   0.388920,   755.450806,   744.195862
-0.059614,   0.141960,   0.153364,   0.000000,   792.889587,   0.536220,   11.880316,   12.430461,   123.942024,   743.186157,   -182.343033,   0.381071,   758.500000,   750.260925
-0.063145,   0.144950,   0.156538,   0.000000,   790.832581,   0.536220,   11.880316,   11.727564,   116.056038,   736.400146,   -191.650024,   0.372956,   761.892212,   756.254761
-0.066861,   0.148300,   0.160171,   0.000000,   789.000977,   0.536220,   11.880316,   11.024666,   108.347534,   729.658447,   -200.976822,   0.364822,   765.675537,   762.135193
-0.071112,   0.152036,   0.164266,   0.000000,   787.064270,   0.536220,   11.880316,   10.321769,   100.145332,   722.674988,   -210.309784,   0.356288,   769.809265,   767.937622
-0.075803,   0.156206,   0.168908,   0.000000,   785.183472,   0.536220,   11.880316,   9.618871,   91.710228,   715.615967,   -219.643372,   0.347529,   774.349548,   773.636780
-0.081136,   0.161075,   0.174405,   0.000000,   783.496704,   0.536220,   11.880316,   8.915974,   82.919762,   708.574280,   -229.104599,   0.338450,   779.528809,   779.436584
-0.092274,   0.180068,   0.194542,   0.000000,   797.340820,   0.535738,   12.840565,   49.385132,   68.009422,   739.347473,   205.660782,   0.339634,   792.380249,   792.237793
-0.086437,   0.175497,   0.189450,   0.000000,   800.568359,   0.535738,   12.840565,   48.692539,   79.436104,   746.362366,   197.711151,   0.349209,   788.256226,   787.346985
-0.081260,   0.171297,   0.184835,   0.000000,   803.524841,   0.535738,   12.840565,   47.999950,   90.125587,   753.213562,   189.451935,   0.358391,   784.375916,   782.097534
-0.076501,   0.167427,   0.180654,   0.000000,   806.350586,   0.535738,   12.840565,   47.307358,   100.438072,   759.893738,   181.092438,   0.367305,   780.760803,   776.545715
-0.072112,   0.163931,   0.176954,   0.000000,   809.114868,   0.535738,   12.840565,   46.614769,   110.408241,   766.415833,   172.725540,   0.375928,   777.474670,   770.799561
-0.068148,   0.160810,   0.173713,   0.000000,   811.802063,   0.535738,   12.840565,   45.922176,   119.986931,   772.725769,   164.418854,   0.384199,   774.522888,   764.928101
-0.064512,   0.157998,   0.170852,   0.000000,   814.406006,   0.535738,   12.840565,   45.229588,   129.230957,   778.817566,   156.154831,   0.392149,   771.856873,   758.919312
-0.061181,   0.155413,   0.168266,   0.000000,   816.851013,   0.535738,   12.840565,   44.536995,   138.105667,   784.615173,   147.918671,   0.399758,   769.398560,   752.749451
-0.058079,   0.153025,   0.165924,   0.000000,   819.135864,   0.535738,   12.840565,   43.844406,   146.628372,   790.086487,   139.770920,   0.407019,   767.134399,   746.457520
-0.055234,   0.150852,   0.163836,   0.000000,   821.270752,   0.535738,   12.840565,   43.151814,   154.754578,   795.218506,   131.773468,   0.413887,   765.082031,   740.137390
-0.052622,   0.148877,   0.161975,   0.000000,   823.258789,   0.535739,   12.840565,   42.459225,   162.484238,   800.016602,   123.926849,   0.420366,   763.224182,   733.826843
-0.050266,   0.147080,   0.160306,   0.000000,   825.066528,   0.535737,   12.840565,   41.766632,   169.741516,   804.450012,   116.234787,   0.426416,   761.534668,   727.588135
-0.048066,   0.145456,   0.158838,   0.000000,   826.794128,   0.535738,   12.840565,   41.074043,   176.710388,   808.629578,   108.666809,   0.432151,   760.026672,   721.398865
-0.046056,   0.143992,   0.157544,   0.000000,   828.399231,   0.535738,   12.840565,   40.381451,   183.296478,   812.497375,   101.283417,   0.437511,   758.680847,   715.339111
-0.044229,   0.142674,   0.156402,   0.000000,   829.868958,   0.535738,   12.840565,   39.688862,   189.461609,   816.048096,   94.079636,   0.442481,   757.478333,   709.457947
-0.042567,   0.141493,   0.155399,   0.000000,   831.239319,   0.535738,   12.840565,   38.996269,   195.261307,   819.330994,   87.025558,   0.447104,   756.417175,   703.765381
-0.041060,   0.140435,   0.154520,   0.000000,   832.486084,   0.535738,   12.840565,   38.303680,   200.662476,   822.322876,   80.133331,   0.451368,   755.470032,   698.297729
-0.039697,   0.139491,   0.153751,   0.000000,   833.622009,   0.535738,   12.840565,   37.611088,   205.668869,   825.047485,   73.378433,   0.455284,   754.632080,   693.087280
-0.038471,   0.138651,   0.153080,   0.000000,   834.651245,   0.535738,   12.840565,   36.918499,   210.280823,   827.512024,   66.764595,   0.458859,   753.894409,   688.165894
-0.037374,   0.137907,   0.152497,   0.000000,   835.575378,   0.535738,   12.840565,   36.225906,   214.490753,   829.725952,   60.274200,   0.462095,   753.247559,   683.565063
-0.036399,   0.137253,   0.151993,   0.000000,   836.399719,   0.535738,   12.840565,   35.533318,   218.304123,   831.698669,   53.904572,   0.465004,   752.684021,   679.309448
-0.035539,   0.136682,   0.151561,   0.000000,   837.128235,   0.535738,   12.840565,   34.840725,   221.722748,   833.439880,   47.642925,   0.467592,   752.196777,   675.422241
-0.034792,   0.136189,   0.151193,   0.000000,   837.764343,   0.535738,   12.840565,   34.148136,   224.746445,   834.958069,   41.476437,   0.469865,   751.779846,   671.926147
-0.034152,   0.135771,   0.150885,   0.000000,   838.311279,   0.535738,   12.840565,   33.455544,   227.375473,   836.261047,   35.391777,   0.471829,   751.428406,   668.842529
-0.033616,   0.135423,   0.150633,   0.000000,   838.770996,   0.535738,   12.840565,   32.762955,   229.606949,   837.354187,   29.378168,   0.473487,   751.138000,   666.192810
-0.033181,   0.135142,   0.150431,   0.000000,   839.144653,   0.535738,   12.840565,   32.070362,   231.436188,   838.241516,   23.427046,   0.474839,   750.905151,   663.997986
-0.032845,   0.134926,   0.150277,   0.000000,   839.434143,   0.535738,   12.840565,   31.377773,   232.862823,   838.927795,   17.525337,   0.475890,   750.727173,   662.272522
-0.032607,   0.134774,   0.150169,   0.000000,   839.640381,   0.535738,   12.840565,   30.685183,   233.883774,   839.415894,   11.661773,   0.476640,   750.601685,   661.030273
-0.032464,   0.134683,   0.150105,   0.000000,   839.763794,   0.535739,   12.840565,   29.992590,   234.496719,   839.707764,   5.824507,   0.477089,   750.527039,   660.281494
-0.032416,   0.134652,   0.150084,   0.000000,   839.804993,   0.535738,   12.840565,   29.299999,   234.701538,   839.804993,   -0.000003,   0.477239,   750.502319,   660.030762
-0.032464,   0.134683,   0.150105,   0.000000,   839.763794,   0.535737,   12.840565,   28.607409,   234.496719,   839.707764,   -5.824508,   0.477089,   750.527039,   660.281494
-0.032607,   0.134774,   0.150169,   0.000000,   839.640381,   0.535738,   12.840565,   27.914818,   233.883774,   839.415894,   -11.661767,   0.476640,   750.601685,   661.030273
-0.032845,   0.134926,   0.150277,   0.000000,   839.434143,   0.535738,   12.840565,   27.222227,   232.862839,   838.927795,   -17.525333,   0.475890,   750.727173,   662.272522
-0.033181,   0.135142,   0.150431,   0.000000,   839.144653,   0.535738,   12.840565,   26.529636,   231.436188,   838.241516,   -23.427038,   0.474839,   750.905151,   663.997986
-0.033616,   0.135423,   0.150633,   0.000000,   838.770935,   0.535738,   12.840565,   25.837046,   229.606964,   837.354126,   -29.378164,   0.473487,   751.137939,   666.192749
-0.034152,   0.135771,   0.150885,   0.000000,   838.311218,   0.535738,   12.840565,   25.144455,   227.375473,   836.260986,   -35.391766,   0.471829,   751.428345,   668.842407
-0.034792,   0.136189,   0.151193,   0.000000,   837.764343,   0.535738,   12.840565,   24.451864,   224.746445,   834.958069,   -41.476429,   0.469865,   751.779846,   671.926147
-0.035539,   0.136682,   0.151561,   0.000000,   837.128235,   0.535738,   12.840565,   23.759274,   221.722763,   833.439880,   -47.642921,   0.467592,   752.196777,   675.422241
-0.036399,   0.137253,   0.151993,   0.000000,   836.399658,   0.535738,   12.840565,   23.066683,   218.304138,   831.698608,   -53.904568,   0.465004,   752.683960,   679.309570
-0.037374,   0.137907,   0.152497,   0.000000,   835.575378,   0.535738,   12.840565,   22.374092,   214.490753,   829.725952,   -60.274193,   0.462095,   753.247559,   683.565063
-0.038471,   0.138651,   0.153080,   0.000000,   834.651245,   0.535739,   12.840565,   21.681501,   210.280777,   827.512024,   -66.764580,   0.458859,   753.894470,   688.165894
-0.039697,   0.139491,   0.153751,   0.000000,   833.622009,   0.535738,   12.840565,   20.988911,   205.668854,   825.047485,   -73.378410,   0.455284,   754.632080,   693.087280
-0.041060,   0.140435,   0.154520,   0.000000,   832.486084,   0.535738,   12.840565,   20.296320,   200.662491,   822.322876,   -80.133339,   0.451368,   755.470093,   698.297791
-0.042567,   0.141493,   0.155399,   0.000000,   831.239319,   0.535737,   12.840565,   19.603729,   195.261261,   819.330994,   -87.025543,   0.447104,   756.417175,   703.765381
-0.044229,   0.142674,   0.156402,   0.000000,   829.868958,   0.535738,   12.840565,   18.911140,   189.461609,   816.048096,   -94.079613,   0.442481,   757.478271,   709.457886
-0.046056,   0.143992,   0.157544,   0.000000,   828.399231,   0.535738,   12.840565,   18.218550,   183.296509,   812.497375,   -101.283409,   0.437511,   758.680847,   715.338989
-0.048066,   0.145456,   0.158838,   0.000000,   826.794128,   0.535738,   12.840565,   17.525959,   176.710373,   808.629578,   -108.666756,   0.432151,   760.026672,   721.398804
-0.050266,   0.147080,   0.160306,   0.000000,   825.066589,   0.535738,   12.840565,   16.833368,   169.741638,   804.450073,   -116.234787,   0.426416,   761.534668,   727.588135
-0.052622,   0.148877,   0.161974,   0.000000,   823.258911,   0.535738,   12.840565,   16.140778,   162.484344,   800.016663,   -123.926865,   0.420366,   763.224243,   733.826904
-0.055234,   0.150852,   0.163836,   0.000000,   821.270691,   0.535738,   12.840565,   15.448186,   154.754547,   795.218445,   -131.773453,   0.413887,   765.081970,   740.137329
-0.058079,   0.153025,   0.165924,   0.000000,   819.135803,   0.535738,   12.840565,   14.755594,   146.628357,   790.086426,   -139.770935,   0.407019,   767.134399,   746.457458
-0.061181,   0.155413,   0.168266,   0.000000,   816.851013,   0.535738,   12.840565,   14.063004,   138.105637,   784.615173,   -147.918671,   0.399758,   769.398560,   752.749390
-0.064512,   0.157998,   0.170852,   0.000000,   814.406006,   0.535738,   12.840565,   13.370413,   129.230927,   778.817505,   -156.154877,   0.392149,   771.856873,   758.919189
-0.068148,   0.160810,   0.173713,   0.000000,   811.801941,   0.535738,   12.840565,   12.677823,   119.986893,   772.725647,   -164.418930,   0.384199,   774.522827,   764.928101
-0.072112,   0.163931,   0.176954,   0.000000,   809.114868,   0.535738,   12.840565,   11.985232,   110.408188,   766.415771,   -172.725616,   0.375928,   777.474731,   770.799561
-0.076501,   0.167427,   0.180654,   0.000000,   806.350525,   0.535738,   12.840565,   11.292642,   100.438034,   759.893616,   -181.092529,   0.367305,   780.760803,   776.545593
-0.081260,   0.171297,   0.184835,   0.000000,   803.524780,   0.535738,   12.840565,   10.600051,   90.125565,   753.213440,   -189.452026,   0.358391,   784.375854,   782.097534
-0.086437,   0.175497,   0.189450,   0.000000,   800.568298,   0.535738,   12.840565,   9.907460,   79.436104,   746.362244,   -197.711227,   0.349209,   788.256165,   787.346924
-0.092274,   0.180068,   0.194542,   0.000000,   797.340759,   0.535738,   12.840565,   9.214869,   68.009453,   739.347412,   -205.660843,   0.339634,   792.380188,   792.237732
-0.101890,   0.196426,   0.211717,   0.000000,   808.486755,   0.535148,   13.813208,   49.127861,   55.733715,   765.808838,   179.237091,   0.341439,   802.038513,   801.799438
-0.096060,   0.192605,   0.207505,   0.000000,   813.476074,   0.535147,   13.813208,   48.444141,   69.583969,   773.396912,   172.669022,   0.351623,   799.132324,   797.905457
-0.090713,   0.189025,   0.203644,   0.000000,   817.979980,   0.535148,   13.813208,   47.760422,   82.471298,   780.701233,   165.586334,   0.361305,   796.346008,   793.453186
-0.085754,   0.185698,   0.200139,   0.000000,   822.205627,   0.535148,   13.813208,   47.076702,   94.847450,   787.721313,   158.374329,   0.370634,   793.747314,   788.558411
-0.080955,   0.182589,   0.196962,   0.000000,   826.326477,   0.535148,   13.813208,   46.392986,   107.100609,   794.562988,   151.145981,   0.379799,   791.352051,   783.223083
-0.076654,   0.179684,   0.194044,   0.000000,   829.984924,   0.535148,   13.813208,   45.709267,   118.517586,   800.864197,   143.939056,   0.388370,   789.093628,   777.578369
-0.072662,   0.176956,   0.191360,   0.000000,   833.314575,   0.535148,   13.813208,   45.025547,   129.352203,   806.748535,   136.753433,   0.396499,   786.972046,   771.653625
-0.069078,   0.174406,   0.188883,   0.000000,   836.247498,   0.535147,   13.813208,   44.341827,   139.414276,   812.152344,   129.577469,   0.404079,   784.966980,   765.561035
-0.065630,   0.172032,   0.186646,   0.000000,   839.044006,   0.535148,   13.813208,   43.658108,   149.211472,   817.293579,   122.491440,   0.411384,   783.132019,   759.267761
-0.062440,   0.169822,   0.184604,   0.000000,   841.602234,   0.535148,   13.813208,   42.974388,   158.528076,   822.069397,   115.509277,   0.418291,   781.431580,   752.862549
-0.059491,   0.167768,   0.182743,   0.000000,   843.937439,   0.535150,   13.813208,   42.290668,   167.371155,   826.491577,   108.642914,   0.424804,   779.859253,   746.395386
-0.056783,   0.165868,   0.181051,   0.000000,   846.039490,   0.535148,   13.813208,   41.606945,   175.672836,   830.545349,   101.915352,   0.430886,   778.410217,   739.954895
-0.054282,   0.164120,   0.179524,   0.000000,   847.981567,   0.535147,   13.813208,   40.923229,   183.576187,   834.307922,   95.314407,   0.436623,   777.087769,   733.530518
-0.051988,   0.162514,   0.178147,   0.000000,   849.746704,   0.535148,   13.813208,   40.239510,   191.015839,   837.761292,   88.854614,   0.441983,   775.880676,   727.196228
-0.049886,   0.161039,   0.176903,   0.000000,   851.339600,   0.535148,   13.813208,   39.555790,   197.982620,   840.914978,   82.528656,   0.446965,   774.778381,   720.997314
-0.047964,   0.159688,   0.175780,   0.000000,   852.778625,   0.535148,   13.813208,   38.872070,   204.503250,   843.790771,   76.332222,   0.451594,   773.774048,   714.960876
-0.046212,   0.158455,   0.174770,   0.000000,   854.071655,   0.535148,   13.813208,   38.188351,   210.573669,   846.398621,   70.267998,   0.455869,   772.861816,   709.131470
-0.044621,   0.157332,   0.173862,   0.000000,   855.228210,   0.535147,   13.813208,   37.504631,   216.195099,   848.753113,   64.325615,   0.459801,   772.035767,   703.546326
-0.043182,   0.156315,   0.173051,   0.000000,   856.259460,   0.535148,   13.813208,   36.820915,   221.376541,   850.868347,   58.504158,   0.463398,   771.291382,   698.238831
-0.041890,   0.155400,   0.172329,   0.000000,   857.173523,   0.535148,   13.813208,   36.137192,   226.117828,   852.756592,   52.795338,   0.466667,   770.624207,   693.244263
-0.040738,   0.154583,   0.171690,   0.000000,   857.978149,   0.535148,   13.813208,   35.453476,   230.418427,   854.429321,   47.192215,   0.469612,   770.030640,   688.597778
-0.039721,   0.153860,   0.171130,   0.000000,   858.680908,   0.535148,   13.813208,   34.769756,   234.279861,   855.897888,   41.686199,   0.472240,   769.507507,   684.331116
-0.038834,   0.153229,   0.170646,   0.000000,   859.287598,   0.535148,   13.813208,   34.086037,   237.698639,   857.171448,   36.268337,   0.474554,   769.052185,   680.477112
-0.038073,   0.152687,   0.170232,   0.000000,   859.810364,   0.535147,   13.813208,   33.402317,   240.670593,   858.265137,   30.930561,   0.476553,   768.669189,   677.075684
-0.037434,   0.152232,   0.169888,   0.000000,   860.239136,   0.535148,   13.813208,   32.718597,   243.193878,   859.171814,   25.662981,   0.478244,   768.342346,   674.137329
-0.036916,   0.151863,   0.169610,   0.000000,   860.585754,   0.535148,   13.813208,   32.034878,   245.265915,   859.905762,   20.455534,   0.479627,   768.077454,   671.695251
-0.036516,   0.151577,   0.169396,   0.000000,   860.852417,   0.535148,   13.813208,   31.351158,   246.880829,   860.471252,   15.297575,   0.480701,   767.873108,   669.772888
-0.036231,   0.151374,   0.169244,   0.000000,   861.041260,   0.535147,   13.813208,   30.667439,   248.035873,   860.872314,   10.177308,   0.481467,   767.728149,   668.387573
-0.036061,   0.151253,   0.169154,   0.000000,   861.153931,   0.535149,   13.813208,   29.983719,   248.729752,   861.111755,   5.082185,   0.481927,   767.641357,   667.551270
-0.036004,   0.151212,   0.169124,   0.000000,   861.191406,   0.535147,   13.813208,   29.299999,   248.961075,   861.191406,   -0.000002,   0.482080,   767.612610,   667.271851
-0.036061,   0.151253,   0.169154,   0.000000,   861.153931,   0.535148,   13.813208,   28.616280,   248.729706,   861.111755,   -5.082185,   0.481927,   767.641418,   667.551392
-0.036231,   0.151374,   0.169244,   0.000000,   861.041199,   0.535148,   13.813208,   27.932560,   248.035828,   860.872253,   -10.177306,   0.481467,   767.728088,   668.387634
-0.036516,   0.151577,   0.169396,   0.000000,   860.852478,   0.535147,   13.813208,   27.248842,   246.880875,   860.471313,   -15.297577,   0.480701,   767.873169,   669.772827
-0.036916,   0.151863,   0.169610,   0.000000,   860.585754,   0.535148,   13.813208,   26.565123,   245.265900,   859.905762,   -20.455530,   0.479627,   768.077454,   671.695251
-0.037434,   0.152232,   0.169888,   0.000000,   860.239136,   0.535148,   13.813208,   25.881403,   243.193878,   859.171814,   -25.662983,   0.478244,   768.342346,   674.137329
-0.038073,   0.152687,   0.170232,   0.000000,   859.810364,   0.535147,   13.813208,   25.197683,   240.670547,   858.265137,   -30.930552,   0.476553,   768.669189,   677.075806
-0.038834,   0.153229,   0.170646,   0.000000,   859.287598,   0.535148,   13.813208,   24.513964,   237.698639,   857.171448,   -36.268333,   0.474554,   769.052185,   680.477112
-0.039721,   0.153860,   0.171130,   0.000000,   858.680969,   0.535147,   13.813208,   23.830246,   234.279907,   855.897888,   -41.686207,   0.472240,   769.507507,   684.331116
-0.040738,   0.154583,   0.171690,   0.000000,   857.978149,   0.535148,   13.813208,   23.146526,   230.418411,   854.429321,   -47.192204,   0.469612,   770.030640,   688.597778
-0.041890,   0.155400,   0.172329,   0.000000,   857.173523,   0.535148,   13.813208,   22.462807,   226.117844,   852.756592,   -52.795338,   0.466667,   770.624207,   693.244263
-0.043182,   0.156315,   0.173051,   0.000000,   856.259460,   0.535148,   13.813208,   21.779087,   221.376633,   850.868347,   -58.504162,   0.463398,   771.291382,   698.238647
-0.044621,   0.157332,   0.173862,   0.000000,   855.228088,   0.535148,   13.813208,   21.095367,   216.194992,   848.753052,   -64.325584,   0.459801,   772.035767,   703.546509
-0.046212,   0.158455,   0.174770,   0.000000,   854.071655,   0.535148,   13.813208,   20.411648,   210.573654,   846.398621,   -70.268013,   0.455869,   772.861816,   709.131409
-0.047964,   0.159688,   0.175780,   0.000000,   852.778625,   0.535147,   13.813208,   19.727928,   204.503281,   843.790771,   -76.332222,   0.451594,   773.774048,   714.960876
-0.049886,   0.161039,   0.176903,   0.000000,   851.339539,   0.535148,   13.813208,   19.044209,   197.982605,   840.914978,   -82.528641,   0.446966,   774.778320,   720.997314
-0.051988,   0.162514,   0.178147,   0.000000,   849.746704,   0.535147,   13.813208,   18.360491,   191.015915,   837.761292,   -88.854637,   0.441983,   775.880615,   727.196106
-0.054282,   0.164120,   0.179524,   0.000000,   847.981506,   0.535148,   13.813208,   17.676771,   183.576096,   834.307861,   -95.314377,   0.436623,   777.087708,   733.530579
-0.056783,   0.165868,   0.181051,   0.000000,   846.039490,   0.535148,   13.813208,   16.993052,   175.672867,   830.545349,   -101.915382,   0.430886,   778.410217,   739.954895
-0.059491,   0.167768,   0.182742,   0.000000,   843.937439,   0.535147,   13.813208,   16.309332,   167.371140,   826.491577,   -108.642876,   0.424804,   779.859253,   746.395386
-0.062440,   0.169822,   0.184604,   0.000000,   841.602295,   0.535149,   13.813208,   15.625613,   158.528152,   822.069458,   -115.509254,   0.418291,   781.431641,   752.862488
-0.065630,   0.172032,   0.186646,   0.000000,   839.044006,   0.535148,   13.813208,   14.941894,   149.211578,   817.293579,   -122.491440,   0.411385,   783.132019,   759.267822
-0.069078,   0.174406,   0.188883,   0.000000,   836.247498,   0.535148,   13.813208,   14.258174,   139.414230,   812.152344,   -129.577438,   0.404079,   784.966919,   765.561035
-0.072662,   0.176956,   0.191360,   0.000000,   833.314575,   0.535148,   13.813208,   13.574455,   129.352219,   806.748535,   -136.753433,   0.396499,   786.972046,   771.653503
-0.076654,   0.179684,   0.194044,   0.000000,   829.984985,   0.535148,   13.813208,   12.890736,   118.517654,   800.864197,   -143.939117,   0.388370,   789.093628,   777.578430
-0.080955,   0.182589,   0.196962,   0.000000,   826.326416,   0.535148,   13.813208,   12.207016,   107.100639,   794.562927,   -151.146042,   0.379799,   791.351990,   783.223022
-0.085754,   0.185698,   0.200138,   0.000000,   822.205566,   0.535148,   13.813208,   11.523296,   94.847443,   787.721252,   -158.374420,   0.370634,   793.747314,   788.558472
-0.090713,   0.189025,   0.203644,   0.000000,   817.979858,   0.535148,   13.813208,   10.839578,   82.471245,   780.701050,   -165.586456,   0.361305,   796.345947,   793.453186
-0.096060,   0.192605,   0.207505,   0.000000,   813.475952,   0.535148,   13.813208,   10.155858,   69.583801,   773.396729,   -172.669113,   0.351623,   799.132263,   797.905457
-0.101890,   0.196426,   0.211717,   0.000000,   808.486633,   0.535148,   13.813208,   9.472138,   55.733616,   765.808594,   -179.237305,   0.341439,   802.038513,   801.799377
-0.109557,   0.208949,   0.224684,   0.000000,   816.021667,   0.534530,   14.796378,   48.912712,   44.846161,   786.841675,   150.009613,   0.342977,   808.302429,   807.960754
-0.103827,   0.206211,   0.221717,   0.000000,   823.126404,   0.534527,   14.796378,   48.236412,   61.417927,   795.607483,   144.780472,   0.354123,   806.711243,   805.106384
-0.098464,   0.203619,   0.219013,   0.000000,   829.566040,   0.534530,   14.796378,   47.560112,   76.936852,   803.847168,   139.128616,   0.364632,   805.179749,   801.502319
-0.093454,   0.201177,   0.216561,   0.000000,   835.466431,   0.534529,   14.796378,   46.883808,   91.636505,   811.569580,   133.323563,   0.374585,   803.740356,   797.280029
-0.088713,   0.198842,   0.214303,   0.000000,   840.967163,   0.534529,   14.796378,   46.207512,   105.839737,   818.867126,   127.461159,   0.384151,   802.381287,   792.460876
-0.084315,   0.196595,   0.212193,   0.000000,   845.849487,   0.534530,   14.796378,   45.531208,   119.042404,   825.556702,   121.445297,   0.393066,   801.052795,   787.184326
-0.080186,   0.194441,   0.210231,   0.000000,   850.282654,   0.534529,   14.796378,   44.854908,   131.557938,   831.756226,   115.392433,   0.401491,   799.779968,   781.506958
-0.076350,   0.192380,   0.208399,   0.000000,   854.217834,   0.534527,   14.796378,   44.178608,   143.221466,   837.401978,   109.343636,   0.409333,   798.554077,   775.565369
-0.072711,   0.190400,   0.206691,   0.000000,   857.847717,   0.534530,   14.796378,   43.502308,   154.457428,   842.643127,   103.415428,   0.416817,   797.393433,   769.320618
-0.069311,   0.188498,   0.205083,   0.000000,   861.100525,   0.534529,   14.796378,   42.826008,   165.053848,   847.429321,   97.548920,   0.423841,   796.275818,   762.885986
-0.066142,   0.186683,   0.203578,   0.000000,   864.017639,   0.534529,   14.796378,   42.149708,   175.043381,   851.796326,   91.761475,   0.430428,   795.208374,   756.327637
-0.063196,   0.184958,   0.202172,   0.000000,   866.621033,   0.534530,   14.796378,   41.473408,   184.422333,   855.764404,   86.060425,   0.436581,   794.192322,   749.717407
-0.060460,   0.183324,   0.200862,   0.000000,   868.958740,   0.534527,   14.796378,   40.797108,   193.266403,   859.377869,   80.459511,   0.442345,   793.230469,   743.084290
-0.057929,   0.181782,   0.199641,   0.000000,   871.042664,   0.534530,   14.796378,   40.120808,   201.560760,   862.648560,   74.964592,   0.447718,   792.320801,   736.493591
-0.055590,   0.180329,   0.198505,   0.000000,   872.895386,   0.534529,   14.796378,   39.444504,   209.321182,   865.600586,   69.574722,   0.452715,   791.462646,   729.992432
-0.053438,   0.178968,   0.197451,   0.000000,   874.538574,   0.534529,   14.796378,   38.768208,   216.563446,   868.256226,   64.293381,   0.457350,   790.656006,   723.625671
-0.051464,   0.177697,   0.196475,   0.000000,   875.992371,   0.534530,   14.796378,   38.091904,   223.302414,   870.636719,   59.123371,   0.461635,   789.901062,   717.436035
-0.049661,   0.176517,   0.195575,   0.000000,   877.273254,   0.534527,   14.796378,   37.415604,   229.543549,   872.760925,   54.062634,   0.465580,   789.198059,   711.468872
-0.048024,   0.175428,   0.194750,   0.000000,   878.397156,   0.534529,   14.796378,   36.739307,   235.292999,   874.646973,   49.109657,   0.469192,   788.547485,   705.767517
-0.046548,   0.174432,   0.193999,   0.000000,   879.377808,   0.534530,   14.796378,   36.063004,   240.552078,   876.311157,   44.261307,   0.472476,   787.950073,   700.376648
-0.045226,   0.173529,   0.193320,   0.000000,   880.228577,   0.534529,   14.796378,   35.386703,   245.323166,   877.769592,   39.512505,   0.475439,   787.406738,   695.338196
-0.044056,   0.172720,   0.192715,   0.000000,   880.960632,   0.534530,   14.796378,   34.710403,   249.604111,   879.036072,   34.857788,   0.478084,   786.918518,   690.695251
-0.043033,   0.172005,   0.192182,   0.000000,   881.583679,   0.534529,   14.796378,   34.034103,   253.392517,   880.123108,   30.290854,   0.480413,   786.486145,   686.488342
-0.042153,   0.171386,   0.191721,   0.000000,   882.106689,   0.534527,   14.796378,   33.357803,   256.685547,   881.041931,   25.805283,   0.482429,   786.110291,   682.755676
-0.041414,   0.170861,   0.191331,   0.000000,   882.536194,   0.534530,   14.796378,   32.681503,   259.477020,   881.801758,   21.391712,   0.484131,   785.791443,   679.534912
-0.040813,   0.170432,   0.191013,   0.000000,   882.878540,   0.534529,   14.796378,   32.005203,   261.763519,   882.411133,   17.038578,   0.485521,   785.530029,   676.857056
-0.040348,   0.170099,   0.190766,   0.000000,   883.139160,   0.534530,   14.796378,   31.328901,   263.544128,   882.877441,   12.734889,   0.486601,   785.326294,   674.746704
-0.040017,   0.169860,   0.190590,   0.000000,   883.322510,   0.534528,   14.796378,   30.652601,   264.817474,   883.206543,   8.468731,   0.487372,   785.180664,   673.224121
-0.039819,   0.169717,   0.190485,   0.000000,   883.431274,   0.534530,   14.796378,   29.976301,   265.581879,   883.402344,   4.228023,   0.487833,   785.093262,   672.304565
-0.039753,   0.169669,   0.190449,   0.000000,   883.467346,   0.534529,   14.796378,   29.300001,   265.836761,   883.467346,   -0.000001,   0.487987,   785.064087,   671.997192
-0.039819,   0.169717,   0.190485,   0.000000,   883.431274,   0.534530,   14.796378,   28.623699,   265.581879,   883.402344,   -4.228023,   0.487833,   785.093262,   672.304565
-0.040017,   0.169860,   0.190590,   0.000000,   883.322510,   0.534529,   14.796378,   27.947399,   264.817505,   883.206543,   -8.468734,   0.487372,   785.180664,   673.224121
-0.040348,   0.170099,   0.190766,   0.000000,   883.139160,   0.534529,   14.796378,   27.271099,   263.544098,   882.877441,   -12.734886,   0.486601,   785.326294,   674.746826
-0.040813,   0.170432,   0.191013,   0.000000,   882.878479,   0.534530,   14.796378,   26.594799,   261.763489,   882.411072,   -17.038576,   0.485521,   785.529968,   676.857117
-0.041414,   0.170861,   0.191331,   0.000000,   882.536194,   0.534530,   14.796378,   25.918497,   259.477051,   881.801758,   -21.391718,   0.484131,   785.791443,   679.534912
-0.042153,   0.171386,   0.191721,   0.000000,   882.106689,   0.534528,   14.796378,   25.242197,   256.685577,   881.041931,   -25.805285,   0.482429,   786.110291,   682.755676
-0.043033,   0.172005,   0.192182,   0.000000,   881.583679,   0.534530,   14.796378,   24.565897,   253.392471,   880.123108,   -30.290855,   0.480413,   786.486145,   686.488342
-0.044056,   0.172720,   0.192715,   0.000000,   880.960571,   0.534529,   14.796378,   23.889597,   249.604095,   879.036011,   -34.857792,   0.478084,   786.918457,   690.695129
-0.045226,   0.173529,   0.193320,   0.000000,   880.228577,   0.534530,   14.796378,   23.213297,   245.323120,   877.769592,   -39.512497,   0.475439,   787.406799,   695.338196
-0.046548,   0.174432,   0.193999,   0.000000,   879.377808,   0.534529,   14.796378,   22.536997,   240.552155,   876.311157,   -44.261326,   0.472476,   787.950073,   700.376648
-0.048024,   0.175428,   0.194750,   0.000000,   878.397095,   0.534529,   14.796378,   21.860695,   235.292923,   874.646912,   -49.109634,   0.469192,   788.547424,   705.767456
-0.049661,   0.176517,   0.195575,   0.000000,   877.273254,   0.534530,   14.796378,   21.184395,   229.543594,   872.760925,   -54.062649,   0.465580,   789.197998,   711.468811
-0.051464,   0.177697,   0.196475,   0.000000,   875.992371,   0.534530,   14.796378,   20.508095,   223.302460,   870.636719,   -59.123386,   0.461636,   789.901062,   717.435913
-0.053438,   0.178968,   0.197451,   0.000000,   874.538574,   0.534528,   14.796378,   19.831795,   216.563416,   868.256226,   -64.293381,   0.457350,   790.656006,   723.625732
-0.055590,   0.180329,   0.198505,   0.000000,   872.895325,   0.534530,   14.796378,   19.155495,   209.321152,   865.600525,   -69.574730,   0.452715,   791.462585,   729.992371
-0.057928,   0.181782,   0.199641,   0.000000,   871.042603,   0.534529,   14.796378,   18.479193,   201.560791,   862.648499,   -74.964607,   0.447718,   792.320740,   736.493591
-0.060460,   0.183324,   0.200862,   0.000000,   868.958740,   0.534530,   14.796378,   17.802893,   193.266464,   859.377869,   -80.459534,   0.442345,   793.230408,   743.084412
-0.063196,   0.184958,   0.202172,   0.000000,   866.621094,   0.534529,   14.796378,   17.126593,   184.422440,   855.764404,   -86.060440,   0.436581,   794.192261,   749.717224
-0.066142,   0.186683,   0.203578,   0.000000,   864.017578,   0.534529,   14.796378,   16.450293,   175.043304,   851.796265,   -91.761444,   0.430428,   795.208374,   756.327515
-0.069311,   0.188498,   0.205083,   0.000000,   861.100525,   0.534530,   14.796378,   15.773993,   165.053864,   847.429321,   -97.548912,   0.423841,   796.275818,   762.885986
-0.072711,   0.190400,   0.206691,   0.000000,   857.847717,   0.534529,   14.796378,   15.097692,   154.457550,   842.643127,   -103.415428,   0.416817,   797.393372,   769.320435
-0.076350,   0.192380,   0.208399,   0.000000,   854.217896,   0.534529,   14.796378,   14.421391,   143.221603,   837.402039,   -109.343643,   0.409333,   798.554077,   775.565430
-0.080186,   0.194441,   0.210231,   0.000000,   850.282715,   0.534530,   14.796378,   13.745091,   131.557983,   831.756287,   -115.392426,   0.401491,   799.780029,   781.506836
-0.084315,   0.196595,   0.212193,   0.000000,   845.849670,   0.534529,   14.796378,   13.068790,   119.042580,   825.556824,   -121.445320,   0.393066,   801.052856,   787.184265
-0.088713,   0.198842,   0.214303,   0.000000,   840.967224,   0.534529,   14.796378,   12.392490,   105.839828,   818.867188,   -127.461166,   0.384151,   802.381348,   792.460815
-0.093454,   0.201177,   0.216561,   0.000000,   835.466492,   0.534529,   14.796378,   11.716190,   91.636620,   811.569641,   -133.323608,   0.374585,   803.740417,   797.280090
-0.098464,   0.203619,   0.219013,   0.000000,   829.566223,   0.534530,   14.796378,   11.039889,   76.937027,   803.847290,   -139.128738,   0.364633,   805.179871,   801.502441
-0.103827,   0.206211,   0.221718,   0.000000,   823.126526,   0.534529,   14.796378,   10.363589,   61.417999,   795.607544,   -144.780685,   0.354123,   806.711426,   805.106506
-0.109558,   0.208949,   0.224684,   0.000000,   816.021667,   0.534529,   14.796378,   9.687288,   44.846134,   786.841614,   -150.009872,   0.342977,   808.302551,   807.960876
-0.114755,   0.216910,   0.232729,   0.000000,   819.513000,   0.533953,   15.788191,   48.740093,   34.637478,   801.666809,   118.351402,   0.343629,   811.247681,   810.856567
-0.109301,   0.215473,   0.231236,   0.000000,   828.805786,   0.533950,   15.788191,   48.069744,   53.832546,   811.841614,   114.659386,   0.355805,   811.000366,   809.111633
-0.104141,   0.214075,   0.229900,   0.000000,   837.295105,   0.533951,   15.788191,   47.399399,   72.005783,   821.303955,   110.624763,   0.367281,   810.740356,   806.369507
-0.099269,   0.212721,   0.228708,   0.000000,   845.041748,   0.533950,   15.788191,   46.729050,   89.196671,   830.088074,   106.313866,   0.378085,   810.474548,   802.770508
-0.094659,   0.211398,   0.227631,   0.000000,   852.123718,   0.533950,   15.788191,   46.058701,   105.529572,   838.223816,   101.870323,   0.388278,   810.204285,   798.422241
-0.090307,   0.210098,   0.226644,   0.000000,   858.494629,   0.533951,   15.788191,   45.388355,   120.822189,   845.677917,   97.234528,   0.397780,   809.911194,   793.466492
-0.086202,   0.208826,   0.225738,   0.000000,   864.267578,   0.533950,   15.788191,   44.718006,   135.251480,   852.526550,   92.517052,   0.406689,   809.609314,   787.994690
-0.082335,   0.207583,   0.224902,   0.000000,   869.461548,   0.533950,   15.788191,   44.047657,   148.781204,   858.782532,   87.727768,   0.414996,   809.296631,   782.124878
-0.078678,   0.206363,   0.224121,   0.000000,   874.186340,   0.533951,   15.788191,   43.377312,   161.628922,   864.523315,   82.978607,   0.422817,   808.980103,   775.886108
-0.075229,   0.205155,   0.223373,   0.000000,   878.424194,   0.533950,   15.788191,   42.706963,   173.701233,   869.737732,   78.240242,   0.430119,   808.644470,   769.383057
-0.071981,   0.203957,   0.222647,   0.000000,   882.213562,   0.533950,   15.788191,   42.036613,   185.035324,   874.456299,   73.540489,   0.436928,   808.289062,   762.686218
-0.068930,   0.202773,   0.221938,   0.000000,   885.591492,   0.533951,   15.788191,   41.366264,   195.661606,   878.713135,   68.888275,   0.443271,   807.914978,   755.861816
-0.066070,   0.201606,   0.221242,   0.000000,   888.595581,   0.533950,   15.788191,   40.695919,   205.617279,   882.541077,   64.304764,   0.449174,   807.525208,   748.969910
-0.063399,   0.200461,   0.220558,   0.000000,   891.255615,   0.533953,   15.788191,   40.025570,   214.919617,   885.967957,   59.801628,   0.454655,   807.122314,   742.074585
-0.060911,   0.199343,   0.219888,   0.000000,   893.603210,   0.533950,   15.788191,   39.355221,   223.593216,   889.024963,   55.384583,   0.459735,   806.710388,   735.232056
-0.058603,   0.198259,   0.219234,   0.000000,   895.667725,   0.533950,   15.788191,   38.684872,   231.658508,   891.741333,   51.060242,   0.464429,   806.294067,   728.497437
-0.056472,   0.197215,   0.218598,   0.000000,   897.476562,   0.533951,   15.788191,   38.014526,   239.133087,   894.144653,   46.835049,   0.468755,   805.878540,   721.924805
-0.054514,   0.196219,   0.217986,   0.000000,   899.054321,   0.533950,   15.788191,   37.344177,   246.029892,   896.260620,   42.712265,   0.472723,   805.468750,   715.567139
-0.052726,   0.195276,   0.217402,   0.000000,   900.423645,   0.533950,   15.788191,   36.673828,   252.359314,   898.113342,   38.693874,   0.476345,   805.069641,   709.476990
-0.051105,   0.194394,   0.216850,   0.000000,   901.605408,   0.533951,   15.788191,   36.003483,   258.129059,   899.725586,   34.779434,   0.479630,   804.686462,   703.705322
-0.049648,   0.193577,   0.216335,   0.000000,   902.617798,   0.533950,   15.788191,   35.333134,   263.343048,   901.117737,   30.966877,   0.482584,   804.323608,   698.303223
-0.048353,   0.192832,   0.215861,   0.000000,   903.477905,   0.533951,   15.788191,   34.662785,   268.004761,   902.309204,   27.252386,   0.485213,   803.985962,   693.319824
-0.047217,   0.192163,   0.215432,   0.000000,   904.200745,   0.533950,   15.788191,   33.992435,   272.115509,   903.317383,   23.629578,   0.487523,   803.677551,   688.801331
-0.046237,   0.191574,   0.215052,   0.000000,   904.799500,   0.533950,   15.788191,   33.322090,   275.676178,   904.157959,   20.090023,   0.489516,   803.402100,   684.791077
-0.045412,   0.191070,   0.214725,   0.000000,   905.286316,   0.533951,   15.788191,   32.651741,   278.689880,   904.845276,   16.624380,   0.491198,   803.163086,   681.325623
-0.044739,   0.190652,   0.214453,   0.000000,   905.671326,   0.533951,   15.788191,   31.981392,   281.157043,   905.391418,   13.221990,   0.492571,   802.963379,   678.439270
-0.044218,   0.190325,   0.214239,   0.000000,   905.962402,   0.533951,   15.788191,   31.311045,   283.076752,   905.805969,   9.870870,   0.493637,   802.805420,   676.161987
-0.043846,   0.190090,   0.214085,   0.000000,   906.165771,   0.533950,   15.788191,   30.640696,   284.448212,   906.096558,   6.558776,   0.494397,   802.691223,   674.517944
-0.043623,   0.189948,   0.213991,   0.000000,   906.285950,   0.533951,   15.788191,   29.970348,   285.271271,   906.268677,   3.272801,   0.494853,   802.622192,   673.524536
-0.043549,   0.189901,   0.213960,   0.000000,   906.325684,   0.533951,   15.788191,   29.299999,   285.545654,   906.325684,   -0.000001,   0.495005,   802.599060,   673.192139
-0.043623,   0.189948,   0.213991,   0.000000,   906.285950,   0.533951,   15.788191,   28.629652,   285.271301,   906.268677,   -3.272801,   0.494853,   802.622131,   673.524292
-0.043846,   0.190090,   0.214085,   0.000000,   906.165771,   0.533950,   15.788191,   27.959303,   284.448242,   906.096558,   -6.558775,   0.494397,   802.691223,   674.517944
-0.044218,   0.190325,   0.214239,   0.000000,   905.962402,   0.533951,   15.788191,   27.288956,   283.076752,   905.805969,   -9.870866,   0.493637,   802.805420,   676.161987
-0.044739,   0.190652,   0.214453,   0.000000,   905.671326,   0.533951,   15.788191,   26.618608,   281.157104,   905.391418,   -13.221999,   0.492571,   802.963379,   678.439026
-0.045412,   0.191070,   0.214725,   0.000000,   905.286316,   0.533951,   15.788191,   25.948259,   278.689850,   904.845276,   -16.624378,   0.491198,   803.163086,   681.325623
-0.046237,   0.191574,   0.215052,   0.000000,   904.799438,   0.533951,   15.788191,   25.277912,   275.676147,   904.157898,   -20.090021,   0.489516,   803.402100,   684.791199
-0.047217,   0.192163,   0.215432,   0.000000,   904.200745,   0.533951,   15.788191,   24.607563,   272.115570,   903.317383,   -23.629595,   0.487523,   803.677490,   688.801147
-0.048353,   0.192832,   0.215861,   0.000000,   903.477905,   0.533951,   15.788191,   23.937216,   268.004730,   902.309204,   -27.252386,   0.485213,   803.985962,   693.319824
-0.049648,   0.193577,   0.216335,   0.000000,   902.617798,   0.533951,   15.788191,   23.266867,   263.343079,   901.117737,   -30.966888,   0.482584,   804.323608,   698.303223
-0.051105,   0.194394,   0.216850,   0.000000,   901.605347,   0.533950,   15.788191,   22.596519,   258.128998,   899.725525,   -34.779430,   0.479630,   804.686401,   703.705383
-0.052726,   0.195276,   0.217402,   0.000000,   900.423645,   0.533951,   15.788191,   21.926172,   252.359344,   898.113342,   -38.693882,   0.476345,   805.069641,   709.476990
-0.054514,   0.196219,   0.217986,   0.000000,   899.054321,   0.533951,   15.788191,   21.255823,   246.029922,   896.260620,   -42.712303,   0.472723,   805.468750,   715.567200
-0.056472,   0.197215,   0.218598,   0.000000,   897.476562,   0.533951,   15.788191,   20.585474,   239.133041,   894.144653,   -46.835052,   0.468755,   805.878540,   721.924805
-0.058603,   0.198259,   0.219234,   0.000000,   895.667725,   0.533950,   15.788191,   19.915127,   231.658508,   891.741333,   -51.060265,   0.464429,   806.294128,   728.497437
-0.060911,   0.199343,   0.219888,   0.000000,   893.603210,   0.533951,   15.788191,   19.244780,   223.593262,   889.024963,   -55.384617,   0.459735,   806.710388,   735.232056
-0.063399,   0.200461,   0.220558,   0.000000,   891.255615,   0.533951,   15.788191,   18.574430,   214.919693,   885.967957,   -59.801636,   0.454655,   807.122314,   742.074463
-0.066070,   0.201606,   0.221242,   0.000000,   888.595642,   0.533951,   15.788191,   17.904083,   205.617386,   882.541138,   -64.304817,   0.449174,   807.525208,   748.969910
-0.068930,   0.202773,   0.221938,   0.000000,   885.591492,   0.533951,   15.788191,   17.233734,   195.661545,   878.713135,   -68.888283,   0.443271,   807.914978,   755.861816
-0.071981,   0.203957,   0.222647,   0.000000,   882.213623,   0.533951,   15.788191,   16.563387,   185.035431,   874.456360,   -73.540520,   0.436928,   808.289062,   762.685974
-0.075229,   0.205155,   0.223373,   0.000000,   878.424255,   0.533951,   15.788191,   15.893039,   173.701340,   869.737793,   -78.240288,   0.430119,   808.644592,   769.383179
-0.078678,   0.206363,   0.224121,   0.000000,   874.186401,   0.533950,   15.788191,   15.222691,   161.628983,   864.523376,   -82.978645,   0.422817,   808.980164,   775.886292
-0.082335,   0.207583,   0.224902,   0.000000,   869.461670,   0.533950,   15.788191,   14.552342,   148.781357,   858.782654,   -87.727821,   0.414996,   809.296692,   782.124878
-0.086202,   0.208826,   0.225738,   0.000000,   864.267639,   0.533951,   15.788191,   13.881994,   135.251648,   852.526611,   -92.517097,   0.406689,   809.609314,   787.994629
-0.090307,   0.210098,   0.226644,   0.000000,   858.494812,   0.533950,   15.788191,   13.211646,   120.822319,   845.678040,   -97.234558,   0.397780,   809.911255,   793.466492
-0.094659,   0.211398,   0.227631,   0.000000,   852.123901,   0.533951,   15.788191,   12.541299,   105.529816,   838.223999,   -101.870346,   0.388278,   810.204346,   798.422363
-0.099269,   0.212721,   0.228709,   0.000000,   845.041992,   0.533951,   15.788191,   11.870951,   89.196953,   830.088318,   -106.313866,   0.378085,   810.474792,   802.770691
-0.104141,   0.214075,   0.229900,   0.000000,   837.295471,   0.533951,   15.788191,   11.200602,   72.006142,   821.304321,   -110.624741,   0.367282,   810.740540,   806.369568
-0.109301,   0.215473,   0.231236,   0.000000,   828.806335,   0.533950,   15.788191,   10.530254,   53.833145,   811.842163,   -114.659378,   0.355805,   811.000549,   809.111755
-0.114755,   0.216910,   0.232730,   0.000000,   819.513855,   0.533951,   15.788191,   9.859906,   34.638245,   801.667664,   -118.351334,   0.343629,   811.248169,   810.857056
-0.117659,   0.220831,   0.236494,   0.000000,   819.675415,   0.533467,   16.786739,   48.610340,   25.282681,   810.573486,   85.032486,   0.343251,   811.706055,   811.343079
-0.112545,   0.220551,   0.236298,   0.000000,   830.782349,   0.533467,   16.786739,   47.944466,   46.491928,   822.045410,   82.778458,   0.356295,   812.562927,   810.585876
-0.107666,   0.220265,   0.236220,   0.000000,   841.051514,   0.533465,   16.786739,   47.278591,   66.827477,   832.727356,   80.279182,   0.368649,   813.379272,   808.625305
-0.103022,   0.219978,   0.236247,   0.000000,   850.496094,   0.533467,   16.786739,   46.612720,   86.215851,   842.633484,   77.519188,   0.380293,   814.152100,   805.604065
-0.098603,   0.219693,   0.236365,   0.000000,   859.166260,   0.533465,   16.786739,   45.946846,   104.671989,   851.795288,   74.574608,   0.391249,   814.884338,   801.658875
-0.094403,   0.219409,   0.236559,   0.000000,   867.090088,   0.533467,   16.786739,   45.280972,   122.161308,   860.238586,   71.441383,   0.401518,   815.571960,   796.922729
-0.090418,   0.219126,   0.236814,   0.000000,   874.316467,   0.533467,   16.786739,   44.615097,   138.703308,   868.000366,   68.163239,   0.411127,   816.215332,   791.518311
-0.086642,   0.218843,   0.237115,   0.000000,   880.892273,   0.533465,   16.786739,   43.949223,   154.314163,   875.121887,   64.750656,   0.420102,   816.814209,   785.558960
-0.083063,   0.218554,   0.237445,   0.000000,   886.877014,   0.533467,   16.786739,   43.283348,   169.065887,   881.646606,   61.273407,   0.428494,   817.368286,   779.129822
-0.079669,   0.218249,   0.237781,   0.000000,   892.294006,   0.533465,   16.786739,   42.617477,   182.949997,   887.591980,   57.752392,   0.436313,   817.869934,   772.332092
-0.076454,   0.217917,   0.238105,   0.000000,   897.175781,   0.533467,   16.786739,   41.951603,   195.983459,   892.983887,   54.215576,   0.443582,   818.313843,   765.254700
-0.073413,   0.217557,   0.238404,   0.000000,   901.557434,   0.533465,   16.786739,   41.285728,   208.187485,   897.852478,   50.684242,   0.450325,   818.697815,   757.982239
-0.070545,   0.217166,   0.238667,   0.000000,   905.473938,   0.533467,   16.786739,   40.619858,   219.583740,   902.228210,   47.182938,   0.456566,   819.021912,   750.596802
-0.067845,   0.216747,   0.238889,   0.000000,   908.961304,   0.533468,   16.786739,   39.953979,   230.197327,   906.143860,   43.730869,   0.462329,   819.287964,   743.174683
-0.065315,   0.216303,   0.239069,   0.000000,   912.053223,   0.533465,   16.786739,   39.288105,   240.049774,   909.631287,   40.343102,   0.467636,   819.499146,   735.790161
-0.062952,   0.215840,   0.239205,   0.000000,   914.782471,   0.533467,   16.786739,   38.622231,   249.161224,   912.722107,   37.032681,   0.472506,   819.659851,   728.515198
-0.060758,   0.215364,   0.239299,   0.000000,   917.180664,   0.533465,   16.786739,   37.956360,   257.553802,   915.447632,   33.810669,   0.476961,   819.774841,   721.415833
-0.058730,   0.214883,   0.239355,   0.000000,   919.277466,   0.533467,   16.786739,   37.290485,   265.246735,   917.837769,   30.685333,   0.481017,   819.849609,   714.556641
-0.056869,   0.214403,   0.239377,   0.000000,   921.100586,   0.533465,   16.786739,   36.624611,   272.258240,   919.921326,   27.661623,   0.484691,   819.889709,   707.997498
-0.055173,   0.213933,   0.239370,   0.000000,   922.675781,   0.533467,   16.786739,   35.958740,   278.604614,   921.725342,   24.741934,   0.487998,   819.901062,   701.796509
-0.053642,   0.213479,   0.239339,   0.000000,   924.026733,   0.533465,   16.786739,   35.292866,   284.300751,   923.275330,   21.925030,   0.490951,   819.889343,   696.007751
-0.052275,   0.213049,   0.239290,   0.000000,   925.175293,   0.533467,   16.786739,   34.626991,   289.361084,   924.595032,   19.207277,   0.493562,   819.860168,   690.680237
-0.051072,   0.212651,   0.239229,   0.000000,   926.141235,   0.533467,   16.786739,   33.961117,   293.798615,   925.706360,   16.582914,   0.495843,   819.819275,   685.860046
-0.050030,   0.212290,   0.239161,   0.000000,   926.942261,   0.533465,   16.786739,   33.295242,   297.624420,   926.628845,   14.044016,   0.497802,   819.771729,   681.588989
-0.049150,   0.211974,   0.239094,   0.000000,   927.593506,   0.533467,   16.786739,   32.629368,   300.846466,   927.379517,   11.580910,   0.499448,   819.722412,   677.906372
-0.048432,   0.211707,   0.239031,   0.000000,   928.108276,   0.533467,   16.786739,   31.963495,   303.472778,   927.973267,   9.183043,   0.500786,   819.675781,   674.845398
-0.047873,   0.211495,   0.238977,   0.000000,   928.497437,   0.533466,   16.786739,   31.297621,   305.509705,   928.422363,   6.839044,   0.501821,   819.635620,   672.434082
-0.047475,   0.211340,   0.238936,   0.000000,   928.769348,   0.533466,   16.786739,   30.631748,   306.961761,   928.736267,   4.536148,   0.502559,   819.604675,   670.694458
-0.047236,   0.211247,   0.238910,   0.000000,   928.930176,   0.533467,   16.786739,   29.965874,   307.831970,   928.921936,   2.261081,   0.503000,   819.585266,   669.643921
-0.047156,   0.211215,   0.238901,   0.000000,   928.983337,   0.533466,   16.786739,   29.299999,   308.121796,   928.983337,   -0.000004,   0.503147,   819.578613,   669.292664
-0.047236,   0.211247,   0.238910,   0.000000,   928.930115,   0.533466,   16.786739,   28.634127,   307.831940,   928.921875,   -2.261088,   0.503000,   819.585205,   669.644043
-0.047475,   0.211340,   0.238936,   0.000000,   928.769348,   0.533466,   16.786739,   27.968252,   306.961761,   928.736267,   -4.536156,   0.502559,   819.604675,   670.694458
-0.047873,   0.211495,   0.238977,   0.000000,   928.497437,   0.533467,   16.786739,   27.302378,   305.509644,   928.422363,   -6.839054,   0.501821,   819.635620,   672.434082
-0.048432,   0.211707,   0.239031,   0.000000,   928.108276,   0.533466,   16.786739,   26.636505,   303.472778,   927.973267,   -9.183054,   0.500786,   819.675781,   674.845398
-0.049150,   0.211974,   0.239094,   0.000000,   927.593506,   0.533466,   16.786739,   25.970631,   300.846497,   927.379517,   -11.580912,   0.499448,   819.722412,   677.906311
-0.050030,   0.212290,   0.239161,   0.000000,   926.942261,   0.533467,   16.786739,   25.304758,   297.624420,   926.628845,   -14.044026,   0.497802,   819.771729,   681.589050
-0.051072,   0.212651,   0.239229,   0.000000,   926.141235,   0.533466,   16.786739,   24.638884,   293.798676,   925.706360,   -16.582922,   0.495843,   819.819275,   685.860046
-0.052275,   0.213049,   0.239290,   0.000000,   925.175293,   0.533466,   16.786739,   23.973009,   289.361115,   924.595032,   -19.207279,   0.493562,   819.860229,   690.680176
-0.053642,   0.213479,   0.239339,   0.000000,   924.026733,   0.533466,   16.786739,   23.307137,   284.300751,   923.275330,   -21.925043,   0.490951,   819.889343,   696.007751
-0.055173,   0.213933,   0.239370,   0.000000,   922.675842,   0.533466,   16.786739,   22.641262,   278.604675,   921.725403,   -24.741930,   0.487998,   819.901062,   701.796509
-0.056869,   0.214403,   0.239377,   0.000000,   921.100586,   0.533467,   16.786739,   21.975388,   272.258209,   919.921326,   -27.661648,   0.484691,   819.889709,   707.997437
-0.058730,   0.214883,   0.239355,   0.000000,   919.277527,   0.533467,   16.786739,   21.309513,   265.246826,   917.837830,   -30.685358,   0.481017,   819.849609,   714.556396
-0.060758,   0.215364,   0.239299,   0.000000,   917.180664,   0.533466,   16.786739,   20.643641,   257.553772,   915.447632,   -33.810680,   0.476961,   819.774841,   721.415833
-0.062952,   0.215840,   0.239205,   0.000000,   914.782471,   0.533466,   16.786739,   19.977766,   249.161285,   912.722107,   -37.032700,   0.472506,   819.659790,   728.515015
-0.065315,   0.216303,   0.239069,   0.000000,   912.053284,   0.533466,   16.786739,   19.311893,   240.049774,   909.631348,   -40.343136,   0.467636,   819.499207,   735.790161
-0.067845,   0.216747,   0.238889,   0.000000,   908.961304,   0.533466,   16.786739,   18.646019,   230.197327,   906.143860,   -43.730877,   0.462329,   819.287964,   743.174683
-0.070545,   0.217166,   0.238667,   0.000000,   905.473999,   0.533466,   16.786739,   17.980146,   219.583847,   902.228271,   -47.182953,   0.456566,   819.021912,   750.596802
-0.073413,   0.217557,   0.238404,   0.000000,   901.557434,   0.533467,   16.786739,   17.314272,   208.187500,   897.852478,   -50.684258,   0.450325,   818.697815,   757.982239
-0.076454,   0.217917,   0.238105,   0.000000,   897.175842,   0.533466,   16.786739,   16.648397,   195.983521,   892.983948,   -54.215584,   0.443582,   818.313904,   765.254578
-0.079669,   0.218249,   0.237781,   0.000000,   892.294067,   0.533466,   16.786739,   15.982523,   182.949997,   887.592041,   -57.752434,   0.436313,   817.870056,   772.332336
-0.083063,   0.218554,   0.237445,   0.000000,   886.877075,   0.533466,   16.786739,   15.316649,   169.065903,   881.646667,   -61.273396,   0.428494,   817.368347,   779.130066
-0.086642,   0.218843,   0.237115,   0.000000,   880.892273,   0.533466,   16.786739,   14.650777,   154.314148,   875.121887,   -64.750679,   0.420102,   816.814209,   785.558960
-0.090418,   0.219126,   0.236814,   0.000000,   874.316528,   0.533466,   16.786739,   13.984902,   138.703308,   868.000427,   -68.163223,   0.411127,   816.215332,   791.518311
-0.094403,   0.219409,   0.236560,   0.000000,   867.090088,   0.533466,   16.786739,   13.319029,   122.161255,   860.238586,   -71.441353,   0.401518,   815.571899,   796.922729
-0.098603,   0.219693,   0.236365,   0.000000,   859.166260,   0.533466,   16.786739,   12.653154,   104.671883,   851.795288,   -74.574585,   0.391249,   814.884399,   801.658875
-0.103022,   0.219978,   0.236247,   0.000000,   850.496033,   0.533466,   16.786739,   11.987281,   86.215698,   842.633484,   -77.519089,   0.380293,   814.152161,   805.604126
-0.107666,   0.220265,   0.236220,   0.000000,   841.051331,   0.533466,   16.786739,   11.321407,   66.827209,   832.727234,   -80.279083,   0.368649,   813.379272,   808.625244
-0.112545,   0.220551,   0.236298,   0.000000,   830.782104,   0.533466,   16.786739,   10.655534,   46.491604,   822.045227,   -82.778320,   0.356295,   812.562805,   810.585876
-0.117659,   0.220831,   0.236494,   0.000000,   819.675110,   0.533466,   16.786739,   9.989659,   25.282282,   810.573181,   -85.032333,   0.343251,   811.705872,   811.342896
-0.118968,   0.222205,   0.237644,   0.000000,   818.431519,   0.533122,   17.790113,   48.523701,   18.249557,   815.177734,   51.025665,   0.342535,   811.037659,   810.725586
-0.114126,   0.222706,   0.238319,   0.000000,   830.574280,   0.533123,   17.790113,   47.860813,   40.380550,   827.428589,   49.856659,   0.355982,   812.596863,   810.674133
-0.109488,   0.223210,   0.239128,   0.000000,   841.975952,   0.533122,   17.790113,   47.197926,   61.905842,   838.950806,   48.577950,   0.368840,   814.134094,   809.322815
-0.105051,   0.223719,   0.240056,   0.000000,   852.624817,   0.533121,   17.790113,   46.535042,   82.732353,   849.734802,   47.169983,   0.381078,   815.639832,   806.777588
-0.100813,   0.224235,   0.241090,   0.000000,   862.530518,   0.533122,   17.790113,   45.872154,   102.801491,   859.791565,   45.616619,   0.392683,   817.107361,   803.149841
-0.096769,   0.224758,   0.242213,   0.000000,   871.713623,   0.533123,   17.790113,   45.209270,   122.075890,   869.140869,   43.916370,   0.403657,   818.531067,   798.550659
-0.092916,   0.225285,   0.243408,   0.000000,   880.189880,   0.533122,   17.790113,   44.546383,   140.503616,   877.797791,   42.064381,   0.413991,   819.905334,   793.098999
-0.089249,   0.225814,   0.244662,   0.000000,   887.989136,   0.533121,   17.790113,   43.883495,   158.062561,   885.788818,   40.075718,   0.423696,   821.226990,   786.911011
-0.085763,   0.226342,   0.245958,   0.000000,   895.142395,   0.533123,   17.790113,   43.220608,   174.736923,   893.139954,   37.981411,   0.432780,   822.493347,   780.101868
-0.082452,   0.226863,   0.247278,   0.000000,   901.683044,   0.533121,   17.790113,   42.557724,   190.521088,   899.879333,   35.815281,   0.441261,   823.700989,   772.782104
-0.079309,   0.227369,   0.248606,   0.000000,   907.640747,   0.533122,   17.790113,   41.894836,   205.403519,   906.033264,   33.598064,   0.449149,   824.846008,   765.064087
-0.076331,   0.227856,   0.249924,   0.000000,   913.048279,   0.533121,   17.790113,   41.231953,   219.381912,   911.631104,   31.353559,   0.456463,   825.925842,   757.056824
-0.073514,   0.228317,   0.251220,   0.000000,   917.938538,   0.533123,   17.790113,   40.569065,   232.458389,   916.702820,   29.104425,   0.463219,   826.938232,   748.867126
-0.070857,   0.228749,   0.252480,   0.000000,   922.345581,   0.533121,   17.790113,   39.906178,   244.641617,   921.280029,   26.872671,   0.469439,   827.882507,   740.596252
-0.068359,   0.229149,   0.253692,   0.000000,   926.302124,   0.533122,   17.790113,   39.243294,   255.941620,   925.393677,   24.677366,   0.475143,   828.757935,   732.342407
-0.066020,   0.229515,   0.254848,   0.000000,   929.840027,   0.533123,   17.790113,   38.580406,   266.371552,   929.074707,   22.533573,   0.480351,   829.564880,   724.200195
-0.063840,   0.229846,   0.255939,   0.000000,   932.990173,   0.533120,   17.790113,   37.917519,   275.946808,   932.353455,   20.453594,   0.485084,   830.303955,   716.258057
-0.061820,   0.230141,   0.256959,   0.000000,   935.782043,   0.533123,   17.790113,   37.254635,   284.686462,   935.259399,   18.446896,   0.489362,   830.976379,   708.598511
-0.059960,   0.230401,   0.257903,   0.000000,   938.243591,   0.533121,   17.790113,   36.591747,   292.611725,   937.820923,   16.519804,   0.493209,   831.583435,   701.295593
-0.058259,   0.230627,   0.258767,   0.000000,   940.401184,   0.533123,   17.790113,   35.928864,   299.745850,   940.065002,   14.675660,   0.496643,   832.126953,   694.416443
-0.056720,   0.230820,   0.259549,   0.000000,   942.279053,   0.533120,   17.790113,   35.265976,   306.113251,   942.016846,   12.915443,   0.499686,   832.608948,   688.020569
-0.055342,   0.230983,   0.260246,   0.000000,   943.898987,   0.533123,   17.790113,   34.603092,   311.735901,   943.699219,   11.237533,   0.502356,   833.031433,   682.162231
-0.054126,   0.231118,   0.260858,   0.000000,   945.280823,   0.533123,   17.790113,   33.940201,   316.636536,   945.133057,   9.638281,   0.504669,   833.396790,   676.888672
-0.053071,   0.231227,   0.261385,   0.000000,   946.442383,   0.533120,   17.790113,   33.277317,   320.836456,   946.337158,   8.112355,   0.506642,   833.707397,   672.239502
-0.052178,   0.231313,   0.261828,   0.000000,   947.398926,   0.533123,   17.790113,   32.614429,   324.355164,   947.327881,   6.652577,   0.508288,   833.965454,   668.249146
-0.051448,   0.231380,   0.262188,   0.000000,   948.163391,   0.533122,   17.790113,   31.951544,   327.209259,   948.119019,   5.250052,   0.509618,   834.173218,   664.947327
-0.050880,   0.231429,   0.262466,   0.000000,   948.746704,   0.533121,   17.790113,   31.288658,   329.413086,   948.722229,   3.894745,   0.510642,   834.332581,   662.355957
-0.050474,   0.231462,   0.262664,   0.000000,   949.157288,   0.533122,   17.790113,   30.625772,   330.978394,   949.146545,   2.575861,   0.511368,   834.445251,   660.493225
-0.050230,   0.231481,   0.262782,   0.000000,   949.401184,   0.533122,   17.790113,   29.962887,   331.914001,   949.398499,   1.281675,   0.511801,   834.512207,   659.370911
-0.050149,   0.231488,   0.262822,   0.000000,   949.482056,   0.533122,   17.790113,   29.300001,   332.225281,   949.482056,   -0.000005,   0.511945,   834.534546,   658.996216
-0.050230,   0.231481,   0.262782,   0.000000,   949.401184,   0.533122,   17.790113,   28.637114,   331.914001,   949.398499,   -1.281685,   0.511801,   834.512207,   659.370911
-0.050474,   0.231462,   0.262664,   0.000000,   949.157288,   0.533122,   17.790113,   27.974228,   330.978394,   949.146545,   -2.575870,   0.511368,   834.445251,   660.493225
-0.050880,   0.231429,   0.262466,   0.000000,   948.746704,   0.533123,   17.790113,   27.311340,   329.413086,   948.722229,   -3.894755,   0.510642,   834.332581,   662.355957
-0.051448,   0.231380,   0.262188,   0.000000,   948.163452,   0.533122,   17.790113,   26.648455,   327.209290,   948.119080,   -5.250055,   0.509618,   834.173279,   664.947144
-0.052178,   0.231313,   0.261828,   0.000000,   947.398926,   0.533121,   17.790113,   25.985569,   324.355194,   947.327881,   -6.652583,   0.508288,   833.965454,   668.249146
-0.053071,   0.231227,   0.261385,   0.000000,   946.442383,   0.533122,   17.790113,   25.322683,   320.836426,   946.337158,   -8.112375,   0.506642,   833.707397,   672.239502
-0.054126,   0.231118,   0.260858,   0.000000,   945.280884,   0.533121,   17.790113,   24.659798,   316.636536,   945.133118,   -9.638292,   0.504669,   833.396790,   676.888611
-0.055342,   0.230983,   0.260246,   0.000000,   943.898987,   0.533122,   17.790113,   23.996910,   311.735901,   943.699219,   -11.237543,   0.502356,   833.031433,   682.162231
-0.056720,   0.230820,   0.259549,   0.000000,   942.279053,   0.533121,   17.790113,   23.334024,   306.113251,   942.016846,   -12.915458,   0.499686,   832.608948,   688.020569
-0.058259,   0.230627,   0.258767,   0.000000,   940.401184,   0.533122,   17.790113,   22.671139,   299.745850,   940.065002,   -14.675665,   0.496643,   832.126953,   694.416443
-0.059960,   0.230401,   0.257904,   0.000000,   938.243652,   0.533123,   17.790113,   22.008251,   292.611786,   937.820984,   -16.519793,   0.493209,   831.583496,   701.295532
-0.061820,   0.230141,   0.256959,   0.000000,   935.782104,   0.533122,   17.790113,   21.345366,   284.686523,   935.259460,   -18.446899,   0.489362,   830.976379,   708.598206
-0.063840,   0.229846,   0.255939,   0.000000,   932.990173,   0.533122,   17.790113,   20.682480,   275.946808,   932.353455,   -20.453619,   0.485084,   830.303955,   716.258057
-0.066020,   0.229515,   0.254848,   0.000000,   929.840088,   0.533122,   17.790113,   20.019594,   266.371582,   929.074768,   -22.533575,   0.480351,   829.564880,   724.200195
-0.068359,   0.229149,   0.253692,   0.000000,   926.302185,   0.533121,   17.790113,   19.356709,   255.941666,   925.393738,   -24.677345,   0.475143,   828.757996,   732.342407
-0.070857,   0.228749,   0.252480,   0.000000,   922.345581,   0.533122,   17.790113,   18.693821,   244.641586,   921.280029,   -26.872702,   0.469439,   827.882507,   740.596313
-0.073514,   0.228317,   0.251220,   0.000000,   917.938599,   0.533121,   17.790113,   18.030935,   232.458420,   916.702881,   -29.104420,   0.463219,   826.938354,   748.867371
-0.076331,   0.227856,   0.249925,   0.000000,   913.048279,   0.533123,   17.790113,   17.368050,   219.381943,   911.631104,   -31.353521,   0.456463,   825.925842,   757.056824
-0.079309,   0.227369,   0.248606,   0.000000,   907.640808,   0.533122,   17.790113,   16.705162,   205.403503,   906.033325,   -33.598087,   0.449149,   824.846069,   765.064392
-0.082452,   0.226863,   0.247278,   0.000000,   901.683044,   0.533122,   17.790113,   16.042276,   190.521072,   899.879333,   -35.815250,   0.441261,   823.700989,   772.782104
-0.085763,   0.226342,   0.245958,   0.000000,   895.142456,   0.533122,   17.790113,   15.379390,   174.736893,   893.140015,   -37.981400,   0.432780,   822.493347,   780.101868
-0.089249,   0.225814,   0.244662,   0.000000,   887.989136,   0.533122,   17.790113,   14.716504,   158.062546,   885.788818,   -40.075680,   0.423696,   821.226990,   786.911011
-0.092916,   0.225285,   0.243408,   0.000000,   880.189880,   0.533122,   17.790113,   14.053617,   140.503555,   877.797791,   -42.064396,   0.413991,   819.905334,   793.099060
-0.096769,   0.224758,   0.242213,   0.000000,   871.713623,   0.533122,   17.790113,   13.390732,   122.075829,   869.140869,   -43.916344,   0.403657,   818.531128,   798.550781
-0.100813,   0.224235,   0.241090,   0.000000,   862.530457,   0.533122,   17.790113,   12.727845,   102.801430,   859.791504,   -45.616596,   0.392683,   817.107361,   803.149719
-0.105051,   0.223719,   0.240056,   0.000000,   852.624756,   0.533122,   17.790113,   12.064960,   82.732246,   849.734741,   -47.170010,   0.381078,   815.639832,   806.777649
-0.109488,   0.223210,   0.239128,   0.000000,   841.975830,   0.533122,   17.790113,   11.402073,   61.905701,   838.950684,   -48.577946,   0.368840,   814.134033,   809.322754
-0.114126,   0.222706,   0.238319,   0.000000,   830.574097,   0.533122,   17.790113,   10.739187,   40.380383,   827.428406,   -49.856674,   0.355982,   812.596802,   810.674072
-0.118968,   0.222205,   0.237644,   0.000000,   818.431274,   0.533122,   17.790113,   10.076301,   18.249273,   815.177490,   -51.025627,   0.342535,   811.037476,   810.725464
-0.119412,   0.222492,   0.237783,   0.000000,   817.444458,   0.532940,   18.796381,   48.480339,   14.620470,   817.085022,   16.987825,   0.342093,   810.408142,   810.125732
-0.114713,   0.223362,   0.238869,   0.000000,   829.965515,   0.532942,   18.796381,   47.818947,   36.946609,   829.617188,   16.619986,   0.355608,   812.284912,   810.426758
-0.110206,   0.224257,   0.240115,   0.000000,   841.835510,   0.532942,   18.796381,   47.157555,   58.838158,   841.498840,   16.236292,   0.368615,   814.162598,   809.413513
-0.105889,   0.225173,   0.241502,   0.000000,   853.046997,   0.532939,   18.796381,   46.496166,   80.244461,   852.722900,   15.826423,   0.381101,   816.027344,   807.151917
-0.101756,   0.226106,   0.243008,   0.000000,   863.588074,   0.532942,   18.796381,   45.834774,   101.094391,   863.278442,   15.365232,   0.393044,   817.866333,   803.717407
-0.097803,   0.227053,   0.244619,   0.000000,   873.452515,   0.532942,   18.796381,   45.173382,   121.316185,   873.159424,   14.847796,   0.404421,   819.669434,   799.197449
-0.094026,   0.228014,   0.246317,   0.000000,   882.639099,   0.532939,   18.796381,   44.511990,   140.835358,   882.364746,   14.266657,   0.415212,   821.428406,   793.692383
-0.090423,   0.228988,   0.248090,   0.000000,   891.155151,   0.532942,   18.796381,   43.850601,   159.582413,   890.901306,   13.627391,   0.425398,   823.138306,   787.315857
-0.086993,   0.229974,   0.249927,   0.000000,   899.019287,   0.532940,   18.796381,   43.189209,   177.504532,   898.787292,   12.937756,   0.434973,   824.796814,   780.187805
-0.083732,   0.230975,   0.251817,   0.000000,   906.261597,   0.532942,   18.796381,   42.527821,   194.572800,   906.052063,   12.211603,   0.443941,   826.403809,   772.425964
-0.080638,   0.231989,   0.253751,   0.000000,   912.911987,   0.532940,   18.796381,   41.866428,   210.759613,   912.725037,   11.456850,   0.452311,   827.958252,   764.150269
-0.077707,   0.233012,   0.255713,   0.000000,   919.000732,   0.532940,   18.796381,   41.205036,   226.040497,   918.835999,   10.683455,   0.460090,   829.458923,   755.484131
-0.074935,   0.234040,   0.257691,   0.000000,   924.559021,   0.532942,   18.796381,   40.543648,   240.398163,   924.415710,   9.901580,   0.467288,   830.904297,   746.550110
-0.072322,   0.235066,   0.259671,   0.000000,   929.618958,   0.532940,   18.796381,   39.882256,   253.822876,   929.495850,   9.120680,   0.473919,   832.292542,   737.468567
-0.069866,   0.236086,   0.261636,   0.000000,   934.212280,   0.532940,   18.796381,   39.220863,   266.311890,   934.107910,   8.349456,   0.480002,   833.621460,   728.356323
-0.067565,   0.237092,   0.263572,   0.000000,   938.369995,   0.532942,   18.796381,   38.559475,   277.868469,   938.282654,   7.595914,   0.485554,   834.888672,   719.325012
-0.065420,   0.238076,   0.265462,   0.000000,   942.121460,   0.532939,   18.796381,   37.898083,   288.501343,   942.049316,   6.865576,   0.490597,   836.091431,   710.480835
-0.063431,   0.239031,   0.267292,   0.000000,   945.494141,   0.532942,   18.796381,   37.236691,   298.223816,   945.435486,   6.162589,   0.495150,   837.226501,   701.922913
-0.061598,   0.239949,   0.269046,   0.000000,   948.513733,   0.532942,   18.796381,   36.575302,   307.052979,   948.466736,   5.489923,   0.499238,   838.290894,   693.742371
-0.059922,   0.240823,   0.270709,   0.000000,   951.202881,   0.532940,   18.796381,   35.913910,   315.008667,   951.165894,   4.849339,   0.502881,   839.280640,   686.022461
-0.058404,   0.241643,   0.272265,   0.000000,   953.580627,   0.532940,   18.796381,   35.252518,   322.112091,   953.552124,   4.242674,   0.506101,   840.191162,   678.836731
-0.057044,   0.242403,   0.273701,   0.000000,   955.667236,   0.532942,   18.796381,   34.591129,   328.387329,   955.645752,   3.669936,   0.508919,   841.020508,   672.251953
-0.055842,   0.243094,   0.275004,   0.000000,   957.476685,   0.532940,   18.796381,   33.929737,   333.857300,   957.460999,   3.129465,   0.511354,   841.763855,   666.322937
-0.054800,   0.243710,   0.276160,   0.000000,   959.021851,   0.532940,   18.796381,   33.268345,   338.544495,   959.010803,   2.619303,   0.513425,   842.417236,   661.098328
-0.053918,   0.244244,   0.277159,   0.000000,   960.313110,   0.532940,   18.796381,   32.606956,   342.470215,   960.305725,   2.136807,   0.515149,   842.977173,   656.616882
-0.053196,   0.244690,   0.277991,   0.000000,   961.358948,   0.532942,   18.796381,   31.945564,   345.653870,   961.354370,   1.678844,   0.516539,   843.440247,   652.909790
-0.052634,   0.245042,   0.278646,   0.000000,   962.166016,   0.532940,   18.796381,   31.284174,   348.112091,   962.163513,   1.241021,   0.517607,   843.803589,   650.002380
-0.052232,   0.245296,   0.279120,   0.000000,   962.739136,   0.532941,   18.796381,   30.622782,   349.858154,   962.738037,   0.818628,   0.518363,   844.064880,   647.912842
-0.051991,   0.245450,   0.279406,   0.000000,   963.081665,   0.532941,   18.796381,   29.961391,   350.901855,   963.081421,   0.406679,   0.518814,   844.222412,   646.654358
-0.051911,   0.245502,   0.279502,   0.000000,   963.195679,   0.532940,   18.796381,   29.300001,   351.249084,   963.195679,   -0.000002,   0.518964,   844.274963,   646.233521
-0.051991,   0.245450,   0.279406,   0.000000,   963.081665,   0.532941,   18.796381,   28.638609,   350.901855,   963.081421,   -0.406683,   0.518814,   844.222412,   646.654358
-0.052232,   0.245296,   0.279120,   0.000000,   962.739136,   0.532941,   18.796381,   27.977219,   349.858154,   962.738037,   -0.818632,   0.518363,   844.064880,   647.912842
-0.052634,   0.245042,   0.278647,   0.000000,   962.166016,   0.532941,   18.796381,   27.315826,   348.112122,   962.163513,   -1.241021,   0.517607,   843.803589,   650.002380
-0.053196,   0.244690,   0.277991,   0.000000,   961.358948,   0.532940,   18.796381,   26.654436,   345.653900,   961.354370,   -1.678843,   0.516539,   843.440247,   652.909790
-0.053918,   0.244244,   0.277159,   0.000000,   960.313110,   0.532940,   18.796381,   25.993046,   342.470215,   960.305725,   -2.136828,   0.515149,   842.977173,   656.616882
-0.054800,   0.243710,   0.276160,   0.000000,   959.021851,   0.532942,   18.796381,   25.331656,   338.544525,   959.010803,   -2.619291,   0.513425,   842.417236,   661.098328
-0.055842,   0.243094,   0.275004,   0.000000,   957.476746,   0.532940,   18.796381,   24.670263,   333.857300,   957.461060,   -3.129492,   0.511354,   841.763855,   666.323181
-0.057044,   0.242403,   0.273701,   0.000000,   955.667297,   0.532941,   18.796381,   24.008873,   328.387329,   955.645813,   -3.669926,   0.508919,   841.020569,   672.251892
-0.058404,   0.241643,   0.272265,   0.000000,   953.580688,   0.532941,   18.796381,   23.347481,   322.112122,   953.552185,   -4.242662,   0.506101,   840.191223,   678.836853
-0.059922,   0.240823,   0.270709,   0.000000,   951.202942,   0.532940,   18.796381,   22.686090,   315.008636,   951.165955,   -4.849373,   0.502881,   839.280762,   686.022766
-0.061598,   0.239949,   0.269046,   0.000000,   948.513733,   0.532941,   18.796381,   22.024700,   307.053009,   948.466736,   -5.489903,   0.499238,   838.290894,   693.742371
-0.063431,   0.239031,   0.267292,   0.000000,   945.494202,   0.532940,   18.796381,   21.363308,   298.223846,   945.435547,   -6.162590,   0.495150,   837.226562,   701.923035
-0.065420,   0.238076,   0.265462,   0.000000,   942.121460,   0.532942,   18.796381,   20.701918,   288.501343,   942.049316,   -6.865585,   0.490597,   836.091431,   710.480835
-0.067565,   0.237092,   0.263572,   0.000000,   938.369995,   0.532940,   18.796381,   20.040525,   277.868469,   938.282654,   -7.595910,   0.485554,   834.888672,   719.325012
-0.069866,   0.236086,   0.261636,   0.000000,   934.212341,   0.532940,   18.796381,   19.379135,   266.311890,   934.107971,   -8.349492,   0.480002,   833.621521,   728.356201
-0.072322,   0.235066,   0.259671,   0.000000,   929.618958,   0.532941,   18.796381,   18.717745,   253.822876,   929.495850,   -9.120617,   0.473919,   832.292542,   737.468567
-0.074935,   0.234040,   0.257691,   0.000000,   924.559021,   0.532941,   18.796381,   18.056355,   240.398163,   924.415710,   -9.901595,   0.467288,   830.904297,   746.550110
-0.077707,   0.233012,   0.255713,   0.000000,   919.000732,   0.532941,   18.796381,   17.394962,   226.040497,   918.835999,   -10.683466,   0.460090,   829.458923,   755.484131
-0.080638,   0.231989,   0.253751,   0.000000,   912.912048,   0.532940,   18.796381,   16.733572,   210.759598,   912.725098,   -11.456803,   0.452311,   827.958313,   764.150391
-0.083732,   0.230975,   0.251817,   0.000000,   906.261597,   0.532941,   18.796381,   16.072182,   194.572800,   906.052063,   -12.211588,   0.443941,   826.403809,   772.425964
-0.086993,   0.229974,   0.249927,   0.000000,   899.019348,   0.532941,   18.796381,   15.410790,   177.504532,   898.787354,   -12.937779,   0.434972,   824.796936,   780.188110
-0.090423,   0.228988,   0.248090,   0.000000,   891.155151,   0.532941,   18.796381,   14.749399,   159.582428,   890.901306,   -13.627378,   0.425398,   823.138245,   787.315857
-0.094026,   0.228014,   0.246317,   0.000000,   882.639099,   0.532941,   18.796381,   14.088008,   140.835342,   882.364746,   -14.266644,   0.415212,   821.428406,   793.692383
-0.097803,   0.227054,   0.244619,   0.000000,   873.452515,   0.532940,   18.796381,   13.426618,   121.316185,   873.159424,   -14.847798,   0.404421,   819.669434,   799.197449
-0.101756,   0.226106,   0.243008,   0.000000,   863.588135,   0.532940,   18.796381,   12.765226,   101.094460,   863.278503,   -15.365229,   0.393044,   817.866394,   803.717346
-0.105889,   0.225173,   0.241502,   0.000000,   853.047058,   0.532941,   18.796381,   12.103836,   80.244484,   852.722961,   -15.826437,   0.381101,   816.027344,   807.151855
-0.110206,   0.224257,   0.240115,   0.000000,   841.835571,   0.532940,   18.796381,   11.442445,   58.838211,   841.498901,   -16.236305,   0.368615,   814.162720,   809.413635
-0.114713,   0.223362,   0.238869,   0.000000,   829.965637,   0.532941,   18.796381,   10.781054,   36.946720,   829.617310,   -16.620020,   0.355608,   812.285034,   810.426819
-0.119412,   0.222492,   0.237783,   0.000000,   817.444580,   0.532941,   18.796381,   10.119662,   14.620646,   817.085144,   -16.987873,   0.342093,   810.408142,   810.125732
-0.119412,   0.222492,   0.237783,   0.000000,   817.444458,   0.532941,   19.803617,   48.480339,   14.620487,   817.085022,   -16.987818,   0.342093,   810.408142,   810.125732
-0.114713,   0.223362,   0.238869,   0.000000,   829.965515,   0.532943,   19.803617,   47.818947,   36.946613,   829.617188,   -16.619976,   0.355608,   812.284912,   810.426758
-0.110206,   0.224257,   0.240115,   0.000000,   841.835510,   0.532943,   19.803617,   47.157555,   58.838158,   841.498840,   -16.236280,   0.368615,   814.162598,   809.413513
-0.105889,   0.225173,   0.241502,   0.000000,   853.046997,   0.532940,   19.803617,   46.496166,   80.244453,   852.722900,   -15.826411,   0.381101,   816.027344,   807.151917
-0.101756,   0.226106,   0.243008,   0.000000,   863.588074,   0.532943,   19.803617,   45.834774,   101.094391,   863.278442,   -15.365221,   0.393044,   817.866333,   803.717407
-0.097803,   0.227053,   0.244619,   0.000000,   873.452515,   0.532943,   19.803617,   45.173382,   121.316177,   873.159424,   -14.847785,   0.404421,   819.669434,   799.197449
-0.094026,   0.228014,   0.246317,   0.000000,   882.639099,   0.532940,   19.803617,   44.511990,   140.835342,   882.364746,   -14.266645,   0.415212,   821.428406,   793.692383
-0.090423,   0.228988,   0.248090,   0.000000,   891.155151,   0.532943,   19.803617,   43.850601,   159.582413,   890.901306,   -13.627379,   0.425398,   823.138306,   787.315857
-0.086993,   0.229974,   0.249927,   0.000000,   899.019287,   0.532941,   19.803617,   43.189209,   177.504532,   898.787292,   -12.937744,   0.434973,   824.796814,   780.187805
-0.083732,   0.230975,   0.251817,   0.000000,   906.261597,   0.532943,   19.803617,   42.527821,   194.572800,   906.052063,   -12.211593,   0.443941,   826.403809,   772.425964
-0.080638,   0.231989,   0.253751,   0.000000,   912.911987,   0.532941,   19.803617,   41.866428,   210.759613,   912.725037,   -11.456841,   0.452311,   827.958252,   764.150269
-0.077707,   0.233012,   0.255713,   0.000000,   919.000671,   0.532941,   19.803617,   41.205036,   226.040497,   918.835938,   -10.683446,   0.460090,   829.458862,   755.484009
-0.074935,   0.234040,   0.257691,   0.000000,   924.559021,   0.532943,   19.803617,   40.543648,   240.398163,   924.415710,   -9.901571,   0.467288,   830.904297,   746.550110
-0.072322,   0.235066,   0.259671,   0.000000,   929.618958,   0.532941,   19.803617,   39.882256,   253.822861,   929.495850,   -9.120672,   0.473919,   832.292542,   737.468567
-0.069866,   0.236086,   0.261636,   0.000000,   934.212280,   0.532941,   19.803617,   39.220863,   266.311890,   934.107910,   -8.349448,   0.480002,   833.621460,   728.356323
-0.067565,   0.237092,   0.263572,   0.000000,   938.369995,   0.532943,   19.803617,   38.559475,   277.868469,   938.282654,   -7.595907,   0.485554,   834.888672,   719.325012
-0.065420,   0.238076,   0.265462,   0.000000,   942.121460,   0.532940,   19.803617,   37.898083,   288.501343,   942.049316,   -6.865570,   0.490597,   836.091431,   710.480835
-0.063431,   0.239031,   0.267292,   0.000000,   945.494141,   0.532943,   19.803617,   37.236691,   298.223816,   945.435486,   -6.162583,   0.495150,   837.226501,   701.922913
-0.061598,   0.239949,   0.269046,   0.000000,   948.513733,   0.532943,   19.803617,   36.575302,   307.052979,   948.466736,   -5.489918,   0.499238,   838.290894,   693.742371
-0.059922,   0.240823,   0.270709,   0.000000,   951.202881,   0.532941,   19.803617,   35.913910,   315.008636,   951.165894,   -4.849336,   0.502881,   839.280640,   686.022461
-0.058404,   0.241643,   0.272265,   0.000000,   953.580627,   0.532941,   19.803617,   35.252518,   322.112061,   953.552124,   -4.242671,   0.506101,   840.191162,   678.836731
-0.057044,   0.242403,   0.273701,   0.000000,   955.667236,   0.532943,   19.803617,   34.591129,   328.387299,   955.645752,   -3.669933,   0.508919,   841.020508,   672.251953
-0.055842,   0.243094,   0.275004,   0.000000,   957.476685,   0.532941,   19.803617,   33.929737,   333.857300,   957.460999,   -3.129462,   0.511354,   841.763855,   666.322937
-0.054800,   0.243710,   0.276160,   0.000000,   959.021851,   0.532941,   19.803617,   33.268345,   338.544495,   959.010803,   -2.619301,   0.513425,   842.417236,   661.098328
-0.053918,   0.244244,   0.277159,   0.000000,   960.313049,   0.532941,   19.803617,   32.606956,   342.470215,   960.305664,   -2.136805,   0.515149,   842.977112,   656.616577
-0.053196,   0.244690,   0.277991,   0.000000,   961.358948,   0.532943,   19.803617,   31.945564,   345.653870,   961.354370,   -1.678843,   0.516539,   843.440247,   652.909790
-0.052634,   0.245042,   0.278646,   0.000000,   962.166016,   0.532941,   19.803617,   31.284174,   348.112091,   962.163513,   -1.241020,   0.517607,   843.803589,   650.002380
-0.052232,   0.245296,   0.279120,   0.000000,   962.739136,   0.532942,   19.803617,   30.622782,   349.858154,   962.738037,   -0.818627,   0.518363,   844.064880,   647.912842
-0.051991,   0.245450,   0.279406,   0.000000,   963.081665,   0.532942,   19.803617,   29.961391,   350.901855,   963.081421,   -0.406678,   0.518814,   844.222412,   646.654358
-0.051911,   0.245502,   0.279502,   0.000000,   963.195679,   0.532941,   19.803617,   29.300001,   351.249084,   963.195679,   0.000002,   0.518964,   844.274963,   646.233521
-0.051991,   0.245450,   0.279406,   0.000000,   963.081665,   0.532942,   19.803617,   28.638609,   350.901855,   963.081421,   0.406683,   0.518814,   844.222412,   646.654358
-0.052232,   0.245296,   0.279120,   0.000000,   962.739136,   0.532942,   19.803617,   27.977219,   349.858154,   962.738037,   0.818631,   0.518363,   844.064880,   647.912842
-0.052634,   0.245042,   0.278647,   0.000000,   962.166016,   0.532942,   19.803617,   27.315826,   348.112091,   962.163513,   1.241020,   0.517607,   843.803589,   650.002380
-0.053196,   0.244690,   0.277991,   0.000000,   961.358948,   0.532941,   19.803617,   26.654436,   345.653900,   961.354370,   1.678842,   0.516539,   843.440247,   652.909790
-0.053918,   0.244244,   0.277159,   0.000000,   960.313110,   0.532941,   19.803617,   25.993046,   342.470215,   960.305725,   2.136826,   0.515149,   842.977173,   656.616882
-0.054800,   0.243710,   0.276160,   0.000000,   959.021851,   0.532943,   19.803617,   25.331656,   338.544525,   959.010803,   2.619289,   0.513425,   842.417236,   661.098328
-0.055842,   0.243094,   0.275004,   0.000000,   957.476685,   0.532941,   19.803617,   24.670263,   333.857300,   957.460999,   3.129490,   0.511354,   841.763855,   666.322937
-0.057044,   0.242403,   0.273701,   0.000000,   955.667297,   0.532942,   19.803617,   24.008873,   328.387329,   955.645813,   3.669923,   0.508919,   841.020569,   672.251892
-0.058404,   0.241643,   0.272265,   0.000000,   953.580688,   0.532942,   19.803617,   23.347481,   322.112091,   953.552185,   4.242659,   0.506101,   840.191223,   678.836853
-0.059922,   0.240823,   0.270709,   0.000000,   951.202942,   0.532941,   19.803617,   22.686090,   315.008636,   951.165955,   4.849370,   0.502881,   839.280762,   686.022766
-0.061598,   0.239949,   0.269046,   0.000000,   948.513733,   0.532942,   19.803617,   22.024700,   307.053009,   948.466736,   5.489898,   0.499238,   838.290894,   693.742371
-0.063431,   0.239031,   0.267292,   0.000000,   945.494202,   0.532941,   19.803617,   21.363308,   298.223846,   945.435547,   6.162584,   0.495150,   837.226562,   701.923035
-0.065420,   0.238076,   0.265462,   0.000000,   942.121460,   0.532943,   19.803617,   20.701918,   288.501343,   942.049316,   6.865579,   0.490597,   836.091431,   710.480835
-0.067565,   0.237092,   0.263572,   0.000000,   938.369995,   0.532941,   19.803617,   20.040525,   277.868469,   938.282654,   7.595903,   0.485554,   834.888672,   719.325012
-0.069866,   0.236086,   0.261636,   0.000000,   934.212341,   0.532941,   19.803617,   19.379135,   266.311890,   934.107971,   8.349484,   0.480002,   833.621521,   728.356201
-0.072322,   0.235066,   0.259671,   0.000000,   929.618958,   0.532942,   19.803617,   18.717745,   253.822876,   929.495850,   9.120608,   0.473919,   832.292542,   737.468567
-0.074935,   0.234040,   0.257691,   0.000000,   924.559021,   0.532942,   19.803617,   18.056355,   240.398148,   924.415710,   9.901587,   0.467288,   830.904297,   746.550110
-0.077707,   0.233012,   0.255713,   0.000000,   919.000732,   0.532942,   19.803617,   17.394962,   226.040497,   918.835999,   10.683456,   0.460090,   829.458923,   755.484131
-0.080638,   0.231989,   0.253751,   0.000000,   912.912048,   0.532941,   19.803617,   16.733572,   210.759598,   912.725098,   11.456793,   0.452311,   827.958313,   764.150391
-0.083732,   0.230975,   0.251817,   0.000000,   906.261597,   0.532942,   19.803617,   16.072182,   194.572800,   906.052063,   12.211577,   0.443941,   826.403809,   772.425964
-0.086993,   0.229974,   0.249927,   0.000000,   899.019348,   0.532942,   19.803617,   15.410790,   177.504517,   898.787354,   12.937769,   0.434972,   824.796936,   780.188110
-0.090423,   0.228988,   0.248090,   0.000000,   891.155151,   0.532942,   19.803617,   14.749399,   159.582428,   890.901306,   13.627366,   0.425398,   823.138245,   787.315857
-0.094026,   0.228014,   0.246317,   0.000000,   882.639099,   0.532942,   19.803617,   14.088008,   140.835327,   882.364746,   14.266632,   0.415212,   821.428406,   793.692383
-0.097803,   0.227054,   0.244619,   0.000000,   873.452515,   0.532942,   19.803617,   13.426618,   121.316177,   873.159424,   14.847787,   0.404421,   819.669434,   799.197449
-0.101756,   0.226106,   0.243008,   0.000000,   863.588135,   0.532942,   19.803617,   12.765226,   101.094460,   863.278503,   15.365217,   0.393044,   817.866394,   803.717346
-0.105889,   0.225173,   0.241502,   0.000000,   853.047058,   0.532942,   19.803617,   12.103836,   80.244484,   852.722961,   15.826426,   0.381101,   816.027344,   807.151855
-0.110206,   0.224257,   0.240115,   0.000000,   841.835571,   0.532942,   19.803617,   11.442445,   58.838211,   841.498901,   16.236296,   0.368615,   814.162720,   809.413635
-0.114713,   0.223362,   0.238869,   0.000000,   829.965637,   0.532942,   19.803617,   10.781054,   36.946724,   829.617310,   16.620010,   0.355608,   812.285034,   810.426819
-0.119412,   0.222492,   0.237783,   0.000000,   817.444641,   0.532942,   19.803617,   10.119662,   14.620663,   817.085205,   16.987865,   0.342093,   810.408203,   810.125793
-0.118968,   0.222205,   0.237644,   0.000000,   818.431458,   0.533120,   20.809887,   48.523701,   18.249527,   815.177673,   -51.025661,   0.342535,   811.037598,   810.725708
-0.114126,   0.222706,   0.238319,   0.000000,   830.574280,   0.533122,   20.809887,   47.860813,   40.380535,   827.428589,   -49.856655,   0.355982,   812.596863,   810.674133
-0.109488,   0.223210,   0.239128,   0.000000,   841.975891,   0.533120,   20.809887,   47.197926,   61.905830,   838.950745,   -48.577950,   0.368840,   814.134033,   809.322754
-0.105051,   0.223719,   0.240056,   0.000000,   852.624817,   0.533120,   20.809887,   46.535042,   82.732346,   849.734802,   -47.169979,   0.381078,   815.639832,   806.777588
-0.100813,   0.224235,   0.241090,   0.000000,   862.530518,   0.533120,   20.809887,   45.872154,   102.801491,   859.791565,   -45.616619,   0.392683,   817.107361,   803.149841
-0.096769,   0.224758,   0.242213,   0.000000,   871.713623,   0.533122,   20.809887,   45.209270,   122.075882,   869.140869,   -43.916367,   0.403657,   818.531067,   798.550659
-0.092916,   0.225285,   0.243408,   0.000000,   880.189880,   0.533120,   20.809887,   44.546383,   140.503616,   877.797791,   -42.064373,   0.413991,   819.905334,   793.098999
-0.089249,   0.225814,   0.244662,   0.000000,   887.989136,   0.533120,   20.809887,   43.883495,   158.062561,   885.788818,   -40.075710,   0.423696,   821.226990,   786.911011
-0.085763,   0.226342,   0.245958,   0.000000,   895.142395,   0.533122,   20.809887,   43.220608,   174.736923,   893.139954,   -37.981407,   0.432780,   822.493347,   780.101868
-0.082452,   0.226863,   0.247278,   0.000000,   901.683044,   0.533120,   20.809887,   42.557724,   190.521088,   899.879333,   -35.815273,   0.441261,   823.700989,   772.782104
-0.079309,   0.227369,   0.248606,   0.000000,   907.640747,   0.533120,   20.809887,   41.894836,   205.403534,   906.033264,   -33.598061,   0.449149,   824.846008,   765.064087
-0.076331,   0.227856,   0.249924,   0.000000,   913.048279,   0.533120,   20.809887,   41.231953,   219.381912,   911.631104,   -31.353554,   0.456463,   825.925842,   757.056824
-0.073514,   0.228317,   0.251220,   0.000000,   917.938538,   0.533122,   20.809887,   40.569065,   232.458405,   916.702820,   -29.104422,   0.463219,   826.938232,   748.867126
-0.070857,   0.228749,   0.252480,   0.000000,   922.345581,   0.533120,   20.809887,   39.906178,   244.641632,   921.280029,   -26.872667,   0.469439,   827.882507,   740.596252
-0.068359,   0.229149,   0.253692,   0.000000,   926.302124,   0.533120,   20.809887,   39.243294,   255.941635,   925.393677,   -24.677364,   0.475143,   828.757935,   732.342407
-0.066020,   0.229515,   0.254848,   0.000000,   929.840027,   0.533122,   20.809887,   38.580406,   266.371582,   929.074707,   -22.533571,   0.480351,   829.564880,   724.200195
-0.063840,   0.229846,   0.255939,   0.000000,   932.990173,   0.533119,   20.809887,   37.917519,   275.946838,   932.353455,   -20.453592,   0.485084,   830.303894,   716.258057
-0.061820,   0.230141,   0.256959,   0.000000,   935.782043,   0.533122,   20.809887,   37.254635,   284.686493,   935.259399,   -18.446894,   0.489362,   830.976318,   708.598145
-0.059960,   0.230401,   0.257904,   0.000000,   938.243591,   0.533120,   20.809887,   36.591747,   292.611725,   937.820923,   -16.519802,   0.493209,   831.583435,   701.295593
-0.058259,   0.230627,   0.258767,   0.000000,   940.401184,   0.533122,   20.809887,   35.928864,   299.745850,   940.065002,   -14.675659,   0.496643,   832.126953,   694.416443
-0.056720,   0.230820,   0.259549,   0.000000,   942.279053,   0.533119,   20.809887,   35.265976,   306.113251,   942.016846,   -12.915442,   0.499686,   832.608948,   688.020569
-0.055342,   0.230983,   0.260246,   0.000000,   943.898987,   0.533122,   20.809887,   34.603092,   311.735901,   943.699219,   -11.237532,   0.502356,   833.031433,   682.162231
-0.054126,   0.231118,   0.260858,   0.000000,   945.280823,   0.533122,   20.809887,   33.940201,   316.636536,   945.133057,   -9.638280,   0.504669,   833.396790,   676.888672
-0.053071,   0.231227,   0.261385,   0.000000,   946.442383,   0.533119,   20.809887,   33.277317,   320.836456,   946.337158,   -8.112354,   0.506642,   833.707397,   672.239502
-0.052178,   0.231313,   0.261828,   0.000000,   947.398926,   0.533122,   20.809887,   32.614429,   324.355194,   947.327881,   -6.652576,   0.508288,   833.965454,   668.249146
-0.051448,   0.231380,   0.262188,   0.000000,   948.163391,   0.533121,   20.809887,   31.951544,   327.209259,   948.119019,   -5.250051,   0.509618,   834.173218,   664.947327
-0.050880,   0.231429,   0.262466,   0.000000,   948.746704,   0.533120,   20.809887,   31.288658,   329.413086,   948.722229,   -3.894744,   0.510642,   834.332581,   662.355957
-0.050474,   0.231462,   0.262664,   0.000000,   949.157288,   0.533120,   20.809887,   30.625772,   330.978424,   949.146545,   -2.575860,   0.511368,   834.445251,   660.493225
-0.050230,   0.231481,   0.262782,   0.000000,   949.401184,   0.533121,   20.809887,   29.962887,   331.914001,   949.398499,   -1.281675,   0.511801,   834.512207,   659.370911
-0.050149,   0.231488,   0.262822,   0.000000,   949.482056,   0.533120,   20.809887,   29.300001,   332.225311,   949.482056,   0.000005,   0.511945,   834.534485,   658.995789
-0.050230,   0.231481,   0.262782,   0.000000,   949.401184,   0.533121,   20.809887,   28.637114,   331.914001,   949.398499,   1.281685,   0.511801,   834.512207,   659.370911
-0.050474,   0.231462,   0.262664,   0.000000,   949.157288,   0.533120,   20.809887,   27.974228,   330.978424,   949.146545,   2.575870,   0.511368,   834.445251,   660.493225
-0.050880,   0.231429,   0.262466,   0.000000,   948.746704,   0.533122,   20.809887,   27.311340,   329.413086,   948.722229,   3.894755,   0.510642,   834.332581,   662.355957
-0.051448,   0.231380,   0.262188,   0.000000,   948.163452,   0.533120,   20.809887,   26.648455,   327.209290,   948.119080,   5.250054,   0.509618,   834.173279,   664.947144
-0.052178,   0.231313,   0.261828,   0.000000,   947.398926,   0.533120,   20.809887,   25.985569,   324.355194,   947.327881,   6.652582,   0.508288,   833.965454,   668.249146
-0.053071,   0.231227,   0.261385,   0.000000,   946.442383,   0.533121,   20.809887,   25.322683,   320.836456,   946.337158,   8.112374,   0.506642,   833.707397,   672.239502
-0.054126,   0.231118,   0.260858,   0.000000,   945.280884,   0.533120,   20.809887,   24.659798,   316.636566,   945.133118,   9.638291,   0.504669,   833.396790,   676.888611
-0.055342,   0.230983,   0.260246,   0.000000,   943.898987,   0.533121,   20.809887,   23.996910,   311.735931,   943.699219,   11.237542,   0.502356,   833.031494,   682.162170
-0.056720,   0.230820,   0.259549,   0.000000,   942.279053,   0.533120,   20.809887,   23.334024,   306.113281,   942.016846,   12.915457,   0.499686,   832.608948,   688.020569
-0.058259,   0.230627,   0.258768,   0.000000,   940.401245,   0.533120,   20.809887,   22.671139,   299.745880,   940.065063,   14.675663,   0.496643,   832.127075,   694.416565
-0.059960,   0.230401,   0.257904,   0.000000,   938.243652,   0.533122,   20.809887,   22.008251,   292.611816,   937.820984,   16.519791,   0.493209,   831.583496,   701.295349
-0.061820,   0.230141,   0.256959,   0.000000,   935.782104,   0.533120,   20.809887,   21.345366,   284.686523,   935.259460,   18.446898,   0.489362,   830.976379,   708.598206
-0.063840,   0.229846,   0.255939,   0.000000,   932.990173,   0.533121,   20.809887,   20.682480,   275.946808,   932.353455,   20.453617,   0.485084,   830.303955,   716.258057
-0.066020,   0.229515,   0.254848,   0.000000,   929.840088,   0.533120,   20.809887,   20.019594,   266.371582,   929.074768,   22.533571,   0.480351,   829.564880,   724.200195
-0.068359,   0.229149,   0.253692,   0.000000,   926.302185,   0.533120,   20.809887,   19.356709,   255.941681,   925.393738,   24.677341,   0.475143,   828.757935,   732.342407
-0.070857,   0.228749,   0.252480,   0.000000,   922.345581,   0.533121,   20.809887,   18.693821,   244.641586,   921.280029,   26.872698,   0.469439,   827.882507,   740.596313
-0.073514,   0.228317,   0.251220,   0.000000,   917.938599,   0.533120,   20.809887,   18.030935,   232.458435,   916.702881,   29.104416,   0.463219,   826.938293,   748.867004
-0.076331,   0.227856,   0.249925,   0.000000,   913.048340,   0.533122,   20.809887,   17.368050,   219.381943,   911.631165,   31.353518,   0.456463,   825.925903,   757.057068
-0.079309,   0.227369,   0.248606,   0.000000,   907.640808,   0.533120,   20.809887,   16.705162,   205.403503,   906.033325,   33.598083,   0.449149,   824.846069,   765.064392
-0.082452,   0.226863,   0.247278,   0.000000,   901.683044,   0.533121,   20.809887,   16.042276,   190.521088,   899.879333,   35.815243,   0.441261,   823.700989,   772.782104
-0.085763,   0.226342,   0.245958,   0.000000,   895.142456,   0.533121,   20.809887,   15.379390,   174.736893,   893.140015,   37.981392,   0.432780,   822.493347,   780.101868
-0.089249,   0.225814,   0.244662,   0.000000,   887.989197,   0.533121,   20.809887,   14.716504,   158.062546,   885.788879,   40.075676,   0.423696,   821.227051,   786.910950
-0.092916,   0.225285,   0.243408,   0.000000,   880.189880,   0.533121,   20.809887,   14.053617,   140.503555,   877.797791,   42.064392,   0.413991,   819.905334,   793.099060
-0.096769,   0.224758,   0.242213,   0.000000,   871.713623,   0.533121,   20.809887,   13.390732,   122.075829,   869.140869,   43.916340,   0.403657,   818.531128,   798.550781
-0.100813,   0.224235,   0.241090,   0.000000,   862.530457,   0.533121,   20.809887,   12.727845,   102.801422,   859.791504,   45.616592,   0.392683,   817.107361,   803.149902
-0.105051,   0.223719,   0.240056,   0.000000,   852.624756,   0.533121,   20.809887,   12.064960,   82.732239,   849.734741,   47.170010,   0.381078,   815.639832,   806.777649
-0.109488,   0.223210,   0.239128,   0.000000,   841.975830,   0.533121,   20.809887,   11.402073,   61.905689,   838.950684,   48.577946,   0.368840,   814.134033,   809.322754
-0.114126,   0.222706,   0.238319,   0.000000,   830.574097,   0.533121,   20.809887,   10.739187,   40.380363,   827.428406,   49.856674,   0.355982,   812.596802,   810.674072
-0.118968,   0.222205,   0.237644,   0.000000,   818.431213,   0.533121,   20.809887,   10.076301,   18.249243,   815.177429,   51.025623,   0.342535,   811.037415,   810.725464
-0.117659,   0.220831,   0.236494,   0.000000,   819.675354,   0.533468,   21.813259,   48.610340,   25.282646,   810.573425,   -85.032440,   0.343251,   811.705933,   811.342957
-0.112545,   0.220551,   0.236298,   0.000000,   830.782288,   0.533468,   21.813259,   47.944466,   46.491894,   822.045410,   -82.778412,   0.356295,   812.562866,   810.585876
-0.107666,   0.220265,   0.236220,   0.000000,   841.051453,   0.533466,   21.813259,   47.278591,   66.827446,   832.727295,   -80.279144,   0.368649,   813.379272,   808.625244
-0.103022,   0.219978,   0.236247,   0.000000,   850.496094,   0.533468,   21.813259,   46.612720,   86.215828,   842.633484,   -77.519150,   0.380293,   814.152161,   805.604126
-0.098603,   0.219693,   0.236365,   0.000000,   859.166260,   0.533466,   21.813259,   45.946846,   104.671959,   851.795288,   -74.574585,   0.391249,   814.884338,   801.658813
-0.094403,   0.219409,   0.236559,   0.000000,   867.090027,   0.533468,   21.813259,   45.280972,   122.161285,   860.238525,   -71.441360,   0.401518,   815.571899,   796.922852
-0.090418,   0.219126,   0.236814,   0.000000,   874.316467,   0.533468,   21.813259,   44.615097,   138.703293,   868.000366,   -68.163223,   0.411127,   816.215332,   791.518311
-0.086642,   0.218843,   0.237115,   0.000000,   880.892273,   0.533466,   21.813259,   43.949223,   154.314148,   875.121887,   -64.750641,   0.420102,   816.814209,   785.558960
-0.083063,   0.218554,   0.237445,   0.000000,   886.877014,   0.533468,   21.813259,   43.283348,   169.065872,   881.646606,   -61.273396,   0.428494,   817.368225,   779.129761
-0.079669,   0.218249,   0.237781,   0.000000,   892.294006,   0.533466,   21.813259,   42.617477,   182.949997,   887.591980,   -57.752380,   0.436313,   817.869934,   772.332092
-0.076454,   0.217917,   0.238105,   0.000000,   897.175842,   0.533468,   21.813259,   41.951603,   195.983459,   892.983948,   -54.215565,   0.443582,   818.313965,   765.254700
-0.073413,   0.217557,   0.238404,   0.000000,   901.557434,   0.533466,   21.813259,   41.285728,   208.187500,   897.852478,   -50.684235,   0.450325,   818.697815,   757.982239
-0.070545,   0.217166,   0.238667,   0.000000,   905.473938,   0.533468,   21.813259,   40.619858,   219.583740,   902.228210,   -47.182930,   0.456566,   819.021912,   750.596802
-0.067845,   0.216747,   0.238889,   0.000000,   908.961304,   0.533469,   21.813259,   39.953979,   230.197342,   906.143860,   -43.730862,   0.462329,   819.287964,   743.174683
-0.065315,   0.216303,   0.239069,   0.000000,   912.053223,   0.533466,   21.813259,   39.288105,   240.049774,   909.631287,   -40.343098,   0.467636,   819.499146,   735.790161
-0.062952,   0.215840,   0.239205,   0.000000,   914.782471,   0.533468,   21.813259,   38.622231,   249.161224,   912.722107,   -37.032677,   0.472506,   819.659851,   728.515198
-0.060758,   0.215364,   0.239299,   0.000000,   917.180664,   0.533466,   21.813259,   37.956360,   257.553802,   915.447632,   -33.810665,   0.476961,   819.774841,   721.415833
-0.058730,   0.214883,   0.239355,   0.000000,   919.277466,   0.533468,   21.813259,   37.290485,   265.246735,   917.837769,   -30.685331,   0.481017,   819.849609,   714.556641
-0.056869,   0.214403,   0.239377,   0.000000,   921.100586,   0.533466,   21.813259,   36.624611,   272.258240,   919.921326,   -27.661621,   0.484691,   819.889709,   707.997498
-0.055173,   0.213933,   0.239370,   0.000000,   922.675781,   0.533468,   21.813259,   35.958740,   278.604614,   921.725342,   -24.741934,   0.487998,   819.901062,   701.796509
-0.053642,   0.213479,   0.239339,   0.000000,   924.026733,   0.533466,   21.813259,   35.292866,   284.300751,   923.275330,   -21.925030,   0.490951,   819.889343,   696.007751
-0.052275,   0.213049,   0.239290,   0.000000,   925.175293,   0.533468,   21.813259,   34.626991,   289.361084,   924.595032,   -19.207275,   0.493562,   819.860168,   690.680237
-0.051072,   0.212651,   0.239229,   0.000000,   926.141235,   0.533468,   21.813259,   33.961117,   293.798615,   925.706360,   -16.582914,   0.495843,   819.819275,   685.860046
-0.050030,   0.212290,   0.239161,   0.000000,   926.942261,   0.533466,   21.813259,   33.295242,   297.624420,   926.628845,   -14.044015,   0.497802,   819.771729,   681.588989
-0.049150,   0.211974,   0.239094,   0.000000,   927.593506,   0.533468,   21.813259,   32.629368,   300.846466,   927.379517,   -11.580910,   0.499448,   819.722412,   677.906372
-0.048432,   0.211707,   0.239031,   0.000000,   928.108276,   0.533468,   21.813259,   31.963495,   303.472778,   927.973267,   -9.183043,   0.500786,   819.675781,   674.845398
-0.047873,   0.211495,   0.238977,   0.000000,   928.497437,   0.533467,   21.813259,   31.297621,   305.509705,   928.422363,   -6.839044,   0.501821,   819.635620,   672.434082
-0.047475,   0.211340,   0.238936,   0.000000,   928.769348,   0.533467,   21.813259,   30.631748,   306.961761,   928.736267,   -4.536148,   0.502559,   819.604675,   670.694458
-0.047236,   0.211247,   0.238910,   0.000000,   928.930176,   0.533468,   21.813259,   29.965874,   307.831940,   928.921936,   -2.261081,   0.503000,   819.585266,   669.643921
-0.047156,   0.211215,   0.238901,   0.000000,   928.983337,   0.533467,   21.813259,   29.299999,   308.121796,   928.983337,   0.000004,   0.503147,   819.578613,   669.292664
-0.047236,   0.211247,   0.238910,   0.000000,   928.930115,   0.533467,   21.813259,   28.634127,   307.831940,   928.921875,   2.261088,   0.503000,   819.585205,   669.644043
-0.047475,   0.211340,   0.238936,   0.000000,   928.769348,   0.533467,   21.813259,   27.968252,   306.961761,   928.736267,   4.536156,   0.502559,   819.604675,   670.694458
-0.047873,   0.211495,   0.238977,   0.000000,   928.497437,   0.533468,   21.813259,   27.302378,   305.509644,   928.422363,   6.839054,   0.501821,   819.635620,   672.434082
-0.048432,   0.211707,   0.239031,   0.000000,   928.108276,   0.533467,   21.813259,   26.636505,   303.472778,   927.973267,   9.183054,   0.500786,   819.675781,   674.845398
-0.049150,   0.211974,   0.239094,   0.000000,   927.593506,   0.533467,   21.813259,   25.970631,   300.846497,   927.379517,   11.580912,   0.499448,   819.722412,   677.906311
-0.050030,   0.212290,   0.239161,   0.000000,   926.942261,   0.533468,   21.813259,   25.304758,   297.624420,   926.628845,   14.044025,   0.497802,   819.771729,   681.589050
-0.051072,   0.212651,   0.239229,   0.000000,   926.141235,   0.533467,   21.813259,   24.638884,   293.798676,   925.706360,   16.582922,   0.495843,   819.819275,   685.860046
-0.052275,   0.213049,   0.239290,   0.000000,   925.175293,   0.533467,   21.813259,   23.973009,   289.361145,   924.595032,   19.207277,   0.493562,   819.860229,   690.680176
-0.053642,   0.213479,   0.239339,   0.000000,   924.026733,   0.533467,   21.813259,   23.307137,   284.300751,   923.275330,   21.925041,   0.490951,   819.889343,   696.007751
-0.055173,   0.213933,   0.239370,   0.000000,   922.675842,   0.533467,   21.813259,   22.641262,   278.604675,   921.725403,   24.741930,   0.487998,   819.901062,   701.796509
-0.056869,   0.214403,   0.239377,   0.000000,   921.100586,   0.533468,   21.813259,   21.975388,   272.258240,   919.921326,   27.661646,   0.484691,   819.889709,   707.997498
-0.058730,   0.214883,   0.239355,   0.000000,   919.277527,   0.533468,   21.813259,   21.309513,   265.246826,   917.837830,   30.685356,   0.481017,   819.849609,   714.556396
-0.060758,   0.215364,   0.239299,   0.000000,   917.180664,   0.533467,   21.813259,   20.643641,   257.553772,   915.447632,   33.810680,   0.476961,   819.774841,   721.415833
-0.062952,   0.215840,   0.239205,   0.000000,   914.782471,   0.533467,   21.813259,   19.977766,   249.161285,   912.722107,   37.032696,   0.472506,   819.659790,   728.515015
-0.065315,   0.216303,   0.239069,   0.000000,   912.053284,   0.533467,   21.813259,   19.311893,   240.049774,   909.631348,   40.343132,   0.467636,   819.499207,   735.790161
-0.067845,   0.216747,   0.238889,   0.000000,   908.961304,   0.533467,   21.813259,   18.646019,   230.197327,   906.143860,   43.730869,   0.462329,   819.287964,   743.174683
-0.070545,   0.217166,   0.238667,   0.000000,   905.473999,   0.533467,   21.813259,   17.980146,   219.583862,   902.228271,   47.182949,   0.456566,   819.021912,   750.596802
-0.073413,   0.217557,   0.238404,   0.000000,   901.557434,   0.533468,   21.813259,   17.314272,   208.187500,   897.852478,   50.684250,   0.450325,   818.697815,   757.982239
-0.076454,   0.217917,   0.238105,   0.000000,   897.175842,   0.533467,   21.813259,   16.648397,   195.983521,   892.983948,   54.215572,   0.443582,   818.313904,   765.254578
-0.079669,   0.218249,   0.237781,   0.000000,   892.294067,   0.533467,   21.813259,   15.982523,   182.949997,   887.592041,   57.752422,   0.436313,   817.870056,   772.332336
-0.083063,   0.218554,   0.237445,   0.000000,   886.877075,   0.533467,   21.813259,   15.316649,   169.065903,   881.646667,   61.273380,   0.428494,   817.368347,   779.130005
-0.086642,   0.218843,   0.237115,   0.000000,   880.892273,   0.533467,   21.813259,   14.650777,   154.314148,   875.121887,   64.750664,   0.420102,   816.814209,   785.558960
-0.090418,   0.219126,   0.236814,   0.000000,   874.316528,   0.533467,   21.813259,   13.984902,   138.703293,   868.000427,   68.163200,   0.411127,   816.215332,   791.518311
-0.094403,   0.219409,   0.236560,   0.000000,   867.090088,   0.533467,   21.813259,   13.319029,   122.161232,   860.238586,   71.441330,   0.401518,   815.571899,   796.922729
-0.098603,   0.219693,   0.236365,   0.000000,   859.166260,   0.533467,   21.813259,   12.653154,   104.671860,   851.795288,   74.574554,   0.391249,   814.884338,   801.658875
-0.103022,   0.219978,   0.236247,   0.000000,   850.495972,   0.533467,   21.813259,   11.987281,   86.215668,   842.633423,   77.519058,   0.380293,   814.152100,   805.604126
-0.107666,   0.220265,   0.236220,   0.000000,   841.051270,   0.533467,   21.813259,   11.321407,   66.827179,   832.727173,   80.279045,   0.368649,   813.379211,   808.625305
-0.112545,   0.220551,   0.236298,   0.000000,   830.782104,   0.533467,   21.813259,   10.655534,   46.491566,   822.045227,   82.778282,   0.356295,   812.562866,   810.585876
-0.117659,   0.220831,   0.236493,   0.000000,   819.675110,   0.533467,   21.813259,   9.989659,   25.282246,   810.573181,   85.032288,   0.343251,   811.705872,   811.342896
-0.114755,   0.216910,   0.232729,   0.000000,   819.513062,   0.533953,   22.811810,   48.740093,   34.637543,   801.666870,   -118.351418,   0.343629,   811.247742,   810.856506
-0.109301,   0.215473,   0.231236,   0.000000,   828.805786,   0.533950,   22.811810,   48.069744,   53.832596,   811.841614,   -114.659401,   0.355805,   811.000366,   809.111633
-0.104141,   0.214075,   0.229900,   0.000000,   837.295166,   0.533951,   22.811810,   47.399399,   72.005821,   821.304016,   -110.624786,   0.367282,   810.740356,   806.369507
-0.099269,   0.212721,   0.228708,   0.000000,   845.041748,   0.533950,   22.811810,   46.729050,   89.196701,   830.088074,   -106.313881,   0.378085,   810.474548,   802.770508
-0.094659,   0.211398,   0.227631,   0.000000,   852.123718,   0.533950,   22.811810,   46.058701,   105.529594,   838.223816,   -101.870338,   0.388278,   810.204285,   798.422241
-0.090307,   0.210098,   0.226644,   0.000000,   858.494629,   0.533951,   22.811810,   45.388355,   120.822212,   845.677917,   -97.234543,   0.397780,   809.911194,   793.466492
-0.086202,   0.208826,   0.225738,   0.000000,   864.267578,   0.533950,   22.811810,   44.718006,   135.251511,   852.526550,   -92.517067,   0.406689,   809.609314,   787.994690
-0.082335,   0.207583,   0.224902,   0.000000,   869.461548,   0.533950,   22.811810,   44.047657,   148.781219,   858.782532,   -87.727783,   0.414996,   809.296631,   782.124878
-0.078678,   0.206363,   0.224121,   0.000000,   874.186340,   0.533951,   22.811810,   43.377312,   161.628937,   864.523315,   -82.978630,   0.422817,   808.980103,   775.886169
-0.075229,   0.205155,   0.223373,   0.000000,   878.424194,   0.533950,   22.811810,   42.706963,   173.701248,   869.737732,   -78.240265,   0.430119,   808.644470,   769.383057
-0.071981,   0.203957,   0.222647,   0.000000,   882.213562,   0.533950,   22.811810,   42.036613,   185.035324,   874.456299,   -73.540504,   0.436928,   808.289062,   762.686218
-0.068930,   0.202773,   0.221938,   0.000000,   885.591492,   0.533951,   22.811810,   41.366264,   195.661606,   878.713135,   -68.888290,   0.443271,   807.914978,   755.861816
-0.066070,   0.201606,   0.221242,   0.000000,   888.595581,   0.533950,   22.811810,   40.695919,   205.617279,   882.541077,   -64.304779,   0.449174,   807.525208,   748.969910
-0.063399,   0.200461,   0.220558,   0.000000,   891.255554,   0.533953,   22.811810,   40.025570,   214.919617,   885.967896,   -59.801640,   0.454655,   807.122253,   742.074524
-0.060911,   0.199343,   0.219888,   0.000000,   893.603210,   0.533950,   22.811810,   39.355221,   223.593216,   889.024963,   -55.384594,   0.459735,   806.710388,   735.232056
-0.058603,   0.198259,   0.219234,   0.000000,   895.667725,   0.533950,   22.811810,   38.684872,   231.658493,   891.741333,   -51.060253,   0.464429,   806.294189,   728.497742
-0.056472,   0.197215,   0.218598,   0.000000,   897.476562,   0.533951,   22.811810,   38.014526,   239.133087,   894.144653,   -46.835060,   0.468755,   805.878540,   721.924805
-0.054514,   0.196219,   0.217986,   0.000000,   899.054321,   0.533950,   22.811810,   37.344177,   246.029892,   896.260620,   -42.712273,   0.472723,   805.468750,   715.567139
-0.052726,   0.195276,   0.217402,   0.000000,   900.423645,   0.533950,   22.811810,   36.673828,   252.359299,   898.113342,   -38.693882,   0.476345,   805.069641,   709.476990
-0.051105,   0.194394,   0.216850,   0.000000,   901.605347,   0.533951,   22.811810,   36.003483,   258.129028,   899.725525,   -34.779442,   0.479630,   804.686401,   703.705444
-0.049648,   0.193577,   0.216335,   0.000000,   902.617798,   0.533950,   22.811810,   35.333134,   263.343018,   901.117737,   -30.966883,   0.482584,   804.323669,   698.303406
-0.048353,   0.192832,   0.215861,   0.000000,   903.477905,   0.533951,   22.811810,   34.662785,   268.004761,   902.309204,   -27.252390,   0.485213,   803.985962,   693.319824
-0.047217,   0.192163,   0.215432,   0.000000,   904.200745,   0.533950,   22.811810,   33.992435,   272.115509,   903.317383,   -23.629581,   0.487523,   803.677551,   688.801331
-0.046237,   0.191574,   0.215052,   0.000000,   904.799438,   0.533950,   22.811810,   33.322090,   275.676178,   904.157898,   -20.090027,   0.489516,   803.402039,   684.790955
-0.045412,   0.191070,   0.214725,   0.000000,   905.286316,   0.533951,   22.811810,   32.651741,   278.689880,   904.845276,   -16.624382,   0.491198,   803.163086,   681.325623
-0.044739,   0.190652,   0.214453,   0.000000,   905.671326,   0.533951,   22.811810,   31.981392,   281.157013,   905.391418,   -13.221992,   0.492571,   802.963379,   678.439270
-0.044218,   0.190325,   0.214239,   0.000000,   905.962402,   0.533951,   22.811810,   31.311045,   283.076752,   905.805969,   -9.870871,   0.493637,   802.805420,   676.161987
-0.043846,   0.190090,   0.214085,   0.000000,   906.165771,   0.533950,   22.811810,   30.640696,   284.448212,   906.096558,   -6.558777,   0.494397,   802.691223,   674.517944
-0.043623,   0.189948,   0.213991,   0.000000,   906.285950,   0.533951,   22.811810,   29.970348,   285.271240,   906.268677,   -3.272801,   0.494853,   802.622192,   673.524536
-0.043549,   0.189901,   0.213960,   0.000000,   906.325684,   0.533951,   22.811810,   29.299999,   285.545624,   906.325684,   0.000001,   0.495005,   802.599060,   673.192139
-0.043623,   0.189948,   0.213991,   0.000000,   906.285950,   0.533951,   22.811810,   28.629652,   285.271271,   906.268677,   3.272802,   0.494853,   802.622192,   673.524536
-0.043846,   0.190090,   0.214085,   0.000000,   906.165771,   0.533950,   22.811810,   27.959303,   284.448212,   906.096558,   6.558777,   0.494397,   802.691223,   674.517944
-0.044218,   0.190325,   0.214239,   0.000000,   905.962402,   0.533951,   22.811810,   27.288956,   283.076721,   905.805969,   9.870868,   0.493637,   802.805420,   676.161987
-0.044739,   0.190652,   0.214453,   0.000000,   905.671326,   0.533951,   22.811810,   26.618608,   281.157104,   905.391418,   13.222001,   0.492571,   802.963379,   678.439026
-0.045412,   0.191070,   0.214725,   0.000000,   905.286316,   0.533951,   22.811810,   25.948259,   278.689850,   904.845276,   16.624382,   0.491198,   803.163086,   681.325623
-0.046237,   0.191574,   0.215052,   0.000000,   904.799438,   0.533951,   22.811810,   25.277912,   275.676117,   904.157898,   20.090025,   0.489516,   803.402100,   684.791199
-0.047217,   0.192163,   0.215432,   0.000000,   904.200745,   0.533951,   22.811810,   24.607563,   272.115540,   903.317383,   23.629599,   0.487523,   803.677551,   688.801392
-0.048353,   0.192832,   0.215861,   0.000000,   903.477905,   0.533951,   22.811810,   23.937216,   268.004730,   902.309204,   27.252392,   0.485213,   803.985962,   693.319824
-0.049648,   0.193577,   0.216335,   0.000000,   902.617798,   0.533951,   22.811810,   23.266867,   263.343048,   901.117737,   30.966894,   0.482584,   804.323608,   698.303223
-0.051105,   0.194394,   0.216850,   0.000000,   901.605347,   0.533950,   22.811810,   22.596519,   258.128967,   899.725525,   34.779438,   0.479630,   804.686401,   703.705383
-0.052726,   0.195276,   0.217402,   0.000000,   900.423645,   0.533951,   22.811810,   21.926172,   252.359329,   898.113342,   38.693890,   0.476345,   805.069641,   709.476990
-0.054514,   0.196219,   0.217986,   0.000000,   899.054260,   0.533951,   22.811810,   21.255823,   246.029907,   896.260559,   42.712311,   0.472723,   805.468750,   715.567200
-0.056472,   0.197215,   0.218598,   0.000000,   897.476501,   0.533951,   22.811810,   20.585474,   239.133041,   894.144592,   46.835064,   0.468755,   805.878479,   721.924866
-0.058603,   0.198259,   0.219234,   0.000000,   895.667725,   0.533950,   22.811810,   19.915127,   231.658508,   891.741333,   51.060276,   0.464429,   806.294128,   728.497437
-0.060911,   0.199343,   0.219888,   0.000000,   893.603210,   0.533951,   22.811810,   19.244780,   223.593262,   889.024963,   55.384628,   0.459735,   806.710388,   735.232056
-0.063399,   0.200461,   0.220558,   0.000000,   891.255615,   0.533951,   22.811810,   18.574430,   214.919693,   885.967957,   59.801647,   0.454655,   807.122314,   742.074463
-0.066070,   0.201606,   0.221242,   0.000000,   888.595642,   0.533951,   22.811810,   17.904083,   205.617386,   882.541138,   64.304832,   0.449174,   807.525208,   748.969910
-0.068930,   0.202773,   0.221938,   0.000000,   885.591492,   0.533951,   22.811810,   17.233734,   195.661545,   878.713135,   68.888298,   0.443271,   807.914978,   755.861816
-0.071981,   0.203957,   0.222647,   0.000000,   882.213623,   0.533951,   22.811810,   16.563387,   185.035431,   874.456360,   73.540535,   0.436928,   808.289062,   762.685974
-0.075229,   0.205155,   0.223373,   0.000000,   878.424255,   0.533951,   22.811810,   15.893039,   173.701355,   869.737793,   78.240303,   0.430119,   808.644531,   769.382874
-0.078678,   0.206363,   0.224121,   0.000000,   874.186401,   0.533950,   22.811810,   15.222691,   161.628983,   864.523376,   82.978661,   0.422817,   808.980164,   775.886292
-0.082335,   0.207583,   0.224902,   0.000000,   869.461609,   0.533950,   22.811810,   14.552342,   148.781372,   858.782593,   87.727837,   0.414996,   809.296692,   782.124939
-0.086202,   0.208826,   0.225738,   0.000000,   864.267639,   0.533951,   22.811810,   13.881994,   135.251663,   852.526611,   92.517120,   0.406689,   809.609314,   787.994690
-0.090307,   0.210098,   0.226644,   0.000000,   858.494812,   0.533950,   22.811810,   13.211646,   120.822342,   845.678040,   97.234573,   0.397780,   809.911255,   793.466492
-0.094659,   0.211398,   0.227631,   0.000000,   852.123901,   0.533951,   22.811810,   12.541299,   105.529839,   838.223999,   101.870361,   0.388278,   810.204407,   798.422302
-0.099269,   0.212721,   0.228709,   0.000000,   845.041992,   0.533951,   22.811810,   11.870951,   89.196983,   830.088318,   106.313881,   0.378085,   810.474731,   802.770752
-0.104141,   0.214075,   0.229900,   0.000000,   837.295532,   0.533951,   22.811810,   11.200602,   72.006187,   821.304382,   110.624763,   0.367282,   810.740601,   806.369629
-0.109301,   0.215473,   0.231236,   0.000000,   828.806396,   0.533950,   22.811810,   10.530254,   53.833191,   811.842224,   114.659393,   0.355805,   811.000671,   809.111816
-0.114755,   0.216910,   0.232730,   0.000000,   819.513916,   0.533951,   22.811810,   9.859906,   34.638309,   801.667725,   118.351349,   0.343629,   811.248169,   810.857056
-0.109557,   0.208949,   0.224684,   0.000000,   816.021667,   0.534530,   23.803621,   48.912712,   44.846191,   786.841675,   -150.009674,   0.342977,   808.302429,   807.960754
-0.103827,   0.206211,   0.221718,   0.000000,   823.126465,   0.534527,   23.803621,   48.236412,   61.417965,   795.607544,   -144.780518,   0.354123,   806.711304,   805.106445
-0.098464,   0.203619,   0.219013,   0.000000,   829.566040,   0.534530,   23.803621,   47.560112,   76.936890,   803.847168,   -139.128647,   0.364632,   805.179749,   801.502319
-0.093454,   0.201177,   0.216561,   0.000000,   835.466431,   0.534528,   23.803621,   46.883808,   91.636543,   811.569580,   -133.323593,   0.374584,   803.740417,   797.280151
-0.088713,   0.198842,   0.214303,   0.000000,   840.967163,   0.534528,   23.803621,   46.207512,   105.839767,   818.867126,   -127.461174,   0.384151,   802.381287,   792.460876
-0.084315,   0.196595,   0.212193,   0.000000,   845.849609,   0.534530,   23.803621,   45.531208,   119.042435,   825.556763,   -121.445312,   0.393066,   801.052856,   787.184326
-0.080186,   0.194441,   0.210231,   0.000000,   850.282654,   0.534528,   23.803621,   44.854908,   131.557968,   831.756226,   -115.392441,   0.401491,   799.779968,   781.506836
-0.076350,   0.192380,   0.208399,   0.000000,   854.217834,   0.534527,   23.803621,   44.178608,   143.221497,   837.401978,   -109.343643,   0.409333,   798.554077,   775.565430
-0.072711,   0.190400,   0.206691,   0.000000,   857.847717,   0.534530,   23.803621,   43.502308,   154.457443,   842.643127,   -103.415428,   0.416817,   797.393433,   769.320618
-0.069311,   0.188498,   0.205083,   0.000000,   861.100525,   0.534528,   23.803621,   42.826008,   165.053864,   847.429321,   -97.548920,   0.423841,   796.275818,   762.885986
-0.066142,   0.186683,   0.203578,   0.000000,   864.017639,   0.534528,   23.803621,   42.149708,   175.043396,   851.796326,   -91.761482,   0.430428,   795.208374,   756.327637
-0.063196,   0.184958,   0.202172,   0.000000,   866.621033,   0.534530,   23.803621,   41.473408,   184.422333,   855.764404,   -86.060425,   0.436581,   794.192322,   749.717407
-0.060460,   0.183324,   0.200862,   0.000000,   868.958740,   0.534527,   23.803621,   40.797108,   193.266403,   859.377869,   -80.459511,   0.442345,   793.230469,   743.084290
-0.057929,   0.181782,   0.199641,   0.000000,   871.042603,   0.534530,   23.803621,   40.120808,   201.560760,   862.648499,   -74.964592,   0.447718,   792.320740,   736.493591
-0.055590,   0.180329,   0.198505,   0.000000,   872.895386,   0.534528,   23.803621,   39.444504,   209.321182,   865.600586,   -69.574722,   0.452715,   791.462646,   729.992432
-0.053438,   0.178968,   0.197451,   0.000000,   874.538574,   0.534528,   23.803621,   38.768208,   216.563446,   868.256226,   -64.293381,   0.457350,   790.656006,   723.625671
-0.051464,   0.177697,   0.196475,   0.000000,   875.992371,   0.534530,   23.803621,   38.091904,   223.302414,   870.636719,   -59.123371,   0.461635,   789.901062,   717.436035
-0.049661,   0.176517,   0.195575,   0.000000,   877.273254,   0.534527,   23.803621,   37.415604,   229.543533,   872.760925,   -54.062630,   0.465580,   789.198059,   711.468872
-0.048024,   0.175428,   0.194750,   0.000000,   878.397156,   0.534528,   23.803621,   36.739307,   235.292999,   874.646973,   -49.109653,   0.469192,   788.547485,   705.767517
-0.046548,   0.174432,   0.193999,   0.000000,   879.377808,   0.534530,   23.803621,   36.063004,   240.552063,   876.311157,   -44.261303,   0.472476,   787.950073,   700.376648
-0.045226,   0.173529,   0.193320,   0.000000,   880.228577,   0.534528,   23.803621,   35.386703,   245.323166,   877.769592,   -39.512501,   0.475439,   787.406738,   695.338196
-0.044056,   0.172720,   0.192715,   0.000000,   880.960632,   0.534530,   23.803621,   34.710403,   249.604111,   879.036072,   -34.857784,   0.478084,   786.918518,   690.695251
-0.043033,   0.172005,   0.192182,   0.000000,   881.583679,   0.534528,   23.803621,   34.034103,   253.392517,   880.123108,   -30.290850,   0.480413,   786.486145,   686.488342
-0.042153,   0.171386,   0.191721,   0.000000,   882.106689,   0.534527,   23.803621,   33.357803,   256.685516,   881.041931,   -25.805281,   0.482429,   786.110291,   682.755920
-0.041414,   0.170861,   0.191331,   0.000000,   882.536194,   0.534530,   23.803621,   32.681503,   259.477020,   881.801758,   -21.391710,   0.484131,   785.791443,   679.534912
-0.040813,   0.170432,   0.191013,   0.000000,   882.878479,   0.534528,   23.803621,   32.005203,   261.763519,   882.411072,   -17.038576,   0.485521,   785.529968,   676.857117
-0.040348,   0.170099,   0.190766,   0.000000,   883.139160,   0.534529,   23.803621,   31.328901,   263.544128,   882.877441,   -12.734887,   0.486601,   785.326294,   674.746704
-0.040017,   0.169860,   0.190590,   0.000000,   883.322510,   0.534528,   23.803621,   30.652601,   264.817444,   883.206543,   -8.468730,   0.487371,   785.180664,   673.224182
-0.039819,   0.169717,   0.190485,   0.000000,   883.431274,   0.534529,   23.803621,   29.976301,   265.581879,   883.402344,   -4.228023,   0.487833,   785.093262,   672.304565
-0.039753,   0.169669,   0.190449,   0.000000,   883.467346,   0.534528,   23.803621,   29.300001,   265.836761,   883.467346,   0.000001,   0.487987,   785.064087,   671.997192
-0.039819,   0.169717,   0.190485,   0.000000,   883.431274,   0.534529,   23.803621,   28.623699,   265.581879,   883.402344,   4.228022,   0.487833,   785.093262,   672.304565
-0.040017,   0.169860,   0.190590,   0.000000,   883.322510,   0.534528,   23.803621,   27.947399,   264.817474,   883.206543,   8.468733,   0.487372,   785.180664,   673.224121
-0.040348,   0.170099,   0.190766,   0.000000,   883.139160,   0.534528,   23.803621,   27.271099,   263.544098,   882.877441,   12.734884,   0.486601,   785.326294,   674.746826
-0.040813,   0.170432,   0.191013,   0.000000,   882.878479,   0.534529,   23.803621,   26.594799,   261.763458,   882.411072,   17.038574,   0.485521,   785.529968,   676.857117
-0.041414,   0.170861,   0.191331,   0.000000,   882.536194,   0.534529,   23.803621,   25.918497,   259.477051,   881.801758,   21.391714,   0.484131,   785.791443,   679.534912
-0.042153,   0.171386,   0.191721,   0.000000,   882.106689,   0.534528,   23.803621,   25.242197,   256.685547,   881.041931,   25.805281,   0.482429,   786.110291,   682.755676
-0.043033,   0.172005,   0.192182,   0.000000,   881.583618,   0.534529,   23.803621,   24.565897,   253.392471,   880.123047,   30.290854,   0.480413,   786.486084,   686.488342
-0.044056,   0.172720,   0.192715,   0.000000,   880.960571,   0.534528,   23.803621,   23.889597,   249.604095,   879.036011,   34.857788,   0.478084,   786.918457,   690.695129
-0.045226,   0.173529,   0.193320,   0.000000,   880.228577,   0.534529,   23.803621,   23.213297,   245.323120,   877.769592,   39.512493,   0.475439,   787.406799,   695.338196
-0.046548,   0.174432,   0.193999,   0.000000,   879.377808,   0.534528,   23.803621,   22.536997,   240.552155,   876.311157,   44.261322,   0.472476,   787.950073,   700.376648
-0.048024,   0.175428,   0.194750,   0.000000,   878.397095,   0.534528,   23.803621,   21.860695,   235.292908,   874.646912,   49.109631,   0.469192,   788.547424,   705.767456
-0.049661,   0.176517,   0.195575,   0.000000,   877.273254,   0.534529,   23.803621,   21.184395,   229.543579,   872.760925,   54.062649,   0.465580,   789.197998,   711.468872
-0.051464,   0.177697,   0.196475,   0.000000,   875.992371,   0.534529,   23.803621,   20.508095,   223.302444,   870.636719,   59.123386,   0.461636,   789.901062,   717.435913
-0.053438,   0.178968,   0.197451,   0.000000,   874.538574,   0.534528,   23.803621,   19.831795,   216.563416,   868.256226,   64.293381,   0.457350,   790.656006,   723.625732
-0.055590,   0.180329,   0.198505,   0.000000,   872.895325,   0.534529,   23.803621,   19.155495,   209.321152,   865.600525,   69.574722,   0.452715,   791.462585,   729.992371
-0.057928,   0.181782,   0.199641,   0.000000,   871.042603,   0.534528,   23.803621,   18.479193,   201.560791,   862.648499,   74.964607,   0.447718,   792.320740,   736.493591
-0.060460,   0.183324,   0.200862,   0.000000,   868.958740,   0.534529,   23.803621,   17.802893,   193.266464,   859.377869,   80.459534,   0.442345,   793.230408,   743.084412
-0.063196,   0.184958,   0.202172,   0.000000,   866.621094,   0.534528,   23.803621,   17.126593,   184.422440,   855.764404,   86.060440,   0.436581,   794.192261,   749.717224
-0.066142,   0.186683,   0.203578,   0.000000,   864.017578,   0.534528,   23.803621,   16.450293,   175.043320,   851.796265,   91.761444,   0.430428,   795.208374,   756.327515
-0.069311,   0.188498,   0.205083,   0.000000,   861.100525,   0.534529,   23.803621,   15.773993,   165.053864,   847.429321,   97.548920,   0.423841,   796.275818,   762.885986
-0.072711,   0.190400,   0.206691,   0.000000,   857.847717,   0.534528,   23.803621,   15.097692,   154.457565,   842.643127,   103.415436,   0.416817,   797.393372,   769.320435
-0.076350,   0.192380,   0.208399,   0.000000,   854.217957,   0.534528,   23.803621,   14.421391,   143.221634,   837.402039,   109.343651,   0.409333,   798.554077,   775.565430
-0.080186,   0.194441,   0.210231,   0.000000,   850.282715,   0.534529,   23.803621,   13.745091,   131.558014,   831.756287,   115.392441,   0.401491,   799.780029,   781.506897
-0.084315,   0.196595,   0.212193,   0.000000,   845.849670,   0.534528,   23.803621,   13.068790,   119.042610,   825.556824,   121.445335,   0.393066,   801.052856,   787.184265
-0.088713,   0.198842,   0.214303,   0.000000,   840.967224,   0.534529,   23.803621,   12.392490,   105.839867,   818.867188,   127.461189,   0.384151,   802.381348,   792.460876
-0.093454,   0.201177,   0.216561,   0.000000,   835.466492,   0.534528,   23.803621,   11.716190,   91.636658,   811.569641,   133.323639,   0.374585,   803.740417,   797.280090
-0.098464,   0.203619,   0.219013,   0.000000,   829.566223,   0.534529,   23.803621,   11.039889,   76.937065,   803.847290,   139.128769,   0.364633,   805.179871,   801.502441
-0.103827,   0.206211,   0.221718,   0.000000,   823.126526,   0.534528,   23.803621,   10.363589,   61.418037,   795.607544,   144.780731,   0.354123,   806.711365,   805.106567
-0.109558,   0.208949,   0.224684,   0.000000,   816.021729,   0.534529,   23.803621,   9.687288,   44.846165,   786.841614,   150.009933,   0.342977,   808.302551,   807.960815
-0.101890,   0.196426,   0.211717,   0.000000,   808.486694,   0.535148,   24.786791,   49.127861,   55.733696,   765.808777,   -179.237106,   0.341439,   802.038513,   801.799377
-0.096060,   0.192605,   0.207505,   0.000000,   813.476074,   0.535147,   24.786791,   48.444141,   69.583946,   773.396851,   -172.669037,   0.351623,   799.132263,   797.905457
-0.090713,   0.189025,   0.203644,   0.000000,   817.979919,   0.535148,   24.786791,   47.760422,   82.471275,   780.701172,   -165.586334,   0.361305,   796.345947,   793.453125
-0.085754,   0.185698,   0.200138,   0.000000,   822.205627,   0.535148,   24.786791,   47.076702,   94.847443,   787.721313,   -158.374329,   0.370634,   793.747314,   788.558533
-0.080955,   0.182589,   0.196962,   0.000000,   826.326477,   0.535148,   24.786791,   46.392986,   107.100594,   794.562988,   -151.145981,   0.379799,   791.352051,   783.223022
-0.076654,   0.179684,   0.194044,   0.000000,   829.984924,   0.535148,   24.786791,   45.709267,   118.517586,   800.864197,   -143.939056,   0.388370,   789.093628,   777.578369
-0.072662,   0.176956,   0.191360,   0.000000,   833.314575,   0.535148,   24.786791,   45.025547,   129.352203,   806.748535,   -136.753433,   0.396499,   786.972046,   771.653625
-0.069078,   0.174406,   0.188883,   0.000000,   836.247498,   0.535147,   24.786791,   44.341827,   139.414261,   812.152344,   -129.577469,   0.404079,   784.966980,   765.561035
-0.065630,   0.172032,   0.186646,   0.000000,   839.044006,   0.535148,   24.786791,   43.658108,   149.211472,   817.293579,   -122.491432,   0.411384,   783.132019,   759.267761
-0.062440,   0.169822,   0.184604,   0.000000,   841.602234,   0.535148,   24.786791,   42.974388,   158.528076,   822.069397,   -115.509270,   0.418291,   781.431580,   752.862549
-0.059491,   0.167768,   0.182743,   0.000000,   843.937439,   0.535150,   24.786791,   42.290668,   167.371155,   826.491577,   -108.642906,   0.424804,   779.859253,   746.395386
-0.056783,   0.165868,   0.181051,   0.000000,   846.039551,   0.535148,   24.786791,   41.606945,   175.672836,   830.545410,   -101.915337,   0.430886,   778.410278,   739.954895
-0.054282,   0.164120,   0.179524,   0.000000,   847.981567,   0.535147,   24.786791,   40.923229,   183.576187,   834.307922,   -95.314400,   0.436623,   777.087769,   733.530518
-0.051988,   0.162514,   0.178147,   0.000000,   849.746704,   0.535148,   24.786791,   40.239510,   191.015839,   837.761292,   -88.854607,   0.441983,   775.880676,   727.196228
-0.049886,   0.161039,   0.176903,   0.000000,   851.339539,   0.535148,   24.786791,   39.555790,   197.982620,   840.914978,   -82.528648,   0.446965,   774.778381,   720.997314
-0.047964,   0.159688,   0.175780,   0.000000,   852.778625,   0.535148,   24.786791,   38.872070,   204.503250,   843.790771,   -76.332214,   0.451594,   773.774048,   714.960876
-0.046212,   0.158455,   0.174770,   0.000000,   854.071655,   0.535148,   24.786791,   38.188351,   210.573669,   846.398621,   -70.267990,   0.455869,   772.861816,   709.131470
-0.044621,   0.157332,   0.173862,   0.000000,   855.228210,   0.535147,   24.786791,   37.504631,   216.195099,   848.753113,   -64.325607,   0.459801,   772.035767,   703.546326
-0.043182,   0.156315,   0.173051,   0.000000,   856.259460,   0.535148,   24.786791,   36.820915,   221.376541,   850.868347,   -58.504150,   0.463398,   771.291382,   698.238831
-0.041890,   0.155400,   0.172329,   0.000000,   857.173584,   0.535148,   24.786791,   36.137192,   226.117828,   852.756653,   -52.795330,   0.466667,   770.624268,   693.244141
-0.040738,   0.154583,   0.171690,   0.000000,   857.978210,   0.535148,   24.786791,   35.453476,   230.418427,   854.429382,   -47.192207,   0.469612,   770.030701,   688.597900
-0.039721,   0.153860,   0.171130,   0.000000,   858.680969,   0.535148,   24.786791,   34.769756,   234.279877,   855.897949,   -41.686192,   0.472240,   769.507568,   684.331116
-0.038834,   0.153229,   0.170646,   0.000000,   859.287598,   0.535148,   24.786791,   34.086037,   237.698639,   857.171448,   -36.268330,   0.474554,   769.052185,   680.477112
-0.038073,   0.152687,   0.170232,   0.000000,   859.810425,   0.535147,   24.786791,   33.402317,   240.670593,   858.265198,   -30.930555,   0.476553,   768.669250,   677.075806
-0.037434,   0.152232,   0.169888,   0.000000,   860.239136,   0.535148,   24.786791,   32.718597,   243.193878,   859.171814,   -25.662977,   0.478244,   768.342346,   674.137329
-0.036916,   0.151863,   0.169610,   0.000000,   860.585754,   0.535148,   24.786791,   32.034878,   245.265915,   859.905762,   -20.455530,   0.479627,   768.077454,   671.695251
-0.036516,   0.151577,   0.169396,   0.000000,   860.852478,   0.535148,   24.786791,   31.351158,   246.880829,   860.471313,   -15.297573,   0.480701,   767.873169,   669.772766
-0.036231,   0.151374,   0.169244,   0.000000,   861.041260,   0.535147,   24.786791,   30.667439,   248.035873,   860.872314,   -10.177306,   0.481467,   767.728149,   668.387573
-0.036061,   0.151253,   0.169154,   0.000000,   861.153992,   0.535149,   24.786791,   29.983719,   248.729752,   861.111816,   -5.082184,   0.481927,   767.641418,   667.551453
-0.036004,   0.151212,   0.169124,   0.000000,   861.191406,   0.535147,   24.786791,   29.299999,   248.961075,   861.191406,   0.000002,   0.482080,   767.612610,   667.271851
-0.036061,   0.151253,   0.169154,   0.000000,   861.153931,   0.535148,   24.786791,   28.616280,   248.729706,   861.111755,   5.082184,   0.481927,   767.641418,   667.551392
-0.036231,   0.151374,   0.169244,   0.000000,   861.041199,   0.535148,   24.786791,   27.932560,   248.035828,   860.872253,   10.177304,   0.481467,   767.728088,   668.387634
-0.036516,   0.151577,   0.169396,   0.000000,   860.852478,   0.535147,   24.786791,   27.248842,   246.880875,   860.471313,   15.297574,   0.480701,   767.873169,   669.772827
-0.036916,   0.151863,   0.169610,   0.000000,   860.585754,   0.535148,   24.786791,   26.565123,   245.265900,   859.905762,   20.455526,   0.479627,   768.077454,   671.695251
-0.037434,   0.152232,   0.169888,   0.000000,   860.239136,   0.535148,   24.786791,   25.881403,   243.193878,   859.171814,   25.662979,   0.478244,   768.342346,   674.137329
-0.038073,   0.152687,   0.170232,   0.000000,   859.810364,   0.535147,   24.786791,   25.197683,   240.670563,   858.265137,   30.930548,   0.476553,   768.669189,   677.075806
-0.038834,   0.153229,   0.170646,   0.000000,   859.287598,   0.535148,   24.786791,   24.513964,   237.698639,   857.171448,   36.268330,   0.474554,   769.052185,   680.477112
-0.039721,   0.153860,   0.171130,   0.000000,   858.680969,   0.535147,   24.786791,   23.830246,   234.279907,   855.897949,   41.686199,   0.472240,   769.507568,   684.331116
-0.040738,   0.154583,   0.171690,   0.000000,   857.978149,   0.535148,   24.786791,   23.146526,   230.418411,   854.429321,   47.192196,   0.469612,   770.030640,   688.597778
-0.041890,   0.155400,   0.172329,   0.000000,   857.173523,   0.535148,   24.786791,   22.462807,   226.117844,   852.756592,   52.795330,   0.466667,   770.624207,   693.244263
-0.043182,   0.156315,   0.173051,   0.000000,   856.259460,   0.535148,   24.786791,   21.779087,   221.376633,   850.868347,   58.504154,   0.463398,   771.291382,   698.238647
-0.044621,   0.157332,   0.173862,   0.000000,   855.228088,   0.535148,   24.786791,   21.095367,   216.194992,   848.753052,   64.325577,   0.459801,   772.035767,   703.546509
-0.046212,   0.158455,   0.174770,   0.000000,   854.071655,   0.535148,   24.786791,   20.411648,   210.573654,   846.398621,   70.268005,   0.455869,   772.861816,   709.131409
-0.047964,   0.159688,   0.175780,   0.000000,   852.778625,   0.535147,   24.786791,   19.727928,   204.503281,   843.790771,   76.332214,   0.451594,   773.774048,   714.960876
-0.049886,   0.161039,   0.176903,   0.000000,   851.339539,   0.535148,   24.786791,   19.044209,   197.982605,   840.914978,   82.528633,   0.446966,   774.778320,   720.997314
-0.051988,   0.162514,   0.178147,   0.000000,   849.746704,   0.535147,   24.786791,   18.360491,   191.015900,   837.761292,   88.854622,   0.441983,   775.880615,   727.196106
-0.054282,   0.164120,   0.179524,   0.000000,   847.981506,   0.535148,   24.786791,   17.676771,   183.576096,   834.307861,   95.314369,   0.436623,   777.087708,   733.530579
-0.056783,   0.165868,   0.181051,   0.000000,   846.039490,   0.535148,   24.786791,   16.993052,   175.672867,   830.545349,   101.915367,   0.430886,   778.410217,   739.954956
-0.059491,   0.167768,   0.182742,   0.000000,   843.937439,   0.535147,   24.786791,   16.309332,   167.371140,   826.491577,   108.642868,   0.424804,   779.859192,   746.395325
-0.062440,   0.169822,   0.184604,   0.000000,   841.602295,   0.535149,   24.786791,   15.625613,   158.528152,   822.069458,   115.509239,   0.418291,   781.431641,   752.862488
-0.065630,   0.172032,   0.186646,   0.000000,   839.044006,   0.535148,   24.786791,   14.941894,   149.211578,   817.293579,   122.491432,   0.411385,   783.132019,   759.267822
-0.069078,   0.174406,   0.188883,   0.000000,   836.247498,   0.535148,   24.786791,   14.258174,   139.414230,   812.152344,   129.577438,   0.404079,   784.966919,   765.561035
-0.072662,   0.176956,   0.191360,   0.000000,   833.314575,   0.535148,   24.786791,   13.574455,   129.352219,   806.748535,   136.753433,   0.396499,   786.972046,   771.653503
-0.076654,   0.179684,   0.194044,   0.000000,   829.984985,   0.535148,   24.786791,   12.890736,   118.517647,   800.864197,   143.939117,   0.388370,   789.093628,   777.578430
-0.080955,   0.182589,   0.196962,   0.000000,   826.326416,   0.535148,   24.786791,   12.207016,   107.100632,   794.562927,   151.146042,   0.379799,   791.351990,   783.223022
-0.085754,   0.185698,   0.200138,   0.000000,   822.205505,   0.535148,   24.786791,   11.523296,   94.847427,   787.721191,   158.374420,   0.370634,   793.747253,   788.558411
-0.090713,   0.189025,   0.203644,   0.000000,   817.979858,   0.535148,   24.786791,   10.839578,   82.471222,   780.701050,   165.586456,   0.361305,   796.345947,   793.453125
-0.096060,   0.192605,   0.207505,   0.000000,   813.475891,   0.535148,   24.786791,   10.155858,   69.583778,   773.396667,   172.669128,   0.351623,   799.132202,   797.905334
-0.101890,   0.196426,   0.211717,   0.000000,   808.486572,   0.535148,   24.786791,   9.472138,   55.733597,   765.808533,   179.237320,   0.341439,   802.038513,   801.799377
-0.092274,   0.180068,   0.194542,   0.000000,   797.340820,   0.535738,   25.759434,   49.385132,   68.009407,   739.347473,   -205.660782,   0.339634,   792.380249,   792.237793
-0.086437,   0.175497,   0.189450,   0.000000,   800.568359,   0.535738,   25.759434,   48.692539,   79.436089,   746.362366,   -197.711151,   0.349209,   788.256226,   787.346985
-0.081260,   0.171297,   0.184835,   0.000000,   803.524841,   0.535738,   25.759434,   47.999950,   90.125565,   753.213562,   -189.451935,   0.358391,   784.375916,   782.097595
-0.076501,   0.167427,   0.180654,   0.000000,   806.350586,   0.535738,   25.759434,   47.307358,   100.438049,   759.893738,   -181.092438,   0.367305,   780.760803,   776.545654
-0.072112,   0.163931,   0.176954,   0.000000,   809.114868,   0.535738,   25.759434,   46.614769,   110.408218,   766.415833,   -172.725540,   0.375928,   777.474731,   770.799500
-0.068148,   0.160810,   0.173713,   0.000000,   811.802063,   0.535738,   25.759434,   45.922176,   119.986916,   772.725769,   -164.418854,   0.384199,   774.522888,   764.928101
-0.064512,   0.157998,   0.170852,   0.000000,   814.405945,   0.535738,   25.759434,   45.229588,   129.230942,   778.817505,   -156.154831,   0.392149,   771.856873,   758.919189
-0.061181,   0.155413,   0.168266,   0.000000,   816.851013,   0.535738,   25.759434,   44.536995,   138.105652,   784.615173,   -147.918655,   0.399758,   769.398560,   752.749451
-0.058079,   0.153025,   0.165924,   0.000000,   819.135864,   0.535738,   25.759434,   43.844406,   146.628357,   790.086487,   -139.770920,   0.407019,   767.134399,   746.457520
-0.055234,   0.150852,   0.163836,   0.000000,   821.270752,   0.535738,   25.759434,   43.151814,   154.754562,   795.218506,   -131.773453,   0.413887,   765.082031,   740.137390
-0.052622,   0.148877,   0.161975,   0.000000,   823.258789,   0.535739,   25.759434,   42.459225,   162.484222,   800.016602,   -123.926842,   0.420366,   763.224182,   733.826782
-0.050266,   0.147080,   0.160306,   0.000000,   825.066589,   0.535737,   25.759434,   41.766632,   169.741516,   804.450073,   -116.234779,   0.426416,   761.534729,   727.588196
-0.048066,   0.145456,   0.158838,   0.000000,   826.794128,   0.535738,   25.759434,   41.074043,   176.710373,   808.629578,   -108.666801,   0.432151,   760.026672,   721.398804
-0.046056,   0.143992,   0.157544,   0.000000,   828.399292,   0.535738,   25.759434,   40.381451,   183.296463,   812.497437,   -101.283401,   0.437511,   758.680908,   715.339111
-0.044229,   0.142674,   0.156402,   0.000000,   829.869019,   0.535738,   25.759434,   39.688862,   189.461594,   816.048157,   -94.079628,   0.442481,   757.478333,   709.457947
-0.042567,   0.141493,   0.155399,   0.000000,   831.239319,   0.535738,   25.759434,   38.996269,   195.261307,   819.330994,   -87.025551,   0.447104,   756.417175,   703.765381
-0.041060,   0.140435,   0.154520,   0.000000,   832.486084,   0.535738,   25.759434,   38.303680,   200.662460,   822.322876,   -80.133316,   0.451368,   755.470032,   698.297729
-0.039697,   0.139491,   0.153751,   0.000000,   833.622070,   0.535738,   25.759434,   37.611088,   205.668869,   825.047546,   -73.378426,   0.455284,   754.632141,   693.087280
-0.038471,   0.138651,   0.153080,   0.000000,   834.651245,   0.535738,   25.759434,   36.918499,   210.280823,   827.512024,   -66.764587,   0.458859,   753.894409,   688.165894
-0.037374,   0.137907,   0.152497,   0.000000,   835.575378,   0.535738,   25.759434,   36.225906,   214.490753,   829.725952,   -60.274193,   0.462095,   753.247559,   683.565063
-0.036399,   0.137253,   0.151993,   0.000000,   836.399719,   0.535738,   25.759434,   35.533318,   218.304123,   831.698669,   -53.904564,   0.465004,   752.684021,   679.309448
-0.035539,   0.136682,   0.151561,   0.000000,   837.128235,   0.535738,   25.759434,   34.840725,   221.722748,   833.439880,   -47.642921,   0.467592,   752.196777,   675.422241
-0.034792,   0.136189,   0.151193,   0.000000,   837.764343,   0.535738,   25.759434,   34.148136,   224.746445,   834.958069,   -41.476433,   0.469865,   751.779846,   671.926147
-0.034152,   0.135771,   0.150886,   0.000000,   838.311279,   0.535738,   25.759434,   33.455544,   227.375473,   836.261047,   -35.391773,   0.471829,   751.428406,   668.842529
-0.033616,   0.135423,   0.150633,   0.000000,   838.770996,   0.535738,   25.759434,   32.762955,   229.606949,   837.354187,   -29.378164,   0.473487,   751.138000,   666.192810
-0.033181,   0.135142,   0.150431,   0.000000,   839.144653,   0.535738,   25.759434,   32.070362,   231.436188,   838.241516,   -23.427044,   0.474839,   750.905151,   663.997986
-0.032845,   0.134926,   0.150277,   0.000000,   839.434143,   0.535738,   25.759434,   31.377773,   232.862839,   838.927795,   -17.525335,   0.475890,   750.727173,   662.272522
-0.032607,   0.134774,   0.150169,   0.000000,   839.640381,   0.535738,   25.759434,   30.685183,   233.883774,   839.415894,   -11.661771,   0.476640,   750.601685,   661.030273
-0.032464,   0.134683,   0.150105,   0.000000,   839.763794,   0.535739,   25.759434,   29.992590,   234.496735,   839.707764,   -5.824506,   0.477089,   750.527039,   660.281494
-0.032416,   0.134652,   0.150084,   0.000000,   839.804993,   0.535738,   25.759434,   29.299999,   234.701538,   839.804993,   0.000003,   0.477239,   750.502319,   660.030762
-0.032464,   0.134683,   0.150105,   0.000000,   839.763794,   0.535737,   25.759434,   28.607409,   234.496719,   839.707764,   5.824507,   0.477089,   750.527039,   660.281494
-0.032607,   0.134774,   0.150169,   0.000000,   839.640381,   0.535738,   25.759434,   27.914818,   233.883774,   839.415894,   11.661766,   0.476640,   750.601685,   661.030273
-0.032845,   0.134926,   0.150277,   0.000000,   839.434143,   0.535738,   25.759434,   27.222227,   232.862839,   838.927795,   17.525331,   0.475890,   750.727173,   662.272522
-0.033181,   0.135142,   0.150431,   0.000000,   839.144653,   0.535738,   25.759434,   26.529636,   231.436188,   838.241516,   23.427036,   0.474839,   750.905151,   663.997986
-0.033616,   0.135423,   0.150633,   0.000000,   838.770996,   0.535738,   25.759434,   25.837046,   229.606964,   837.354187,   29.378160,   0.473487,   751.138000,   666.192810
-0.034152,   0.135771,   0.150885,   0.000000,   838.311279,   0.535738,   25.759434,   25.144455,   227.375473,   836.261047,   35.391762,   0.471829,   751.428406,   668.842529
-0.034792,   0.136189,   0.151193,   0.000000,   837.764343,   0.535738,   25.759434,   24.451864,   224.746445,   834.958069,   41.476425,   0.469865,   751.779846,   671.926147
-0.035539,   0.136682,   0.151561,   0.000000,   837.128235,   0.535738,   25.759434,   23.759274,   221.722763,   833.439880,   47.642918,   0.467592,   752.196777,   675.422241
-0.036399,   0.137253,   0.151993,   0.000000,   836.399719,   0.535738,   25.759434,   23.066683,   218.304138,   831.698669,   53.904560,   0.465004,   752.684021,   679.309448
-0.037374,   0.137907,   0.152497,   0.000000,   835.575378,   0.535738,   25.759434,   22.374092,   214.490753,   829.725952,   60.274189,   0.462095,   753.247559,   683.565063
-0.038471,   0.138651,   0.153080,   0.000000,   834.651245,   0.535739,   25.759434,   21.681501,   210.280777,   827.512024,   66.764572,   0.458859,   753.894470,   688.165894
-0.039697,   0.139491,   0.153751,   0.000000,   833.622009,   0.535738,   25.759434,   20.988911,   205.668854,   825.047485,   73.378403,   0.455284,   754.632080,   693.087280
-0.041060,   0.140435,   0.154520,   0.000000,   832.486084,   0.535738,   25.759434,   20.296320,   200.662476,   822.322876,   80.133324,   0.451368,   755.470032,   698.297729
-0.042567,   0.141493,   0.155399,   0.000000,   831.239319,   0.535737,   25.759434,   19.603729,   195.261261,   819.330994,   87.025528,   0.447104,   756.417175,   703.765381
-0.044229,   0.142674,   0.156402,   0.000000,   829.868958,   0.535738,   25.759434,   18.911140,   189.461609,   816.048096,   94.079605,   0.442481,   757.478271,   709.457886
-0.046056,   0.143992,   0.157544,   0.000000,   828.399231,   0.535738,   25.759434,   18.218550,   183.296494,   812.497375,   101.283394,   0.437511,   758.680847,   715.338989
-0.048066,   0.145456,   0.158838,   0.000000,   826.794128,   0.535738,   25.759434,   17.525959,   176.710373,   808.629578,   108.666748,   0.432151,   760.026672,   721.398804
-0.050266,   0.147080,   0.160306,   0.000000,   825.066589,   0.535738,   25.759434,   16.833368,   169.741623,   804.450073,   116.234779,   0.426416,   761.534668,   727.588135
-0.052622,   0.148877,   0.161974,   0.000000,   823.258850,   0.535738,   25.759434,   16.140778,   162.484329,   800.016663,   123.926857,   0.420366,   763.224243,   733.826904
-0.055234,   0.150852,   0.163836,   0.000000,   821.270691,   0.535738,   25.759434,   15.448186,   154.754532,   795.218445,   131.773453,   0.413887,   765.081970,   740.137390
-0.058079,   0.153025,   0.165924,   0.000000,   819.135803,   0.535738,   25.759434,   14.755594,   146.628342,   790.086426,   139.770935,   0.407019,   767.134399,   746.457458
-0.061181,   0.155413,   0.168266,   0.000000,   816.851013,   0.535738,   25.759434,   14.063004,   138.105621,   784.615173,   147.918655,   0.399758,   769.398560,   752.749390
-0.064512,   0.157998,   0.170852,   0.000000,   814.405945,   0.535738,   25.759434,   13.370413,   129.230911,   778.817444,   156.154877,   0.392149,   771.856812,   758.919312
-0.068148,   0.160810,   0.173713,   0.000000,   811.801941,   0.535738,   25.759434,   12.677823,   119.986870,   772.725647,   164.418930,   0.384199,   774.522827,   764.928101
-0.072112,   0.163931,   0.176954,   0.000000,   809.114807,   0.535738,   25.759434,   11.985232,   110.408165,   766.415710,   172.725616,   0.375928,   777.474670,   770.799500
-0.076501,   0.167427,   0.180654,   0.000000,   806.350525,   0.535738,   25.759434,   11.292642,   100.438011,   759.893616,   181.092529,   0.367305,   780.760803,   776.545654
-0.081260,   0.171297,   0.184835,   0.000000,   803.524780,   0.535738,   25.759434,   10.600051,   90.125549,   753.213440,   189.452026,   0.358391,   784.375854,   782.097534
-0.086437,   0.175497,   0.189450,   0.000000,   800.568298,   0.535738,   25.759434,   9.907460,   79.436089,   746.362244,   197.711227,   0.349209,   788.256165,   787.346924
-0.092274,   0.180068,   0.194542,   0.000000,   797.340698,   0.535738,   25.759434,   9.214869,   68.009438,   739.347351,   205.660828,   0.339634,   792.380188,   792.237732
-0.081136,   0.161075,   0.174405,   0.000000,   783.497009,   0.536220,   26.719685,   49.684025,   82.919975,   708.574585,   -229.104584,   0.338450,   779.528992,   779.436707
-0.075803,   0.156207,   0.168908,   0.000000,   785.183655,   0.536219,   26.719685,   48.981129,   91.710320,   715.616211,   -219.643326,   0.347529,   774.349731,   773.636841
-0.071112,   0.152037,   0.164266,   0.000000,   787.064453,   0.536220,   26.719685,   48.278233,   100.145508,   722.675171,   -210.309784,   0.356288,   769.809387,   767.937683
-0.066861,   0.148300,   0.160171,   0.000000,   789.001099,   0.536220,   26.719685,   47.575333,   108.347710,   729.658569,   -200.976822,   0.364822,   765.675537,   762.135254
-0.063145,   0.144951,   0.156538,   0.000000,   790.832703,   0.536220,   26.719685,   46.872437,   116.056183,   736.400269,   -191.649979,   0.372956,   761.892212,   756.254761
-0.059614,   0.141960,   0.153364,   0.000000,   792.889587,   0.536219,   26.719685,   46.169540,   123.942017,   743.186218,   -182.342972,   0.381072,   758.500000,   750.260925
-0.056400,   0.139289,   0.150582,   0.000000,   794.963928,   0.536220,   26.719685,   45.466640,   131.656891,   749.774048,   -173.132187,   0.388920,   755.450867,   744.195801
-0.053365,   0.136887,   0.148145,   0.000000,   797.095093,   0.536220,   26.719685,   44.763744,   139.336288,   756.194824,   -164.019836,   0.396576,   752.719971,   738.030823
-0.050702,   0.134725,   0.145973,   0.000000,   799.038208,   0.536220,   26.719685,   44.060844,   146.515778,   762.212341,   -155.015106,   0.403754,   750.231628,   731.864258
-0.048260,   0.132792,   0.144073,   0.000000,   800.921082,   0.536219,   26.719685,   43.357948,   153.435394,   767.925598,   -146.164688,   0.410584,   748.009033,   725.711975
-0.046027,   0.131071,   0.142420,   0.000000,   802.744263,   0.536220,   26.719685,   42.655052,   160.075272,   773.340881,   -137.465042,   0.417053,   746.041138,   719.615784
-0.043990,   0.129539,   0.140981,   0.000000,   804.478210,   0.536219,   26.719685,   41.952156,   166.417725,   778.433472,   -128.911240,   0.423157,   744.286682,   713.587219
-0.042116,   0.128163,   0.139719,   0.000000,   806.114807,   0.536220,   26.719685,   41.249256,   172.461075,   783.193359,   -120.516609,   0.428897,   742.722717,   707.653259
-0.040409,   0.126925,   0.138609,   0.000000,   807.630310,   0.536219,   26.719685,   40.546360,   178.159622,   787.589172,   -112.317818,   0.434243,   741.327759,   701.867432
-0.038873,   0.125830,   0.137646,   0.000000,   809.035461,   0.536220,   26.719685,   39.843464,   183.496384,   791.642761,   -104.306404,   0.439194,   740.098022,   696.281921
-0.037466,   0.124868,   0.136830,   0.000000,   810.375305,   0.536220,   26.719685,   39.140564,   188.544189,   795.415710,   -96.448669,   0.443805,   739.033875,   690.897034
-0.036199,   0.124028,   0.136137,   0.000000,   811.614929,   0.536219,   26.719685,   38.437668,   193.226532,   798.865295,   -88.793091,   0.448030,   738.114441,   685.784973
-0.035058,   0.123298,   0.135555,   0.000000,   812.772217,   0.536220,   26.719685,   37.734772,   197.585480,   802.031799,   -81.285789,   0.451912,   737.324463,   680.936279
-0.034035,   0.122665,   0.135068,   0.000000,   813.838623,   0.536220,   26.719685,   37.031872,   201.598495,   804.906433,   -73.950264,   0.455442,   736.650757,   676.393372
-0.033123,   0.122119,   0.134662,   0.000000,   814.812683,   0.536220,   26.719685,   36.328976,   205.265274,   807.503174,   -66.749374,   0.458633,   736.076965,   672.168457
-0.032316,   0.121651,   0.134326,   0.000000,   815.692993,   0.536219,   26.719685,   35.626076,   208.582611,   809.824341,   -59.690166,   0.461491,   735.592041,   668.286682
-0.031607,   0.121252,   0.134049,   0.000000,   816.479431,   0.536220,   26.719685,   34.923180,   211.550705,   811.878784,   -52.754581,   0.464024,   735.184631,   664.763489
-0.030991,   0.120914,   0.133823,   0.000000,   817.170654,   0.536220,   26.719685,   34.220284,   214.165649,   813.672913,   -45.925591,   0.466238,   734.845032,   661.616577
-0.030465,   0.120632,   0.133641,   0.000000,   817.767517,   0.536220,   26.719685,   33.517384,   216.429077,   815.212891,   -39.194248,   0.468142,   734.565430,   658.860413
-0.030024,   0.120400,   0.133496,   0.000000,   818.272644,   0.536219,   26.719685,   32.814487,   218.348770,   816.507263,   -32.543545,   0.469745,   734.339294,   656.501221
-0.029667,   0.120216,   0.133383,   0.000000,   818.686707,   0.536220,   26.719685,   32.111591,   219.925735,   817.561523,   -25.956123,   0.471053,   734.161072,   654.549194
-0.029392,   0.120076,   0.133299,   0.000000,   819.008545,   0.536220,   26.719685,   31.408693,   221.154144,   818.377625,   -19.421555,   0.472068,   734.026611,   653.018860
-0.029196,   0.119977,   0.133241,   0.000000,   819.238831,   0.536220,   26.719685,   30.705795,   222.034592,   818.959045,   -12.925891,   0.472792,   733.932739,   651.917358
-0.029079,   0.119918,   0.133207,   0.000000,   819.377136,   0.536220,   26.719685,   30.002897,   222.564423,   819.307312,   -6.455964,   0.473227,   733.877197,   651.252991
-0.029040,   0.119899,   0.133196,   0.000000,   819.423035,   0.536220,   26.719685,   29.299999,   222.740295,   819.423035,   -0.000000,   0.473371,   733.858887,   651.031555
-0.029079,   0.119918,   0.133207,   0.000000,   819.377136,   0.536220,   26.719685,   28.597103,   222.564468,   819.307312,   6.455961,   0.473227,   733.877197,   651.252808
-0.029196,   0.119977,   0.133241,   0.000000,   819.238831,   0.536220,   26.719685,   27.894205,   222.034607,   818.959045,   12.925883,   0.472792,   733.932739,   651.917419
-0.029392,   0.120076,   0.133299,   0.000000,   819.008545,   0.536220,   26.719685,   27.191309,   221.154144,   818.377625,   19.421547,   0.472068,   734.026611,   653.018860
-0.029667,   0.120216,   0.133383,   0.000000,   818.686646,   0.536220,   26.719685,   26.488411,   219.925705,   817.561462,   25.956106,   0.471053,   734.161072,   654.549194
-0.030024,   0.120400,   0.133496,   0.000000,   818.272644,   0.536220,   26.719685,   25.785513,   218.348846,   816.507263,   32.543545,   0.469745,   734.339233,   656.501221
-0.030465,   0.120632,   0.133641,   0.000000,   817.767517,   0.536220,   26.719685,   25.082615,   216.429031,   815.212891,   39.194241,   0.468142,   734.565491,   658.860413
-0.030991,   0.120914,   0.133823,   0.000000,   817.170654,   0.536220,   26.719685,   24.379717,   214.165649,   813.672913,   45.925579,   0.466238,   734.845032,   661.616516
-0.031607,   0.121252,   0.134049,   0.000000,   816.479309,   0.536220,   26.719685,   23.676821,   211.550674,   811.878723,   52.754562,   0.464024,   735.184631,   664.763428
-0.032316,   0.121651,   0.134326,   0.000000,   815.693054,   0.536220,   26.719685,   22.973923,   208.582687,   809.824402,   59.690166,   0.461491,   735.592102,   668.286682
-0.033123,   0.122119,   0.134662,   0.000000,   814.812683,   0.536220,   26.719685,   22.271025,   205.265244,   807.503174,   66.749359,   0.458633,   736.076965,   672.168457
-0.034035,   0.122665,   0.135068,   0.000000,   813.838623,   0.536220,   26.719685,   21.568127,   201.598511,   804.906433,   73.950256,   0.455442,   736.650757,   676.393311
-0.035058,   0.123297,   0.135555,   0.000000,   812.772156,   0.536220,   26.719685,   20.865231,   197.585464,   802.031738,   81.285759,   0.451912,   737.324402,   680.936401
-0.036199,   0.124028,   0.136137,   0.000000,   811.614990,   0.536220,   26.719685,   20.162333,   193.226654,   798.865356,   88.793091,   0.448030,   738.114502,   685.784851
-0.037466,   0.124868,   0.136830,   0.000000,   810.375305,   0.536219,   26.719685,   19.459436,   188.544220,   795.415710,   96.448639,   0.443805,   739.033875,   690.896973
-0.038873,   0.125830,   0.137646,   0.000000,   809.035461,   0.536220,   26.719685,   18.756538,   183.496414,   791.642761,   104.306374,   0.439194,   740.097961,   696.281860
-0.040409,   0.126925,   0.138609,   0.000000,   807.630371,   0.536220,   26.719685,   18.053640,   178.159698,   787.589233,   112.317810,   0.434243,   741.327820,   701.867493
-0.042116,   0.128163,   0.139719,   0.000000,   806.114807,   0.536220,   26.719685,   17.350744,   172.461075,   783.193359,   120.516586,   0.428897,   742.722717,   707.653259
-0.043990,   0.129539,   0.140981,   0.000000,   804.478149,   0.536220,   26.719685,   16.647846,   166.417572,   778.433411,   128.911224,   0.423157,   744.286682,   713.587341
-0.046027,   0.131071,   0.142420,   0.000000,   802.744202,   0.536220,   26.719685,   15.944948,   160.075241,   773.340820,   137.465073,   0.417053,   746.041077,   719.615662
-0.048260,   0.132792,   0.144073,   0.000000,   800.921143,   0.536220,   26.719685,   15.242051,   153.435425,   767.925598,   146.164734,   0.410584,   748.009033,   725.712036
-0.050702,   0.134725,   0.145973,   0.000000,   799.038147,   0.536220,   26.719685,   14.539153,   146.515671,   762.212280,   155.015121,   0.403754,   750.231567,   731.864319
-0.053365,   0.136887,   0.148145,   0.000000,   797.094971,   0.536220,   26.719685,   13.836256,   139.336151,   756.194702,   164.019852,   0.396576,   752.719910,   738.030823
-0.056400,   0.139289,   0.150582,   0.000000,   794.963806,   0.536220,   26.719685,   13.133358,   131.656738,   749.773926,   173.132202,   0.388920,   755.450806,   744.195801
-0.059614,   0.141960,   0.153364,   0.000000,   792.889526,   0.536220,   26.719685,   12.430461,   123.941994,   743.186096,   182.343018,   0.381071,   758.499939,   750.260864
-0.063145,   0.144950,   0.156538,   0.000000,   790.832520,   0.536220,   26.719685,   11.727564,   116.056015,   736.400085,   191.650024,   0.372956,   761.892151,   756.254700
-0.066861,   0.148300,   0.160171,   0.000000,   789.000916,   0.536220,   26.719685,   11.024666,   108.347504,   729.658386,   200.976807,   0.364822,   765.675476,   762.135132
-0.071112,   0.152036,   0.164266,   0.000000,   787.064270,   0.536220,   26.719685,   10.321769,   100.145302,   722.674988,   210.309769,   0.356287,   769.809326,   767.937561
-0.075803,   0.156206,   0.168908,   0.000000,   785.183472,   0.536220,   26.719685,   9.618871,   91.710197,   715.615967,   219.643356,   0.347529,   774.349548,   773.636780
-0.081136,   0.161075,   0.174405,   0.000000,   783.496643,   0.536220,   26.719685,   8.915974,   82.919731,   708.574219,   229.104568,   0.338450,   779.528687,   779.436401
-0.069883,   0.141504,   0.153516,   0.000000,   767.781433,   0.536501,   27.665697,   50.023975,   100.111244,   674.248413,   -249.898376,   0.337626,   764.513550,   764.449768
-0.065472,   0.137197,   0.148568,   0.000000,   768.914185,   0.536499,   27.665697,   49.309357,   106.329056,   682.872742,   -238.767227,   0.346609,   758.973755,   758.363403
-0.061408,   0.133397,   0.144276,   0.000000,   770.236816,   0.536501,   27.665697,   48.594734,   112.700966,   691.053589,   -228.179382,   0.355312,   754.036926,   752.358093
-0.057746,   0.130055,   0.140558,   0.000000,   771.670349,   0.536501,   27.665697,   47.880116,   118.961212,   698.941345,   -217.878189,   0.363694,   749.624329,   746.406616
-0.054492,   0.127080,   0.137290,   0.000000,   773.052795,   0.536499,   27.665697,   47.165497,   124.808128,   706.531494,   -207.658569,   0.371655,   745.619995,   740.468384
-0.051473,   0.124374,   0.134367,   0.000000,   774.559753,   0.536499,   27.665697,   46.450878,   130.844421,   713.931702,   -197.553040,   0.379531,   741.947693,   734.416626
-0.048713,   0.121918,   0.131757,   0.000000,   776.067017,   0.536501,   27.665697,   45.736256,   136.796555,   721.026245,   -187.579163,   0.387144,   738.590576,   728.306213
-0.046145,   0.119730,   0.129483,   0.000000,   777.672607,   0.536501,   27.665697,   45.021637,   142.803604,   727.868286,   -177.817978,   0.394543,   735.595398,   722.191589
-0.043855,   0.117823,   0.127534,   0.000000,   779.283936,   0.536501,   27.665697,   44.307014,   148.546112,   734.472290,   -168.120163,   0.401586,   732.943115,   716.148071
-0.041778,   0.116159,   0.125869,   0.000000,   780.946655,   0.536499,   27.665697,   43.592396,   154.201340,   740.842407,   -158.540680,   0.408354,   730.610718,   710.151123
-0.039891,   0.114702,   0.124447,   0.000000,   782.598938,   0.536501,   27.665697,   42.877777,   159.677521,   746.911926,   -149.097931,   0.414786,   728.560120,   704.233704
-0.038151,   0.113432,   0.123246,   0.000000,   784.250366,   0.536499,   27.665697,   42.163158,   165.004623,   752.686157,   -139.807022,   0.420895,   726.776611,   698.413208
-0.036607,   0.112331,   0.122227,   0.000000,   785.812866,   0.536501,   27.665697,   41.448536,   170.021652,   758.059570,   -130.729568,   0.426574,   725.221191,   692.773499
-0.035200,   0.111387,   0.121385,   0.000000,   787.339783,   0.536499,   27.665697,   40.733917,   174.813065,   763.109375,   -121.826859,   0.431889,   723.891846,   687.315674
-0.033924,   0.110584,   0.120700,   0.000000,   788.820557,   0.536501,   27.665697,   40.019299,   179.369003,   767.828247,   -113.109650,   0.436839,   722.765747,   682.065125
-0.032763,   0.109893,   0.120136,   0.000000,   790.224854,   0.536501,   27.665697,   39.304676,   183.661423,   772.193787,   -104.579956,   0.441419,   721.805664,   677.039307
-0.031728,   0.109293,   0.119663,   0.000000,   791.516785,   0.536499,   27.665697,   38.590057,   187.644211,   776.171631,   -96.262718,   0.445606,   720.977295,   672.273438
-0.030786,   0.108786,   0.119287,   0.000000,   792.745422,   0.536501,   27.665697,   37.875439,   191.381149,   779.841553,   -88.090515,   0.449461,   720.286316,   667.762085
-0.029946,   0.108362,   0.118994,   0.000000,   793.881775,   0.536499,   27.665697,   37.160820,   194.806824,   783.164795,   -80.126587,   0.452943,   719.716431,   663.574036
-0.029199,   0.108011,   0.118770,   0.000000,   794.938354,   0.536501,   27.665697,   36.446198,   197.956161,   786.181946,   -72.300789,   0.456094,   719.250549,   659.689819
-0.028541,   0.107725,   0.118606,   0.000000,   795.907532,   0.536499,   27.665697,   35.731579,   200.813660,   788.887146,   -64.635872,   0.458911,   718.876282,   656.140015
-0.027964,   0.107491,   0.118486,   0.000000,   796.778442,   0.536501,   27.665697,   35.016960,   203.363449,   791.281860,   -57.111759,   0.461397,   718.575745,   652.940125
-0.027464,   0.107302,   0.118401,   0.000000,   797.551758,   0.536501,   27.665697,   34.302338,   205.613449,   793.378418,   -49.702763,   0.463567,   718.336975,   650.092590
-0.027038,   0.107152,   0.118343,   0.000000,   798.224548,   0.536501,   27.665697,   33.587719,   207.557831,   795.180176,   -42.405201,   0.465426,   718.150757,   647.613037
-0.026682,   0.107034,   0.118306,   0.000000,   798.794312,   0.536498,   27.665697,   32.873100,   209.196335,   796.692139,   -35.205490,   0.466981,   718.007446,   645.507996
-0.026394,   0.106942,   0.118282,   0.000000,   799.259521,   0.536502,   27.665697,   32.158482,   210.530396,   797.920227,   -28.080172,   0.468242,   717.898865,   643.781067
-0.026172,   0.106875,   0.118268,   0.000000,   799.622131,   0.536500,   27.665697,   31.443859,   211.568954,   798.871399,   -21.011379,   0.469217,   717.819641,   642.430725
-0.026014,   0.106828,   0.118260,   0.000000,   799.880798,   0.536500,   27.665697,   30.729240,   212.308960,   799.547913,   -13.985439,   0.469910,   717.765686,   641.464050
-0.025920,   0.106801,   0.118256,   0.000000,   800.036194,   0.536501,   27.665697,   30.014620,   212.753296,   799.953064,   -6.986772,   0.470326,   717.734375,   640.882263
-0.025888,   0.106792,   0.118254,   0.000000,   800.088623,   0.536499,   27.665697,   29.299999,   212.903809,   800.088623,   -0.000003,   0.470465,   717.724121,   640.686157
-0.025920,   0.106801,   0.118256,   0.000000,   800.036194,   0.536501,   27.665697,   28.585381,   212.753296,   799.953064,   6.986764,   0.470326,   717.734375,   640.882263
-0.026014,   0.106828,   0.118260,   0.000000,   799.880798,   0.536500,   27.665697,   27.870760,   212.308960,   799.547913,   13.985430,   0.469910,   717.765686,   641.464050
-0.026172,   0.106875,   0.118268,   0.000000,   799.622131,   0.536501,   27.665697,   27.156141,   211.568985,   798.871399,   21.011374,   0.469217,   717.819580,   642.430725
-0.026394,   0.106942,   0.118282,   0.000000,   799.259521,   0.536499,   27.665697,   26.441521,   210.530365,   797.920227,   28.080156,   0.468242,   717.898865,   643.781189
-0.026682,   0.107034,   0.118306,   0.000000,   798.794312,   0.536501,   27.665697,   25.726900,   209.196335,   796.692139,   35.205479,   0.466981,   718.007446,   645.507996
-0.027038,   0.107152,   0.118343,   0.000000,   798.224548,   0.536500,   27.665697,   25.012281,   207.557861,   795.180176,   42.405205,   0.465426,   718.150757,   647.613037
-0.027464,   0.107302,   0.118401,   0.000000,   797.551758,   0.536500,   27.665697,   24.297661,   205.613403,   793.378418,   49.702747,   0.463567,   718.336975,   650.092590
-0.027964,   0.107491,   0.118486,   0.000000,   796.778442,   0.536500,   27.665697,   23.583042,   203.363495,   791.281860,   57.111744,   0.461397,   718.575745,   652.939941
-0.028541,   0.107725,   0.118606,   0.000000,   795.907471,   0.536501,   27.665697,   22.868422,   200.813583,   788.887085,   64.635849,   0.458911,   718.876221,   656.140015
-0.029199,   0.108011,   0.118770,   0.000000,   794.938293,   0.536499,   27.665697,   22.153801,   197.956177,   786.181946,   72.300766,   0.456094,   719.250549,   659.689819
-0.029946,   0.108362,   0.118994,   0.000000,   793.881836,   0.536501,   27.665697,   21.439182,   194.806915,   783.164856,   80.126579,   0.452943,   719.716431,   663.573975
-0.030786,   0.108786,   0.119287,   0.000000,   792.745422,   0.536500,   27.665697,   20.724562,   191.381195,   779.841553,   88.090508,   0.449461,   720.286316,   667.761963
-0.031728,   0.109293,   0.119663,   0.000000,   791.516724,   0.536501,   27.665697,   20.009941,   187.644135,   776.171570,   96.262703,   0.445606,   720.977234,   672.273499
-0.032763,   0.109893,   0.120136,   0.000000,   790.224854,   0.536499,   27.665697,   19.295322,   183.661423,   772.193787,   104.579964,   0.441419,   721.805664,   677.039307
-0.033924,   0.110584,   0.120700,   0.000000,   788.820557,   0.536501,   27.665697,   18.580702,   179.369003,   767.828247,   113.109642,   0.436839,   722.765747,   682.065125
-0.035200,   0.111387,   0.121385,   0.000000,   787.339783,   0.536500,   27.665697,   17.866083,   174.813004,   763.109375,   121.826859,   0.431889,   723.891846,   687.315735
-0.036607,   0.112331,   0.122227,   0.000000,   785.812866,   0.536500,   27.665697,   17.151463,   170.021606,   758.059570,   130.729568,   0.426574,   725.221252,   692.773560
-0.038151,   0.113432,   0.123246,   0.000000,   784.250366,   0.536500,   27.665697,   16.436844,   165.004761,   752.686157,   139.807068,   0.420895,   726.776611,   698.413147
-0.039891,   0.114702,   0.124447,   0.000000,   782.598877,   0.536500,   27.665697,   15.722223,   159.677521,   746.911865,   149.097977,   0.414786,   728.560059,   704.233826
-0.041778,   0.116159,   0.125869,   0.000000,   780.946594,   0.536501,   27.665697,   15.007604,   154.201263,   740.842346,   158.540726,   0.408354,   730.610718,   710.151184
-0.043855,   0.117823,   0.127534,   0.000000,   779.283875,   0.536500,   27.665697,   14.292984,   148.546112,   734.472229,   168.120224,   0.401586,   732.943115,   716.148071
-0.046145,   0.119730,   0.129483,   0.000000,   777.672607,   0.536501,   27.665697,   13.578364,   142.803635,   727.868225,   177.818039,   0.394543,   735.595337,   722.191467
-0.048713,   0.121918,   0.131757,   0.000000,   776.067017,   0.536500,   27.665697,   12.863744,   136.796570,   721.026184,   187.579224,   0.387144,   738.590576,   728.306213
-0.051474,   0.124374,   0.134367,   0.000000,   774.559692,   0.536500,   27.665697,   12.149125,   130.844330,   713.931641,   197.553070,   0.379531,   741.947693,   734.416626
-0.054492,   0.127080,   0.137290,   0.000000,   773.052856,   0.536500,   27.665697,   11.434505,   124.808319,   706.531494,   207.658676,   0.371655,   745.619995,   740.468323
-0.057746,   0.130055,   0.140558,   0.000000,   771.670410,   0.536500,   27.665697,   10.719885,   118.961273,   698.941345,   217.878250,   0.363694,   749.624329,   746.406677
-0.061408,   0.133397,   0.144276,   0.000000,   770.236938,   0.536500,   27.665697,   10.005265,   112.701103,   691.053650,   228.179413,   0.355312,   754.036926,   752.358154
-0.065472,   0.137197,   0.148568,   0.000000,   768.914307,   0.536500,   27.665697,   9.290645,   106.329140,   682.872864,   238.767181,   0.346609,   758.973816,   758.363281
-0.069883,   0.141504,   0.153516,   0.000000,   767.781738,   0.536500,   27.665697,   8.576026,   100.111588,   674.248779,   249.898331,   0.337627,   764.513672,   764.450012
-0.059534,   0.123045,   0.133681,   0.000000,   751.229553,   0.536478,   28.595657,   50.404324,   118.965202,   638.048889,   -267.507202,   0.337191,   748.354065,   748.303772
-0.055780,   0.119354,   0.129385,   0.000000,   752.309998,   0.536478,   28.595657,   49.676586,   123.062302,   649.004578,   -254.960190,   0.346547,   742.628662,   742.037048
-0.052348,   0.116010,   0.125558,   0.000000,   753.306519,   0.536478,   28.595657,   48.948853,   127.344414,   658.815552,   -243.203094,   0.355361,   737.428833,   735.779541
-0.049269,   0.113035,   0.122198,   0.000000,   754.267456,   0.536478,   28.595657,   48.221115,   131.543091,   667.869385,   -231.952942,   0.363664,   732.738708,   729.599854
-0.046484,   0.110401,   0.119264,   0.000000,   755.257019,   0.536477,   28.595657,   47.493382,   135.603989,   676.485779,   -220.931763,   0.371578,   728.505188,   723.492371
-0.043956,   0.108079,   0.116719,   0.000000,   756.370300,   0.536478,   28.595657,   46.765648,   139.755661,   684.722534,   -210.188110,   0.379217,   724.720581,   717.467346
-0.041641,   0.106042,   0.114527,   0.000000,   757.628784,   0.536478,   28.595657,   46.037910,   144.005753,   692.694153,   -199.613113,   0.386636,   721.350830,   711.502869
-0.039593,   0.104241,   0.112617,   0.000000,   758.881348,   0.536478,   28.595657,   45.310177,   148.170547,   700.180786,   -189.338486,   0.393664,   718.337463,   705.638672
-0.037693,   0.102672,   0.110991,   0.000000,   760.286865,   0.536478,   28.595657,   44.582439,   152.422379,   707.549072,   -179.045837,   0.400544,   715.670471,   699.795471
-0.035967,   0.101318,   0.109621,   0.000000,   761.762085,   0.536478,   28.595657,   43.854706,   156.666595,   714.605835,   -168.920151,   0.407133,   713.339417,   694.049011
-0.034402,   0.100151,   0.108472,   0.000000,   763.263123,   0.536478,   28.595657,   43.126968,   160.834656,   721.319580,   -158.959076,   0.413395,   711.309021,   688.420532
-0.032972,   0.099156,   0.107524,   0.000000,   764.832336,   0.536477,   28.595657,   42.399235,   165.036880,   727.749878,   -149.137177,   0.419408,   709.561218,   682.877563
-0.031689,   0.098321,   0.106757,   0.000000,   766.377197,   0.536478,   28.595657,   41.671501,   169.054581,   733.794678,   -139.507217,   0.425026,   708.074524,   677.530640
-0.030528,   0.097626,   0.106148,   0.000000,   767.919861,   0.536478,   28.595657,   40.943764,   172.957825,   739.506531,   -130.018707,   0.430314,   706.820679,   672.350586
-0.029469,   0.097048,   0.105673,   0.000000,   769.437012,   0.536478,   28.595657,   40.216030,   176.729065,   744.852905,   -120.711128,   0.435259,   705.772888,   667.362610
-0.028527,   0.096576,   0.105310,   0.000000,   770.884705,   0.536478,   28.595657,   39.488293,   180.274048,   749.790833,   -111.616524,   0.439806,   704.905640,   662.632507
-0.027677,   0.096209,   0.105062,   0.000000,   772.302368,   0.536478,   28.595657,   38.760559,   183.642731,   754.380005,   -102.714005,   0.444000,   704.221558,   658.169739
-0.026910,   0.095922,   0.104900,   0.000000,   773.653992,   0.536478,   28.595657,   38.032822,   186.798874,   758.600464,   -93.990700,   0.447836,   703.679993,   653.982849
-0.026235,   0.095685,   0.104780,   0.000000,   774.878296,   0.536477,   28.595657,   37.305088,   189.678665,   762.391479,   -85.482559,   0.451285,   703.229065,   650.095825
-0.025625,   0.095502,   0.104716,   0.000000,   776.030884,   0.536478,   28.595657,   36.577354,   192.353897,   765.844788,   -77.106339,   0.454415,   702.880676,   646.491455
-0.025088,   0.095371,   0.104700,   0.000000,   777.097473,   0.536478,   28.595657,   35.849617,   194.789536,   768.943115,   -68.908150,   0.457207,   702.623230,   643.214844
-0.024622,   0.095278,   0.104714,   0.000000,   778.058716,   0.536478,   28.595657,   35.121883,   196.955521,   771.682495,   -60.870728,   0.459658,   702.434326,   640.283386
-0.024218,   0.095216,   0.104751,   0.000000,   778.924500,   0.536478,   28.595657,   34.394146,   198.881470,   774.090149,   -52.954010,   0.461800,   702.303040,   637.680542
-0.023876,   0.095180,   0.104804,   0.000000,   779.686157,   0.536478,   28.595657,   33.666412,   200.552948,   776.164856,   -45.158588,   0.463635,   702.217285,   635.422424
-0.023590,   0.095159,   0.104861,   0.000000,   780.334595,   0.536477,   28.595657,   32.938675,   201.962097,   777.906677,   -37.473263,   0.465167,   702.162781,   633.513428
-0.023359,   0.095148,   0.104916,   0.000000,   780.865906,   0.536479,   28.595657,   32.210941,   203.105743,   779.321655,   -29.869801,   0.466404,   702.129639,   631.955750
-0.023181,   0.095145,   0.104964,   0.000000,   781.277039,   0.536478,   28.595657,   31.483206,   203.978836,   780.412231,   -22.344198,   0.467348,   702.111694,   630.756836
-0.023056,   0.095145,   0.105002,   0.000000,   781.572266,   0.536479,   28.595657,   30.755470,   204.601044,   781.189148,   -14.868220,   0.468018,   702.103333,   629.901733
-0.022981,   0.095147,   0.105026,   0.000000,   781.749207,   0.536478,   28.595657,   30.027735,   204.970657,   781.653625,   -7.425929,   0.468416,   702.100220,   629.391602
-0.022956,   0.095147,   0.105034,   0.000000,   781.806824,   0.536478,   28.595657,   29.299999,   205.088486,   781.806824,   0.000000,   0.468545,   702.099426,   629.225647
-0.022981,   0.095147,   0.105026,   0.000000,   781.749207,   0.536478,   28.595657,   28.572264,   204.970657,   781.653625,   7.425928,   0.468416,   702.100220,   629.391602
-0.023056,   0.095145,   0.105002,   0.000000,   781.572266,   0.536478,   28.595657,   27.844528,   204.601013,   781.189148,   14.868215,   0.468018,   702.103394,   629.901733
-0.023181,   0.095145,   0.104964,   0.000000,   781.277039,   0.536478,   28.595657,   27.116795,   203.978806,   780.412231,   22.344191,   0.467348,   702.111694,   630.756836
-0.023359,   0.095148,   0.104916,   0.000000,   780.865906,   0.536478,   28.595657,   26.389059,   203.105804,   779.321655,   29.869793,   0.466404,   702.129700,   631.955688
-0.023590,   0.095159,   0.104861,   0.000000,   780.334595,   0.536478,   28.595657,   25.661324,   201.962036,   777.906677,   37.473244,   0.465167,   702.162781,   633.513550
-0.023876,   0.095180,   0.104804,   0.000000,   779.686157,   0.536478,   28.595657,   24.933588,   200.552948,   776.164856,   45.158585,   0.463635,   702.217285,   635.422424
-0.024218,   0.095216,   0.104751,   0.000000,   778.924500,   0.536478,   28.595657,   24.205853,   198.881516,   774.090149,   52.954002,   0.461800,   702.303040,   637.680542
-0.024622,   0.095278,   0.104714,   0.000000,   778.058716,   0.536478,   28.595657,   23.478117,   196.955536,   771.682495,   60.870712,   0.459658,   702.434326,   640.283264
-0.025088,   0.095371,   0.104700,   0.000000,   777.097473,   0.536478,   28.595657,   22.750381,   194.789536,   768.943115,   68.908127,   0.457207,   702.623230,   643.214844
-0.025625,   0.095502,   0.104716,   0.000000,   776.030884,   0.536478,   28.595657,   22.022648,   192.353928,   765.844788,   77.106323,   0.454415,   702.880615,   646.491455
-0.026235,   0.095685,   0.104780,   0.000000,   774.878296,   0.536478,   28.595657,   21.294912,   189.678589,   762.391479,   85.482536,   0.451285,   703.229126,   650.095886
-0.026910,   0.095922,   0.104900,   0.000000,   773.653992,   0.536478,   28.595657,   20.567177,   186.798859,   758.600464,   93.990700,   0.447836,   703.679993,   653.982971
-0.027677,   0.096209,   0.105062,   0.000000,   772.302368,   0.536478,   28.595657,   19.839441,   183.642715,   754.380005,   102.713989,   0.444000,   704.221497,   658.169678
-0.028527,   0.096576,   0.105310,   0.000000,   770.884705,   0.536478,   28.595657,   19.111706,   180.274078,   749.790833,   111.616531,   0.439806,   704.905640,   662.632507
-0.029469,   0.097048,   0.105673,   0.000000,   769.436951,   0.536478,   28.595657,   18.383970,   176.729034,   744.852905,   120.711121,   0.435259,   705.772888,   667.362793
-0.030528,   0.097626,   0.106148,   0.000000,   767.919861,   0.536478,   28.595657,   17.656237,   172.957794,   739.506531,   130.018692,   0.430314,   706.820679,   672.350586
-0.031689,   0.098321,   0.106757,   0.000000,   766.377136,   0.536478,   28.595657,   16.928501,   169.054596,   733.794617,   139.507233,   0.425026,   708.074463,   677.530518
-0.032972,   0.099156,   0.107524,   0.000000,   764.832275,   0.536479,   28.595657,   16.200766,   165.036774,   727.749817,   149.137192,   0.419408,   709.561218,   682.877502
-0.034402,   0.100151,   0.108472,   0.000000,   763.263123,   0.536478,   28.595657,   15.473030,   160.834641,   721.319519,   158.959137,   0.413395,   711.308960,   688.420593
-0.035967,   0.101318,   0.109621,   0.000000,   761.762024,   0.536478,   28.595657,   14.745295,   156.666550,   714.605774,   168.920181,   0.407133,   713.339355,   694.049072
-0.037693,   0.102672,   0.110991,   0.000000,   760.286804,   0.536478,   28.595657,   14.017559,   152.422379,   707.549011,   179.045868,   0.400544,   715.670410,   699.795349
-0.039593,   0.104241,   0.112617,   0.000000,   758.881287,   0.536478,   28.595657,   13.289824,   148.170547,   700.180725,   189.338531,   0.393664,   718.337402,   705.638672
-0.041641,   0.106042,   0.114527,   0.000000,   757.628784,   0.536478,   28.595657,   12.562089,   144.005859,   692.694092,   199.613159,   0.386636,   721.350830,   711.502808
-0.043956,   0.108079,   0.116719,   0.000000,   756.370239,   0.536478,   28.595657,   11.834353,   139.755722,   684.722473,   210.188095,   0.379217,   724.720459,   717.467163
-0.046484,   0.110401,   0.119264,   0.000000,   755.256958,   0.536478,   28.595657,   11.106618,   135.603989,   676.485718,   220.931778,   0.371578,   728.505127,   723.492371
-0.049269,   0.113035,   0.122198,   0.000000,   754.267456,   0.536478,   28.595657,   10.378882,   131.543274,   667.869385,   231.952988,   0.363664,   732.738708,   729.599792
-0.052348,   0.116010,   0.125558,   0.000000,   753.306519,   0.536478,   28.595657,   9.651148,   127.344551,   658.815552,   243.203110,   0.355361,   737.428772,   735.779480
-0.055780,   0.119354,   0.129385,   0.000000,   752.310059,   0.536478,   28.595657,   8.923412,   123.062439,   649.004578,   254.960236,   0.346547,   742.628662,   742.036987
-0.059534,   0.123045,   0.133681,   0.000000,   751.229553,   0.536478,   28.595657,   8.195677,   118.965256,   638.048828,   267.507294,   0.337191,   748.354126,   748.303833
-0.049819,   0.105201,   0.114325,   0.000000,   732.709412,   0.536039,   29.507784,   50.824341,   138.628876,   599.528809,   -281.282745,   0.337058,   730.000488,   729.954712
-0.046813,   0.102366,   0.110978,   0.000000,   734.188843,   0.536039,   29.507784,   50.082123,   140.455933,   613.414734,   -267.782654,   0.346823,   724.548401,   723.946594
-0.044100,   0.099830,   0.108030,   0.000000,   735.498779,   0.536040,   29.507784,   49.339905,   142.632431,   625.695068,   -255.144897,   0.355882,   719.646240,   717.958618
-0.041654,   0.097585,   0.105458,   0.000000,   736.705750,   0.536039,   29.507784,   48.597683,   144.932419,   636.802429,   -243.146255,   0.364315,   715.255005,   712.055481
-0.039433,   0.095571,   0.103187,   0.000000,   737.783569,   0.536039,   29.507784,   47.855469,   147.230453,   646.905151,   -231.664703,   0.372161,   711.283752,   706.235168
-0.037407,   0.093759,   0.101176,   0.000000,   738.829163,   0.536040,   29.507784,   47.113247,   149.617020,   656.297546,   -220.519043,   0.379607,   707.675293,   700.467896
-0.035551,   0.092145,   0.099416,   0.000000,   739.920898,   0.536039,   29.507784,   46.371029,   152.162369,   665.137634,   -209.653259,   0.386745,   704.426025,   694.768005
-0.033869,   0.090759,   0.097930,   0.000000,   741.164001,   0.536039,   29.507784,   45.628811,   154.890686,   673.665894,   -198.927963,   0.393672,   701.562012,   689.156372
-0.032309,   0.089549,   0.096665,   0.000000,   742.527893,   0.536040,   29.507784,   44.886593,   157.803543,   681.913879,   -188.261795,   0.400427,   699.018982,   683.570251
-0.030883,   0.088465,   0.095555,   0.000000,   743.840698,   0.536039,   29.507784,   44.144371,   160.678375,   689.659790,   -177.753433,   0.406827,   696.723511,   678.048218
-0.029608,   0.087531,   0.094621,   0.000000,   745.167175,   0.536039,   29.507784,   43.402153,   163.553421,   696.972961,   -167.422867,   0.412896,   694.708557,   672.651917
-0.028429,   0.086749,   0.093869,   0.000000,   746.607117,   0.536040,   29.507784,   42.659935,   166.576157,   704.016052,   -157.175446,   0.418765,   692.983643,   667.341919
-0.027365,   0.086111,   0.093284,   0.000000,   748.073120,   0.536039,   29.507784,   41.917717,   169.556381,   710.668762,   -147.102203,   0.424287,   691.533203,   662.223877
-0.026408,   0.085601,   0.092845,   0.000000,   749.570190,   0.536039,   29.507784,   41.175499,   172.519958,   716.967102,   -137.162766,   0.429499,   690.329407,   657.281738
-0.025539,   0.085203,   0.092535,   0.000000,   751.084167,   0.536040,   29.507784,   40.433281,   175.459549,   722.888977,   -127.396439,   0.434393,   689.352112,   652.537842
-0.024761,   0.084903,   0.092333,   0.000000,   752.568359,   0.536039,   29.507784,   39.691059,   178.276703,   728.398315,   -117.816261,   0.438915,   688.572632,   648.045654
-0.024057,   0.084688,   0.092226,   0.000000,   754.036743,   0.536039,   29.507784,   38.948841,   181.021027,   733.530029,   -108.400505,   0.443116,   687.969910,   643.784668
-0.023437,   0.084541,   0.092188,   0.000000,   755.428833,   0.536040,   29.507784,   38.206623,   183.581589,   738.220703,   -99.198982,   0.446928,   687.509705,   639.821899
-0.022884,   0.084468,   0.092230,   0.000000,   756.791443,   0.536039,   29.507784,   37.464405,   186.010010,   742.542664,   -90.182777,   0.450402,   687.202881,   636.162476
-0.022389,   0.084444,   0.092322,   0.000000,   758.087097,   0.536039,   29.507784,   36.722187,   188.280640,   746.477661,   -81.333565,   0.453542,   687.005615,   632.797546
-0.021951,   0.084442,   0.092430,   0.000000,   759.262329,   0.536040,   29.507784,   35.979969,   190.342346,   749.980103,   -72.669518,   0.456332,   686.869690,   629.735779
-0.021578,   0.084464,   0.092554,   0.000000,   760.321228,   0.536039,   29.507784,   35.237751,   192.176178,   753.072021,   -64.176361,   0.458775,   686.791443,   627.005737
-0.021249,   0.084504,   0.092690,   0.000000,   761.285156,   0.536039,   29.507784,   34.495529,   193.830261,   755.796509,   -55.808121,   0.460918,   686.764832,   624.580139
-0.020970,   0.084555,   0.092829,   0.000000,   762.136597,   0.536039,   29.507784,   33.753311,   195.275620,   758.143921,   -47.574055,   0.462753,   686.773376,   622.478760
-0.020738,   0.084610,   0.092959,   0.000000,   762.861328,   0.536040,   29.507784,   33.011093,   196.488663,   760.110779,   -39.469528,   0.464277,   686.801697,   620.714844
-0.020551,   0.084663,   0.093077,   0.000000,   763.467773,   0.536039,   29.507784,   32.268875,   197.498825,   761.720886,   -31.443134,   0.465522,   686.841675,   619.263672
-0.020409,   0.084712,   0.093177,   0.000000,   763.948303,   0.536040,   29.507784,   31.526657,   198.289490,   762.972168,   -23.497765,   0.466483,   686.885925,   618.138855
-0.020308,   0.084751,   0.093253,   0.000000,   764.289673,   0.536040,   29.507784,   30.784437,   198.835953,   763.857727,   -15.628064,   0.467152,   686.924072,   617.353943
-0.020248,   0.084776,   0.093301,   0.000000,   764.494995,   0.536039,   29.507784,   30.042219,   199.161469,   764.387390,   -7.800035,   0.467550,   686.949341,   616.886047
-0.020228,   0.084784,   0.093317,   0.000000,   764.565857,   0.536040,   29.507784,   29.299999,   199.277603,   764.565857,   -0.000002,   0.467687,   686.958252,   616.724792
-0.020248,   0.084776,   0.093301,   0.000000,   764.494995,   0.536040,   29.507784,   28.557781,   199.161514,   764.387390,   7.800035,   0.467550,   686.949341,   616.886047
-0.020308,   0.084751,   0.093253,   0.000000,   764.289673,   0.536039,   29.507784,   27.815563,   198.835968,   763.857727,   15.628059,   0.467152,   686.924072,   617.353821
-0.020409,   0.084712,   0.093177,   0.000000,   763.948303,   0.536040,   29.507784,   27.073343,   198.289505,   762.972168,   23.497753,   0.466483,   686.885925,   618.138855
-0.020551,   0.084663,   0.093077,   0.000000,   763.467773,   0.536040,   29.507784,   26.331125,   197.498871,   761.720886,   31.443127,   0.465522,   686.841675,   619.263672
-0.020738,   0.084610,   0.092959,   0.000000,   762.861328,   0.536039,   29.507784,   25.588907,   196.488602,   760.110779,   39.469513,   0.464277,   686.801697,   620.714905
-0.020970,   0.084555,   0.092829,   0.000000,   762.136597,   0.536040,   29.507784,   24.846687,   195.275665,   758.143921,   47.574039,   0.462753,   686.773315,   622.478821
-0.021249,   0.084504,   0.092690,   0.000000,   761.285156,   0.536040,   29.507784,   24.104469,   193.830307,   755.796509,   55.808113,   0.460918,   686.764832,   624.580139
-0.021578,   0.084464,   0.092554,   0.000000,   760.321228,   0.536039,   29.507784,   23.362249,   192.176193,   753.072021,   64.176353,   0.458775,   686.791443,   627.005737
-0.021951,   0.084442,   0.092430,   0.000000,   759.262329,   0.536040,   29.507784,   22.620031,   190.342316,   749.980103,   72.669510,   0.456332,   686.869690,   629.735840
-0.022389,   0.084444,   0.092322,   0.000000,   758.087097,   0.536039,   29.507784,   21.877813,   188.280655,   746.477661,   81.333557,   0.453542,   687.005554,   632.797485
-0.022884,   0.084468,   0.092230,   0.000000,   756.791443,   0.536040,   29.507784,   21.135595,   186.010040,   742.542664,   90.182770,   0.450402,   687.202881,   636.162354
-0.023437,   0.084541,   0.092188,   0.000000,   755.428833,   0.536040,   29.507784,   20.393375,   183.581543,   738.220703,   99.198982,   0.446928,   687.509766,   639.821899
-0.024057,   0.084688,   0.092226,   0.000000,   754.036743,   0.536039,   29.507784,   19.651157,   181.020996,   733.530029,   108.400497,   0.443116,   687.969910,   643.784668
-0.024761,   0.084903,   0.092333,   0.000000,   752.568359,   0.536040,   29.507784,   18.908939,   178.276718,   728.398254,   117.816277,   0.438915,   688.572510,   648.045593
-0.025539,   0.085203,   0.092535,   0.000000,   751.084167,   0.536040,   29.507784,   18.166719,   175.459473,   722.888977,   127.396446,   0.434393,   689.352112,   652.537842
-0.026408,   0.085601,   0.092845,   0.000000,   749.570129,   0.536039,   29.507784,   17.424501,   172.519897,   716.967041,   137.162781,   0.429499,   690.329346,   657.281799
-0.027365,   0.086111,   0.093284,   0.000000,   748.073059,   0.536040,   29.507784,   16.682283,   169.556351,   710.668701,   147.102219,   0.424287,   691.533203,   662.223816
-0.028429,   0.086749,   0.093869,   0.000000,   746.606995,   0.536040,   29.507784,   15.940063,   166.576004,   704.015991,   157.175446,   0.418765,   692.983643,   667.342041
-0.029608,   0.087531,   0.094621,   0.000000,   745.167114,   0.536039,   29.507784,   15.197845,   163.553360,   696.972900,   167.422882,   0.412896,   694.708557,   672.651978
-0.030883,   0.088465,   0.095555,   0.000000,   743.840637,   0.536039,   29.507784,   14.455626,   160.678299,   689.659729,   177.753433,   0.406827,   696.723450,   678.048157
-0.032309,   0.089549,   0.096665,   0.000000,   742.527832,   0.536039,   29.507784,   13.713408,   157.803360,   681.913818,   188.261765,   0.400427,   699.018982,   683.570190
-0.033869,   0.090759,   0.097930,   0.000000,   741.163940,   0.536040,   29.507784,   12.971189,   154.890625,   673.665833,   198.927933,   0.393672,   701.561951,   689.156311
-0.035551,   0.092145,   0.099416,   0.000000,   739.920715,   0.536040,   29.507784,   12.228970,   152.162262,   665.137512,   209.653229,   0.386745,   704.425903,   694.767883
-0.037407,   0.093759,   0.101176,   0.000000,   738.828979,   0.536039,   29.507784,   11.486752,   149.616806,   656.297424,   220.518967,   0.379606,   707.675232,   700.467773
-0.039433,   0.095571,   0.103187,   0.000000,   737.783447,   0.536040,   29.507784,   10.744533,   147.230347,   646.905090,   231.664612,   0.372161,   711.283630,   706.235107
-0.041654,   0.097585,   0.105458,   0.000000,   736.705505,   0.536039,   29.507784,   10.002314,   144.932266,   636.802246,   243.146194,   0.364315,   715.254822,   712.055359
-0.044100,   0.099830,   0.108030,   0.000000,   735.498413,   0.536039,   29.507784,   9.260096,   142.632126,   625.694763,   255.144836,   0.355882,   719.645996,   717.958313
-0.046813,   0.102366,   0.110978,   0.000000,   734.188416,   0.536039,   29.507784,   8.517877,   140.455673,   613.414307,   267.782623,   0.346823,   724.548157,   723.946350
-0.049819,   0.105200,   0.114324,   0.000000,   732.708679,   0.536039,   29.507784,   7.775658,   138.628433,   599.528015,   281.282745,   0.337058,   730.000000,   729.954285
-0.041674,   0.090026,   0.097786,   0.000000,   714.493286,   0.535065,   30.400322,   51.283226,   158.963577,   560.571899,   -292.417358,   0.336868,   711.985596,   711.945435
-0.039260,   0.087848,   0.095180,   0.000000,   716.470337,   0.535064,   30.400322,   50.525185,   158.484924,   577.673645,   -278.292145,   0.347163,   706.831909,   706.214600
-0.037074,   0.085869,   0.092848,   0.000000,   718.084900,   0.535065,   30.400322,   49.767139,   158.522461,   592.641235,   -264.940704,   0.356612,   702.130188,   700.373840
-0.035094,   0.084079,   0.090771,   0.000000,   719.423523,   0.535064,   30.400322,   49.009098,   158.877167,   605.894409,   -252.266418,   0.365296,   697.855469,   694.528809
-0.033289,   0.082476,   0.088940,   0.000000,   720.614197,   0.535064,   30.400322,   48.251057,   159.510651,   617.831848,   -240.149033,   0.373368,   693.991150,   688.745789
-0.031643,   0.081077,   0.087367,   0.000000,   721.734924,   0.535065,   30.400322,   47.493015,   160.259155,   628.774353,   -228.462524,   0.380872,   690.549561,   683.113220
-0.030183,   0.079855,   0.086013,   0.000000,   722.779419,   0.535064,   30.400322,   46.734970,   161.154099,   638.677551,   -217.333206,   0.387798,   687.499329,   677.682800
-0.028807,   0.078786,   0.084857,   0.000000,   723.983887,   0.535064,   30.400322,   45.976933,   162.448441,   648.217957,   -206.264984,   0.394617,   684.769836,   672.260254
-0.027583,   0.077858,   0.083872,   0.000000,   725.117126,   0.535066,   30.400322,   45.218887,   163.741028,   656.985046,   -195.570236,   0.400928,   682.354919,   667.035461
-0.026456,   0.077081,   0.083071,   0.000000,   726.375916,   0.535064,   30.400322,   44.460846,   165.230972,   665.443909,   -184.909897,   0.407044,   680.249939,   661.901611
-0.025417,   0.076442,   0.082439,   0.000000,   727.780029,   0.535064,   30.400322,   43.702801,   167.015762,   673.569397,   -174.354233,   0.412994,   678.447876,   656.850281
-0.024461,   0.075910,   0.081937,   0.000000,   729.232849,   0.535065,   30.400322,   42.944759,   168.935562,   681.307007,   -163.867996,   0.418701,   676.889709,   651.884338
-0.023601,   0.075466,   0.081537,   0.000000,   730.671753,   0.535064,   30.400322,   42.186718,   170.921738,   688.555359,   -153.540390,   0.424092,   675.542480,   647.043884
-0.022808,   0.075120,   0.081254,   0.000000,   732.165894,   0.535064,   30.400322,   41.428677,   173.027771,   695.447266,   -143.285736,   0.429244,   674.422852,   642.324524
-0.022092,   0.074868,   0.081080,   0.000000,   733.682373,   0.535065,   30.400322,   40.670635,   175.181168,   701.916931,   -133.195419,   0.434083,   673.525208,   637.799255
-0.021448,   0.074703,   0.081005,   0.000000,   735.212463,   0.535065,   30.400322,   39.912590,   177.349747,   707.984924,   -123.244629,   0.438611,   672.831604,   633.484741
-0.020867,   0.074612,   0.081013,   0.000000,   736.741150,   0.535064,   30.400322,   39.154549,   179.524979,   713.640808,   -113.454300,   0.442829,   672.318115,   629.391174
-0.020350,   0.074585,   0.081089,   0.000000,   738.223816,   0.535065,   30.400322,   38.396507,   181.604782,   718.849182,   -103.847496,   0.446680,   671.960510,   625.581177
-0.019885,   0.074610,   0.081224,   0.000000,   739.675110,   0.535064,   30.400322,   37.638466,   183.637161,   723.650208,   -94.395172,   0.450218,   671.739929,   622.026917
-0.019482,   0.074671,   0.081391,   0.000000,   741.033630,   0.535064,   30.400322,   36.880424,   185.526596,   727.977539,   -85.163086,   0.453385,   671.617798,   618.782898
-0.019123,   0.074763,   0.081588,   0.000000,   742.315308,   0.535065,   30.400322,   36.122379,   187.287323,   731.884155,   -76.089401,   0.456220,   671.585510,   615.840881
-0.018809,   0.074879,   0.081806,   0.000000,   743.511475,   0.535064,   30.400322,   35.364338,   188.907578,   735.375061,   -67.174988,   0.458729,   671.626404,   613.211060
-0.018536,   0.075003,   0.082027,   0.000000,   744.598572,   0.535064,   30.400322,   34.606297,   190.371048,   738.443176,   -58.408104,   0.460920,   671.711060,   610.887756
-0.018304,   0.075123,   0.082233,   0.000000,   745.551270,   0.535065,   30.400322,   33.848255,   191.655685,   741.076477,   -49.785175,   0.462795,   671.811279,   608.870117
-0.018116,   0.075234,   0.082418,   0.000000,   746.358276,   0.535065,   30.400322,   33.090210,   192.737061,   743.277283,   -41.300217,   0.464352,   671.914246,   607.173157
-0.017961,   0.075334,   0.082582,   0.000000,   747.039734,   0.535064,   30.400322,   32.332169,   193.653732,   745.083252,   -32.904301,   0.465630,   672.019897,   605.773315
-0.017841,   0.075418,   0.082717,   0.000000,   747.584229,   0.535064,   30.400322,   31.574127,   194.391129,   746.490479,   -24.597937,   0.466627,   672.116089,   604.675720
-0.017755,   0.075481,   0.082818,   0.000000,   747.985352,   0.535064,   30.400322,   30.816084,   194.951782,   747.502441,   -16.341955,   0.467355,   672.190735,   603.868530
-0.017704,   0.075520,   0.082879,   0.000000,   748.226990,   0.535064,   30.400322,   30.058043,   195.287888,   748.106445,   -8.164872,   0.467788,   672.238403,   603.387390
-0.017687,   0.075533,   0.082899,   0.000000,   748.304504,   0.535065,   30.400322,   29.300001,   195.390686,   748.304504,   -0.000007,   0.467926,   672.253967,   603.233398
-0.017704,   0.075520,   0.082879,   0.000000,   748.226990,   0.535064,   30.400322,   28.541958,   195.287857,   748.106445,   8.164862,   0.467788,   672.238403,   603.387512
-0.017755,   0.075481,   0.082818,   0.000000,   747.985352,   0.535064,   30.400322,   27.783916,   194.951828,   747.502441,   16.341942,   0.467355,   672.190674,   603.868347
-0.017841,   0.075418,   0.082717,   0.000000,   747.584229,   0.535065,   30.400322,   27.025873,   194.391174,   746.490479,   24.597927,   0.466627,   672.116089,   604.675598
-0.017961,   0.075334,   0.082582,   0.000000,   747.039734,   0.535064,   30.400322,   26.267830,   193.653702,   745.083252,   32.904297,   0.465630,   672.019897,   605.773315
-0.018116,   0.075234,   0.082418,   0.000000,   746.358276,   0.535064,   30.400322,   25.509789,   192.737122,   743.277283,   41.300209,   0.464352,   671.914246,   607.173157
-0.018304,   0.075123,   0.082233,   0.000000,   745.551270,   0.535064,   30.400322,   24.751747,   191.655609,   741.076477,   49.785160,   0.462795,   671.811340,   608.870300
-0.018536,   0.075003,   0.082027,   0.000000,   744.598572,   0.535065,   30.400322,   23.993704,   190.371048,   738.443176,   58.408096,   0.460920,   671.711060,   610.887756
-0.018809,   0.074879,   0.081806,   0.000000,   743.511475,   0.535064,   30.400322,   23.235661,   188.907578,   735.375061,   67.174988,   0.458729,   671.626404,   613.211060
-0.019123,   0.074763,   0.081588,   0.000000,   742.315308,   0.535064,   30.400322,   22.477619,   187.287369,   731.884155,   76.089394,   0.456220,   671.585510,   615.840881
-0.019482,   0.074671,   0.081391,   0.000000,   741.033630,   0.535064,   30.400322,   21.719578,   185.526596,   727.977539,   85.163078,   0.453385,   671.617798,   618.782898
-0.019885,   0.074610,   0.081224,   0.000000,   739.675110,   0.535065,   30.400322,   20.961535,   183.637161,   723.650208,   94.395180,   0.450218,   671.739929,   622.026917
-0.020350,   0.074585,   0.081089,   0.000000,   738.223877,   0.535064,   30.400322,   20.203493,   181.604797,   718.849182,   103.847527,   0.446680,   671.960510,   625.581177
-0.020867,   0.074612,   0.081013,   0.000000,   736.741150,   0.535064,   30.400322,   19.445450,   179.524948,   713.640808,   113.454330,   0.442829,   672.318176,   629.391235
-0.021448,   0.074703,   0.081005,   0.000000,   735.212402,   0.535064,   30.400322,   18.687408,   177.349640,   707.984863,   123.244644,   0.438611,   672.831604,   633.484802
-0.022092,   0.074868,   0.081080,   0.000000,   733.682373,   0.535065,   30.400322,   17.929365,   175.181213,   701.916931,   133.195450,   0.434083,   673.525269,   637.799194
-0.022808,   0.075120,   0.081254,   0.000000,   732.165955,   0.535064,   30.400322,   17.171324,   173.027740,   695.447266,   143.285751,   0.429244,   674.422913,   642.324524
-0.023601,   0.075466,   0.081537,   0.000000,   730.671692,   0.535065,   30.400322,   16.413282,   170.921692,   688.555298,   153.540421,   0.424092,   675.542419,   647.043823
-0.024461,   0.075910,   0.081937,   0.000000,   729.232849,   0.535064,   30.400322,   15.655239,   168.935547,   681.307007,   163.868027,   0.418701,   676.889709,   651.884338
-0.025417,   0.076442,   0.082439,   0.000000,   727.780029,   0.535064,   30.400322,   14.897197,   167.015717,   673.569336,   174.354263,   0.412994,   678.447815,   656.850220
-0.026456,   0.077081,   0.083071,   0.000000,   726.375854,   0.535064,   30.400322,   14.139154,   165.230896,   665.443848,   184.909912,   0.407044,   680.249878,   661.901672
-0.027583,   0.077858,   0.083872,   0.000000,   725.117126,   0.535064,   30.400322,   13.381112,   163.740967,   656.985046,   195.570236,   0.400928,   682.354919,   667.035400
-0.028807,   0.078786,   0.084857,   0.000000,   723.983826,   0.535064,   30.400322,   12.623070,   162.448318,   648.217957,   206.264954,   0.394617,   684.769836,   672.260376
-0.030183,   0.079855,   0.086013,   0.000000,   722.779358,   0.535064,   30.400322,   11.865027,   161.153992,   638.677551,   217.333206,   0.387797,   687.499329,   677.682983
-0.031643,   0.081077,   0.087367,   0.000000,   721.734924,   0.535064,   30.400322,   11.106986,   160.259079,   628.774292,   228.462540,   0.380872,   690.549561,   683.113159
-0.033289,   0.082476,   0.088940,   0.000000,   720.614136,   0.535065,   30.400322,   10.348944,   159.510437,   617.831787,   240.149048,   0.373368,   693.991150,   688.745911
-0.035094,   0.084079,   0.090771,   0.000000,   719.423462,   0.535064,   30.400322,   9.590901,   158.876923,   605.894287,   252.266464,   0.365296,   697.855469,   694.528809
-0.037074,   0.085869,   0.092848,   0.000000,   718.084839,   0.535064,   30.400322,   8.832859,   158.522339,   592.641113,   264.940735,   0.356612,   702.130127,   700.373779
-0.039260,   0.087848,   0.095180,   0.000000,   716.470154,   0.535064,   30.400322,   8.074817,   158.484726,   577.673584,   278.292084,   0.347163,   706.831787,   706.214478
-0.041674,   0.090026,   0.097786,   0.000000,   714.493347,   0.535064,   30.400322,   7.316774,   158.963501,   560.572205,   292.417114,   0.336868,   711.985535,   711.945374
-0.034316,   0.076059,   0.082429,   0.000000,   694.824036,   0.533428,   31.271563,   51.780094,   179.496857,   520.426697,   -299.786041,   0.337010,   692.288330,   692.246033
-0.032532,   0.074643,   0.080706,   0.000000,   697.702637,   0.533425,   31.271563,   51.004917,   176.602798,   541.045044,   -285.717072,   0.347724,   687.946899,   687.295959
-0.030884,   0.073336,   0.079141,   0.000000,   700.068115,   0.533425,   31.271563,   50.229740,   174.531952,   559.065308,   -272.216980,   0.357545,   683.920288,   682.067383
-0.029364,   0.072141,   0.077732,   0.000000,   702.041748,   0.533425,   31.271563,   49.454567,   173.068436,   574.958435,   -259.275269,   0.366563,   680.215942,   676.705505
-0.027975,   0.071063,   0.076483,   0.000000,   703.700073,   0.533425,   31.271563,   48.679390,   171.991959,   589.071167,   -246.878769,   0.374810,   676.844116,   671.342590
-0.026787,   0.070106,   0.075381,   0.000000,   704.953125,   0.533425,   31.271563,   47.904217,   170.842834,   601.484375,   -235.082352,   0.382077,   673.797119,   666.155518
-0.025645,   0.069288,   0.074464,   0.000000,   706.339722,   0.533425,   31.271563,   47.129040,   170.389771,   613.078979,   -223.568970,   0.389142,   671.107544,   661.025818
-0.024555,   0.068582,   0.073695,   0.000000,   707.758972,   0.533426,   31.271563,   46.353867,   170.355667,   623.896240,   -212.292496,   0.395906,   668.720886,   655.959412
-0.023572,   0.067928,   0.072998,   0.000000,   708.927917,   0.533426,   31.271563,   45.578690,   170.350143,   633.553284,   -201.482239,   0.402031,   666.534546,   651.049683
-0.022674,   0.067373,   0.072420,   0.000000,   710.181030,   0.533425,   31.271563,   44.803513,   170.660446,   642.805481,   -190.658020,   0.408007,   664.585510,   646.157898
-0.021821,   0.066909,   0.071962,   0.000000,   711.500244,   0.533425,   31.271563,   44.028336,   171.288605,   651.512634,   -180.016632,   0.413741,   662.895020,   641.365906
-0.021060,   0.066539,   0.071613,   0.000000,   712.834595,   0.533425,   31.271563,   43.253162,   172.040039,   659.716675,   -169.487152,   0.419164,   661.440735,   636.718689
-0.020351,   0.066268,   0.071387,   0.000000,   714.311890,   0.533425,   31.271563,   42.477985,   173.140320,   667.583191,   -159.022797,   0.424450,   660.245422,   632.152649
-0.019696,   0.066072,   0.071252,   0.000000,   715.838440,   0.533426,   31.271563,   41.702808,   174.428528,   675.051941,   -148.600876,   0.429515,   659.256226,   627.684814
-0.019108,   0.065934,   0.071183,   0.000000,   717.347168,   0.533425,   31.271563,   40.927635,   175.824631,   682.015869,   -138.320999,   0.434279,   658.439697,   623.363281
-0.018566,   0.065863,   0.071194,   0.000000,   718.906738,   0.533426,   31.271563,   40.152458,   177.405182,   688.598511,   -128.109116,   0.438831,   657.811096,   619.163513
-0.018073,   0.065851,   0.071274,   0.000000,   720.462097,   0.533425,   31.271563,   39.377281,   179.048401,   694.722351,   -118.050156,   0.443074,   657.355347,   615.172668
-0.017632,   0.065894,   0.071415,   0.000000,   722.008850,   0.533425,   31.271563,   38.602108,   180.727417,   700.414429,   -108.114151,   0.447014,   657.057617,   611.403992
-0.017239,   0.065985,   0.071607,   0.000000,   723.533630,   0.533425,   31.271563,   37.826931,   182.423050,   705.666992,   -98.325027,   0.450647,   656.899963,   607.877319
-0.016889,   0.066108,   0.071833,   0.000000,   724.992188,   0.533425,   31.271563,   37.051758,   184.064667,   710.431519,   -88.748413,   0.453930,   656.853271,   604.640137
-0.016579,   0.066255,   0.072082,   0.000000,   726.376099,   0.533426,   31.271563,   36.276581,   185.633789,   714.747803,   -79.296425,   0.456890,   656.891724,   601.677917
-0.016303,   0.066413,   0.072340,   0.000000,   727.666504,   0.533425,   31.271563,   35.501404,   187.116394,   718.599976,   -70.006569,   0.459526,   656.992676,   599.002686
-0.016070,   0.066574,   0.072594,   0.000000,   728.830017,   0.533425,   31.271563,   34.726231,   188.449097,   721.967407,   -60.896694,   0.461814,   657.130981,   596.650330
-0.015869,   0.066733,   0.072837,   0.000000,   729.871216,   0.533426,   31.271563,   33.951054,   189.646774,   724.878723,   -51.933239,   0.463783,   657.293945,   594.605530
-0.015703,   0.066885,   0.073065,   0.000000,   730.791321,   0.533425,   31.271563,   33.175877,   190.707932,   727.353577,   -43.089104,   0.465450,   657.472961,   592.867920
-0.015566,   0.067018,   0.073263,   0.000000,   731.562927,   0.533425,   31.271563,   32.400703,   191.608765,   729.379517,   -34.335766,   0.466815,   657.639465,   591.430847
-0.015459,   0.067119,   0.073415,   0.000000,   732.151062,   0.533426,   31.271563,   31.625526,   192.301529,   730.929504,   -25.679647,   0.467861,   657.766907,   590.310425
-0.015383,   0.067191,   0.073523,   0.000000,   732.566467,   0.533425,   31.271563,   30.850351,   192.789795,   732.025330,   -17.091166,   0.468599,   657.858887,   589.512756
-0.015337,   0.067235,   0.073589,   0.000000,   732.825256,   0.533425,   31.271563,   30.075176,   193.115723,   732.690247,   -8.535998,   0.469060,   657.915833,   589.008484
-0.015321,   0.067250,   0.073612,   0.000000,   732.875183,   0.533426,   31.271563,   29.300001,   193.242874,   732.875183,   -0.000010,   0.469233,   657.895081,   588.780945
-0.015337,   0.067235,   0.073589,   0.000000,   732.825256,   0.533425,   31.271563,   28.524824,   193.115723,   732.690247,   8.535979,   0.469060,   657.915833,   589.008484
-0.015383,   0.067191,   0.073523,   0.000000,   732.566467,   0.533425,   31.271563,   27.749649,   192.789795,   732.025330,   17.091148,   0.468599,   657.858887,   589.512756
-0.015459,   0.067119,   0.073415,   0.000000,   732.151001,   0.533426,   31.271563,   26.974474,   192.301498,   730.929443,   25.679636,   0.467861,   657.766846,   590.310425
-0.015566,   0.067018,   0.073263,   0.000000,   731.562927,   0.533425,   31.271563,   26.199297,   191.608765,   729.379517,   34.335758,   0.466815,   657.639465,   591.430847
-0.015703,   0.066885,   0.073065,   0.000000,   730.791321,   0.533425,   31.271563,   25.424122,   190.707947,   727.353577,   43.089096,   0.465450,   657.472961,   592.867920
-0.015869,   0.066733,   0.072837,   0.000000,   729.871216,   0.533426,   31.271563,   24.648947,   189.646866,   724.878723,   51.933231,   0.463783,   657.293945,   594.605408
-0.016070,   0.066574,   0.072594,   0.000000,   728.829956,   0.533426,   31.271563,   23.873770,   188.449066,   721.967407,   60.896687,   0.461814,   657.130981,   596.650330
-0.016303,   0.066413,   0.072340,   0.000000,   727.666443,   0.533425,   31.271563,   23.098595,   187.116379,   718.599915,   70.006577,   0.459526,   656.992676,   599.002686
-0.016579,   0.066255,   0.072082,   0.000000,   726.376038,   0.533425,   31.271563,   22.323420,   185.633728,   714.747742,   79.296425,   0.456890,   656.891663,   601.677917
-0.016889,   0.066108,   0.071833,   0.000000,   724.992188,   0.533426,   31.271563,   21.548244,   184.064682,   710.431519,   88.748413,   0.453930,   656.853271,   604.640198
-0.017239,   0.065985,   0.071607,   0.000000,   723.533630,   0.533426,   31.271563,   20.773067,   182.423004,   705.666992,   98.325027,   0.450647,   656.900024,   607.877319
-0.017632,   0.065894,   0.071415,   0.000000,   722.008789,   0.533425,   31.271563,   19.997892,   180.727417,   700.414368,   108.114174,   0.447014,   657.057556,   611.403992
-0.018073,   0.065851,   0.071274,   0.000000,   720.462097,   0.533426,   31.271563,   19.222717,   179.048431,   694.722351,   118.050186,   0.443074,   657.355347,   615.172668
-0.018566,   0.065863,   0.071194,   0.000000,   718.906738,   0.533425,   31.271563,   18.447540,   177.405228,   688.598511,   128.109146,   0.438831,   657.811096,   619.163452
-0.019108,   0.065934,   0.071183,   0.000000,   717.347107,   0.533426,   31.271563,   17.672365,   175.824600,   682.015808,   138.321030,   0.434279,   658.439697,   623.363281
-0.019696,   0.066072,   0.071252,   0.000000,   715.838379,   0.533425,   31.271563,   16.897190,   174.428467,   675.051880,   148.600891,   0.429515,   659.256165,   627.684814
-0.020351,   0.066268,   0.071387,   0.000000,   714.311890,   0.533426,   31.271563,   16.122015,   173.140335,   667.583191,   159.022812,   0.424450,   660.245422,   632.152710
-0.021060,   0.066539,   0.071613,   0.000000,   712.834656,   0.533425,   31.271563,   15.346839,   172.040070,   659.716675,   169.487183,   0.419164,   661.440735,   636.718750
-0.021821,   0.066909,   0.071962,   0.000000,   711.500244,   0.533426,   31.271563,   14.571663,   171.288605,   651.512634,   180.016678,   0.413741,   662.895020,   641.365967
-0.022674,   0.067373,   0.072420,   0.000000,   710.180969,   0.533425,   31.271563,   13.796487,   170.660461,   642.805420,   190.658066,   0.408007,   664.585449,   646.157837
-0.023572,   0.067928,   0.072998,   0.000000,   708.927917,   0.533426,   31.271563,   13.021312,   170.350235,   633.553284,   201.482285,   0.402031,   666.534546,   651.049683
-0.024555,   0.068582,   0.073695,   0.000000,   707.758972,   0.533425,   31.271563,   12.246136,   170.355621,   623.896240,   212.292526,   0.395906,   668.720886,   655.959534
-0.025645,   0.069288,   0.074464,   0.000000,   706.339783,   0.533426,   31.271563,   11.470961,   170.389801,   613.079041,   223.569016,   0.389142,   671.107666,   661.025940
-0.026787,   0.070106,   0.075381,   0.000000,   704.953125,   0.533425,   31.271563,   10.695785,   170.842896,   601.484314,   235.082458,   0.382077,   673.797180,   666.155579
-0.027975,   0.071063,   0.076483,   0.000000,   703.700195,   0.533425,   31.271563,   9.920609,   171.991959,   589.071228,   246.878845,   0.374810,   676.844238,   671.342651
-0.029364,   0.072141,   0.077733,   0.000000,   702.041931,   0.533425,   31.271563,   9.145433,   173.068542,   574.958557,   259.275360,   0.366563,   680.216125,   676.705688
-0.030884,   0.073337,   0.079141,   0.000000,   700.068359,   0.533425,   31.271563,   8.370258,   174.532089,   559.065491,   272.217041,   0.357545,   683.920410,   682.067566
-0.032532,   0.074643,   0.080706,   0.000000,   697.703003,   0.533425,   31.271563,   7.595082,   176.602982,   541.045471,   285.717102,   0.347725,   687.947205,   687.296265
-0.034316,   0.076060,   0.082429,   0.000000,   694.824707,   0.533425,   31.271563,   6.819907,   179.497101,   520.427551,   299.786041,   0.337010,   692.288818,   692.246521
-0.028067,   0.063745,   0.068779,   0.000000,   674.250916,   0.530986,   32.119831,   52.313992,   199.577621,   480.115692,   -303.563507,   0.337377,   671.546204,   671.496643
-0.026828,   0.063097,   0.067960,   0.000000,   678.378235,   0.530986,   32.119831,   51.520405,   194.159302,   504.416504,   -290.233612,   0.348326,   668.508301,   667.821289
-0.025683,   0.062448,   0.067157,   0.000000,   681.713562,   0.530985,   32.119831,   50.726818,   189.879623,   525.476196,   -277.205383,   0.358289,   665.530396,   663.613159
-0.024599,   0.061817,   0.066393,   0.000000,   684.446960,   0.530985,   32.119831,   49.933235,   186.437515,   543.950378,   -264.515808,   0.367395,   662.671875,   659.074707
-0.023597,   0.061247,   0.065714,   0.000000,   686.777771,   0.530986,   32.119831,   49.139648,   183.650879,   560.338257,   -252.220383,   0.375733,   660.034363,   654.420898
-0.022663,   0.060714,   0.065092,   0.000000,   688.799805,   0.530985,   32.119831,   48.346062,   181.476471,   575.029663,   -240.246216,   0.383488,   657.566162,   649.654602
-0.021733,   0.060183,   0.064494,   0.000000,   690.554260,   0.530986,   32.119831,   47.552475,   179.811249,   588.362732,   -228.459213,   0.390808,   655.201782,   644.736267
-0.020926,   0.059681,   0.063933,   0.000000,   691.851990,   0.530986,   32.119831,   46.758888,   178.164902,   599.949280,   -217.276901,   0.397195,   653.008179,   640.001343
-0.020157,   0.059306,   0.063533,   0.000000,   693.350220,   0.530986,   32.119831,   45.965305,   177.153641,   610.968445,   -206.216400,   0.403447,   651.157593,   635.363037
-0.019438,   0.059021,   0.063247,   0.000000,   694.875366,   0.530985,   32.119831,   45.171719,   176.477631,   621.271912,   -195.335266,   0.409369,   649.576904,   630.858154
-0.018769,   0.058739,   0.062974,   0.000000,   696.211670,   0.530985,   32.119831,   44.378132,   176.012238,   630.629211,   -184.705032,   0.414880,   648.091736,   626.398254
-0.018151,   0.058518,   0.062775,   0.000000,   697.581116,   0.530986,   32.119831,   43.584549,   175.861572,   639.469238,   -174.120972,   0.420190,   646.795532,   621.991699
-0.017561,   0.058359,   0.062659,   0.000000,   699.030762,   0.530985,   32.119831,   42.790962,   176.090881,   647.825989,   -163.636856,   0.425329,   645.709900,   617.655090
-0.017030,   0.058258,   0.062610,   0.000000,   700.496826,   0.530987,   32.119831,   41.997375,   176.532974,   655.691040,   -153.220825,   0.430220,   644.804932,   613.426147
-0.016533,   0.058225,   0.062646,   0.000000,   702.072754,   0.530985,   32.119831,   41.203789,   177.316360,   663.187927,   -142.846237,   0.434968,   644.112122,   609.278992
-0.016068,   0.058237,   0.062739,   0.000000,   703.692322,   0.530986,   32.119831,   40.410202,   178.368515,   670.260498,   -132.523743,   0.439534,   643.582764,   605.206970
-0.015647,   0.058279,   0.062865,   0.000000,   705.266479,   0.530985,   32.119831,   39.616615,   179.544388,   676.811951,   -122.307693,   0.443819,   643.172058,   601.266785
-0.015261,   0.058362,   0.063039,   0.000000,   706.858093,   0.530985,   32.119831,   38.823032,   180.891754,   682.943115,   -112.153763,   0.447879,   642.907227,   597.463013
-0.014908,   0.058479,   0.063253,   0.000000,   708.435364,   0.530986,   32.119831,   38.029446,   182.347321,   688.613220,   -102.118599,   0.451669,   642.772583,   593.845703
-0.014586,   0.058619,   0.063493,   0.000000,   709.958130,   0.530985,   32.119831,   37.235859,   183.841019,   693.782837,   -92.250145,   0.455146,   642.741516,   590.458557
-0.014304,   0.058781,   0.063752,   0.000000,   711.409607,   0.530987,   32.119831,   36.442272,   185.301880,   698.478699,   -82.480682,   0.458299,   642.797852,   587.332825
-0.014054,   0.058954,   0.064022,   0.000000,   712.782837,   0.530985,   32.119831,   35.648685,   186.743454,   702.690125,   -72.863960,   0.461140,   642.923950,   584.472595
-0.013835,   0.059127,   0.064286,   0.000000,   714.036438,   0.530986,   32.119831,   34.855103,   188.088409,   706.391113,   -63.411755,   0.463636,   643.090027,   581.918213
-0.013646,   0.059293,   0.064535,   0.000000,   715.159668,   0.530985,   32.119831,   34.061516,   189.324417,   709.596191,   -54.087528,   0.465804,   643.275208,   579.664856
-0.013482,   0.059443,   0.064760,   0.000000,   716.133789,   0.530985,   32.119831,   33.267929,   190.415833,   712.301941,   -44.882816,   0.467637,   643.460999,   577.732605
-0.013354,   0.059572,   0.064951,   0.000000,   716.935303,   0.530986,   32.119831,   32.474346,   191.322388,   714.496521,   -35.802959,   0.469122,   643.627197,   576.143127
-0.013252,   0.059677,   0.065106,   0.000000,   717.591797,   0.530985,   32.119831,   31.680758,   192.100708,   716.223572,   -26.813959,   0.470310,   643.776978,   574.862549
-0.013179,   0.059755,   0.065222,   0.000000,   718.018372,   0.530985,   32.119831,   30.887173,   192.720612,   717.410278,   -17.873022,   0.471206,   643.830200,   573.828186
-0.013136,   0.059803,   0.065292,   0.000000,   718.318054,   0.530985,   32.119831,   30.093586,   193.069565,   718.165833,   -8.942510,   0.471719,   643.911438,   573.276611
-0.013122,   0.059818,   0.065315,   0.000000,   718.382690,   0.530986,   32.119831,   29.299999,   193.170380,   718.382690,   -0.000010,   0.471885,   643.908508,   573.070312
-0.013136,   0.059803,   0.065292,   0.000000,   718.318054,   0.530985,   32.119831,   28.506414,   193.069565,   718.165833,   8.942491,   0.471719,   643.911438,   573.276611
-0.013179,   0.059755,   0.065222,   0.000000,   718.018372,   0.530985,   32.119831,   27.712828,   192.720612,   717.410278,   17.873003,   0.471206,   643.830200,   573.828186
-0.013252,   0.059677,   0.065106,   0.000000,   717.591797,   0.530986,   32.119831,   26.919241,   192.100723,   716.223572,   26.813946,   0.470310,   643.776917,   574.862549
-0.013354,   0.059572,   0.064951,   0.000000,   716.935303,   0.530985,   32.119831,   26.125656,   191.322327,   714.496521,   35.802944,   0.469122,   643.627136,   576.143188
-0.013482,   0.059443,   0.064760,   0.000000,   716.133789,   0.530985,   32.119831,   25.332071,   190.415863,   712.301941,   44.882801,   0.467637,   643.460999,   577.732605
-0.013646,   0.059293,   0.064535,   0.000000,   715.159607,   0.530986,   32.119831,   24.538485,   189.324402,   709.596130,   54.087528,   0.465804,   643.275146,   579.664856
-0.013835,   0.059127,   0.064286,   0.000000,   714.036377,   0.530985,   32.119831,   23.744898,   188.088379,   706.391052,   63.411758,   0.463636,   643.090027,   581.918091
-0.014054,   0.058954,   0.064022,   0.000000,   712.782837,   0.530985,   32.119831,   22.951313,   186.743469,   702.690125,   72.863968,   0.461140,   642.923950,   584.472656
-0.014304,   0.058781,   0.063752,   0.000000,   711.409607,   0.530985,   32.119831,   22.157726,   185.301895,   698.478699,   82.480682,   0.458299,   642.797791,   587.332825
-0.014586,   0.058619,   0.063493,   0.000000,   709.958130,   0.530986,   32.119831,   21.364141,   183.841003,   693.782837,   92.250145,   0.455146,   642.741516,   590.458557
-0.014908,   0.058479,   0.063253,   0.000000,   708.435364,   0.530985,   32.119831,   20.570555,   182.347260,   688.613159,   102.118607,   0.451669,   642.772522,   593.845642
-0.015261,   0.058362,   0.063039,   0.000000,   706.858032,   0.530985,   32.119831,   19.776970,   180.891754,   682.943054,   112.153763,   0.447879,   642.907227,   597.462891
-0.015647,   0.058279,   0.062865,   0.000000,   705.266418,   0.530986,   32.119831,   18.983383,   179.544373,   676.811890,   122.307716,   0.443819,   643.172058,   601.266724
-0.016068,   0.058237,   0.062739,   0.000000,   703.692322,   0.530985,   32.119831,   18.189796,   178.368484,   670.260437,   132.523773,   0.439534,   643.582703,   605.206909
-0.016533,   0.058225,   0.062646,   0.000000,   702.072693,   0.530985,   32.119831,   17.396212,   177.316391,   663.187866,   142.846268,   0.434968,   644.112061,   609.278931
-0.017030,   0.058258,   0.062610,   0.000000,   700.496826,   0.530985,   32.119831,   16.602625,   176.533005,   655.690979,   153.220856,   0.430220,   644.804871,   613.426025
-0.017561,   0.058359,   0.062659,   0.000000,   699.030762,   0.530985,   32.119831,   15.809039,   176.090897,   647.825989,   163.636856,   0.425329,   645.709900,   617.655090
-0.018151,   0.058518,   0.062775,   0.000000,   697.581055,   0.530986,   32.119831,   15.015453,   175.861557,   639.469177,   174.120972,   0.420190,   646.795471,   621.991699
-0.018769,   0.058739,   0.062974,   0.000000,   696.211609,   0.530985,   32.119831,   14.221868,   176.012268,   630.629150,   184.705032,   0.414880,   648.091675,   626.398315
-0.019438,   0.059021,   0.063247,   0.000000,   694.875366,   0.530985,   32.119831,   13.428282,   176.477692,   621.271851,   195.335297,   0.409369,   649.576843,   630.858093
-0.020157,   0.059306,   0.063533,   0.000000,   693.350159,   0.530986,   32.119831,   12.634696,   177.153641,   610.968323,   206.216446,   0.403447,   651.157471,   635.363037
-0.020926,   0.059681,   0.063933,   0.000000,   691.852051,   0.530985,   32.119831,   11.841109,   178.165054,   599.949219,   217.276947,   0.397195,   653.008179,   640.001282
-0.021733,   0.060183,   0.064494,   0.000000,   690.554260,   0.530985,   32.119831,   11.047523,   179.811279,   588.362671,   228.459244,   0.390808,   655.201782,   644.736206
-0.022663,   0.060714,   0.065092,   0.000000,   688.799866,   0.530986,   32.119831,   10.253938,   181.476639,   575.029663,   240.246231,   0.383488,   657.566101,   649.654480
-0.023597,   0.061247,   0.065714,   0.000000,   686.777832,   0.530985,   32.119831,   9.460352,   183.651047,   560.338318,   252.220352,   0.375733,   660.034363,   654.420898
-0.024599,   0.061817,   0.066393,   0.000000,   684.447021,   0.530985,   32.119831,   8.666766,   186.437775,   543.950500,   264.515747,   0.367396,   662.671875,   659.074585
-0.025683,   0.062448,   0.067157,   0.000000,   681.713745,   0.530986,   32.119831,   7.873180,   189.879929,   525.476379,   277.205353,   0.358289,   665.530457,   663.613281
-0.026828,   0.063097,   0.067960,   0.000000,   678.378418,   0.530986,   32.119831,   7.079594,   194.159531,   504.416687,   290.233643,   0.348326,   668.508423,   667.821350
-0.028067,   0.063745,   0.068779,   0.000000,   674.251038,   0.530985,   32.119831,   6.286008,   199.577759,   480.115540,   303.563690,   0.337377,   671.546387,   671.496765
-0.023043,   0.053406,   0.057243,   0.000000,   653.186951,   0.527611,   32.943504,   52.883896,   218.423935,   439.511597,   -304.791962,   0.336975,   650.825684,   650.786682
-0.022187,   0.053309,   0.057088,   0.000000,   658.827209,   0.527612,   32.943504,   52.070660,   210.809433,   467.828033,   -292.525269,   0.348476,   649.148865,   648.468262
-0.021327,   0.053113,   0.056827,   0.000000,   663.374634,   0.527612,   32.943504,   51.257420,   204.711594,   492.374084,   -280.056488,   0.359039,   647.177979,   645.198120
-0.020560,   0.052883,   0.056531,   0.000000,   666.877197,   0.527611,   32.943504,   50.444183,   199.282455,   513.490112,   -267.811493,   0.368269,   645.154968,   641.466675
-0.019836,   0.052646,   0.056234,   0.000000,   669.860291,   0.527613,   32.943504,   49.630943,   194.935211,   532.174744,   -255.715317,   0.376849,   643.149353,   637.378845
-0.019086,   0.052408,   0.055956,   0.000000,   672.516541,   0.527611,   32.943504,   48.817707,   191.667969,   548.833618,   -243.870377,   0.384936,   641.232727,   633.048340
-0.018449,   0.052202,   0.055714,   0.000000,   674.644653,   0.527612,   32.943504,   48.004471,   188.491547,   563.573792,   -232.373535,   0.392032,   639.459106,   628.785278
-0.017835,   0.052047,   0.055543,   0.000000,   676.665283,   0.527612,   32.943504,   47.191231,   186.007721,   577.008423,   -221.127518,   0.398720,   637.888489,   624.536072
-0.017241,   0.051902,   0.055393,   0.000000,   678.522339,   0.527612,   32.943504,   46.377995,   184.008240,   589.383850,   -209.952942,   0.405079,   636.413086,   620.204773
-0.016695,   0.051745,   0.055236,   0.000000,   680.008057,   0.527612,   32.943504,   45.564754,   182.178909,   600.270142,   -199.238159,   0.410725,   635.015259,   616.012634
-0.016175,   0.051672,   0.055186,   0.000000,   681.648376,   0.527611,   32.943504,   44.751518,   180.922928,   610.635193,   -188.568573,   0.416250,   633.880798,   611.889587
-0.015674,   0.051644,   0.055196,   0.000000,   683.321533,   0.527612,   32.943504,   43.938282,   180.118027,   620.364807,   -177.988907,   0.421577,   632.926758,   607.807129
-0.015201,   0.051600,   0.055195,   0.000000,   684.813232,   0.527612,   32.943504,   43.125042,   179.549927,   629.226440,   -167.588699,   0.426559,   632.016174,   603.748474
-0.014756,   0.051592,   0.055240,   0.000000,   686.348938,   0.527612,   32.943504,   42.311806,   179.384766,   637.592651,   -157.218658,   0.431404,   631.254272,   599.703125
-0.014328,   0.051618,   0.055333,   0.000000,   687.945435,   0.527612,   32.943504,   41.498566,   179.622391,   645.513916,   -146.863586,   0.436135,   630.642822,   595.664001
-0.013928,   0.051666,   0.055455,   0.000000,   689.527954,   0.527612,   32.943504,   40.685329,   180.147842,   652.892029,   -136.607544,   0.440657,   630.150024,   591.681702
-0.013552,   0.051755,   0.055626,   0.000000,   691.180542,   0.527611,   32.943504,   39.872089,   181.004837,   659.895874,   -126.335510,   0.445054,   629.811829,   587.737061
-0.013197,   0.051865,   0.055828,   0.000000,   692.852783,   0.527612,   32.943504,   39.058853,   182.155518,   666.471069,   -116.073494,   0.449302,   629.588867,   583.821533
-0.012862,   0.051979,   0.056034,   0.000000,   694.452209,   0.527612,   32.943504,   38.245617,   183.455338,   672.512451,   -105.882721,   0.453301,   629.433350,   579.996521
-0.012558,   0.052103,   0.056252,   0.000000,   695.989075,   0.527612,   32.943504,   37.432377,   184.867844,   678.026794,   -95.816986,   0.457022,   629.359802,   576.328979
-0.012282,   0.052245,   0.056486,   0.000000,   697.478699,   0.527612,   32.943504,   36.619141,   186.355835,   683.076660,   -85.797409,   0.460475,   629.373108,   572.844543
-0.012034,   0.052395,   0.056729,   0.000000,   698.892029,   0.527611,   32.943504,   35.805901,   187.863922,   687.620300,   -75.895859,   0.463619,   629.456970,   569.600525
-0.011812,   0.052543,   0.056964,   0.000000,   700.187134,   0.527613,   32.943504,   34.992664,   189.314896,   691.629578,   -66.119659,   0.466419,   629.580200,   566.640076
-0.011619,   0.052684,   0.057186,   0.000000,   701.348206,   0.527611,   32.943504,   34.179428,   190.670334,   695.106873,   -56.456364,   0.468869,   629.725708,   563.990845
-0.011453,   0.052812,   0.057386,   0.000000,   702.356201,   0.527612,   32.943504,   33.366188,   191.934387,   698.048218,   -46.892345,   0.470993,   629.862976,   561.633057
-0.011318,   0.052923,   0.057559,   0.000000,   703.165039,   0.527612,   32.943504,   32.552952,   193.033020,   700.415588,   -37.450951,   0.472755,   629.958862,   559.607849
-0.011214,   0.053014,   0.057699,   0.000000,   703.826660,   0.527611,   32.943504,   31.739714,   193.852783,   702.282837,   -28.059202,   0.474085,   630.081421,   558.092224
-0.011139,   0.053081,   0.057802,   0.000000,   704.265686,   0.527611,   32.943504,   30.926476,   194.381027,   703.580261,   -18.694754,   0.474995,   630.154724,   557.028625
-0.011095,   0.053125,   0.057868,   0.000000,   704.555664,   0.527612,   32.943504,   30.113239,   194.738113,   704.383972,   -9.356075,   0.475563,   630.215759,   556.371826
-0.011081,   0.053140,   0.057891,   0.000000,   704.466553,   0.527612,   32.943504,   29.299999,   194.880432,   704.466553,   -0.000009,   0.475806,   630.051392,   555.921082
-0.011095,   0.053125,   0.057868,   0.000000,   704.555664,   0.527612,   32.943504,   28.486761,   194.738113,   704.383972,   9.356057,   0.475563,   630.215759,   556.371826
-0.011139,   0.053081,   0.057802,   0.000000,   704.265686,   0.527612,   32.943504,   27.673523,   194.381058,   703.580261,   18.694742,   0.474995,   630.154724,   557.028625
-0.011214,   0.053014,   0.057699,   0.000000,   703.826599,   0.527611,   32.943504,   26.860287,   193.852737,   702.282776,   28.059195,   0.474085,   630.081299,   558.092285
-0.011318,   0.052923,   0.057559,   0.000000,   703.165039,   0.527611,   32.943504,   26.047049,   193.033096,   700.415588,   37.450943,   0.472755,   629.958801,   559.607727
-0.011453,   0.052812,   0.057386,   0.000000,   702.356201,   0.527612,   32.943504,   25.233810,   191.934326,   698.048218,   46.892334,   0.470993,   629.862976,   561.632996
-0.011619,   0.052684,   0.057186,   0.000000,   701.348145,   0.527612,   32.943504,   24.420572,   190.670319,   695.106812,   56.456367,   0.468869,   629.725647,   563.990784
-0.011812,   0.052543,   0.056964,   0.000000,   700.187073,   0.527612,   32.943504,   23.607334,   189.314880,   691.629517,   66.119667,   0.466419,   629.580200,   566.640015
-0.012034,   0.052395,   0.056729,   0.000000,   698.892029,   0.527611,   32.943504,   22.794098,   187.863876,   687.620300,   75.895859,   0.463619,   629.456970,   569.600647
-0.012282,   0.052245,   0.056486,   0.000000,   697.478638,   0.527612,   32.943504,   21.980860,   186.355865,   683.076599,   85.797424,   0.460475,   629.372986,   572.844421
-0.012558,   0.052103,   0.056252,   0.000000,   695.989075,   0.527612,   32.943504,   21.167622,   184.867783,   678.026794,   95.816994,   0.457022,   629.359802,   576.329102
-0.012862,   0.051979,   0.056034,   0.000000,   694.452209,   0.527611,   32.943504,   20.354383,   183.455383,   672.512451,   105.882736,   0.453301,   629.433289,   579.996521
-0.013197,   0.051865,   0.055828,   0.000000,   692.852783,   0.527611,   32.943504,   19.541147,   182.155426,   666.471069,   116.073494,   0.449302,   629.588867,   583.821594
-0.013552,   0.051755,   0.055626,   0.000000,   691.180542,   0.527612,   32.943504,   18.727909,   181.004822,   659.895874,   126.335518,   0.445054,   629.811829,   587.737122
-0.013928,   0.051666,   0.055455,   0.000000,   689.527954,   0.527612,   32.943504,   17.914671,   180.147888,   652.892029,   136.607559,   0.440657,   630.149963,   591.681702
-0.014328,   0.051618,   0.055333,   0.000000,   687.945374,   0.527612,   32.943504,   17.101433,   179.622330,   645.513855,   146.863602,   0.436135,   630.642822,   595.664124
-0.014756,   0.051592,   0.055240,   0.000000,   686.348999,   0.527612,   32.943504,   16.288195,   179.384796,   637.592651,   157.218674,   0.431404,   631.254333,   599.703186
-0.015201,   0.051600,   0.055195,   0.000000,   684.813171,   0.527612,   32.943504,   15.474957,   179.549881,   629.226379,   167.588699,   0.426559,   632.016113,   603.748535
-0.015674,   0.051644,   0.055196,   0.000000,   683.321472,   0.527612,   32.943504,   14.661719,   180.118057,   620.364746,   177.988892,   0.421577,   632.926636,   607.807007
-0.016175,   0.051672,   0.055186,   0.000000,   681.648376,   0.527612,   32.943504,   13.848482,   180.922943,   610.635193,   188.568573,   0.416250,   633.880798,   611.889587
-0.016695,   0.051745,   0.055236,   0.000000,   680.007935,   0.527612,   32.943504,   13.035244,   182.178894,   600.270020,   199.238159,   0.410725,   635.015137,   616.012451
-0.017241,   0.051902,   0.055393,   0.000000,   678.522278,   0.527612,   32.943504,   12.222006,   184.008316,   589.383789,   209.952927,   0.405079,   636.412964,   620.204590
-0.017835,   0.052047,   0.055543,   0.000000,   676.665222,   0.527612,   32.943504,   11.408768,   186.007736,   577.008362,   221.127502,   0.398720,   637.888428,   624.535950
-0.018449,   0.052202,   0.055714,   0.000000,   674.644653,   0.527611,   32.943504,   10.595531,   188.491684,   563.573792,   232.373489,   0.392032,   639.459045,   628.785156
-0.019086,   0.052408,   0.055956,   0.000000,   672.516479,   0.527612,   32.943504,   9.782292,   191.668091,   548.833618,   243.870285,   0.384937,   641.232605,   633.048157
-0.019836,   0.052645,   0.056234,   0.000000,   669.860291,   0.527612,   32.943504,   8.969054,   194.935364,   532.174805,   255.715225,   0.376849,   643.149231,   637.378723
-0.020560,   0.052883,   0.056531,   0.000000,   666.877197,   0.527611,   32.943504,   8.155817,   199.282608,   513.490173,   267.811371,   0.368270,   645.154907,   641.466553
-0.021327,   0.053113,   0.056827,   0.000000,   663.374573,   0.527612,   32.943504,   7.342579,   204.711670,   492.374023,   280.056427,   0.359039,   647.177856,   645.197998
-0.022187,   0.053309,   0.057088,   0.000000,   658.827087,   0.527612,   32.943504,   6.529341,   210.809570,   467.827820,   292.525238,   0.348476,   649.148682,   648.468018
-0.023043,   0.053406,   0.057242,   0.000000,   653.186584,   0.527612,   32.943504,   5.716104,   218.424026,   439.510895,   304.792023,   0.336975,   650.825378,   650.786377
-0.018738,   0.044407,   0.047137,   0.000000,   631.566711,   0.523154,   33.740997,   53.488712,   236.590988,   399.819977,   -302.546448,   0.337176,   629.158630,   629.116699
-0.018207,   0.044788,   0.047569,   0.000000,   638.868713,   0.523154,   33.740997,   52.654621,   226.847519,   431.809357,   -292.083649,   0.348934,   629.208069,   628.507385
-0.017708,   0.045036,   0.047840,   0.000000,   644.474976,   0.523154,   33.740997,   51.820526,   218.510742,   458.800537,   -281.230652,   0.359107,   628.700317,   626.766602
-0.017216,   0.045206,   0.048016,   0.000000,   649.186218,   0.523154,   33.740997,   50.986435,   211.411926,   482.928772,   -269.783691,   0.368647,   627.828003,   624.158997
-0.016685,   0.045316,   0.048128,   0.000000,   653.259460,   0.523155,   33.740997,   50.152340,   205.776810,   504.392059,   -258.099945,   0.377702,   626.745544,   620.892639
-0.016158,   0.045328,   0.048135,   0.000000,   656.471863,   0.523154,   33.740997,   49.318245,   201.073059,   522.910767,   -246.624344,   0.385844,   625.454651,   617.177246
-0.015680,   0.045351,   0.048154,   0.000000,   659.209595,   0.523154,   33.740997,   48.484154,   196.803207,   539.572754,   -235.203796,   0.393228,   624.213989,   613.345276
-0.015217,   0.045397,   0.048210,   0.000000,   661.731812,   0.523155,   33.740997,   47.650059,   193.396286,   554.581116,   -224.014420,   0.400137,   623.101746,   609.455994
-0.014802,   0.045456,   0.048281,   0.000000,   663.885010,   0.523154,   33.740997,   46.815964,   190.271530,   567.984924,   -213.118652,   0.406294,   622.091187,   605.672241
-0.014385,   0.045541,   0.048394,   0.000000,   665.991150,   0.523155,   33.740997,   45.981869,   187.865891,   580.329590,   -202.378265,   0.412193,   621.226868,   601.874512
-0.013980,   0.045630,   0.048519,   0.000000,   667.978516,   0.523152,   33.740997,   45.147778,   185.969681,   591.722534,   -191.718719,   0.417817,   620.440186,   598.028870
-0.013594,   0.045697,   0.048624,   0.000000,   669.703369,   0.523154,   33.740997,   44.313686,   184.382980,   601.908875,   -181.389267,   0.422949,   619.690125,   594.258545
-0.013214,   0.045807,   0.048790,   0.000000,   671.537537,   0.523155,   33.740997,   43.479591,   183.380981,   611.592712,   -171.062759,   0.428014,   619.118042,   590.473267
-0.012833,   0.045916,   0.048965,   0.000000,   673.350098,   0.523154,   33.740997,   42.645496,   182.881729,   620.638184,   -160.790329,   0.432961,   618.623230,   586.611023
-0.012459,   0.045997,   0.049113,   0.000000,   675.022888,   0.523155,   33.740997,   41.811405,   182.709854,   628.985596,   -150.548187,   0.437719,   618.124695,   582.655334
-0.012097,   0.046082,   0.049272,   0.000000,   676.680664,   0.523154,   33.740997,   40.977310,   182.952026,   636.767822,   -140.378448,   0.442344,   617.709534,   578.660339
-0.011746,   0.046174,   0.049445,   0.000000,   678.349487,   0.523154,   33.740997,   40.143215,   183.593201,   644.110291,   -130.153976,   0.446895,   617.373779,   574.579285
-0.011407,   0.046262,   0.049617,   0.000000,   679.969116,   0.523154,   33.740997,   39.309124,   184.547958,   650.910828,   -119.983696,   0.451286,   617.095520,   570.469604
-0.011079,   0.046351,   0.049794,   0.000000,   681.570618,   0.523154,   33.740997,   38.475029,   185.811798,   657.268799,   -109.762596,   0.455560,   616.882080,   566.309204
-0.010772,   0.046452,   0.049986,   0.000000,   683.151245,   0.523155,   33.740997,   37.640938,   187.308517,   663.159302,   -99.563278,   0.459646,   616.755920,   562.197632
-0.010486,   0.046554,   0.050179,   0.000000,   684.654114,   0.523154,   33.740997,   36.806843,   188.912186,   668.548340,   -89.355011,   0.463478,   616.685303,   558.191772
-0.010223,   0.046646,   0.050357,   0.000000,   686.033325,   0.523154,   33.740997,   35.972748,   190.561996,   673.374451,   -79.196609,   0.467014,   616.639099,   554.339844
-0.009986,   0.046737,   0.050532,   0.000000,   687.302002,   0.523155,   33.740997,   35.138653,   192.234772,   677.651550,   -69.120316,   0.470238,   616.628357,   550.702637
-0.009778,   0.046828,   0.050699,   0.000000,   688.428650,   0.523154,   33.740997,   34.304562,   193.857407,   681.362549,   -59.115875,   0.473120,   616.629944,   547.333618
-0.009599,   0.046911,   0.050851,   0.000000,   689.434998,   0.523154,   33.740997,   33.470467,   195.338516,   684.537109,   -49.193851,   0.475600,   616.678040,   544.375427
-0.009451,   0.046985,   0.050984,   0.000000,   690.258362,   0.523154,   33.740997,   32.636375,   196.591156,   687.124451,   -39.333282,   0.477641,   616.722656,   541.872070
-0.009340,   0.047049,   0.051096,   0.000000,   690.785767,   0.523154,   33.740997,   31.802280,   197.647461,   689.024170,   -29.473719,   0.479305,   616.636902,   539.673706
-0.009258,   0.047100,   0.051182,   0.000000,   691.186890,   0.523154,   33.740997,   30.968187,   198.512527,   690.404297,   -19.635883,   0.480565,   616.577759,   537.984802
-0.009209,   0.047130,   0.051235,   0.000000,   691.378174,   0.523154,   33.740997,   30.134094,   199.010330,   691.182312,   -9.820105,   0.481314,   616.502197,   536.933411
-0.009192,   0.047140,   0.051253,   0.000000,   691.421814,   0.523154,   33.740997,   29.300001,   199.147705,   691.421814,   -0.000009,   0.481547,   616.464844,   536.592102
-0.009209,   0.047130,   0.051235,   0.000000,   691.378174,   0.523154,   33.740997,   28.465906,   199.010315,   691.182312,   9.820086,   0.481314,   616.502197,   536.933350
-0.009258,   0.047100,   0.051182,   0.000000,   691.186890,   0.523154,   33.740997,   27.631813,   198.512497,   690.404297,   19.635870,   0.480565,   616.577759,   537.984802
-0.009340,   0.047049,   0.051096,   0.000000,   690.785767,   0.523154,   33.740997,   26.797718,   197.647476,   689.024170,   29.473713,   0.479305,   616.636902,   539.673706
-0.009451,   0.046985,   0.050984,   0.000000,   690.258301,   0.523154,   33.740997,   25.963625,   196.591095,   687.124390,   39.333271,   0.477641,   616.722595,   541.872131
-0.009599,   0.046911,   0.050851,   0.000000,   689.434998,   0.523154,   33.740997,   25.129532,   195.338577,   684.537109,   49.193851,   0.475600,   616.678040,   544.375305
-0.009778,   0.046828,   0.050699,   0.000000,   688.428589,   0.523154,   33.740997,   24.295439,   193.857376,   681.362488,   59.115883,   0.473120,   616.629883,   547.333618
-0.009986,   0.046737,   0.050532,   0.000000,   687.302002,   0.523154,   33.740997,   23.461344,   192.234787,   677.651550,   69.120331,   0.470238,   616.628296,   550.702637
-0.010223,   0.046646,   0.050357,   0.000000,   686.033264,   0.523153,   33.740997,   22.627251,   190.561951,   673.374390,   79.196617,   0.467014,   616.639038,   554.339722
-0.010486,   0.046554,   0.050179,   0.000000,   684.654114,   0.523154,   33.740997,   21.793158,   188.912140,   668.548340,   89.355019,   0.463478,   616.685303,   558.191772
-0.010772,   0.046452,   0.049986,   0.000000,   683.151245,   0.523154,   33.740997,   20.959064,   187.308517,   663.159302,   99.563293,   0.459646,   616.755920,   562.197632
-0.011079,   0.046351,   0.049794,   0.000000,   681.570557,   0.523154,   33.740997,   20.124969,   185.811737,   657.268738,   109.762604,   0.455560,   616.882019,   566.309143
-0.011407,   0.046262,   0.049617,   0.000000,   679.969116,   0.523154,   33.740997,   19.290876,   184.548035,   650.910828,   119.983704,   0.451286,   617.095459,   570.469543
-0.011746,   0.046174,   0.049445,   0.000000,   678.349426,   0.523154,   33.740997,   18.456783,   183.593155,   644.110229,   130.153976,   0.446895,   617.373779,   574.579285
-0.012097,   0.046082,   0.049272,   0.000000,   676.680603,   0.523154,   33.740997,   17.622690,   182.951981,   636.767761,   140.378464,   0.442344,   617.709473,   578.660400
-0.012459,   0.045997,   0.049113,   0.000000,   675.022827,   0.523154,   33.740997,   16.788595,   182.709839,   628.985535,   150.548203,   0.437719,   618.124695,   582.655396
-0.012833,   0.045916,   0.048965,   0.000000,   673.350098,   0.523154,   33.740997,   15.954503,   182.881714,   620.638184,   160.790344,   0.432961,   618.623230,   586.611084
-0.013214,   0.045807,   0.048790,   0.000000,   671.537476,   0.523154,   33.740997,   15.120409,   183.380997,   611.592651,   171.062744,   0.428014,   619.117981,   590.473206
-0.013594,   0.045696,   0.048624,   0.000000,   669.703369,   0.523154,   33.740997,   14.286316,   184.382980,   601.908875,   181.389252,   0.422949,   619.690125,   594.258545
-0.013980,   0.045630,   0.048519,   0.000000,   667.978455,   0.523154,   33.740997,   13.452222,   185.969696,   591.722473,   191.718704,   0.417817,   620.440125,   598.028809
-0.014385,   0.045541,   0.048394,   0.000000,   665.991089,   0.523154,   33.740997,   12.618128,   187.865921,   580.329529,   202.378265,   0.412193,   621.226746,   601.874390
-0.014802,   0.045456,   0.048281,   0.000000,   663.884949,   0.523154,   33.740997,   11.784035,   190.271545,   567.984863,   213.118637,   0.406294,   622.091125,   605.672180
-0.015217,   0.045397,   0.048210,   0.000000,   661.731812,   0.523154,   33.740997,   10.949941,   193.396362,   554.581177,   224.014359,   0.400137,   623.101685,   609.455933
-0.015680,   0.045351,   0.048154,   0.000000,   659.209595,   0.523154,   33.740997,   10.115848,   196.803253,   539.572815,   235.203735,   0.393228,   624.213928,   613.345276
-0.016158,   0.045328,   0.048135,   0.000000,   656.471863,   0.523154,   33.740997,   9.281754,   201.073105,   522.910828,   246.624268,   0.385844,   625.454590,   617.177124
-0.016685,   0.045316,   0.048128,   0.000000,   653.259521,   0.523154,   33.740997,   8.447660,   205.776855,   504.392120,   258.099915,   0.377702,   626.745544,   620.892700
-0.017216,   0.045206,   0.048016,   0.000000,   649.186218,   0.523154,   33.740997,   7.613567,   211.411911,   482.928741,   269.783691,   0.368647,   627.828003,   624.158997
-0.017708,   0.045036,   0.047840,   0.000000,   644.474915,   0.523154,   33.740997,   6.779473,   218.510757,   458.800446,   281.230652,   0.359107,   628.700256,   626.766602
-0.018207,   0.044788,   0.047569,   0.000000,   638.868530,   0.523154,   33.740997,   5.945380,   226.847427,   431.809021,   292.083710,   0.348934,   629.208008,   628.507385
-0.018738,   0.044407,   0.047137,   0.000000,   631.566589,   0.523154,   33.740997,   5.111286,   236.591110,   399.819763,   302.546387,   0.337176,   629.158447,   629.116455
-0.015091,   0.036513,   0.038233,   0.000000,   608.769287,   0.517472,   34.510784,   54.127285,   252.433090,   361.213226,   -297.007050,   0.337347,   606.345459,   606.301392
-0.014888,   0.037293,   0.039153,   0.000000,   617.508057,   0.517472,   34.510784,   53.271168,   240.563370,   395.417145,   -289.337158,   0.348397,   608.482178,   607.850769
-0.014642,   0.037961,   0.039928,   0.000000,   625.079773,   0.517471,   34.510784,   52.415058,   231.135513,   425.883545,   -280.128906,   0.359181,   609.737854,   607.851440
-0.014322,   0.038488,   0.040533,   0.000000,   631.356628,   0.517472,   34.510784,   51.558945,   222.868744,   453.114380,   -269.832886,   0.369227,   610.268372,   606.580933
-0.014017,   0.038839,   0.040931,   0.000000,   636.056213,   0.517472,   34.510784,   50.702831,   215.500931,   476.137726,   -259.334869,   0.377841,   610.166687,   604.431641
-0.013707,   0.039191,   0.041327,   0.000000,   640.383972,   0.517472,   34.510784,   49.846718,   209.546127,   497.113800,   -248.447632,   0.386183,   609.952576,   601.771729
-0.013409,   0.039528,   0.041706,   0.000000,   644.174316,   0.517472,   34.510784,   48.990604,   204.340744,   516.018921,   -237.417450,   0.393857,   609.662292,   598.812378
-0.013100,   0.039786,   0.041999,   0.000000,   647.303955,   0.517472,   34.510784,   48.134491,   199.928040,   532.590271,   -226.539474,   0.400820,   609.183289,   595.552795
-0.012791,   0.040031,   0.042282,   0.000000,   650.116577,   0.517472,   34.510784,   47.278378,   196.245163,   547.545288,   -215.764191,   0.407304,   608.709656,   592.167297
-0.012487,   0.040270,   0.042564,   0.000000,   652.690918,   0.517472,   34.510784,   46.422264,   193.229019,   561.097595,   -205.142944,   0.413369,   608.275024,   588.715393
-0.012186,   0.040495,   0.042836,   0.000000,   655.024719,   0.517471,   34.510784,   45.566151,   190.741898,   573.346985,   -194.734604,   0.418994,   607.875488,   585.252563
-0.011868,   0.040712,   0.043112,   0.000000,   657.282104,   0.517472,   34.510784,   44.710037,   188.956635,   584.639526,   -184.446136,   0.424446,   607.533997,   581.686584
-0.011548,   0.040910,   0.043373,   0.000000,   659.426758,   0.517472,   34.510784,   43.853924,   187.728180,   595.093445,   -174.200806,   0.429739,   607.206787,   577.978638
-0.011217,   0.041063,   0.043593,   0.000000,   661.349365,   0.517472,   34.510784,   42.997814,   186.936737,   604.517944,   -164.199677,   0.434735,   606.848633,   574.197083
-0.010883,   0.041207,   0.043811,   0.000000,   663.241150,   0.517472,   34.510784,   42.141701,   186.632187,   613.394531,   -154.134140,   0.439675,   606.528870,   570.255188
-0.010543,   0.041333,   0.044018,   0.000000,   665.084717,   0.517472,   34.510784,   41.285587,   186.822922,   621.674744,   -144.087982,   0.444544,   606.236938,   566.152161
-0.010200,   0.041428,   0.044195,   0.000000,   666.832092,   0.517472,   34.510784,   40.429474,   187.437759,   629.388855,   -133.977951,   0.449357,   605.922668,   561.828308
-0.009853,   0.041485,   0.044337,   0.000000,   668.459229,   0.517471,   34.510784,   39.573360,   188.436371,   636.485107,   -123.888229,   0.454065,   605.581970,   557.320129
-0.009516,   0.041528,   0.044465,   0.000000,   670.013916,   0.517472,   34.510784,   38.717247,   189.741058,   643.096863,   -113.699242,   0.458669,   605.256897,   552.671875
-0.009195,   0.041562,   0.044583,   0.000000,   671.497803,   0.517472,   34.510784,   37.861134,   191.311096,   649.209900,   -103.452118,   0.463126,   604.962341,   547.944092
-0.008891,   0.041590,   0.044695,   0.000000,   672.871399,   0.517472,   34.510784,   37.005020,   193.089539,   654.785583,   -93.151764,   0.467403,   604.671204,   543.159363
-0.008605,   0.041615,   0.044803,   0.000000,   674.209045,   0.517473,   34.510784,   36.148907,   195.014236,   659.892456,   -82.827759,   0.471438,   604.467957,   538.481934
-0.008345,   0.041636,   0.044902,   0.000000,   675.409851,   0.517472,   34.510784,   35.292793,   196.981201,   664.425110,   -72.494148,   0.475173,   604.275818,   533.940125
-0.008114,   0.041657,   0.044994,   0.000000,   676.481018,   0.517472,   34.510784,   34.436680,   198.899704,   668.383118,   -62.188511,   0.478540,   604.117676,   529.679016
-0.007916,   0.041678,   0.045080,   0.000000,   677.380127,   0.517471,   34.510784,   33.580566,   200.702209,   671.738525,   -51.857635,   0.481515,   603.955505,   525.744812
-0.007752,   0.041700,   0.045159,   0.000000,   677.961548,   0.517472,   34.510784,   32.724453,   202.292480,   674.342834,   -41.488541,   0.484064,   603.663757,   522.125671
-0.007624,   0.041721,   0.045225,   0.000000,   678.442627,   0.517471,   34.510784,   31.868340,   203.558594,   676.397705,   -31.162720,   0.486053,   603.470581,   519.254578
-0.007530,   0.041735,   0.045273,   0.000000,   678.781738,   0.517472,   34.510784,   31.012226,   204.469849,   677.869324,   -20.803043,   0.487482,   603.331726,   517.150208
-0.007474,   0.041744,   0.045302,   0.000000,   678.918091,   0.517473,   34.510784,   30.156113,   205.054932,   678.689758,   -10.401360,   0.488383,   603.177551,   515.746643
-0.007456,   0.041748,   0.045313,   0.000000,   678.811340,   0.517471,   34.510784,   29.299999,   205.266953,   678.811340,   -0.000003,   0.488729,   602.977478,   515.082825
-0.007474,   0.041744,   0.045302,   0.000000,   678.918091,   0.517472,   34.510784,   28.443888,   205.054901,   678.689758,   10.401352,   0.488383,   603.177612,   515.746765
-0.007530,   0.041735,   0.045273,   0.000000,   678.781738,   0.517472,   34.510784,   27.587774,   204.469849,   677.869324,   20.803032,   0.487482,   603.331726,   517.150208
-0.007624,   0.041721,   0.045225,   0.000000,   678.442627,   0.517472,   34.510784,   26.731661,   203.558609,   676.397705,   31.162718,   0.486053,   603.470581,   519.254578
-0.007752,   0.041700,   0.045159,   0.000000,   677.961548,   0.517471,   34.510784,   25.875547,   202.292480,   674.342834,   41.488537,   0.484064,   603.663757,   522.125671
-0.007916,   0.041678,   0.045080,   0.000000,   677.380127,   0.517472,   34.510784,   25.019434,   200.702133,   671.738525,   51.857639,   0.481515,   603.955505,   525.744812
-0.008114,   0.041657,   0.044994,   0.000000,   676.480957,   0.517472,   34.510784,   24.163321,   198.899673,   668.383057,   62.188530,   0.478540,   604.117554,   529.679016
-0.008345,   0.041636,   0.044902,   0.000000,   675.409790,   0.517472,   34.510784,   23.307207,   196.981155,   664.425049,   72.494156,   0.475173,   604.275757,   533.940125
-0.008605,   0.041615,   0.044803,   0.000000,   674.209045,   0.517471,   34.510784,   22.451094,   195.014191,   659.892456,   82.827766,   0.471438,   604.467957,   538.482056
-0.008891,   0.041590,   0.044695,   0.000000,   672.871399,   0.517472,   34.510784,   21.594982,   193.089523,   654.785583,   93.151756,   0.467403,   604.671204,   543.159363
-0.009194,   0.041562,   0.044583,   0.000000,   671.497742,   0.517472,   34.510784,   20.738867,   191.311081,   649.209900,   103.452103,   0.463126,   604.962341,   547.944092
-0.009516,   0.041528,   0.044465,   0.000000,   670.013855,   0.517471,   34.510784,   19.882755,   189.741074,   643.096802,   113.699226,   0.458669,   605.256836,   552.671814
-0.009853,   0.041485,   0.044337,   0.000000,   668.459167,   0.517472,   34.510784,   19.026642,   188.436325,   636.485107,   123.888222,   0.454065,   605.581970,   557.320190
-0.010200,   0.041428,   0.044195,   0.000000,   666.832092,   0.517473,   34.510784,   18.170528,   187.437759,   629.388855,   133.977951,   0.449357,   605.922668,   561.828308
-0.010543,   0.041333,   0.044018,   0.000000,   665.084717,   0.517472,   34.510784,   17.314415,   186.822906,   621.674683,   144.087997,   0.444544,   606.236877,   566.152222
-0.010883,   0.041207,   0.043811,   0.000000,   663.241150,   0.517471,   34.510784,   16.458302,   186.632202,   613.394531,   154.134140,   0.439675,   606.528870,   570.255188
-0.011217,   0.041063,   0.043593,   0.000000,   661.349365,   0.517472,   34.510784,   15.602188,   186.936752,   604.517944,   164.199677,   0.434735,   606.848633,   574.197083
-0.011548,   0.040910,   0.043373,   0.000000,   659.426758,   0.517472,   34.510784,   14.746075,   187.728195,   595.093445,   174.200806,   0.429739,   607.206726,   577.978638
-0.011868,   0.040712,   0.043112,   0.000000,   657.282104,   0.517472,   34.510784,   13.889962,   188.956635,   584.639526,   184.446121,   0.424446,   607.533997,   581.686523
-0.012186,   0.040495,   0.042836,   0.000000,   655.024658,   0.517472,   34.510784,   13.033849,   190.741882,   573.346924,   194.734589,   0.418994,   607.875427,   585.252441
-0.012487,   0.040270,   0.042564,   0.000000,   652.690796,   0.517472,   34.510784,   12.177735,   193.229034,   561.097534,   205.142914,   0.413369,   608.274963,   588.715271
-0.012791,   0.040031,   0.042282,   0.000000,   650.116638,   0.517472,   34.510784,   11.321622,   196.245224,   547.545349,   215.764130,   0.407305,   608.709656,   592.167297
-0.013100,   0.039786,   0.041999,   0.000000,   647.303955,   0.517472,   34.510784,   10.465509,   199.928085,   532.590332,   226.539413,   0.400820,   609.183289,   595.552795
-0.013409,   0.039528,   0.041706,   0.000000,   644.174316,   0.517472,   34.510784,   9.609395,   204.340790,   516.018982,   237.417404,   0.393857,   609.662231,   598.812317
-0.013707,   0.039191,   0.041327,   0.000000,   640.383972,   0.517472,   34.510784,   8.753282,   209.546127,   497.113800,   248.447601,   0.386183,   609.952515,   601.771667
-0.014017,   0.038839,   0.040931,   0.000000,   636.056152,   0.517472,   34.510784,   7.897169,   215.500885,   476.137665,   259.334869,   0.377841,   610.166687,   604.431580
-0.014322,   0.038488,   0.040533,   0.000000,   631.356567,   0.517472,   34.510784,   7.041056,   222.868698,   453.114319,   269.832886,   0.369227,   610.268311,   606.580933
-0.014642,   0.037961,   0.039928,   0.000000,   625.079590,   0.517472,   34.510784,   6.184943,   231.135406,   425.883331,   280.128937,   0.359181,   609.737732,   607.851379
-0.014888,   0.037293,   0.039153,   0.000000,   617.507935,   0.517472,   34.510784,   5.328829,   240.563339,   395.416992,   289.337158,   0.348397,   608.482117,   607.850708
-0.015091,   0.036513,   0.038233,   0.000000,   608.769226,   0.517472,   34.510784,   4.472716,   252.433075,   361.213226,   297.007019,   0.337347,   606.345459,   606.301331
-0.011556,   0.028205,   0.028864,   0.000000,   578.534973,   0.522564,   35.259705,   54.819710,   263.103271,   317.594757,   -286.895142,   0.335204,   577.456482,   577.447449
-0.011786,   0.030020,   0.030970,   0.000000,   593.051208,   0.522564,   35.259705,   53.939720,   251.625961,   358.992065,   -282.690125,   0.348248,   584.465820,   583.871399
-0.011795,   0.031198,   0.032339,   0.000000,   603.065735,   0.522564,   35.259705,   53.059731,   241.121277,   392.484100,   -276.077637,   0.358948,   588.390625,   586.603516
-0.011789,   0.032122,   0.033404,   0.000000,   610.852478,   0.522564,   35.259705,   52.179741,   231.314590,   421.609344,   -268.001770,   0.368296,   590.941040,   587.557434
-0.011730,   0.033008,   0.034418,   0.000000,   617.869690,   0.522564,   35.259705,   51.299751,   223.203094,   448.048981,   -258.887146,   0.377330,   592.983337,   587.540894
-0.011647,   0.033743,   0.035253,   0.000000,   623.634888,   0.522565,   35.259705,   50.419762,   216.110291,   471.309509,   -249.151245,   0.385553,   594.315186,   586.540222
-0.011515,   0.034330,   0.035918,   0.000000,   628.370483,   0.522564,   35.259705,   49.539768,   210.022232,   491.794342,   -239.032196,   0.393137,   595.056641,   584.728699
-0.011349,   0.034882,   0.036546,   0.000000,   632.718506,   0.522564,   35.259705,   48.659779,   205.124054,   510.468231,   -228.634079,   0.400474,   595.621521,   582.438354
-0.011158,   0.035355,   0.037088,   0.000000,   636.480591,   0.522564,   35.259705,   47.779793,   201.112717,   527.059875,   -218.261887,   0.407290,   595.948608,   579.759705
-0.010950,   0.035773,   0.037571,   0.000000,   639.822021,   0.522564,   35.259705,   46.899803,   197.856812,   542.001526,   -207.926071,   0.413699,   596.132568,   576.793640
-0.010714,   0.036145,   0.038012,   0.000000,   642.868042,   0.522564,   35.259705,   46.019814,   195.399399,   555.500916,   -197.722168,   0.419799,   596.238037,   573.595154
-0.010457,   0.036471,   0.038409,   0.000000,   645.661072,   0.522565,   35.259705,   45.139820,   193.633698,   567.786743,   -187.620178,   0.425658,   596.269348,   570.159912
-0.010179,   0.036746,   0.038758,   0.000000,   648.185303,   0.522564,   35.259705,   44.259830,   192.402878,   578.944275,   -177.648056,   0.431241,   596.222473,   566.531250
-0.009872,   0.036978,   0.039071,   0.000000,   650.576050,   0.522564,   35.259705,   43.379841,   191.863358,   589.218140,   -167.766693,   0.436747,   596.135193,   562.631592
-0.009549,   0.037159,   0.039335,   0.000000,   652.770752,   0.522564,   35.259705,   42.499851,   191.783768,   598.715454,   -157.856827,   0.442140,   595.964478,   558.447693
-0.009205,   0.037271,   0.039530,   0.000000,   654.721558,   0.522564,   35.259705,   41.619862,   192.132172,   607.400879,   -147.952881,   0.447416,   595.667297,   553.947266
-0.008849,   0.037336,   0.039680,   0.000000,   656.510071,   0.522565,   35.259705,   40.739872,   192.901840,   615.417480,   -138.024826,   0.452608,   595.304260,   549.163574
-0.008491,   0.037360,   0.039788,   0.000000,   658.145569,   0.522564,   35.259705,   39.859882,   194.053406,   622.802307,   -128.072418,   0.457709,   594.886719,   544.114624
-0.008139,   0.037355,   0.039867,   0.000000,   659.654968,   0.522564,   35.259705,   38.979893,   195.531967,   629.676758,   -117.955849,   0.462747,   594.427795,   538.784790
-0.007793,   0.037325,   0.039920,   0.000000,   661.071655,   0.522564,   35.259705,   38.099903,   197.307861,   636.056396,   -107.708679,   0.467679,   593.971924,   533.253601
-0.007458,   0.037269,   0.039944,   0.000000,   662.300720,   0.522564,   35.259705,   37.219910,   199.314301,   641.829529,   -97.354393,   0.472462,   593.446838,   527.506714
-0.007143,   0.037198,   0.039950,   0.000000,   663.434753,   0.522565,   35.259705,   36.339920,   201.516510,   647.092041,   -86.885010,   0.477058,   592.945435,   521.684875
-0.006855,   0.037127,   0.039950,   0.000000,   664.469055,   0.522565,   35.259705,   35.459930,   203.806824,   651.822815,   -76.325859,   0.481377,   592.487305,   515.936951
-0.006599,   0.037062,   0.039951,   0.000000,   665.316406,   0.522564,   35.259705,   34.579941,   206.057922,   655.932373,   -65.648323,   0.485346,   592.010315,   510.343750
-0.006377,   0.037006,   0.039955,   0.000000,   665.878601,   0.522564,   35.259705,   33.699951,   208.125137,   659.306274,   -54.849800,   0.488876,   591.445801,   505.026672
-0.006192,   0.036959,   0.039959,   0.000000,   666.398743,   0.522564,   35.259705,   32.819962,   209.979401,   662.154297,   -44.014156,   0.491875,   591.026733,   500.387878
-0.006044,   0.036923,   0.039965,   0.000000,   666.701721,   0.522564,   35.259705,   31.939970,   211.564392,   664.295532,   -33.093174,   0.494345,   590.586365,   496.360565
-0.005940,   0.036898,   0.039971,   0.000000,   666.754089,   0.522564,   35.259705,   31.059980,   212.766983,   665.675903,   -22.124403,   0.496204,   590.109131,   493.130310
-0.005876,   0.036882,   0.039975,   0.000000,   666.790344,   0.522564,   35.259705,   30.179991,   213.497360,   666.520264,   -11.064258,   0.497330,   589.828186,   491.147125
-0.005855,   0.036877,   0.039976,   0.000000,   666.773254,   0.522564,   35.259705,   29.299999,   213.737518,   666.773254,   -0.000002,   0.497710,   589.708252,   490.451569
-0.005876,   0.036882,   0.039975,   0.000000,   666.790344,   0.522564,   35.259705,   28.420010,   213.497375,   666.520264,   11.064251,   0.497330,   589.828186,   491.147125
-0.005940,   0.036898,   0.039971,   0.000000,   666.754089,   0.522564,   35.259705,   27.540020,   212.766983,   665.675903,   22.124393,   0.496204,   590.109131,   493.130310
-0.006044,   0.036923,   0.039965,   0.000000,   666.701660,   0.522564,   35.259705,   26.660030,   211.564362,   664.295471,   33.093174,   0.494345,   590.586304,   496.360504
-0.006192,   0.036959,   0.039959,   0.000000,   666.398743,   0.522564,   35.259705,   25.780041,   209.979385,   662.154297,   44.014160,   0.491875,   591.026794,   500.387878
-0.006377,   0.037006,   0.039955,   0.000000,   665.878601,   0.522564,   35.259705,   24.900049,   208.125137,   659.306274,   54.849812,   0.488876,   591.445801,   505.026672
-0.006599,   0.037062,   0.039951,   0.000000,   665.316345,   0.522564,   35.259705,   24.020060,   206.057907,   655.932312,   65.648346,   0.485346,   592.010254,   510.343781
-0.006855,   0.037127,   0.039950,   0.000000,   664.468994,   0.522564,   35.259705,   23.140070,   203.806763,   651.822754,   76.325859,   0.481377,   592.487244,   515.936951
-0.007143,   0.037198,   0.039950,   0.000000,   663.434753,   0.522564,   35.259705,   22.260080,   201.516571,   647.092041,   86.885025,   0.477058,   592.945435,   521.684814
-0.007458,   0.037269,   0.039944,   0.000000,   662.300720,   0.522564,   35.259705,   21.380089,   199.314301,   641.829529,   97.354385,   0.472462,   593.446838,   527.506714
-0.007793,   0.037325,   0.039920,   0.000000,   661.071594,   0.522564,   35.259705,   20.500099,   197.307846,   636.056396,   107.708664,   0.467679,   593.971924,   533.253540
-0.008139,   0.037355,   0.039867,   0.000000,   659.654968,   0.522564,   35.259705,   19.620110,   195.531967,   629.676758,   117.955856,   0.462747,   594.427795,   538.784790
-0.008491,   0.037360,   0.039788,   0.000000,   658.145508,   0.522564,   35.259705,   18.740120,   194.053391,   622.802246,   128.072418,   0.457709,   594.886658,   544.114563
-0.008849,   0.037336,   0.039680,   0.000000,   656.510010,   0.522564,   35.259705,   17.860130,   192.901779,   615.417480,   138.024811,   0.452608,   595.304321,   549.163635
-0.009205,   0.037271,   0.039530,   0.000000,   654.721558,   0.522564,   35.259705,   16.980139,   192.132187,   607.400879,   147.952866,   0.447416,   595.667236,   553.947266
-0.009549,   0.037159,   0.039335,   0.000000,   652.770691,   0.522563,   35.259705,   16.100149,   191.783783,   598.715393,   157.856812,   0.442140,   595.964417,   558.447571
-0.009872,   0.036978,   0.039071,   0.000000,   650.576050,   0.522564,   35.259705,   15.220160,   191.863342,   589.218140,   167.766678,   0.436747,   596.135193,   562.631592
-0.010179,   0.036746,   0.038758,   0.000000,   648.185242,   0.522564,   35.259705,   14.340169,   192.402863,   578.944214,   177.648056,   0.431241,   596.222473,   566.531189
-0.010457,   0.036471,   0.038409,   0.000000,   645.661072,   0.522564,   35.259705,   13.460179,   193.633667,   567.786743,   187.620148,   0.425658,   596.269348,   570.159851
-0.010714,   0.036145,   0.038012,   0.000000,   642.868042,   0.522564,   35.259705,   12.580190,   195.399414,   555.500916,   197.722122,   0.419799,   596.238037,   573.595032
-0.010950,   0.035773,   0.037571,   0.000000,   639.822021,   0.522564,   35.259705,   11.700199,   197.856857,   542.001587,   207.926025,   0.413699,   596.132507,   576.793518
-0.011158,   0.035355,   0.037088,   0.000000,   636.480591,   0.522564,   35.259705,   10.820210,   201.112732,   527.059937,   218.261841,   0.407291,   595.948608,   579.759521
-0.011348,   0.034882,   0.036546,   0.000000,   632.718506,   0.522564,   35.259705,   9.940220,   205.124054,   510.468262,   228.634033,   0.400474,   595.621521,   582.438354
-0.011515,   0.034330,   0.035918,   0.000000,   628.370483,   0.522564,   35.259705,   9.060229,   210.022217,   491.794342,   239.032181,   0.393137,   595.056641,   584.728760
-0.011647,   0.033743,   0.035253,   0.000000,   623.634827,   0.522564,   35.259705,   8.180239,   216.110214,   471.309448,   249.151245,   0.385553,   594.315125,   586.540222
-0.011730,   0.033008,   0.034418,   0.000000,   617.869629,   0.522564,   35.259705,   7.300249,   223.203049,   448.048920,   258.887146,   0.377330,   592.983337,   587.540894
-0.011789,   0.032122,   0.033404,   0.000000,   610.852356,   0.522564,   35.259705,   6.420259,   231.314514,   421.609192,   268.001770,   0.368296,   590.940979,   587.557373
-0.011795,   0.031198,   0.032339,   0.000000,   603.065613,   0.522564,   35.259705,   5.540269,   241.121231,   392.483978,   276.077606,   0.358948,   588.390564,   586.603333
-0.011786,   0.030019,   0.030970,   0.000000,   593.051086,   0.522564,   35.259705,   4.660279,   251.625946,   358.991974,   282.690033,   0.348249,   584.465698,   583.871216
-0.011556,   0.028205,   0.028864,   0.000000,   578.534790,   0.522564,   35.259705,   3.780289,   263.103210,   317.594574,   286.895050,   0.335204,   577.456299,   577.447205
-0.008703,   0.021437,   0.021285,   0.000000,   549.662231,   0.537509,   36.001991,   55.549416,   266.567444,   284.791687,   -273.831085,   0.334878,   548.815735,   548.809814
-0.009327,   0.023584,   0.023738,   0.000000,   564.781921,   0.537508,   36.001991,   54.644264,   254.313263,   321.453156,   -274.856262,   0.343104,   559.370605,   559.127869
-0.009634,   0.025330,   0.025745,   0.000000,   578.572754,   0.537508,   36.001991,   53.739113,   244.008499,   358.854095,   -271.127289,   0.354530,   566.818298,   565.645508
-0.009827,   0.026776,   0.027404,   0.000000,   589.666443,   0.537509,   36.001991,   52.833961,   234.882736,   391.494934,   -265.156616,   0.364898,   572.194763,   569.536072
-0.009934,   0.027891,   0.028677,   0.000000,   598.247131,   0.537508,   36.001991,   51.928806,   226.429321,   419.798340,   -257.585785,   0.374131,   575.758240,   571.234314
-0.009994,   0.028943,   0.029874,   0.000000,   605.791687,   0.537509,   36.001991,   51.023655,   219.017044,   445.361176,   -249.099289,   0.382667,   578.726807,   571.997986
-0.010004,   0.029876,   0.030935,   0.000000,   612.366394,   0.537509,   36.001991,   50.118504,   213.077728,   468.108704,   -240.000931,   0.390798,   581.021240,   571.743774
-0.009965,   0.030646,   0.031808,   0.000000,   617.882996,   0.537508,   36.001991,   49.213352,   208.111984,   488.299133,   -230.433716,   0.398449,   582.601746,   570.512695
-0.009874,   0.031353,   0.032616,   0.000000,   622.915955,   0.537508,   36.001991,   48.308201,   204.352371,   506.571991,   -220.674744,   0.405843,   583.907471,   568.698059
-0.009736,   0.031968,   0.033327,   0.000000,   627.419373,   0.537509,   36.001991,   47.403046,   201.556427,   523.106323,   -210.767792,   0.412989,   584.892273,   566.275391
-0.009545,   0.032472,   0.033922,   0.000000,   631.361816,   0.537508,   36.001991,   46.497894,   199.650696,   537.847534,   -200.925751,   0.419830,   585.552856,   563.298401
-0.009318,   0.032899,   0.034438,   0.000000,   634.905762,   0.537509,   36.001991,   45.592743,   198.458313,   551.225769,   -191.107117,   0.426435,   586.008545,   559.874451
-0.009045,   0.033237,   0.034866,   0.000000,   638.069519,   0.537508,   36.001991,   44.687592,   197.926743,   563.361023,   -181.335052,   0.432854,   586.253906,   555.988586
-0.008734,   0.033488,   0.035207,   0.000000,   640.878113,   0.537509,   36.001991,   43.782436,   197.983902,   574.387634,   -171.604874,   0.439124,   586.296814,   551.636963
-0.008394,   0.033658,   0.035467,   0.000000,   643.328247,   0.537508,   36.001991,   42.877285,   198.423172,   584.412354,   -161.901184,   0.445177,   586.160889,   546.905212
-0.008030,   0.033757,   0.035656,   0.000000,   645.501038,   0.537508,   36.001991,   41.972134,   199.296997,   593.627258,   -152.139084,   0.451138,   585.869751,   541.729553
-0.007651,   0.033784,   0.035773,   0.000000,   647.379639,   0.537510,   36.001991,   41.066982,   200.513336,   602.024963,   -142.363876,   0.456951,   585.429810,   536.166260
-0.007267,   0.033762,   0.035838,   0.000000,   649.039246,   0.537508,   36.001991,   40.161827,   202.039886,   609.779846,   -132.472351,   0.462661,   584.891846,   530.226624
-0.006882,   0.033690,   0.035851,   0.000000,   650.469543,   0.537508,   36.001991,   39.256676,   203.812073,   616.918640,   -122.416382,   0.468252,   584.251526,   523.920959
-0.006501,   0.033566,   0.035808,   0.000000,   651.657715,   0.537509,   36.001991,   38.351524,   205.844345,   623.426514,   -112.186714,   0.473741,   583.490601,   517.215393
-0.006135,   0.033412,   0.035730,   0.000000,   652.658630,   0.537508,   36.001991,   37.446369,   208.123367,   629.339844,   -101.813606,   0.479097,   582.667725,   510.197449
-0.005791,   0.033246,   0.035634,   0.000000,   653.521179,   0.537508,   36.001991,   36.541222,   210.578690,   634.719727,   -91.257607,   0.484267,   581.840149,   502.986176
-0.005475,   0.033078,   0.035531,   0.000000,   654.237549,   0.537511,   36.001991,   35.636066,   213.107254,   639.558777,   -80.468864,   0.489180,   581.017395,   495.703400
-0.005192,   0.032917,   0.035429,   0.000000,   654.662598,   0.537508,   36.001991,   34.730915,   215.598663,   643.679077,   -69.444061,   0.493767,   580.083313,   488.383850
-0.004946,   0.032770,   0.035335,   0.000000,   655.027588,   0.537508,   36.001991,   33.825764,   218.003082,   647.260010,   -58.263462,   0.497907,   579.266846,   481.462524
-0.004741,   0.032645,   0.035255,   0.000000,   655.120361,   0.537509,   36.001991,   32.920609,   220.195541,   650.063904,   -46.895424,   0.501548,   578.381836,   474.952637
-0.004578,   0.032544,   0.035191,   0.000000,   655.086914,   0.537509,   36.001991,   32.015457,   222.081955,   652.200378,   -35.353725,   0.504570,   577.575500,   469.277344
-0.004461,   0.032470,   0.035145,   0.000000,   655.010620,   0.537509,   36.001991,   31.110304,   223.478806,   653.710571,   -23.685499,   0.506796,   576.951294,   464.942261
-0.004390,   0.032426,   0.035119,   0.000000,   654.701111,   0.537508,   36.001991,   30.205153,   224.397324,   654.371826,   -11.903675,   0.508266,   576.317993,   461.836578
-0.004366,   0.032411,   0.035109,   0.000000,   654.711853,   0.537509,   36.001991,   29.300001,   224.733719,   654.711853,   -0.000004,   0.508754,   576.209167,   460.877289
-0.004390,   0.032426,   0.035119,   0.000000,   654.701111,   0.537509,   36.001991,   28.394848,   224.397339,   654.371826,   11.903673,   0.508266,   576.317993,   461.836578
-0.004461,   0.032470,   0.035144,   0.000000,   655.010620,   0.537508,   36.001991,   27.489697,   223.478775,   653.710571,   23.685495,   0.506796,   576.951294,   464.942261
-0.004578,   0.032544,   0.035191,   0.000000,   655.086914,   0.537509,   36.001991,   26.584543,   222.081955,   652.200378,   35.353725,   0.504570,   577.575500,   469.277344
-0.004741,   0.032645,   0.035255,   0.000000,   655.120300,   0.537508,   36.001991,   25.679390,   220.195480,   650.063843,   46.895416,   0.501548,   578.381775,   474.952637
-0.004946,   0.032770,   0.035335,   0.000000,   655.027588,   0.537509,   36.001991,   24.774239,   218.003082,   647.260010,   58.263454,   0.497907,   579.266846,   481.462524
-0.005192,   0.032917,   0.035429,   0.000000,   654.662598,   0.537509,   36.001991,   23.869085,   215.598679,   643.679016,   69.444084,   0.493767,   580.083252,   488.383698
-0.005475,   0.033078,   0.035531,   0.000000,   654.237488,   0.537508,   36.001991,   22.963934,   213.107254,   639.558716,   80.468857,   0.489180,   581.017334,   495.703400
-0.005791,   0.033246,   0.035634,   0.000000,   653.521118,   0.537509,   36.001991,   22.058783,   210.578690,   634.719666,   91.257607,   0.484267,   581.840088,   502.986176
-0.006135,   0.033412,   0.035730,   0.000000,   652.658630,   0.537509,   36.001991,   21.153629,   208.123367,   629.339844,   101.813606,   0.479097,   582.667725,   510.197449
-0.006501,   0.033566,   0.035808,   0.000000,   651.657715,   0.537508,   36.001991,   20.248476,   205.844299,   623.426514,   112.186707,   0.473741,   583.490601,   517.215393
-0.006882,   0.033690,   0.035851,   0.000000,   650.469543,   0.537509,   36.001991,   19.343325,   203.812057,   616.918640,   122.416382,   0.468252,   584.251526,   523.920959
-0.007267,   0.033762,   0.035838,   0.000000,   649.039246,   0.537509,   36.001991,   18.438171,   202.039886,   609.779846,   132.472366,   0.462661,   584.891907,   530.226624
-0.007651,   0.033784,   0.035773,   0.000000,   647.379639,   0.537508,   36.001991,   17.533020,   200.513336,   602.024963,   142.363876,   0.456951,   585.429810,   536.166260
-0.008030,   0.033757,   0.035656,   0.000000,   645.500977,   0.537509,   36.001991,   16.627869,   199.296997,   593.627197,   152.139069,   0.451138,   585.869690,   541.729370
-0.008394,   0.033658,   0.035467,   0.000000,   643.328247,   0.537508,   36.001991,   15.722715,   198.423187,   584.412354,   161.901184,   0.445177,   586.160889,   546.905151
-0.008734,   0.033488,   0.035207,   0.000000,   640.877991,   0.537509,   36.001991,   14.817563,   197.983871,   574.387573,   171.604858,   0.439124,   586.296753,   551.636902
-0.009045,   0.033237,   0.034866,   0.000000,   638.069519,   0.537509,   36.001991,   13.912411,   197.926758,   563.361023,   181.335037,   0.432854,   586.253906,   555.988586
-0.009318,   0.032899,   0.034438,   0.000000,   634.905823,   0.537508,   36.001991,   13.007258,   198.458359,   551.225830,   191.107071,   0.426435,   586.008545,   559.874512
-0.009545,   0.032472,   0.033922,   0.000000,   631.361755,   0.537509,   36.001991,   12.102106,   199.650696,   537.847534,   200.925705,   0.419830,   585.552856,   563.298340
-0.009736,   0.031968,   0.033327,   0.000000,   627.419312,   0.537509,   36.001991,   11.196954,   201.556427,   523.106323,   210.767746,   0.412989,   584.892212,   566.275269
-0.009874,   0.031353,   0.032616,   0.000000,   622.915955,   0.537509,   36.001991,   10.291800,   204.352341,   506.572021,   220.674713,   0.405843,   583.907410,   568.697998
-0.009965,   0.030646,   0.031808,   0.000000,   617.882935,   0.537508,   36.001991,   9.386649,   208.111954,   488.299133,   230.433716,   0.398449,   582.601746,   570.512695
-0.010004,   0.029876,   0.030935,   0.000000,   612.366333,   0.537509,   36.001991,   8.481497,   213.077652,   468.108643,   240.000961,   0.390798,   581.021240,   571.743774
-0.009994,   0.028943,   0.029874,   0.000000,   605.791687,   0.537509,   36.001991,   7.576344,   219.016983,   445.361145,   249.099304,   0.382667,   578.726807,   571.998047
-0.009934,   0.027891,   0.028677,   0.000000,   598.247070,   0.537509,   36.001991,   6.671192,   226.429214,   419.798248,   257.585815,   0.374131,   575.758240,   571.234314
-0.009827,   0.026776,   0.027404,   0.000000,   589.666382,   0.537509,   36.001991,   5.766040,   234.882660,   391.494843,   265.156616,   0.364898,   572.194702,   569.536072
-0.009634,   0.025330,   0.025745,   0.000000,   578.572693,   0.537509,   36.001991,   4.860888,   244.008392,   358.854065,   271.127289,   0.354530,   566.818298,   565.645569
-0.009327,   0.023584,   0.023738,   0.000000,   564.781860,   0.537509,   36.001991,   3.955735,   254.313065,   321.453125,   274.856293,   0.343104,   559.370605,   559.127869
-0.008703,   0.021437,   0.021285,   0.000000,   549.662231,   0.537509,   36.001991,   3.050583,   266.567352,   284.791840,   273.831085,   0.334878,   548.815735,   548.809875
-0.006756,   0.016674,   0.016015,   -0.187414,   525.515198,   0.552449,   36.744282,   56.279121,   258.002167,   267.325623,   -262.809967,   0.333155,   525.608948,   525.608887
-0.007543,   0.018698,   0.018290,   0.000000,   538.832275,   0.552447,   36.744282,   55.348808,   248.612610,   293.495605,   -266.836121,   0.336378,   537.201782,   537.179260
-0.008087,   0.020577,   0.020420,   0.000000,   553.308655,   0.552447,   36.744282,   54.418495,   238.514954,   328.008514,   -266.313873,   0.345344,   546.821045,   546.461670
-0.008398,   0.022211,   0.022276,   0.000000,   566.550598,   0.552449,   36.744282,   53.488178,   230.475815,   361.938049,   -262.231049,   0.356400,   554.071899,   552.711304
-0.008626,   0.023681,   0.023945,   0.000000,   577.985107,   0.552447,   36.744282,   52.557865,   223.416214,   392.840973,   -256.215424,   0.366930,   559.831055,   556.876343
-0.008809,   0.024935,   0.025364,   0.000000,   587.362854,   0.552448,   36.744282,   51.627552,   216.656021,   420.374817,   -248.804352,   0.376382,   564.171021,   559.220398
-0.008940,   0.026145,   0.026734,   0.000000,   595.902039,   0.552448,   36.744282,   50.697235,   211.638000,   444.982819,   -240.817032,   0.385353,   567.982056,   560.610535
-0.008994,   0.027230,   0.027966,   0.000000,   603.522034,   0.552448,   36.744282,   49.766922,   208.067017,   467.119690,   -232.252029,   0.394105,   571.072266,   560.821838
-0.008965,   0.028113,   0.028974,   0.000000,   610.043396,   0.552447,   36.744282,   48.836605,   205.699814,   486.810181,   -223.223129,   0.402662,   573.276062,   559.697815
-0.008861,   0.028872,   0.029852,   0.000000,   615.813538,   0.552449,   36.744282,   47.906292,   204.212997,   504.573639,   -213.977539,   0.410896,   574.992310,   557.704163
-0.008683,   0.029507,   0.030602,   0.000000,   620.990356,   0.552447,   36.744282,   46.975975,   203.760132,   520.688477,   -204.570190,   0.419045,   576.269043,   554.794739
-0.008441,   0.030000,   0.031205,   0.000000,   625.480530,   0.552448,   36.744282,   46.045662,   203.986664,   535.179077,   -195.093628,   0.426944,   577.098206,   551.053284
-0.008136,   0.030359,   0.031670,   0.000000,   629.351501,   0.552447,   36.744282,   45.115349,   204.793488,   548.237427,   -185.573746,   0.434627,   577.531006,   546.530212
-0.007786,   0.030600,   0.032015,   0.000000,   632.658203,   0.552450,   36.744282,   44.185036,   205.995132,   560.033936,   -176.028641,   0.442047,   577.638245,   541.345154
-0.007400,   0.030737,   0.032251,   0.000000,   635.461121,   0.552447,   36.744282,   43.254719,   207.508301,   570.736206,   -166.430756,   0.449231,   577.463928,   535.544006
-0.006991,   0.030780,   0.032393,   0.000000,   637.808167,   0.552448,   36.744282,   42.324406,   209.252228,   580.472717,   -156.752869,   0.456187,   577.047852,   529.179688
-0.006564,   0.030738,   0.032445,   0.000000,   639.729797,   0.552448,   36.744282,   41.394089,   211.188477,   589.311951,   -146.990219,   0.462921,   576.412720,   522.286133
-0.006131,   0.030624,   0.032422,   0.000000,   641.282593,   0.552447,   36.744282,   40.463776,   213.284851,   597.376282,   -137.083160,   0.469460,   575.597839,   514.888428
-0.005704,   0.030451,   0.032333,   0.000000,   642.489014,   0.552448,   36.744282,   39.533463,   215.509003,   604.676880,   -127.063087,   0.475776,   574.630371,   507.055450
-0.005287,   0.030233,   0.032194,   0.000000,   643.423035,   0.552448,   36.744282,   38.603146,   217.882858,   611.339233,   -116.845856,   0.481918,   573.556519,   498.783386
-0.004889,   0.029984,   0.032018,   0.000000,   644.121399,   0.552448,   36.744282,   37.672832,   220.402420,   617.384827,   -106.436783,   0.487870,   572.411133,   490.127625
-0.004518,   0.029718,   0.031818,   0.000000,   644.557861,   0.552447,   36.744282,   36.742519,   223.023239,   622.800842,   -95.767159,   0.493621,   571.170105,   481.090332
-0.004177,   0.029447,   0.031605,   0.000000,   644.777832,   0.552450,   36.744282,   35.812202,   225.709518,   627.616516,   -84.804192,   0.499126,   569.880249,   471.788116
-0.003872,   0.029184,   0.031393,   0.000000,   644.805054,   0.552447,   36.744282,   34.881889,   228.428207,   631.818909,   -73.533188,   0.504335,   568.569031,   462.352112
-0.003607,   0.028942,   0.031196,   0.000000,   644.569641,   0.552448,   36.744282,   33.951572,   231.070923,   635.290894,   -61.941467,   0.509157,   567.187134,   452.945984
-0.003385,   0.028731,   0.031023,   0.000000,   644.253174,   0.552448,   36.744282,   33.021259,   233.502121,   638.150940,   -50.064991,   0.513410,   565.923828,   444.145233
-0.003210,   0.028560,   0.030882,   0.000000,   643.673035,   0.552448,   36.744282,   32.090942,   235.602982,   640.153748,   -37.896217,   0.517022,   564.616516,   436.111328
-0.003083,   0.028433,   0.030777,   0.000000,   643.218933,   0.552448,   36.744282,   31.160629,   237.272644,   641.622620,   -25.455961,   0.519780,   563.633240,   429.734863
-0.003006,   0.028355,   0.030715,   0.000000,   642.645142,   0.552448,   36.744282,   30.230314,   238.321777,   642.238892,   -12.816292,   0.521571,   562.762207,   425.292786
-0.002980,   0.028329,   0.030694,   0.000000,   642.437317,   0.552448,   36.744282,   29.299999,   238.665176,   642.437317,   -0.000003,   0.522174,   562.458313,   423.766693
-0.003006,   0.028355,   0.030715,   0.000000,   642.645142,   0.552448,   36.744282,   28.369686,   238.321747,   642.238892,   12.816288,   0.521571,   562.762207,   425.292786
-0.003083,   0.028433,   0.030777,   0.000000,   643.218933,   0.552448,   36.744282,   27.439371,   237.272659,   641.622620,   25.455963,   0.519780,   563.633240,   429.734863
-0.003210,   0.028560,   0.030882,   0.000000,   643.673035,   0.552448,   36.744282,   26.509056,   235.602966,   640.153748,   37.896214,   0.517022,   564.616516,   436.111328
-0.003385,   0.028731,   0.031023,   0.000000,   644.253174,   0.552448,   36.744282,   25.578741,   233.502167,   638.150940,   50.064999,   0.513410,   565.923828,   444.145233
-0.003607,   0.028942,   0.031196,   0.000000,   644.569580,   0.552448,   36.744282,   24.648426,   231.070892,   635.290833,   61.941456,   0.509157,   567.187073,   452.945953
-0.003872,   0.029184,   0.031393,   0.000000,   644.805054,   0.552448,   36.744282,   23.718113,   228.428207,   631.818909,   73.533211,   0.504335,   568.569031,   462.352112
-0.004177,   0.029447,   0.031605,   0.000000,   644.777832,   0.552448,   36.744282,   22.787798,   225.709518,   627.616516,   84.804199,   0.499126,   569.880249,   471.788116
-0.004518,   0.029718,   0.031818,   0.000000,   644.557861,   0.552448,   36.744282,   21.857483,   223.023224,   622.800842,   95.767159,   0.493621,   571.170105,   481.090332
-0.004889,   0.029984,   0.032018,   0.000000,   644.121399,   0.552448,   36.744282,   20.927168,   220.402344,   617.384827,   106.436775,   0.487870,   572.411133,   490.127716
-0.005287,   0.030233,   0.032194,   0.000000,   643.423035,   0.552448,   36.744282,   19.996855,   217.882889,   611.339233,   116.845856,   0.481918,   573.556519,   498.783386
-0.005704,   0.030451,   0.032333,   0.000000,   642.489014,   0.552448,   36.744282,   19.066540,   215.508972,   604.676880,   127.063072,   0.475776,   574.630371,   507.055389
-0.006131,   0.030624,   0.032422,   0.000000,   641.282532,   0.552448,   36.744282,   18.136225,   213.284851,   597.376221,   137.083145,   0.469460,   575.597839,   514.888245
-0.006564,   0.030738,   0.032445,   0.000000,   639.729797,   0.552448,   36.744282,   17.205910,   211.188522,   589.311951,   146.990234,   0.462921,   576.412720,   522.286072
-0.006991,   0.030780,   0.032393,   0.000000,   637.808167,   0.552448,   36.744282,   16.275597,   209.252197,   580.472717,   156.752869,   0.456187,   577.047852,   529.179749
-0.007400,   0.030737,   0.032251,   0.000000,   635.461060,   0.552448,   36.744282,   15.345281,   207.508301,   570.736206,   166.430740,   0.449231,   577.463928,   535.543945
-0.007786,   0.030600,   0.032015,   0.000000,   632.658203,   0.552448,   36.744282,   14.414967,   205.995148,   560.033936,   176.028625,   0.442047,   577.638245,   541.345154
-0.008136,   0.030359,   0.031670,   0.000000,   629.351501,   0.552448,   36.744282,   13.484652,   204.793503,   548.237488,   185.573700,   0.434627,   577.531006,   546.530212
-0.008441,   0.030000,   0.031205,   0.000000,   625.480530,   0.552448,   36.744282,   12.554337,   203.986649,   535.179077,   195.093597,   0.426944,   577.098267,   551.053406
-0.008683,   0.029507,   0.030602,   0.000000,   620.990356,   0.552448,   36.744282,   11.624022,   203.760132,   520.688538,   204.570160,   0.419045,   576.269043,   554.794617
-0.008861,   0.028872,   0.029852,   0.000000,   615.813477,   0.552448,   36.744282,   10.693707,   204.212967,   504.573639,   213.977524,   0.410896,   574.992310,   557.704102
-0.008965,   0.028113,   0.028974,   0.000000,   610.043396,   0.552448,   36.744282,   9.763393,   205.699783,   486.810150,   223.223129,   0.402662,   573.276062,   559.697815
-0.008994,   0.027230,   0.027966,   0.000000,   603.522034,   0.552448,   36.744282,   8.833078,   208.066986,   467.119629,   232.252060,   0.394105,   571.072205,   560.821838
-0.008940,   0.026145,   0.026734,   0.000000,   595.902039,   0.552448,   36.744282,   7.902764,   211.637970,   444.982788,   240.817047,   0.385353,   567.982056,   560.610596
-0.008809,   0.024935,   0.025364,   0.000000,   587.362793,   0.552448,   36.744282,   6.972449,   216.655945,   420.374725,   248.804382,   0.376382,   564.170959,   559.220398
-0.008626,   0.023681,   0.023945,   0.000000,   577.985046,   0.552448,   36.744282,   6.042135,   223.416153,   392.840881,   256.215454,   0.366930,   559.831055,   556.876343
-0.008398,   0.022211,   0.022276,   0.000000,   566.550598,   0.552448,   36.744282,   5.111820,   230.475754,   361.937988,   262.231079,   0.356400,   554.071899,   552.711304
-0.008087,   0.020577,   0.020420,   0.000000,   553.308716,   0.552448,   36.744282,   4.181505,   238.514862,   328.008545,   266.313904,   0.345344,   546.821106,   546.461609
-0.007543,   0.018698,   0.018290,   0.000000,   538.832336,   0.552448,   36.744282,   3.251191,   248.612534,   293.495728,   266.836151,   0.336378,   537.201843,   537.179321
-0.006756,   0.016674,   0.016015,   -0.187448,   525.515442,   0.552448,   36.744282,   2.320876,   258.002045,   267.325928,   262.810089,   0.333155,   525.609192,   525.609070
-0.005005,   0.012275,   0.011195,   -4.761630,   498.648407,   0.567390,   37.486568,   57.008831,   236.521286,   257.365479,   -251.489151,   0.328570,   501.046204,   500.995270
-0.005852,   0.014173,   0.013300,   -5.208791,   511.042358,   0.567390,   37.486568,   56.053352,   231.295105,   274.538452,   -257.218414,   0.328250,   513.666565,   513.607117
-0.006648,   0.016172,   0.015532,   -0.909772,   525.282776,   0.567390,   37.486568,   55.097878,   222.324814,   302.048187,   -260.059021,   0.332468,   525.738281,   525.736450
-0.007280,   0.018143,   0.017735,   0.000000,   540.466431,   0.567390,   37.486568,   54.142399,   214.740707,   334.655518,   -258.916809,   0.341628,   536.057312,   535.889954
-0.007760,   0.020017,   0.019832,   0.000000,   554.956238,   0.567390,   37.486568,   53.186924,   209.672577,   366.613495,   -255.013107,   0.352724,   544.604736,   543.663757
-0.008136,   0.021758,   0.021780,   0.000000,   567.991760,   0.567390,   37.486568,   52.231445,   205.768188,   396.488831,   -249.243668,   0.363907,   551.657837,   549.255981
-0.008396,   0.023273,   0.023478,   0.000000,   579.296082,   0.567390,   37.486568,   51.275970,   203.785263,   422.795013,   -242.420792,   0.374865,   557.160828,   552.619629
-0.008535,   0.024646,   0.025028,   0.000000,   589.537109,   0.567391,   37.486568,   50.320492,   203.574600,   446.443542,   -235.007950,   0.385714,   561.743774,   554.347656
-0.008523,   0.025800,   0.026347,   0.000000,   598.568115,   0.567389,   37.486568,   49.365013,   204.631287,   467.824677,   -226.946396,   0.396548,   565.257751,   554.236938
-0.008397,   0.026688,   0.027378,   0.000000,   606.143677,   0.567391,   37.486568,   48.409538,   206.222336,   486.958374,   -218.322556,   0.407046,   567.651855,   552.339905
-0.008174,   0.027381,   0.028207,   0.000000,   612.659973,   0.567390,   37.486568,   47.454060,   208.407944,   504.168732,   -209.422562,   0.417212,   569.315979,   549.067627
-0.007855,   0.027880,   0.028833,   0.000000,   618.187256,   0.567390,   37.486568,   46.498585,   211.075729,   519.658264,   -200.280548,   0.427102,   570.304565,   544.471436
-0.007469,   0.028203,   0.029277,   0.000000,   622.796326,   0.567390,   37.486568,   45.543106,   214.000534,   533.604065,   -190.948700,   0.436644,   570.720764,   538.716980
-0.007034,   0.028380,   0.029570,   0.000000,   626.602356,   0.567390,   37.486568,   44.587631,   217.055405,   546.188599,   -181.475128,   0.445806,   570.685120,   531.979126
-0.006564,   0.028429,   0.029731,   0.000000,   629.687866,   0.567390,   37.486568,   43.632153,   220.155548,   557.553101,   -171.876495,   0.454583,   570.271973,   524.375122
-0.006074,   0.028365,   0.029772,   0.000000,   632.101929,   0.567391,   37.486568,   42.676678,   223.208344,   567.804871,   -162.143967,   0.462967,   569.523987,   515.999207
-0.005576,   0.028209,   0.029716,   0.000000,   633.941772,   0.567389,   37.486568,   41.721199,   226.205109,   577.074585,   -152.272293,   0.470983,   568.513123,   506.939545
-0.005081,   0.027978,   0.029579,   0.000000,   635.271545,   0.567390,   37.486568,   40.765724,   229.122559,   585.445618,   -142.255966,   0.478633,   567.287537,   497.277100
-0.004600,   0.027689,   0.029377,   0.000000,   636.162537,   0.567390,   37.486568,   39.810246,   231.975159,   592.982422,   -132.109222,   0.485927,   565.899231,   487.088867
-0.004141,   0.027359,   0.029125,   0.000000,   636.685974,   0.567390,   37.486568,   38.854771,   234.771362,   599.802856,   -121.753273,   0.492906,   564.390015,   476.391693
-0.003710,   0.026999,   0.028836,   0.000000,   636.873535,   0.567391,   37.486568,   37.899292,   237.530289,   605.912231,   -111.194328,   0.499570,   562.779053,   465.227966
-0.003311,   0.026625,   0.028523,   0.000000,   636.805969,   0.567389,   37.486568,   36.943813,   240.256363,   611.396301,   -100.380287,   0.505916,   561.128601,   453.676514
-0.002950,   0.026250,   0.028199,   0.000000,   636.361511,   0.567391,   37.486568,   35.988338,   242.980042,   616.118408,   -89.237061,   0.512000,   559.308899,   441.561646
-0.002630,   0.025886,   0.027878,   0.000000,   635.734070,   0.567389,   37.486568,   35.032864,   245.687439,   620.247375,   -77.720863,   0.517751,   557.497742,   429.167419
-0.002354,   0.025548,   0.027576,   0.000000,   634.803040,   0.567391,   37.486568,   34.077385,   248.277924,   623.616394,   -65.756516,   0.523104,   555.590576,   416.591431
-0.002123,   0.025251,   0.027307,   0.000000,   633.757996,   0.567390,   37.486568,   33.121906,   250.717926,   626.317200,   -53.386581,   0.527924,   553.763611,   404.360687
-0.001942,   0.025006,   0.027084,   0.000000,   632.590027,   0.567390,   37.486568,   32.166431,   252.839554,   628.248901,   -40.602299,   0.532041,   552.018127,   393.070862
-0.001810,   0.024822,   0.026917,   0.000000,   631.380310,   0.567390,   37.486568,   31.210953,   254.496857,   629.394592,   -27.356518,   0.535274,   550.429321,   383.530609
-0.001731,   0.024709,   0.026814,   0.000000,   630.554199,   0.567390,   37.486568,   30.255476,   255.519012,   630.047913,   -13.779210,   0.537302,   549.391235,   377.259705
-0.001704,   0.024671,   0.026781,   0.000000,   629.975281,   0.567390,   37.486568,   29.299999,   255.871780,   629.975281,   -0.000003,   0.538082,   548.768005,   374.636627
-0.001731,   0.024709,   0.026814,   0.000000,   630.554199,   0.567390,   37.486568,   28.344522,   255.519012,   630.047913,   13.779205,   0.537302,   549.391235,   377.259705
-0.001810,   0.024822,   0.026917,   0.000000,   631.380310,   0.567391,   37.486568,   27.389046,   254.496872,   629.394592,   27.356524,   0.535274,   550.429321,   383.530609
-0.001942,   0.025006,   0.027084,   0.000000,   632.590027,   0.567390,   37.486568,   26.433569,   252.839539,   628.248901,   40.602306,   0.532041,   552.018127,   393.070862
-0.002123,   0.025251,   0.027307,   0.000000,   633.757996,   0.567390,   37.486568,   25.478092,   250.717880,   626.317200,   53.386570,   0.527924,   553.763611,   404.360840
-0.002354,   0.025548,   0.027576,   0.000000,   634.802979,   0.567390,   37.486568,   24.522615,   248.277924,   623.616333,   65.756523,   0.523104,   555.590515,   416.591278
-0.002630,   0.025886,   0.027878,   0.000000,   635.734070,   0.567391,   37.486568,   23.567139,   245.687454,   620.247375,   77.720879,   0.517751,   557.497742,   429.167480
-0.002950,   0.026250,   0.028199,   0.000000,   636.361511,   0.567390,   37.486568,   22.611660,   242.980026,   616.118408,   89.237083,   0.512000,   559.308960,   441.561707
-0.003311,   0.026625,   0.028523,   0.000000,   636.805908,   0.567390,   37.486568,   21.656183,   240.256332,   611.396240,   100.380287,   0.505916,   561.128601,   453.676483
-0.003710,   0.026999,   0.028836,   0.000000,   636.873474,   0.567390,   37.486568,   20.700708,   237.530304,   605.912170,   111.194336,   0.499570,   562.779053,   465.227814
-0.004141,   0.027359,   0.029125,   0.000000,   636.685974,   0.567390,   37.486568,   19.745232,   234.771347,   599.802856,   121.753258,   0.492906,   564.390015,   476.391693
-0.004600,   0.027689,   0.029377,   0.000000,   636.162537,   0.567391,   37.486568,   18.789755,   231.975204,   592.982422,   132.109222,   0.485927,   565.899231,   487.088867
-0.005081,   0.027978,   0.029579,   0.000000,   635.271484,   0.567390,   37.486568,   17.834278,   229.122513,   585.445557,   142.255951,   0.478633,   567.287537,   497.277161
-0.005576,   0.028209,   0.029716,   0.000000,   633.941772,   0.567390,   37.486568,   16.878801,   226.205109,   577.074524,   152.272308,   0.470983,   568.513062,   506.939423
-0.006074,   0.028365,   0.029772,   0.000000,   632.101929,   0.567390,   37.486568,   15.923324,   223.208359,   567.804871,   162.143951,   0.462967,   569.523987,   515.999084
-0.006564,   0.028429,   0.029731,   0.000000,   629.687866,   0.567390,   37.486568,   14.967846,   220.155533,   557.553101,   171.876465,   0.454584,   570.271912,   524.375061
-0.007034,   0.028380,   0.029570,   0.000000,   626.602356,   0.567390,   37.486568,   14.012369,   217.055435,   546.188599,   181.475098,   0.445806,   570.685120,   531.979126
-0.007469,   0.028203,   0.029277,   0.000000,   622.796265,   0.567390,   37.486568,   13.056892,   214.000519,   533.604065,   190.948685,   0.436644,   570.720764,   538.716919
-0.007855,   0.027880,   0.028833,   0.000000,   618.187256,   0.567390,   37.486568,   12.101416,   211.075745,   519.658264,   200.280533,   0.427102,   570.304565,   544.471436
-0.008174,   0.027381,   0.028207,   0.000000,   612.659973,   0.567390,   37.486568,   11.145939,   208.407928,   504.168732,   209.422546,   0.417212,   569.315918,   549.067627
-0.008397,   0.026688,   0.027378,   0.000000,   606.143677,   0.567390,   37.486568,   10.190462,   206.222321,   486.958374,   218.322556,   0.407046,   567.651855,   552.339966
-0.008523,   0.025800,   0.026347,   0.000000,   598.568115,   0.567390,   37.486568,   9.234985,   204.631241,   467.824646,   226.946411,   0.396548,   565.257751,   554.236938
-0.008535,   0.024646,   0.025028,   0.000000,   589.537048,   0.567390,   37.486568,   8.279508,   203.574585,   446.443481,   235.007980,   0.385714,   561.743774,   554.347717
-0.008396,   0.023273,   0.023478,   0.000000,   579.296021,   0.567390,   37.486568,   7.324031,   203.785248,   422.794952,   242.420807,   0.374865,   557.160828,   552.619629
-0.008136,   0.021758,   0.021780,   0.000000,   567.991760,   0.567390,   37.486568,   6.368554,   205.768143,   396.488770,   249.243698,   0.363907,   551.657837,   549.255920
-0.007760,   0.020017,   0.019832,   0.000000,   554.956238,   0.567390,   37.486568,   5.413077,   209.672592,   366.613403,   255.013123,   0.352724,   544.604675,   543.663696
-0.007280,   0.018143,   0.017735,   0.000000,   540.466431,   0.567390,   37.486568,   4.457601,   214.740677,   334.655518,   258.916809,   0.341628,   536.057312,   535.889954
-0.006648,   0.016172,   0.015532,   -0.909641,   525.282837,   0.567390,   37.486568,   3.502124,   222.324921,   302.048279,   260.058990,   0.332468,   525.738281,   525.736511
-0.005852,   0.014173,   0.013300,   -5.208575,   511.042450,   0.567390,   37.486568,   2.546647,   231.295288,   274.538574,   257.218353,   0.328250,   513.666504,   513.607117
-0.005005,   0.012275,   0.011195,   -4.761637,   498.648407,   0.567390,   37.486568,   1.591170,   236.521301,   257.365479,   251.489166,   0.328570,   501.046204,   500.995300
-0.002607,   0.006285,   0.004689,   -16.454781,   448.549652,   0.582331,   38.228855,   57.738537,   184.561310,   247.533569,   -230.360382,   0.315168,   456.999298,   456.332031
-0.003938,   0.008865,   0.007521,   -25.737976,   467.067169,   0.582333,   38.228855,   56.757896,   177.642471,   263.686707,   -242.617645,   0.306189,   480.453461,   478.898712
-0.005411,   0.011698,   0.010651,   -30.221634,   485.783325,   0.582333,   38.228855,   55.777256,   171.653763,   283.907928,   -251.823410,   0.302753,   501.577454,   499.522827
-0.006728,   0.014594,   0.013846,   -24.568697,   506.533173,   0.582332,   38.228855,   54.796619,   170.447342,   311.517120,   -256.011963,   0.309396,   519.253601,   517.943420
-0.007711,   0.017341,   0.016867,   -10.683990,   527.839478,   0.582332,   38.228855,   53.815979,   174.365631,   342.789856,   -255.754181,   0.323266,   533.261780,   533.020813
-0.008376,   0.019780,   0.019553,   0.000000,   547.199280,   0.582332,   38.228855,   52.835342,   180.038696,   373.557617,   -252.496262,   0.339195,   544.028931,   543.944336
-0.008717,   0.021812,   0.021802,   0.000000,   563.967224,   0.582333,   38.228855,   51.854702,   186.890015,   401.937286,   -247.179688,   0.355600,   551.957214,   550.695496
-0.008820,   0.023413,   0.023593,   0.000000,   577.869202,   0.582333,   38.228855,   50.874062,   193.969193,   426.981506,   -240.677765,   0.371219,   557.578125,   553.815002
-0.008733,   0.024685,   0.025041,   0.000000,   589.584412,   0.582331,   38.228855,   49.893421,   200.996262,   449.403961,   -233.393387,   0.386005,   561.651428,   554.171143
-0.008471,   0.025666,   0.026189,   0.000000,   599.598328,   0.582333,   38.228855,   48.912785,   207.994400,   470.054565,   -225.232895,   0.400400,   564.476562,   552.011780
-0.008093,   0.026331,   0.027003,   0.000000,   607.690491,   0.582333,   38.228855,   47.932144,   214.594894,   488.393219,   -216.553085,   0.413944,   566.090027,   547.605652
-0.007619,   0.026742,   0.027555,   0.000000,   614.253479,   0.582332,   38.228855,   46.951504,   220.888092,   504.803986,   -207.493713,   0.426769,   566.810669,   541.334290
-0.007079,   0.026946,   0.027892,   0.000000,   619.521729,   0.582332,   38.228855,   45.970867,   226.825333,   519.572876,   -198.115005,   0.438927,   566.835144,   533.464844
-0.006496,   0.026972,   0.028045,   0.000000,   623.650085,   0.582332,   38.228855,   44.990227,   232.401230,   532.861755,   -188.469742,   0.450459,   566.283325,   524.176941
-0.005894,   0.026855,   0.028047,   0.000000,   626.783142,   0.582333,   38.228855,   44.009590,   237.583496,   544.788818,   -178.639755,   0.461346,   565.282593,   513.696716
-0.005288,   0.026628,   0.027933,   0.000000,   629.079468,   0.582333,   38.228855,   43.028946,   242.382828,   555.533997,   -168.640976,   0.471627,   563.945801,   502.180847
-0.004692,   0.026312,   0.027725,   0.000000,   630.649292,   0.582331,   38.228855,   42.048309,   246.825943,   565.214172,   -158.478760,   0.481345,   562.340759,   489.724121
-0.004115,   0.025929,   0.027441,   0.000000,   631.579773,   0.582333,   38.228855,   41.067673,   250.905716,   573.920410,   -148.153412,   0.490509,   560.523621,   476.431519
-0.003567,   0.025494,   0.027097,   0.000000,   631.956116,   0.582332,   38.228855,   40.087032,   254.638077,   581.718323,   -137.679459,   0.499125,   558.548157,   462.407684
-0.003056,   0.025026,   0.026708,   0.000000,   631.860840,   0.582333,   38.228855,   39.106392,   258.032837,   588.701721,   -127.020042,   0.507214,   556.460754,   447.721954
-0.002586,   0.024538,   0.026288,   0.000000,   631.369019,   0.582332,   38.228855,   38.125751,   261.142731,   594.927917,   -116.152733,   0.514806,   554.299561,   432.408173
-0.002161,   0.024042,   0.025849,   0.000000,   630.506470,   0.582332,   38.228855,   37.145115,   263.970245,   600.408997,   -105.032394,   0.521906,   552.065735,   416.502716
-0.001783,   0.023552,   0.025403,   0.000000,   629.274597,   0.582333,   38.228855,   36.164474,   266.529205,   605.125916,   -93.593925,   0.528528,   549.737122,   400.002686
-0.001454,   0.023081,   0.024965,   0.000000,   627.615234,   0.582332,   38.228855,   35.183834,   268.792786,   609.007080,   -81.713005,   0.534681,   547.241760,   382.882141
-0.001176,   0.022643,   0.024550,   0.000000,   625.767761,   0.582332,   38.228855,   34.203197,   270.812927,   612.213379,   -69.362808,   0.540297,   544.778076,   365.525696
-0.000948,   0.022254,   0.024175,   0.000000,   623.823486,   0.582333,   38.228855,   33.222557,   272.537384,   614.732300,   -56.511993,   0.545257,   542.416504,   348.490356
-0.000771,   0.021932,   0.023862,   0.000000,   621.716858,   0.582332,   38.228855,   32.241917,   273.950836,   616.375488,   -43.099213,   0.549505,   540.077637,   332.223755
-0.000645,   0.021690,   0.023628,   0.000000,   619.711304,   0.582332,   38.228855,   31.261278,   274.942352,   617.256531,   -29.091650,   0.552803,   537.985046,   318.263214
-0.000569,   0.021541,   0.023482,   0.000000,   618.304749,   0.582332,   38.228855,   30.280640,   275.516876,   617.678833,   -14.648058,   0.554888,   536.562622,   308.745117
-0.000544,   0.021491,   0.023434,   0.000000,   617.503113,   0.582332,   38.228855,   29.300001,   275.689331,   617.503113,   -0.000003,   0.555681,   535.794434,   304.845551
-0.000569,   0.021541,   0.023482,   0.000000,   618.304749,   0.582333,   38.228855,   28.319361,   275.516876,   617.678833,   14.648053,   0.554888,   536.562622,   308.745117
-0.000645,   0.021690,   0.023628,   0.000000,   619.711304,   0.582332,   38.228855,   27.338722,   274.942352,   617.256531,   29.091650,   0.552803,   537.985046,   318.263214
-0.000771,   0.021932,   0.023862,   0.000000,   621.716797,   0.582332,   38.228855,   26.358082,   273.950836,   616.375427,   43.099216,   0.549505,   540.077576,   332.223480
-0.000948,   0.022254,   0.024175,   0.000000,   623.823486,   0.582332,   38.228855,   25.377443,   272.537384,   614.732300,   56.511982,   0.545257,   542.416504,   348.490326
-0.001176,   0.022643,   0.024550,   0.000000,   625.767761,   0.582332,   38.228855,   24.396805,   270.812988,   612.213379,   69.362823,   0.540297,   544.778076,   365.525574
-0.001454,   0.023081,   0.024965,   0.000000,   627.615173,   0.582332,   38.228855,   23.416164,   268.792725,   609.007019,   81.712997,   0.534681,   547.241699,   382.882111
-0.001783,   0.023552,   0.025403,   0.000000,   629.274597,   0.582333,   38.228855,   22.435526,   266.529205,   605.125916,   93.593941,   0.528528,   549.737183,   400.002686
-0.002161,   0.024042,   0.025849,   0.000000,   630.506348,   0.582332,   38.228855,   21.454885,   263.970215,   600.408936,   105.032379,   0.521906,   552.065613,   416.502899
-0.002586,   0.024538,   0.026288,   0.000000,   631.369019,   0.582332,   38.228855,   20.474247,   261.142792,   594.927917,   116.152740,   0.514806,   554.299561,   432.408203
-0.003056,   0.025026,   0.026708,   0.000000,   631.860840,   0.582332,   38.228855,   19.493608,   258.032837,   588.701721,   127.020027,   0.507214,   556.460754,   447.721924
-0.003567,   0.025494,   0.027096,   0.000000,   631.956055,   0.582333,   38.228855,   18.512968,   254.638046,   581.718262,   137.679459,   0.499125,   558.548096,   462.407654
-0.004115,   0.025929,   0.027441,   0.000000,   631.579773,   0.582332,   38.228855,   17.532330,   250.905701,   573.920410,   148.153397,   0.490509,   560.523621,   476.431488
-0.004692,   0.026312,   0.027725,   0.000000,   630.649292,   0.582333,   38.228855,   16.551691,   246.825958,   565.214172,   158.478760,   0.481345,   562.340759,   489.723969
-0.005288,   0.026628,   0.027933,   0.000000,   629.079407,   0.582333,   38.228855,   15.571051,   242.382828,   555.533936,   168.640976,   0.471627,   563.945740,   502.180725
-0.005894,   0.026855,   0.028047,   0.000000,   626.783142,   0.582332,   38.228855,   14.590412,   237.583527,   544.788818,   178.639725,   0.461346,   565.282593,   513.696655
-0.006496,   0.026972,   0.028045,   0.000000,   623.650085,   0.582332,   38.228855,   13.609773,   232.401215,   532.861755,   188.469727,   0.450459,   566.283264,   524.176941
-0.007079,   0.026946,   0.027892,   0.000000,   619.521729,   0.582332,   38.228855,   12.629134,   226.825363,   519.572876,   198.114975,   0.438927,   566.835083,   533.464661
-0.007619,   0.026742,   0.027555,   0.000000,   614.253418,   0.582332,   38.228855,   11.648495,   220.888062,   504.803955,   207.493713,   0.426769,   566.810669,   541.334290
-0.008093,   0.026331,   0.027003,   0.000000,   607.690491,   0.582332,   38.228855,   10.667855,   214.594894,   488.393219,   216.553085,   0.413944,   566.090027,   547.605652
-0.008471,   0.025666,   0.026189,   0.000000,   599.598328,   0.582332,   38.228855,   9.687216,   207.994385,   470.054535,   225.232895,   0.400400,   564.476562,   552.011719
-0.008733,   0.024685,   0.025041,   0.000000,   589.584412,   0.582332,   38.228855,   8.706576,   200.996231,   449.403900,   233.393402,   0.386005,   561.651428,   554.171143
-0.008820,   0.023413,   0.023593,   0.000000,   577.869141,   0.582332,   38.228855,   7.725937,   193.969147,   426.981445,   240.677795,   0.371219,   557.578125,   553.815002
-0.008717,   0.021812,   0.021802,   0.000000,   563.967163,   0.582332,   38.228855,   6.745298,   186.889999,   401.937195,   247.179703,   0.355600,   551.957214,   550.695435
-0.008376,   0.019780,   0.019553,   0.000000,   547.199219,   0.582332,   38.228855,   5.764659,   180.038696,   373.557526,   252.496277,   0.339195,   544.028931,   543.944336
-0.007711,   0.017341,   0.016867,   -10.684005,   527.839417,   0.582332,   38.228855,   4.784020,   174.365585,   342.789856,   255.754166,   0.323266,   533.261719,   533.020813
-0.006728,   0.014594,   0.013846,   -24.568588,   506.533203,   0.582332,   38.228855,   3.803381,   170.447433,   311.517181,   256.011932,   0.309396,   519.253601,   517.943481
-0.005411,   0.011698,   0.010651,   -30.221434,   485.783386,   0.582332,   38.228855,   2.822742,   171.653870,   283.908081,   251.823334,   0.302753,   501.577423,   499.522797
-0.003938,   0.008865,   0.007521,   -25.737906,   467.067139,   0.582332,   38.228855,   1.842103,   177.642563,   263.686676,   242.617615,   0.306189,   480.453430,   478.898682
-0.002607,   0.006285,   0.004689,   -16.454748,   448.549561,   0.582332,   38.228855,   0.861463,   184.561447,   247.533356,   230.360336,   0.315168,   456.999176,   456.331909
